LAMMPS (29 Aug 2024 - Update 1)
  using 1 OpenMP thread(s) per MPI task
package gpu 1 gpuID 0
# GCMC for CO2 molecular fluid, rigid/small/nvt dynamics
# Rigid CO2 TraPPE model
# [Potoff and J.I. Siepmann, Vapor-liquid equilibria of
# mixtures containing alkanes, carbon dioxide and
# nitrogen AIChE J., 47,1676-1682 (2001)].

# global model settings

units           real
atom_style      full
boundary        p p p
pair_style      lj/cut/coul/long  12
pair_modify     mix arithmetic shift yes
kspace_style    pppm 1.0e-4
bond_style      harmonic
angle_style     harmonic
neigh_modify    one 4000

# box, start molecules on simple cubic lattice
region          mbox block 0 ${lbox} 0 ${lbox} 0 ${lbox} units box
region          mbox block 0 115 0 ${lbox} 0 ${lbox} units box
region          mbox block 0 115 0 115 0 ${lbox} units box
region          mbox block 0 115 0 115 0 115 units box
create_box      2 mbox                                       bond/types 1                                angle/types 1                               extra/bond/per/atom 2                       extra/angle/per/atom 1                      extra/special/per/atom 2
Created orthogonal box = (0 0 0) to (115 115 115)
  1 by 1 by 1 MPI processor grid
molecule        co2mol ../CO2.txt
Read molecule template co2mol:
# CO2 molecule file. TraPPE model.
  1 molecules
  0 fragments
  3 atoms with max type 2
  2 bonds with max type 1
  1 angles with max type 1
  0 dihedrals with max type 0
  0 impropers with max type 0
create_atoms   	0 random ${nmols} 34578 mbox mol co2mol 464563 overlap 1.2
create_atoms   	0 random 500 34578 mbox mol co2mol 464563 overlap 1.2
Created 1500 atoms
  using lattice units in orthogonal box = (0 0 0) to (115 115 115)
  create_atoms CPU = 0.014 seconds

# rigid CO2 TraPPE model

pair_coeff      1   1  0.053649   2.800
pair_coeff      2   2  0.156973   3.050
bond_coeff      1       0       1.16
angle_coeff     1       0       180

# masses

mass 1 12.0107
mass 2 15.9994

write_data init_conf.data  pair ij
System init for write_data ...
PPPM initialization ...
  using 12-bit tables for long-range coulomb (src/kspace.cpp:342)
  G vector (1/distance) = 0.1676322
  grid = 25 25 25
  stencil order = 5
  estimated absolute RMS force accuracy = 0.036473453
  estimated relative force accuracy = 0.00010983872
  using double precision FFTW3
  3d grid and FFT values/proc = 27000 15625
Generated 1 of 1 mixed pair_coeff terms from arithmetic mixing rule

# MD settings

group           co2 type 1 2
1500 atoms in group co2
velocity       	all create 300 54654
timestep        0.25

# rigid constraints with thermostat
fix             myrigidnvt co2 rigid/nvt molecule temp 300 300 $(100*dt)
fix             myrigidnvt co2 rigid/nvt molecule temp 300 300 25
  500 rigid bodies with 1500 atoms

thermo 1000
thermo_style custom step temp density press ke pe etotal


variable    mvol equal vol
variable    mden equal density
variable	mtmp equal temp
variable    mpre equal press

fix mydat all ave/time 1 4000 4000 v_mtmp v_mden v_mpre file statistics.dat ## every 1ps

run 4000000 ## 1ns

CITE-CITE-CITE-CITE-CITE-CITE-CITE-CITE-CITE-CITE-CITE-CITE-CITE

Your simulation uses code contributions which should be cited:

- GPU package (short-range, long-range and three-body potentials): doi:10.1016/j.cpc.2010.12.021, doi:10.1016/j.cpc.2011.10.012, doi:10.1016/j.cpc.2013.08.002, doi:10.1016/j.commatsci.2014.10.068, doi:10.1016/j.cpc.2016.10.020, doi:10.3233/APC200086

@Article{Brown11,
 author = {W. M. Brown and P. Wang and S. J. Plimpton and A. N. Tharrington},
 title = {Implementing Molecular Dynamics on Hybrid High Performance Computers---Short Range Forces},
 journal = {Comput.\ Phys.\ Commun.},
 year =    2011,
 volume =  182,
 pages =   {898--911},
 doi =     {10.1016/j.cpc.2010.12.021}
}

@Article{Brown12,
 author = {W. M. Brown and A. Kohlmeyer and S. J. Plimpton and A. N. Tharrington},
 title = {Implementing Molecular Dynamics on Hybrid High Performance Computers - Particle-Particle Particle-Mesh},
 journal = {Comput.\ Phys.\ Commun.},
 year =    2012,
 volume =  183,
 doi =     {10.1016/j.cpc.2011.10.012},
 pages =   {449--459}
}

@Article{Brown13,
 author = {W. M. Brown and Y. Masako},
 title = {Implementing Molecular Dynamics on Hybrid High Performance Computers---Three-Body Potentials},
 journal = {Comput.\ Phys.\ Commun.},
 year =    2013,
 volume =  184,
 pages =   {2785--2793},
 doi =     {10.1016/j.cpc.2013.08.002},
}

@Article{Trung15,
 author = {T. D. Nguyen and S. J. Plimpton},
 title = {Accelerating Dissipative Particle Dynamics Simulations for Soft Matter Systems},
 journal = {Comput.\ Mater.\ Sci.},
 year =    2015,
 doi =     {10.1016/j.commatsci.2014.10.068},
 volume =  100,
 pages =   {173--180}
}

@Article{Trung17,
 author = {T. D. Nguyen},
 title = {{GPU}-Accelerated {T}ersoff Potentials for Massively Parallel
    Molecular Dynamics Simulations},
 journal = {Comput.\ Phys.\ Commun.},
 year =    2017,
 doi =     {10.1016/j.cpc.2016.10.020},
 volume =  212,
 pages =   {113--122}
}

@inproceedings{Nikolskiy19,
 author = {V. Nikolskiy and V. Stegailov},
 title = {{GPU} Acceleration of Four-Site Water Models in {LAMMPS}},
 booktitle = {Proceedings of the International Conference on Parallel
    Computing (ParCo 2019), Prague, Czech Republic},
 doi =     {10.3233/APC200086},
 year =    2019
}

CITE-CITE-CITE-CITE-CITE-CITE-CITE-CITE-CITE-CITE-CITE-CITE-CITE

PPPM initialization ...
  using 12-bit tables for long-range coulomb (src/kspace.cpp:342)
  G vector (1/distance) = 0.1676322
  grid = 25 25 25
  stencil order = 5
  estimated absolute RMS force accuracy = 0.036473453
  estimated relative force accuracy = 0.00010983872
  using double precision FFTW3
  3d grid and FFT values/proc = 27000 15625
Generated 1 of 1 mixed pair_coeff terms from arithmetic mixing rule
Per MPI rank memory allocation (min/avg/max) = 9.84 | 9.84 | 9.84 Mbytes
   Step          Temp         Density         Press          KinEng         PotEng         TotEng    
         0   305.66621      0.024025475   -852.23604      758.3663       1694.4555      2452.8218    
      1000   308.77072      0.024025475    6.0191273      766.06867     -29.451416      736.61725    
      2000   280.05211      0.024025475    10.613612      694.81701     -34.580669      660.23634    
      3000   302.29681      0.024025475    11.752374      750.00672     -40.37565       709.63107    
      4000   312.90502      0.024025475    13.822818      776.32599     -46.031935      730.29405    
      5000   279.00392      0.024025475    11.930508      692.21642     -43.402967      648.81345    
      6000   301.80385      0.024025475    13.471896      748.78367     -50.244477      698.5392     
      7000   292.24216      0.024025475    13.48938       725.06085     -47.166612      677.89424    
      8000   306.92985      0.024025475    22.76289       761.50143     -53.271101      708.23033    
      9000   283.89467      0.024025475    13.581741      704.35049     -55.16561       649.18488    
     10000   289.86678      0.024025475    12.273384      719.16748     -62.139782      657.0277     
     11000   302.97981      0.024025475    7.6965241      751.70127     -60.003735      691.69754    
     12000   299.58872      0.024025475    9.8498872      743.28788     -61.833456      681.45442    
     13000   310.46613      0.024025475    20.777968      770.27503     -58.794719      711.48031    
     14000   299.86454      0.024025475    14.440521      743.97218     -55.812307      688.15987    
     15000   296.44892      0.024025475    0.82817034     735.49795     -55.754014      679.74394    
     16000   303.30385      0.024025475    7.510219       752.5052      -56.716352      695.78885    
     17000   294.08997      0.024025475    15.164799      729.64531     -55.615816      674.0295     
     18000   300.44377      0.024025475    17.431419      745.40927     -62.579063      682.83021    
     19000   303.53744      0.024025475    24.308635      753.08476     -63.33182       689.75294    
     20000   287.57731      0.024025475    14.581853      713.48725     -58.496958      654.99029    
     21000   286.15243      0.024025475    6.8045365      709.95206     -69.874886      640.07717    
     22000   306.52393      0.024025475    11.772577      760.49431     -72.358941      688.13537    
     23000   308.31679      0.024025475    14.198412      764.94246     -75.164141      689.77832    
     24000   283.5725       0.024025475    11.207561      703.5512      -72.850149      630.70105    
     25000   308.8628       0.024025475    13.088334      766.29713     -69.047456      697.24967    
     26000   317.55051      0.024025475    16.528119      787.85156     -67.278972      720.57259    
     27000   307.83281      0.024025475    19.085999      763.74169     -66.05907       697.68262    
     28000   289.51253      0.024025475    12.075985      718.28856     -66.197463      652.0911     
     29000   308.60039      0.024025475    25.028182      765.64606     -69.006981      696.63908    
     30000   296.11234      0.024025475    15.295115      734.66289     -64.86625       669.79664    
     31000   304.96122      0.024025475    10.283188      756.6172      -65.175584      691.44161    
     32000   296.18953      0.024025475    14.95165       734.85439     -68.336989      666.5174     
     33000   304.31072      0.024025475    18.30264       755.00329     -66.209249      688.79404    
     34000   295.07283      0.024025475    9.1382689      732.08383     -66.572762      665.51107    
     35000   297.56309      0.024025475   -1.1257789      738.26223     -68.853627      669.4086     
     36000   306.0578       0.024025475    2.3861539      759.33784     -70.358929      688.97891    
     37000   304.30581      0.024025475    12.338288      754.99111     -66.361807      688.6293     
     38000   301.43491      0.024025475    14.62474       747.86832     -62.427323      685.441      
     39000   295.95883      0.024025475    13.110815      734.28201     -73.78859       660.49342    
     40000   303.11316      0.024025475    12.054287      752.03211     -72.82086       679.21125    
     41000   302.53226      0.024025475    22.847714      750.59087     -76.93434       673.65653    
     42000   291.29833      0.024025475    5.9248616      722.71918     -68.738066      653.98112    
     43000   297.0308       0.024025475    9.0171334      736.9416      -73.397974      663.54362    
     44000   296.68043      0.024025475    17.327039      736.07232     -72.911439      663.16088    
     45000   305.2943       0.024025475    8.1225885      757.44358     -74.890847      682.55273    
     46000   309.83223      0.024025475    13.284468      768.70232     -78.425012      690.2773     
     47000   298.56963      0.024025475    11.005044      740.75947     -79.722064      661.03741    
     48000   276.94177      0.024025475    10.682956      687.10017     -78.473161      608.62701    
     49000   304.04871      0.024025475    9.7922841      754.35323     -78.147655      676.20558    
     50000   310.92443      0.024025475    4.9588815      771.41209     -80.148996      691.2631     
     51000   298.65006      0.024025475    26.224051      740.95903     -80.396192      660.56284    
     52000   287.87001      0.024025475    13.066811      714.21344     -79.42647       634.78697    
     53000   282.18651      0.024025475    13.940312      700.11252     -74.650238      625.46228    
     54000   307.25427      0.024025475    7.9407549      762.30632     -77.395904      684.91042    
     55000   301.25029      0.024025475    12.659632      747.41028     -79.733405      667.67688    
     56000   301.52267      0.024025475    12.597243      748.08607     -83.588493      664.49757    
     57000   290.99265      0.024025475    13.479761      721.96078     -85.336808      636.62397    
     58000   292.08735      0.024025475    10.005603      724.67676     -89.045581      635.63118    
     59000   301.36931      0.024025475    13.205487      747.70556     -88.405188      659.30038    
     60000   311.10909      0.024025475    13.535359      771.87023     -82.221974      689.64826    
     61000   304.9538       0.024025475    12.710668      756.59879     -84.049435      672.54936    
     62000   285.60263      0.024025475    9.0788489      708.58799     -84.959472      623.62851    
     63000   316.05822      0.024025475    12.192571      784.14917     -80.904698      703.24447    
     64000   299.71017      0.024025475    14.178119      743.58918     -79.478556      664.11063    
     65000   304.18479      0.024025475    17.726487      754.69085     -79.443507      675.24734    
     66000   284.72319      0.024025475    12.816816      706.40607     -74.531761      631.87431    
     67000   310.10254      0.024025475    10.422655      769.37295     -80.990275      688.38267    
     68000   325.8035       0.024025475    12.303315      808.32745     -74.056125      734.27133    
     69000   293.92256      0.024025475    13.006622      729.22998     -77.265887      651.96409    
     70000   295.24668      0.024025475    13.087833      732.51515     -82.973586      649.54157    
     71000   295.85608      0.024025475    5.7510379      734.0271      -86.982589      647.04451    
     72000   305.40465      0.024025475    7.3928611      757.71736     -79.487331      678.23003    
     73000   298.89039      0.024025475    11.859114      741.55529     -84.336161      657.21913    
     74000   294.23512      0.024025475    15.163215      730.00544     -84.245174      645.76027    
     75000   292.97924      0.024025475    12.458288      726.88957     -77.07739       649.81218    
     76000   309.4124       0.024025475    0.49100826     767.66068     -79.097304      688.56338    
     77000   306.30596      0.024025475    20.785692      759.95353     -81.185108      678.76842    
     78000   296.95328      0.024025475    22.698074      736.74928     -75.770279      660.979      
     79000   288.4476       0.024025475    15.965392      715.64644     -73.24446       642.40198    
     80000   313.81243      0.024025475    7.2363607      778.57729     -72.987205      705.59008    
     81000   304.69166      0.024025475    13.677259      755.94841     -70.148996      685.79941    
     82000   295.98177      0.024025475    15.925463      734.33894     -72.475614      661.86332    
     83000   293.64018      0.024025475    18.35974       728.52938     -72.546094      655.98328    
     84000   305.03941      0.024025475    9.4649915      756.81119     -74.020504      682.79068    
     85000   296.21723      0.024025475    12.03102       734.92312     -65.947635      668.97548    
     86000   297.30964      0.024025475    16.920209      737.63342     -68.284526      669.34889    
     87000   305.22025      0.024025475    9.9019551      757.25985     -66.954205      690.30565    
     88000   301.90346      0.024025475    10.072678      749.03081     -71.662707      677.3681     
     89000   301.33947      0.024025475    8.7487067      747.63153     -70.286598      677.34493    
     90000   322.97624      0.024025475    11.846738      801.31296     -72.364193      728.94876    
     91000   295.02         0.024025475    16.514723      731.95274     -55.302582      676.65016    
     92000   305.05664      0.024025475    11.944317      756.85393     -67.633296      689.22063    
     93000   301.71772      0.024025475    18.170381      748.56997     -70.00071       678.56926    
     94000   293.58389      0.024025475    12.866733      728.38972     -73.489594      654.90012    
     95000   298.23895      0.024025475    3.9173313      739.93905     -76.393149      663.54591    
     96000   319.28269      0.024025475    16.602535      792.14916     -77.958601      714.19055    
     97000   295.02074      0.024025475    17.961172      731.95459     -79.997204      651.95739    
     98000   294.38811      0.024025475    10.372879      730.38502     -75.906507      654.47851    
     99000   306.66779      0.024025475    10.474333      760.85124     -79.57814       681.2731     
    100000   307.97391      0.024025475    13.110707      764.09176     -73.256182      690.83557    
    101000   292.23281      0.024025475    9.1914343      725.03765     -72.395864      652.64179    
    102000   288.66153      0.024025475    13.67716       716.17722     -76.07997       640.09725    
    103000   311.35292      0.024025475    17.051582      772.47517     -73.220521      699.25465    
    104000   306.49901      0.024025475    11.868042      760.4325      -72.304744      688.12776    
    105000   299.30575      0.024025475    12.761065      742.58582     -77.338801      665.24702    
    106000   289.84921      0.024025475    12.072125      719.12387     -73.607481      645.51639    
    107000   302.45824      0.024025475    13.034031      750.40724     -72.203779      678.20346    
    108000   314.0147       0.024025475    14.091692      779.07912     -77.030333      702.04878    
    109000   302.36264      0.024025475    12.715793      750.17004     -72.63206       677.53798    
    110000   285.45276      0.024025475    10.106343      708.21616     -74.829307      633.38685    
    111000   294.25122      0.024025475    20.772523      730.04539     -72.722342      657.32305    
    112000   305.022        0.024025475    11.558057      756.768       -70.525325      686.24267    
    113000   305.91159      0.024025475    11.866323      758.97509     -71.176657      687.79844    
    114000   291.94747      0.024025475    11.291158      724.32972     -70.392264      653.93745    
    115000   284.31215      0.024025475    10.898902      705.38628     -73.162125      632.22415    
    116000   303.88016      0.024025475    8.3923878      753.93504     -73.773855      680.16119    
    117000   306.04021      0.024025475    12.809568      759.2942      -82.018918      677.27528    
    118000   292.75972      0.024025475    12.250499      726.34493     -77.288434      649.05649    
    119000   283.97869      0.024025475    14.583517      704.55897     -72.290833      632.26814    
    120000   306.394        0.024025475    15.707941      760.17196     -68.098277      692.07368    
    121000   311.05421      0.024025475    13.726074      771.73407     -70.505568      701.2285     
    122000   308.74491      0.024025475    11.67023       766.00463     -74.447137      691.55749    
    123000   286.76304      0.024025475    10.162497      711.467       -71.553649      639.91335    
    124000   286.78389      0.024025475    12.417798      711.51872     -64.338672      647.18005    
    125000   309.6911       0.024025475    16.743654      768.35217     -67.553028      700.79914    
    126000   297.23215      0.024025475    8.109695       737.44115     -70.182884      667.25826    
    127000   298.54685      0.024025475    26.496553      740.70296     -65.038568      675.66439    
    128000   304.95478      0.024025475    8.7106232      756.60122     -68.374414      688.22681    
    129000   305.05792      0.024025475    1.7500248      756.8571      -63.784094      693.07301    
    130000   304.03093      0.024025475    11.994262      754.30911     -63.524915      690.78419    
    131000   299.96947      0.024025475    27.933251      744.23252     -61.549545      682.68297    
    132000   304.71337      0.024025475    20.465827      756.00227     -60.172323      695.82995    
    133000   305.88978      0.024025475    0.26135214     758.92097     -58.580367      700.3406     
    134000   293.95925      0.024025475    5.6173687      729.321       -57.951976      671.36902    
    135000   293.97928      0.024025475    19.913567      729.37069     -56.399546      672.97114    
    136000   316.73887      0.024025475    10.437334      785.83786     -59.472692      726.36517    
    137000   315.24811      0.024025475    4.0675256      782.13925     -64.318272      717.82098    
    138000   294.63919      0.024025475    12.550115      731.00794     -64.098035      666.90991    
    139000   285.02949      0.024025475    18.780235      707.16603     -58.338032      648.828      
    140000   309.49436      0.024025475    14.832329      767.86403     -59.112907      708.75113    
    141000   309.00194      0.024025475    4.7623031      766.64234     -51.148958      715.49338    
    142000   292.11071      0.024025475    11.220829      724.73473     -60.296378      664.43835    
    143000   287.94308      0.024025475    12.918225      714.39472     -72.68432       641.7104     
    144000   303.04493      0.024025475    14.318775      751.86282     -74.483744      677.37907    
    145000   304.5417       0.024025475    5.6139261      755.57636     -63.800442      691.77592    
    146000   288.73245      0.024025475    15.858571      716.35318     -68.621426      647.73175    
    147000   298.27832      0.024025475    18.585437      740.03674     -64.492043      675.5447     
    148000   300.54933      0.024025475    11.133215      745.67118     -68.671236      676.99995    
    149000   313.87208      0.024025475    5.1305204      778.72529     -67.502526      711.22276    
    150000   290.08973      0.024025475    11.85097       719.72061     -65.250274      654.47034    
    151000   295.01441      0.024025475    15.647927      731.93889     -67.453106      664.48579    
    152000   306.08575      0.024025475    21.176689      759.40718     -62.43          696.97718    
    153000   307.94676      0.024025475    13.800667      764.0244      -60.437532      703.58687    
    154000   293.81704      0.024025475    10.240414      728.96818     -57.933459      671.03472    
    155000   292.03054      0.024025475    13.247856      724.53583     -57.350269      667.18556    
    156000   316.735        0.024025475    13.289532      785.82826     -60.970512      724.85775    
    157000   303.06173      0.024025475    10.278232      751.90451     -65.104867      686.79964    
    158000   291.12199      0.024025475    11.57843       722.28169     -66.605287      655.6764     
    159000   291.27639      0.024025475    12.009835      722.66474     -68.712487      653.95226    
    160000   306.67519      0.024025475    11.804633      760.8696      -66.737389      694.13221    
    161000   297.1006       0.024025475    17.071812      737.11479     -64.660662      672.45413    
    162000   305.45291      0.024025475    18.63986       757.83709     -64.060637      693.77646    
    163000   311.57913      0.024025475    9.5689462      773.03641     -68.734603      704.3018     
    164000   297.13282      0.024025475    4.5071488      737.19472     -70.403396      666.79133    
    165000   300.5069       0.024025475    21.744112      745.5659      -71.144878      674.42102    
    166000   301.13576      0.024025475    11.644806      747.12612     -71.463185      675.66294    
    167000   305.03783      0.024025475    9.8108096      756.80726     -73.625025      683.18223    
    168000   290.55002      0.024025475    10.87702       720.8626      -67.216567      653.64603    
    169000   285.95181      0.024025475    13.195375      709.45432     -58.532036      650.92228    
    170000   315.80884      0.024025475    16.304768      783.53043     -64.292315      719.23812    
    171000   295.05993      0.024025475    10.094595      732.05181     -68.999934      663.05188    
    172000   295.68496      0.024025475    12.531421      733.60255     -65.544869      668.05768    
    173000   304.10072      0.024025475    11.562861      754.48227     -64.504724      689.97754    
    174000   314.64453      0.024025475    13.827526      780.64176     -65.21572       715.42604    
    175000   297.16182      0.024025475    11.939757      737.26667     -64.718209      672.54846    
    176000   292.69119      0.024025475    9.169276       726.1749      -70.987925      655.18697    
    177000   316.07334      0.024025475    13.999084      784.18667     -68.341499      715.84518    
    178000   298.87725      0.024025475    11.998462      741.5227      -69.014821      672.50788    
    179000   286.08734      0.024025475    12.526975      709.79057     -68.975066      640.8155     
    180000   300.24068      0.024025475    12.85833       744.9054      -66.395996      678.5094     
    181000   306.80002      0.024025475    12.940014      761.17931     -67.613785      693.56553    
    182000   300.12996      0.024025475    7.6170326      744.63071     -62.582309      682.0484     
    183000   286.87985      0.024025475    10.432972      711.75681     -66.707594      645.04922    
    184000   296.83542      0.024025475    12.84829       736.45686     -66.13839       670.31847    
    185000   295.16439      0.024025475    11.921992      732.31098     -65.66106       666.64992    
    186000   300.31082      0.024025475    12.682261      745.07942     -60.347014      684.7324     
    187000   302.62586      0.024025475    12.197612      750.82311     -65.753682      685.06943    
    188000   302.00766      0.024025475    13.080823      749.28933     -59.609541      689.67979    
    189000   296.93647      0.024025475    18.216302      736.70756     -62.71382       673.99374    
    190000   293.24158      0.024025475    13.080398      727.54044     -58.811485      668.72896    
    191000   302.63181      0.024025475    11.855076      750.83786     -61.162119      689.67574    
    192000   316.65744      0.024025475    12.850999      785.63584     -56.209832      729.42601    
    193000   301.70682      0.024025475    14.048513      748.54293     -64.44686       684.09607    
    194000   288.14457      0.024025475    8.8272187      714.89462     -65.913661      648.98096    
    195000   292.40094      0.024025475    5.9933277      725.45478     -61.697686      663.7571     
    196000   318.18092      0.024025475    13.036232      789.41563     -58.630482      730.78515    
    197000   306.72569      0.024025475    21.520469      760.99489     -57.372979      703.62191    
    198000   285.32025      0.024025475    12.089189      707.88741     -55.4598        652.42761    
    199000   300.40043      0.024025475    6.3003834      745.30175     -53.890343      691.4114     
    200000   296.13797      0.024025475    10.996948      734.72645     -58.685006      676.04145    
    201000   308.27478      0.024025475    8.3237324      764.83823     -56.967489      707.87074    
    202000   312.23546      0.024025475    15.294085      774.66479     -56.762148      717.90264    
    203000   294.65651      0.024025475    16.944826      731.05092     -53.542088      677.50883    
    204000   286.27005      0.024025475    1.2944145      710.24388     -51.348127      658.89575    
    205000   319.18362      0.024025475    7.7036837      791.90335     -53.717507      738.18585    
    206000   316.28001      0.024025475    25.724588      784.69942     -55.910361      728.78906    
    207000   284.38251      0.024025475    17.41738       705.56084     -46.658268      658.90257    
    208000   301.59632      0.024025475    12.736681      748.26877     -46.95793       701.31084    
    209000   298.10283      0.024025475    7.9071821      739.60133     -48.443018      691.15832    
    210000   310.35086      0.024025475    11.813895      769.98903     -54.776589      715.21244    
    211000   308.07193      0.024025475    17.921093      764.33495     -50.980211      713.35474    
    212000   300.37778      0.024025475    14.450303      745.24554     -50.480859      694.76468    
    213000   289.85326      0.024025475    12.879291      719.13393     -51.363797      667.77013    
    214000   294.0127       0.024025475   -2.342934       729.4536      -50.992475      678.46113    
    215000   312.86106      0.024025475    16.36398       776.21691     -53.204304      723.0126     
    216000   301.64547      0.024025475    21.572141      748.39072     -53.003644      695.38707    
    217000   288.29409      0.024025475    10.949465      715.26559     -48.420276      666.84531    
    218000   299.35942      0.024025475    7.8925771      742.71898     -51.551668      691.16731    
    219000   313.22201      0.024025475    24.75307       777.11245     -50.00198       727.11047    
    220000   302.87067      0.024025475    14.992166      751.43049     -50.532741      700.89774    
    221000   304.52454      0.024025475    10.461613      755.53377     -52.787782      702.74598    
    222000   300.08083      0.024025475   -0.27649733     744.5088      -47.847312      696.66149    
    223000   291.3858       0.024025475    19.083556      722.9362      -45.910051      677.02615    
    224000   290.04833      0.024025475    10.332673      719.6179      -47.482111      672.13579    
    225000   321.2397       0.024025475    3.1637704      797.00454     -45.812822      751.19172    
    226000   312.62953      0.024025475    23.264227      775.64249     -47.8382        727.80429    
    227000   292.61825      0.024025475    16.063446      725.99394     -44.922893      681.07104    
    228000   298.39691      0.024025475    7.8578187      740.33095     -44.207319      696.12363    
    229000   307.83643      0.024025475    11.999804      763.75066     -50.773116      712.97754    
    230000   310.13091      0.024025475    15.774245      769.44334     -53.187914      716.25542    
    231000   287.65019      0.024025475    11.45523       713.66805     -54.958424      658.70963    
    232000   305.54683      0.024025475    10.618668      758.0701      -54.924524      703.14558    
    233000   309.59764      0.024025475    17.056116      768.12028     -52.711006      715.40927    
    234000   298.98408      0.024025475    10.232749      741.78775     -48.099288      693.68846    
    235000   306.51326      0.024025475    14.503115      760.46784     -50.866476      709.60137    
    236000   288.72565      0.024025475    13.397747      716.3363      -51.686609      664.64969    
    237000   302.39665      0.024025475    14.736767      750.25442     -50.044297      700.21012    
    238000   300.99856      0.024025475    12.558344      746.78572     -53.020098      693.76562    
    239000   300.37117      0.024025475    11.207024      745.22915     -52.070056      693.1591     
    240000   297.3317       0.024025475    12.21893       737.68815     -50.600318      687.08783    
    241000   313.73574      0.024025475    12.188434      778.38701     -54.199616      724.1874     
    242000   287.33827      0.024025475    10.822278      712.89416     -53.995498      658.89866    
    243000   291.94834      0.024025475    10.902871      724.33188     -51.928508      672.40337    
    244000   310.34617      0.024025475    14.627718      769.97741     -58.133786      711.84363    
    245000   301.99612      0.024025475    17.251068      749.2607      -55.066585      694.19412    
    246000   302.15799      0.024025475    11.124925      749.6623      -49.781002      699.8813     
    247000   304.42512      0.024025475    12.434068      755.28712     -51.913488      703.37363    
    248000   294.26924      0.024025475    12.697528      730.09009     -51.200341      678.88975    
    249000   292.85769      0.024025475    10.603221      726.588       -48.363201      678.2248     
    250000   310.22298      0.024025475    11.476835      769.67178     -50.231287      719.44049    
    251000   294.7373       0.024025475    12.98008       731.25137     -51.134002      680.11737    
    252000   283.22483      0.024025475    12.145427      702.68861     -53.020156      649.66846    
    253000   311.42701      0.024025475    20.552212      772.65901     -49.809126      722.84988    
    254000   304.92264      0.024025475    10.034582      756.52148     -52.190094      704.33138    
    255000   290.77157      0.024025475    11.996552      721.41229     -53.830816      667.58147    
    256000   295.39111      0.024025475    13.972258      732.87349     -52.578026      680.29546    
    257000   307.91248      0.024025475    13.773322      763.93935     -51.809306      712.13004    
    258000   314.60905      0.024025475    13.803129      780.55372     -44.913812      735.6399     
    259000   292.53871      0.024025475    14.219275      725.79661     -51.321517      674.47509    
    260000   293.19145      0.024025475    12.332732      727.41607     -52.32986       675.08621    
    261000   301.30426      0.024025475    14.31633       747.54416     -47.605848      699.93831    
    262000   290.15809      0.024025475    12.705873      719.89021     -52.489452      667.40076    
    263000   308.58206      0.024025475    10.311177      765.60061     -49.987097      715.61351    
    264000   310.02298      0.024025475    16.828399      769.17556     -44.808924      724.36664    
    265000   295.48321      0.024025475    13.747848      733.10199     -47.088684      686.01331    
    266000   291.82655      0.024025475    6.5430125      724.02972     -46.787215      677.24251    
    267000   312.42712      0.024025475    15.68067       775.1403      -51.475796      723.6645     
    268000   289.29422      0.024025475    16.288858      717.74695     -48.434823      669.31212    
    269000   292.32908      0.024025475    12.707214      725.2765      -47.250436      678.02607    
    270000   314.13172      0.024025475    6.8745436      779.36945     -49.756254      729.6132     
    271000   306.48807      0.024025475    14.253308      760.40535     -46.033713      714.37163    
    272000   293.19646      0.024025475    12.174682      727.4285      -46.729683      680.69882    
    273000   298.44505      0.024025475    13.106715      740.45039     -40.941289      699.50911    
    274000   309.01028      0.024025475    15.169652      766.66303     -37.921825      728.7412     
    275000   306.6946       0.024025475    13.239958      760.91776     -41.004731      719.91303    
    276000   310.75366      0.024025475    8.5775056      770.98839     -37.630718      733.35767    
    277000   292.88747      0.024025475    11.501392      726.66189     -46.675271      679.98662    
    278000   309.64073      0.024025475    19.653653      768.22718     -48.355597      719.87158    
    279000   302.21843      0.024025475    10.928166      749.81226     -51.551436      698.26082    
    280000   301.21619      0.024025475    4.6245323      747.32566     -49.265823      698.05984    
    281000   299.84622      0.024025475    15.457831      743.92673     -49.821329      694.1054     
    282000   316.02623      0.024025475    17.896272      784.0698      -46.937994      737.1318     
    283000   296.13335      0.024025475    8.7093323      734.715       -47.223357      687.49164    
    284000   294.69315      0.024025475   -0.036339216    731.14182     -44.686556      686.45527    
    285000   300.77147      0.024025475    20.789018      746.2223      -43.896754      702.32555    
    286000   310.09337      0.024025475    30.142857      769.3502      -40.719866      728.63033    
    287000   302.68947      0.024025475    23.792113      750.98091     -39.334258      711.64665    
    288000   309.18995      0.024025475    7.7720099      767.10878     -44.468052      722.64073    
    289000   301.20656      0.024025475    7.2273236      747.30178     -45.913947      701.38783    
    290000   299.06472      0.024025475    32.845648      741.9878      -47.388235      694.59957    
    291000   307.78088      0.024025475    5.0202864      763.61286     -60.362164      703.25069    
    292000   303.30138      0.024025475   -11.674636      752.49908     -52.279969      700.21911    
    293000   296.80896      0.024025475    27.632897      736.3912      -54.60567       681.78553    
    294000   317.80367      0.024025475    8.6202727      788.47967     -50.408305      738.07136    
    295000   311.14003      0.024025475    3.3780732      771.94699     -52.742574      719.20442    
    296000   279.89297      0.024025475    1.3949244      694.42217     -47.213761      647.20841    
    297000   306.11125      0.024025475    26.31325       759.47044     -48.584591      710.88585    
    298000   298.7308       0.024025475    13.8074        741.15934     -50.21754       690.9418     
    299000   291.80238      0.024025475    12.033683      723.96975     -50.948907      673.02084    
    300000   282.23642      0.024025475    4.8793341      700.23634     -47.061464      653.17487    
    301000   306.12112      0.024025475    14.47067       759.49494     -47.01973       712.47521    
    302000   303.15048      0.024025475    14.443041      752.1247      -48.512578      703.61212    
    303000   294.34286      0.024025475    6.0705604      730.27274     -48.643982      681.62876    
    304000   302.60796      0.024025475    14.152443      750.7787      -42.949962      707.82874    
    305000   300.24439      0.024025475    13.15185       744.91461     -47.322554      697.59205    
    306000   307.36779      0.024025475    13.276756      762.58796     -49.096686      713.49127    
    307000   304.34438      0.024025475    12.780773      755.0868      -50.33566       704.75114    
    308000   314.41098      0.024025475    13.591952      780.0623      -45.683866      734.37843    
    309000   307.83088      0.024025475    9.7418015      763.7369      -53.605124      710.13178    
    310000   285.37191      0.024025475    11.548621      708.01559     -47.250918      660.76467    
    311000   297.46921      0.024025475    14.511484      738.02931     -52.241983      685.78732    
    312000   309.37015      0.024025475    12.489799      767.55587     -51.097329      716.45854    
    313000   292.41969      0.024025475    10.217756      725.50131     -56.097779      669.40353    
    314000   285.65183      0.024025475    11.559259      708.71005     -52.854734      655.85532    
    315000   309.56451      0.024025475    13.948024      768.03809     -57.708549      710.32954    
    316000   296.3813       0.024025475    11.948139      735.33018     -55.944958      679.38522    
    317000   292.57208      0.024025475    8.8972802      725.8794      -57.83937       668.04003    
    318000   292.63349      0.024025475    14.48523       726.03175     -57.088156      668.9436     
    319000   291.49069      0.024025475    19.900877      723.19644     -50.87528       672.32116    
    320000   304.59364      0.024025475    14.244171      755.70523     -47.806427      707.8988     
    321000   288.29296      0.024025475    3.1072207      715.26277     -47.372378      667.89039    
    322000   296.85927      0.024025475    13.719906      736.51604     -50.884529      685.63151    
    323000   306.40019      0.024025475    14.657635      760.18731     -44.120471      716.06684    
    324000   307.41449      0.024025475    13.00102       762.70381     -43.784957      718.91886    
    325000   301.17503      0.024025475    9.7290748      747.22354     -43.304322      703.91922    
    326000   288.52396      0.024025475    9.8580418      715.8359      -44.272876      671.56302    
    327000   299.50081      0.024025475    11.317843      743.06977     -41.518323      701.55144    
    328000   304.34437      0.024025475    13.12798       755.08678     -42.61223       712.47455    
    329000   299.02535      0.024025475    14.134482      741.89014     -42.778866      699.11127    
    330000   307.98833      0.024025475    9.8046473      764.12753     -39.799542      724.32798    
    331000   305.16819      0.024025475    10.22778       757.13069     -37.556991      719.5737     
    332000   294.58324      0.024025475    12.988039      730.86913     -36.22583       694.6433     
    333000   308.70771      0.024025475    15.06229       765.91235     -33.477828      732.43452    
    334000   314.6229       0.024025475    9.2709362      780.58808     -35.015373      745.57271    
    335000   302.21039      0.024025475    12.046513      749.7923      -36.922685      712.86961    
    336000   285.70415      0.024025475    16.667784      708.83986     -33.119548      675.72032    
    337000   297.02606      0.024025475    20.434327      736.92984     -37.566396      699.36344    
    338000   308.65918      0.024025475    11.230375      765.79193     -31.199765      734.59216    
    339000   295.82642      0.024025475    0.21302518     733.95351     -33.041994      700.91151    
    340000   288.73113      0.024025475    16.411631      716.3499      -36.202506      680.14739    
    341000   302.78877      0.024025475    20.166613      751.22728     -38.499406      712.72787    
    342000   312.41856      0.024025475    5.1946765      775.11906     -36.313768      738.80529    
    343000   302.16756      0.024025475    1.8396555      749.68603     -37.478234      712.2078     
    344000   291.21562      0.024025475    12.394307      722.51397     -42.061128      680.45284    
    345000   308.12833      0.024025475    13.53888       764.47488     -38.056102      726.41878    
    346000   314.60598      0.024025475    12.021108      780.54611     -41.791408      738.7547     
    347000   305.06212      0.024025475    12.989342      756.86752     -40.900359      715.96717    
    348000   281.55572      0.024025475    11.465696      698.54749     -41.908747      656.63875    
    349000   299.06711      0.024025475    10.6078        741.99373     -39.042357      702.95137    
    350000   311.20428      0.024025475    12.744465      772.1064      -37.157366      734.94903    
    351000   288.55866      0.024025475    14.98978       715.92199     -43.857883      672.06411    
    352000   297.40345      0.024025475    11.460497      737.86616     -40.588459      697.2777     
    353000   306.86618      0.024025475    13.191849      761.34346     -40.11041       721.23305    
    354000   307.70935      0.024025475    13.082036      763.43539     -45.541298      717.89409    
    355000   306.19682      0.024025475    13.902663      759.68276     -50.371927      709.31083    
    356000   293.34881      0.024025475    14.272188      727.80649     -49.038393      678.7681     
    357000   298.19608      0.024025475    12.294872      739.83269     -48.491797      691.34089    
    358000   296.94839      0.024025475    12.128336      736.73715     -44.474542      692.26261    
    359000   296.53275      0.024025475    12.336973      735.70592     -45.23146       690.47446    
    360000   300.44845      0.024025475    11.285876      745.42089     -44.579434      700.84145    
    361000   300.63585      0.024025475    11.227629      745.88582     -45.754833      700.13099    
    362000   290.05497      0.024025475    12.461055      719.63439     -42.895869      676.73852    
    363000   296.97404      0.024025475    11.393864      736.80079     -40.850642      695.95014    
    364000   307.36064      0.024025475    13.036214      762.57022     -36.277264      726.29296    
    365000   306.00879      0.024025475    17.839921      759.21625     -39.915645      719.30061    
    366000   305.56174      0.024025475    35.687611      758.10711     -39.668106      718.439      
    367000   297.20897      0.024025475    12.645327      737.38366     -35.80694       701.57672    
    368000   303.26625      0.024025475    10.999948      752.41193     -38.928388      713.48354    
    369000   316.65867      0.024025475    12.427145      785.6389      -32.197995      753.4409     
    370000   298.24848      0.024025475    19.492946      739.96269     -28.458449      711.50424    
    371000   303.10143      0.024025475    15.672889      752.00301     -28.215102      723.7879     
    372000   298.71252      0.024025475   -6.6161081      741.11399     -27.140759      713.97323    
    373000   300.63907      0.024025475    0.31985938     745.89382     -29.507279      716.38655    
    374000   313.36997      0.024025475    16.375156      777.47952     -33.903783      743.57574    
    375000   296.58623      0.024025475    23.480793      735.8386      -32.756368      703.08223    
    376000   287.12654      0.024025475    19.465889      712.36887     -39.122126      673.24674    
    377000   301.00636      0.024025475    2.3745977      746.80508     -36.833744      709.97134    
    378000   310.74788      0.024025475    10.174464      770.97405     -40.885091      730.08896    
    379000   297.75584      0.024025475    27.569324      738.74045     -36.189223      702.55122    
    380000   280.06784      0.024025475    18.990689      694.85604     -34.274875      660.58116    
    381000   300.31778      0.024025475    10.467136      745.09669     -35.578209      709.51848    
    382000   313.9415       0.024025475    10.60582       778.8975      -38.914192      739.98331    
    383000   307.51045      0.024025475    22.527148      762.9419      -38.997865      723.94404    
    384000   279.57766      0.024025475    6.5631596      693.63987     -38.237353      655.40252    
    385000   294.69672      0.024025475    8.1421691      731.15068     -37.029412      694.12127    
    386000   315.97378      0.024025475    6.9589588      783.93965     -36.248273      747.69138    
    387000   298.26871      0.024025475    23.44375       740.01289     -36.455597      703.55729    
    388000   287.68829      0.024025475    7.8858128      713.76257     -39.318944      674.44363    
    389000   307.53736      0.024025475    9.1886189      763.00866     -37.611205      725.39745    
    390000   304.04844      0.024025475    28.308776      754.35257     -41.082892      713.26968    
    391000   298.82011      0.024025475    16.633098      741.38094     -35.77874       705.6022     
    392000   313.04622      0.024025475    16.825615      776.67631     -39.311025      737.36529    
    393000   288.20475      0.024025475    15.784559      715.04393     -34.557269      680.48667    
    394000   291.82496      0.024025475    9.2449157      724.02577     -35.149434      688.87634    
    395000   299.51136      0.024025475    24.977675      743.09593     -29.362146      713.73378    
    396000   298.79165      0.024025475    8.7149394      741.31032     -35.821495      705.48883    
    397000   293.21313      0.024025475    7.3774012      727.46985     -27.926134      699.54371    
    398000   298.5225       0.024025475    10.105706      740.64255     -33.269992      707.37255    
    399000   300.69819      0.024025475    14.130587      746.04051     -32.90464       713.13587    
    400000   289.67813      0.024025475    15.165052      718.69942     -26.748708      691.95071    
    401000   296.99704      0.024025475    10.722505      736.85785     -32.448851      704.40899    
    402000   301.92565      0.024025475    13.54404       749.08587     -34.655127      714.43074    
    403000   304.06455      0.024025475    13.262462      754.39252     -33.007572      721.38495    
    404000   293.47677      0.024025475    11.854055      728.12397     -29.733659      698.39031    
    405000   301.38484      0.024025475    13.562648      747.74409     -33.898469      713.84562    
    406000   298.35479      0.024025475    13.126717      740.22646     -35.082304      705.14415    
    407000   301.83203      0.024025475    11.623713      748.85358     -35.885596      712.96799    
    408000   303.08462      0.024025475    5.3814218      751.9613      -37.034022      714.92728    
    409000   294.50431      0.024025475    16.960567      730.67331     -41.704897      688.96841    
    410000   299.55372      0.024025475    20.825367      743.20104     -42.555965      700.64507    
    411000   321.70098      0.024025475    17.994555      798.14901     -43.358771      754.79024    
    412000   295.384        0.024025475    10.573524      732.85584     -48.803618      684.05222    
    413000   284.72063      0.024025475   -0.087406153    706.39974     -49.109951      657.28979    
    414000   302.3026       0.024025475    25.289422      750.02109     -46.604203      703.41689    
    415000   309.1086       0.024025475    2.3979405      766.90695     -46.501428      720.40553    
    416000   301.01276      0.024025475    13.021434      746.82095     -37.090412      709.73054    
    417000   294.46353      0.024025475    21.604311      730.57214     -42.33014       688.242      
    418000   292.70642      0.024025475    8.771244       726.2127      -43.968323      682.24437    
    419000   289.26907      0.024025475    10.34833       717.68454     -45.614392      672.07015    
    420000   297.46202      0.024025475    14.121862      738.01147     -41.677368      696.3341     
    421000   296.64364      0.024025475    22.214298      735.98106     -44.876794      691.10426    
    422000   314.60467      0.024025475    9.9676072      780.54286     -51.710568      728.83229    
    423000   301.29517      0.024025475    14.153221      747.52162     -45.311208      702.21041    
    424000   288.64111      0.024025475    9.1883853      716.12654     -47.526521      668.60002    
    425000   291.8265       0.024025475    26.191299      724.0296      -49.876806      674.1528     
    426000   307.1929       0.024025475    13.373828      762.15405     -48.117555      714.0365     
    427000   305.79773      0.024025475   -3.2138738      758.6926      -49.25363       709.43897    
    428000   290.83707      0.024025475    12.549948      721.57479     -41.463574      680.11121    
    429000   300.72727      0.024025475    17.98589       746.11265     -32.334951      713.7777     
    430000   310.97137      0.024025475    13.402679      771.52855     -39.263259      732.26529    
    431000   304.59618      0.024025475    2.8818657      755.71152     -37.22579       718.48573    
    432000   293.33159      0.024025475    6.5503464      727.76376     -36.667179      691.09658    
    433000   292.57961      0.024025475    20.341339      725.89808     -35.929375      689.9687     
    434000   317.6889       0.024025475    16.557512      788.19493     -37.071161      751.12376    
    435000   299.1749       0.024025475   -7.3841979      742.26118     -37.705162      704.55602    
    436000   284.0506       0.024025475    12.886851      704.73736     -40.274513      664.46285    
    437000   295.9346       0.024025475    24.709941      734.22189     -39.723866      694.49803    
    438000   305.00436      0.024025475    22.453784      756.72422     -37.820273      718.90395    
    439000   296.05911      0.024025475    11.17579       734.53082     -37.714686      696.81613    
    440000   300.25364      0.024025475    6.9209827      744.93756     -36.927621      708.00994    
    441000   295.95503      0.024025475    7.3007491      734.2726      -37.118181      697.15442    
    442000   301.01916      0.024025475    10.24243       746.83683     -36.583558      710.25327    
    443000   294.15677      0.024025475    16.764479      729.81105     -38.304425      691.50663    
    444000   315.65474      0.024025475    6.6582828      783.14811     -35.061778      748.08633    
    445000   302.96788      0.024025475    1.3511         751.67166     -34.882146      716.78951    
    446000   290.08939      0.024025475    11.69898       719.71977     -37.769291      681.95048    
    447000   288.26334      0.024025475    11.206526      715.1893      -35.610846      679.57845    
    448000   311.93549      0.024025475    15.433127      773.92055     -41.710296      732.21025    
    449000   308.48028      0.024025475    4.2498941      765.34807     -35.116552      730.23152    
    450000   302.90771      0.024025475    7.6563549      751.52237     -38.898532      712.62384    
    451000   282.67435      0.024025475    13.743108      701.32285     -36.587574      664.73527    
    452000   301.70384      0.024025475    13.688019      748.53555     -36.495974      712.03957    
    453000   311.03168      0.024025475    13.579587      771.67816     -38.501912      733.17625    
    454000   291.89797      0.024025475    11.924055      724.20691     -37.068405      687.13851    
    455000   293.50986      0.024025475    12.682763      728.20606     -37.109434      691.09663    
    456000   323.78104      0.024025475    13.453623      803.30968     -43.638678      759.671      
    457000   301.89006      0.024025475    13.699302      748.99757     -42.819182      706.17839    
    458000   293.15302      0.024025475    12.209606      727.32073     -41.071322      686.24941    
    459000   301.45937      0.024025475    12.897062      747.929       -42.173963      705.75504    
    460000   294.69         0.024025475    13.964923      731.134       -46.083016      685.05099    
    461000   298.52126      0.024025475    13.584469      740.63948     -43.465183      697.1743     
    462000   308.59085      0.024025475    11.129945      765.62241     -49.193385      716.42903    
    463000   297.01691      0.024025475    10.204251      736.90714     -48.92028       687.98686    
    464000   300.60532      0.024025475    18.210405      745.81008     -51.150236      694.65984    
    465000   310.63277      0.024025475    12.98097       770.68847     -44.772641      725.91583    
    466000   292.35492      0.024025475    7.436444       725.34062     -45.993178      679.34744    
    467000   291.80922      0.024025475    12.657932      723.98673     -46.859775      677.12695    
    468000   306.91532      0.024025475    14.598756      761.46537     -39.01873       722.44664    
    469000   297.32416      0.024025475    14.438762      737.66944     -39.618804      698.05063    
    470000   288.61248      0.024025475    14.489102      716.05553     -40.060467      675.99506    
    471000   310.73181      0.024025475    12.402594      770.93418     -42.132119      728.80206    
    472000   307.36427      0.024025475    14.933461      762.57923     -44.666806      717.91242    
    473000   292.79339      0.024025475    12.393567      726.42848     -42.672733      683.75575    
    474000   319.22141      0.024025475    9.8816164      791.99713     -45.553903      746.44322    
    475000   287.37137      0.024025475    12.606939      712.97629     -47.975772      665.00052    
    476000   297.84379      0.024025475    12.035687      738.95864     -41.204678      697.75396    
    477000   306.00303      0.024025475    13.870296      759.20196     -42.900352      716.30161    
    478000   300.81983      0.024025475    10.120218      746.34228     -38.229337      708.11295    
    479000   304.42002      0.024025475    12.42189       755.27447     -38.218359      717.05611    
    480000   315.35075      0.024025475    11.219963      782.39389     -37.871374      744.52252    
    481000   308.24417      0.024025475    12.498065      764.76228     -35.951903      728.81038    
    482000   293.56002      0.024025475    12.961378      728.33051     -34.654072      693.67644    
    483000   306.02919      0.024025475    13.27178       759.26685     -40.030632      719.23622    
    484000   300.18758      0.024025475    13.700275      744.77366     -43.698803      701.07486    
    485000   295.90851      0.024025475    11.022463      734.15718     -43.726863      690.43032    
    486000   296.82504      0.024025475    13.939183      736.4311      -42.912662      693.51844    
    487000   299.95591      0.024025475    14.638947      744.19887     -46.722768      697.4761     
    488000   303.7532       0.024025475    14.066547      753.62007     -41.885181      711.73489    
    489000   287.08962      0.024025475    10.815567      712.27726     -42.001829      670.27543    
    490000   296.18795      0.024025475    9.1254002      734.85047     -42.172019      692.67845    
    491000   300.25127      0.024025475    13.650525      744.93168     -46.802868      698.12882    
    492000   302.81474      0.024025475    12.722602      751.29171     -42.420185      708.87152    
    493000   299.15803      0.024025475    11.350528      742.21932     -45.174298      697.04502    
    494000   292.33742      0.024025475    10.459652      725.2972      -51.254396      674.04281    
    495000   321.25697      0.024025475    12.158614      797.0474      -50.158246      746.88916    
    496000   302.85406      0.024025475    13.461926      751.38926     -46.639329      704.74993    
    497000   290.91635      0.024025475    13.252904      721.77147     -45.536641      676.23483    
    498000   299.18094      0.024025475    15.383418      742.27615     -45.034554      697.2416     
    499000   307.70231      0.024025475    13.543195      763.4179      -38.504583      724.91332    
    500000   319.40769      0.024025475    12.829844      792.45928     -43.38553       749.07375    
    501000   291.89258      0.024025475    11.959432      724.19355     -45.69066       678.50289    
    502000   297.91429      0.024025475    13.103949      739.13356     -38.3559        700.77766    
    503000   299.48624      0.024025475    10.944696      743.03362     -40.292304      702.74131    
    504000   308.59372      0.024025475    11.261657      765.62954     -38.442536      727.187      
    505000   309.80469      0.024025475    15.20939       768.63399     -39.198593      729.43539    
    506000   299.25586      0.024025475    13.463995      742.46204     -40.434284      702.02775    
    507000   298.56525      0.024025475    13.119608      740.74861     -38.318041      702.43057    
    508000   299.69432      0.024025475    12.400514      743.54987     -37.884686      705.66518    
    509000   298.23839      0.024025475    15.868192      739.93767     -43.891479      696.04619    
    510000   296.00303      0.024025475    11.256537      734.39167     -45.923262      688.4684     
    511000   307.20283      0.024025475    15.982619      762.17869     -44.473144      717.70555    
    512000   294.50727      0.024025475    28.668344      730.68067     -44.344302      686.33636    
    513000   308.64639      0.024025475    11.928553      765.76021     -43.384836      722.37537    
    514000   306.45703      0.024025475    9.6402381      760.32833     -41.441928      718.8864     
    515000   308.47801      0.024025475    8.0431378      765.34244     -36.708893      728.63355    
    516000   283.99448      0.024025475    15.297283      704.59813     -39.377839      665.2203     
    517000   305.88772      0.024025475    13.612833      758.91585     -38.66665       720.2492     
    518000   305.36653      0.024025475    8.2603204      757.62279     -45.440013      712.18277    
    519000   285.71913      0.024025475    13.020985      708.87703     -37.604717      671.27231    
    520000   295.78385      0.024025475    11.476077      733.84788     -41.906899      691.94098    
    521000   321.18059      0.024025475    4.8054648      796.8579      -38.965658      757.89224    
    522000   307.80819      0.024025475    15.271193      763.68059     -34.894419      728.78617    
    523000   295.92296      0.024025475    14.07871       734.19303     -36.648666      697.54436    
    524000   298.95924      0.024025475    14.134239      741.72611     -37.254064      704.47204    
    525000   298.9786       0.024025475    15.531563      741.77414     -38.94826       702.82588    
    526000   301.47807      0.024025475    11.500331      747.9754      -39.832375      708.14302    
    527000   305.03132      0.024025475    14.588358      756.79112     -38.44424       718.34688    
    528000   300.68749      0.024025475    15.061427      746.01395     -40.122107      705.89184    
    529000   300.68595      0.024025475    10.349044      746.01013     -41.153594      704.85653    
    530000   299.10635      0.024025475    7.6519884      742.09109     -46.369372      695.72172    
    531000   303.56647      0.024025475    13.533311      753.15679     -47.265021      705.89177    
    532000   312.99063      0.024025475    30.203107      776.53837     -45.529449      731.00892    
    533000   295.63743      0.024025475    13.697547      733.48461     -48.484392      685.00022    
    534000   284.81307      0.024025475   -5.8298562      706.62908     -43.457425      663.17166    
    535000   310.25456      0.024025475    12.715696      769.75012     -43.267877      726.48224    
    536000   307.35179      0.024025475    14.979966      762.54827     -47.543375      715.00489    
    537000   286.89689      0.024025475    22.623905      711.79908     -39.555484      672.2436     
    538000   298.64573      0.024025475    8.3417194      740.94828     -42.003414      698.94487    
    539000   300.63928      0.024025475    11.428213      745.89434     -41.937283      703.95706    
    540000   299.05906      0.024025475    9.9728521      741.97378     -42.429493      699.54428    
    541000   305.3466       0.024025475    17.51088       757.57334     -37.649183      719.92416    
    542000   289.50841      0.024025475    14.042139      718.27834     -42.085009      676.19333    
    543000   290.40471      0.024025475   -2.1811702      720.50208     -43.408326      677.09376    
    544000   311.14164      0.024025475    17.046721      771.95099     -41.238412      730.71258    
    545000   289.87261      0.024025475    14.850809      719.18194     -39.664423      679.51752    
    546000   283.77164      0.024025475    3.4955294      704.04526     -44.322249      659.72301    
    547000   311.76195      0.024025475    12.094626      773.48998     -39.062969      734.42701    
    548000   302.06988      0.024025475    16.813826      749.4437      -38.33204       711.11166    
    549000   281.9216       0.024025475    11.578326      699.45526     -37.493058      661.9622     
    550000   312.55538      0.024025475    13.761054      775.45852     -33.143251      742.31527    
    551000   310.20248      0.024025475    10.067074      769.62091     -35.721028      733.89988    
    552000   305.14428      0.024025475    12.431651      757.07137     -36.008031      721.06334    
    553000   293.22418      0.024025475    12.529771      727.49728     -43.75627       683.74101    
    554000   298.34025      0.024025475    12.819869      740.19039     -40.498006      699.69239    
    555000   306.16341      0.024025475    12.131405      759.59987     -37.08641       722.51346    
    556000   289.20134      0.024025475    11.712319      717.51649     -40.740731      676.77576    
    557000   298.69047      0.024025475    13.732665      741.05929     -40.421603      700.63769    
    558000   302.92853      0.024025475    10.626828      751.57404     -43.385507      708.18853    
    559000   308.37417      0.024025475    8.4820906      765.08481     -39.167401      725.9174     
    560000   296.52781      0.024025475    10.522743      735.69367     -43.365668      692.328      
    561000   293.29246      0.024025475    13.065133      727.66668     -45.135934      682.53074    
    562000   298.79582      0.024025475    17.483626      741.32068     -45.510842      695.80983    
    563000   311.31715      0.024025475    9.8982376      772.38643     -42.877261      729.50917    
    564000   295.9293       0.024025475    11.60802       734.20876     -36.696521      697.51224    
    565000   294.43019      0.024025475    12.383566      730.48942     -36.095364      694.39406    
    566000   323.85492      0.024025475    14.029003      803.49299     -32.016006      771.47699    
    567000   304.28056      0.024025475    13.086905      754.92845     -39.558737      715.36971    
    568000   296.34462      0.024025475    12.521523      735.23917     -41.560727      693.67845    
    569000   299.48449      0.024025475    13.981969      743.02928     -42.870115      700.15917    
    570000   307.18036      0.024025475    11.123447      762.12295     -41.072618      721.05033    
    571000   295.48446      0.024025475    12.4841        733.10509     -36.732694      696.3724     
    572000   294.55704      0.024025475    16.086601      730.80414     -32.259998      698.54414    
    573000   311.02852      0.024025475    14.858487      771.67034     -33.519858      738.15048    
    574000   309.22413      0.024025475    13.46927       767.19359     -35.980875      731.21271    
    575000   289.84289      0.024025475    13.137477      719.1082      -38.489728      680.61847    
    576000   304.00807      0.024025475    11.593356      754.25241     -38.406741      715.84567    
    577000   308.66071      0.024025475    13.364337      765.79572     -39.969938      725.82578    
    578000   298.80811      0.024025475    9.6142974      741.35115     -38.505696      702.84546    
    579000   285.44944      0.024025475    9.2616265      708.20794     -41.907806      666.30013    
    580000   296.64986      0.024025475    6.9661102      735.99648     -40.507317      695.48916    
    581000   300.94904      0.024025475    14.595034      746.66286     -43.483574      703.17928    
    582000   301.56687      0.024025475    18.982242      748.19571     -46.758854      701.43686    
    583000   301.00839      0.024025475    11.595681      746.81011     -40.984957      705.82515    
    584000   304.15359      0.024025475    9.475096       754.61345     -39.441616      715.17183    
    585000   305.20013      0.024025475    11.89379       757.20993     -42.111734      715.09819    
    586000   298.92401      0.024025475    14.925303      741.6387      -32.526919      709.11178    
    587000   305.54361      0.024025475    15.507317      758.06212     -39.138517      718.9236     
    588000   304.3421       0.024025475    10.254698      755.08115     -39.67276       715.40839    
    589000   301.01674      0.024025475    11.560861      746.83083     -45.266274      701.56455    
    590000   297.49745      0.024025475    21.47869       738.09938     -42.266084      695.83329    
    591000   300.48144      0.024025475    9.4252343      745.50273     -39.885808      705.61692    
    592000   295.17394      0.024025475    17.753091      732.33468     -40.322898      692.01178    
    593000   304.47221      0.024025475    24.178921      755.40394     -47.758225      707.64572    
    594000   299.51432      0.024025475    15.532152      743.10329     -48.23406       694.86923    
    595000   302.60148      0.024025475    13.39595       750.76262     -45.431474      705.33115    
    596000   294.99799      0.024025475    2.7730431      731.89814     -41.945576      689.95257    
    597000   287.21842      0.024025475    7.6344633      712.59682     -43.540507      669.05632    
    598000   305.81484      0.024025475    14.559552      758.73504     -48.963292      709.77175    
    599000   307.03692      0.024025475    16.620799      761.76706     -46.573858      715.1932     
    600000   295.77894      0.024025475    6.1737648      733.83569     -41.337587      692.49811    
    601000   303.61987      0.024025475    2.5221367      753.28927     -39.665755      713.62352    
    602000   293.50499      0.024025475    13.022088      728.19398     -43.44385       684.75013    
    603000   299.9977       0.024025475    15.885345      744.30257     -42.839344      701.46323    
    604000   303.54744      0.024025475    7.1523095      753.10956     -42.148027      710.96154    
    605000   292.06206      0.024025475    18.059093      724.61403     -32.909433      691.70459    
    606000   303.38163      0.024025475    24.188776      752.69819     -35.105467      717.59273    
    607000   302.4268       0.024025475    8.0493193      750.32924     -40.579896      709.74934    
    608000   312.1265       0.024025475    13.608772      774.39446     -38.644666      735.74979    
    609000   311.52335      0.024025475    9.6964999      772.89802     -38.241441      734.65657    
    610000   293.56453      0.024025475    12.655035      728.34169     -41.04566       687.29603    
    611000   293.74744      0.024025475    11.636188      728.79549     -44.727198      684.06829    
    612000   298.43388      0.024025475    11.372383      740.42269     -48.022664      692.40003    
    613000   302.75331      0.024025475    12.986921      751.13932     -38.378539      712.76078    
    614000   302.7176       0.024025475    14.045635      751.05071     -35.760598      715.29012    
    615000   277.84331      0.024025475    15.913412      689.33691     -40.874529      648.46238    
    616000   295.88105      0.024025475    11.232928      734.08904     -42.861142      691.2279     
    617000   304.21448      0.024025475    10.230647      754.76451     -45.516903      709.24761    
    618000   303.53624      0.024025475    13.54671       753.08178     -42.133487      710.94829    
    619000   298.04218      0.024025475    11.652076      739.45087     -43.034871      696.416      
    620000   301.84735      0.024025475    9.9054716      748.8916      -40.582311      708.30928    
    621000   292.74509      0.024025475    12.521974      726.30863     -39.6799        686.62873    
    622000   300.14282      0.024025475    12.969857      744.66262     -33.445309      711.21731    
    623000   301.50158      0.024025475    7.8482352      748.03374     -33.724569      714.30917    
    624000   294.87708      0.024025475    14.931207      731.59816     -36.36683       695.23133    
    625000   297.10639      0.024025475    11.638945      737.12915     -40.602377      696.52678    
    626000   311.43624      0.024025475    14.541228      772.6819      -34.976152      737.70575    
    627000   302.97564      0.024025475    11.280821      751.69091     -41.320678      710.37023    
    628000   294.18473      0.024025475    13.969924      729.88042     -40.324494      689.55593    
    629000   302.8506       0.024025475    15.463997      751.38068     -32.777499      718.60318    
    630000   294.07035      0.024025475    14.539221      729.59665     -34.757697      694.83895    
    631000   302.66195      0.024025475    10.66478       750.91265     -38.318049      712.5946     
    632000   309.98043      0.024025475    15.265718      769.07        -42.981678      726.08832    
    633000   302.05553      0.024025475    13.269422      749.40809     -40.705023      708.70307    
    634000   297.1975       0.024025475    11.469581      737.3552      -37.092708      700.26249    
    635000   304.83754      0.024025475    15.521155      756.31035     -29.687487      726.62286    
    636000   297.0785       0.024025475    10.044376      737.05994     -34.979116      702.08082    
    637000   305.06972      0.024025475    14.678578      756.88639     -29.619619      727.26677    
    638000   302.94523      0.024025475    23.35169       751.61547     -36.880462      714.73501    
    639000   298.80315      0.024025475    12.244716      741.33884     -37.633678      703.70516    
    640000   290.77651      0.024025475    9.4502247      721.42454     -35.649588      685.77495    
    641000   300.54979      0.024025475    12.185035      745.67232     -31.328664      714.34365    
    642000   298.53321      0.024025475    13.610547      740.66912     -34.611341      706.05778    
    643000   313.25237      0.024025475    13.541583      777.18776     -32.368196      744.81956    
    644000   294.14151      0.024025475    11.931342      729.7732      -36.649111      693.12409    
    645000   316.0874       0.024025475    14.080198      784.22156     -34.661833      749.55972    
    646000   306.46237      0.024025475    14.249735      760.3416      -37.473857      722.86774    
    647000   289.552        0.024025475    12.244046      718.3865      -36.156444      682.23006    
    648000   297.6398       0.024025475    12.114648      738.45256     -35.862982      702.58958    
    649000   307.30939      0.024025475    12.758999      762.44306     -33.23345       729.20961    
    650000   297.0233       0.024025475    14.653959      736.92299     -37.369487      699.5535     
    651000   302.51875      0.024025475    14.646369      750.55735     -36.03789       714.51946    
    652000   299.34191      0.024025475    12.434364      742.67553     -39.519024      703.15651    
    653000   300.85773      0.024025475    11.618122      746.43632     -30.910572      715.52575    
    654000   305.72771      0.024025475    13.82234       758.51887     -39.253484      719.26538    
    655000   298.20358      0.024025475    17.335809      739.85131     -39.222701      700.62861    
    656000   284.7021       0.024025475    12.849117      706.35375     -43.058155      663.29559    
    657000   301.69578      0.024025475    11.104211      748.51554     -39.25043       709.26511    
    658000   315.68063      0.024025475    12.360779      783.21233     -38.360431      744.8519     
    659000   302.21889      0.024025475    14.012608      749.8134      -35.50144       714.31196    
    660000   291.4673       0.024025475    12.691226      723.13839     -39.471672      683.66672    
    661000   299.43913      0.024025475    13.212501      742.91674     -41.700558      701.21618    
    662000   305.89105      0.024025475    16.472813      758.92412     -39.23594       719.68818    
    663000   294.75055      0.024025475    12.538681      731.28424     -39.603417      691.68083    
    664000   287.46589      0.024025475    12.516869      713.2108      -35.218455      677.99234    
    665000   297.82436      0.024025475    10.851628      738.91044     -34.044669      704.86577    
    666000   299.16386      0.024025475    12.712689      742.23378     -37.696099      704.53768    
    667000   307.76974      0.024025475    13.284994      763.58521     -40.363899      723.22131    
    668000   319.81014      0.024025475    16.710114      793.45777     -35.026358      758.43141    
    669000   292.06419      0.024025475    12.524847      724.61931     -35.90814       688.71117    
    670000   298.80477      0.024025475    11.583384      741.34287     -34.33345       707.00942    
    671000   310.34205      0.024025475    14.431108      769.96717     -37.054139      732.91304    
    672000   310.32567      0.024025475    28.037178      769.92655     -32.348756      737.57779    
    673000   291.78967      0.024025475    13.654465      723.93821     -32.035439      691.90277    
    674000   297.96032      0.024025475    7.3666619      739.24777     -36.322482      702.92528    
    675000   312.64595      0.024025475    8.3833754      775.68321     -39.397945      736.28527    
    676000   312.76407      0.024025475    15.650424      775.97628     -43.909663      732.06662    
    677000   294.30961      0.024025475    14.418051      730.19026     -39.72952       690.46074    
    678000   303.76623      0.024025475    11.847006      753.65239     -35.051576      718.60082    
    679000   301.57577      0.024025475    10.794301      748.2178      -41.695358      706.52244    
    680000   301.57844      0.024025475    15.125122      748.22443     -44.050575      704.17386    
    681000   296.46598      0.024025475    13.446501      735.54026     -39.296182      696.24408    
    682000   306.30389      0.024025475    13.200149      759.94839     -39.659626      720.28877    
    683000   297.02267      0.024025475    12.563736      736.92144     -43.404783      693.51666    
    684000   289.93325      0.024025475    12.317128      719.33238     -38.813068      680.51931    
    685000   319.48015      0.024025475    11.873882      792.63906     -37.178589      755.46048    
    686000   309.05904      0.024025475    12.030787      766.78401     -36.240149      730.54386    
    687000   283.70467      0.024025475    10.796974      703.8791      -33.663734      670.21537    
    688000   282.24396      0.024025475    13.363773      700.25504     -29.670955      670.58409    
    689000   302.58187      0.024025475    16.167507      750.71396     -35.256435      715.45753    
    690000   330.63173      0.024025475    15.852718      820.30644     -36.408724      783.89772    
    691000   300.02972      0.024025475    11.190832      744.382       -41.168591      703.21341    
    692000   287.45864      0.024025475    11.006561      713.1928      -37.705345      675.48746    
    693000   316.08         0.024025475    13.710243      784.2032      -31.809801      752.3934     
    694000   310.54405      0.024025475    14.322523      770.46834     -39.559817      730.90852    
    695000   298.18496      0.024025475    11.499417      739.80511     -39.65023       700.15488    
    696000   288.95436      0.024025475    15.272942      716.90374     -37.808351      679.09539    
    697000   293.65131      0.024025475    16.987716      728.55699     -38.519532      690.03746    
    698000   312.0874       0.024025475    16.384795      774.29745     -38.431599      735.86585    
    699000   291.02598      0.024025475    7.6752804      722.04349     -39.769598      682.27389    
    700000   295.62905      0.024025475    19.433968      733.46382     -39.037241      694.42658    
    701000   308.80711      0.024025475    16.073096      766.15894     -44.271422      721.88752    
    702000   293.11909      0.024025475    12.275479      727.23654     -43.722304      683.51423    
    703000   293.34053      0.024025475    10.960471      727.78595     -35.916576      691.86937    
    704000   299.84492      0.024025475    11.403067      743.92351     -39.622765      704.30075    
    705000   303.25106      0.024025475    11.121257      752.37423     -38.272164      714.10207    
    706000   299.27924      0.024025475    9.9258882      742.52004     -42.743785      699.77626    
    707000   306.65042      0.024025475    14.278917      760.80814     -36.358812      724.44933    
    708000   300.67817      0.024025475    16.513585      745.99082     -37.610673      708.38015    
    709000   298.04451      0.024025475    15.032831      739.45664     -40.876871      698.57977    
    710000   292.378        0.024025475    4.0926141      725.39789     -45.226237      680.17165    
    711000   307.68548      0.024025475    12.653409      763.37615     -41.27386       722.10229    
    712000   305.24632      0.024025475    24.084055      757.32454     -45.149751      712.17479    
    713000   289.74279      0.024025475    1.6002067      718.85984     -43.045138      675.8147     
    714000   303.73945      0.024025475    9.9265071      753.58594     -41.207715      712.37823    
    715000   303.53797      0.024025475    13.877992      753.08607     -40.598155      712.48792    
    716000   297.43398      0.024025475    17.843438      737.94189     -38.551366      699.39053    
    717000   287.57248      0.024025475    11.704121      713.47525     -48.456406      665.01884    
    718000   298.12009      0.024025475    6.7650616      739.64415     -40.338177      699.30598    
    719000   295.40806      0.024025475    5.9596594      732.91553     -38.137368      694.77817    
    720000   301.23549      0.024025475    9.5607185      747.37356     -36.141825      711.23173    
    721000   317.86765      0.024025475    19.083715      788.63841     -36.397326      752.24108    
    722000   312.58775      0.024025475    34.149324      775.53882     -36.510588      739.02824    
    723000   286.84366      0.024025475    15.67649       711.66703     -37.298485      674.36854    
    724000   300.26112      0.024025475    9.9956558      744.95612     -38.149007      706.80712    
    725000   304.81411      0.024025475    12.041481      756.25222     -39.885246      716.36697    
    726000   304.42587      0.024025475    15.53306       755.28897     -39.413183      715.87579    
    727000   290.99102      0.024025475    7.6742502      721.95675     -38.795867      683.16088    
    728000   304.49581      0.024025475    11.388953      755.46251     -41.223323      714.23919    
    729000   288.96678      0.024025475    16.387048      716.93454     -34.051451      682.88309    
    730000   304.23724      0.024025475    2.1975799      754.82098     -35.244411      719.57657    
    731000   302.61365      0.024025475    15.25858       750.79281     -30.671098      720.12171    
    732000   296.25581      0.024025475    16.651628      735.01882     -34.564931      700.45389    
    733000   304.62864      0.024025475    11.751981      755.79206     -34.947388      720.84467    
    734000   309.94172      0.024025475   -2.093183       768.97395     -32.630177      736.34377    
    735000   312.40085      0.024025475    14.55496       775.07512     -38.476201      736.59892    
    736000   285.58282      0.024025475    16.124364      708.53884     -41.468924      667.06991    
    737000   293.94715      0.024025475    10.967678      729.29097     -42.41481       686.87616    
    738000   304.06154      0.024025475    11.871878      754.38507     -40.285836      714.09924    
    739000   319.53726      0.024025475    12.79656       792.78075     -41.798799      750.98195    
    740000   294.19827      0.024025475    13.499405      729.91402     -48.560366      681.35365    
    741000   286.0069       0.024025475    11.527989      709.591       -45.697657      663.89334    
    742000   307.38499      0.024025475    12.7616        762.63064     -43.620585      719.01005    
    743000   296.63519      0.024025475    12.690109      735.96008     -39.861369      696.09871    
    744000   290.5735       0.024025475    11.295115      720.92087     -40.559609      680.36126    
    745000   306.39236      0.024025475    12.678696      760.1679      -36.912399      723.2555     
    746000   305.4739       0.024025475    12.927425      757.88917     -42.665237      715.22394    
    747000   298.03436      0.024025475    9.3690268      739.43147     -43.55204       695.87943    
    748000   294.75402      0.024025475    12.143374      731.29285     -43.182253      688.1106     
    749000   288.28873      0.024025475    11.035078      715.25228     -43.019225      672.23306    
    750000   301.80408      0.024025475    12.57669       748.78424     -47.773888      701.01035    
    751000   294.10824      0.024025475    9.7419444      729.69064     -43.53249       686.15815    
    752000   305.20627      0.024025475    13.137507      757.22516     -47.944317      709.28084    
    753000   311.99842      0.024025475    11.069097      774.07669     -42.781665      731.29503    
    754000   292.34709      0.024025475    4.0928665      725.32118     -45.52856       679.79262    
    755000   296.44248      0.024025475    16.119879      735.48197     -44.872102      690.60987    
    756000   305.57663      0.024025475    16.828257      758.14405     -51.179031      706.96502    
    757000   301.82035      0.024025475    13.266819      748.82461     -46.512838      702.31177    
    758000   293.86582      0.024025475    11.189004      729.0892      -48.67627       680.41293    
    759000   299.33057      0.024025475    13.487399      742.6474      -44.617229      698.03017    
    760000   308.94297      0.024025475    12.762934      766.49603     -41.860915      724.63512    
    761000   302.60509      0.024025475    10.267746      750.77157     -47.959553      702.81202    
    762000   298.33844      0.024025475    12.32372       740.1859      -46.755241      693.43066    
    763000   300.98393      0.024025475    13.735024      746.74942     -44.072402      702.67702    
    764000   302.27665      0.024025475    13.038035      749.9567      -40.422271      709.53443    
    765000   297.02493      0.024025475    13.483332      736.92705     -41.385671      695.54138    
    766000   299.09474      0.024025475    9.6739116      742.06231     -44.748635      697.31367    
    767000   297.32334      0.024025475    11.777872      737.66739     -47.621724      690.04567    
    768000   288.02145      0.024025475    16.192491      714.58915     -44.544195      670.04495    
    769000   294.13951      0.024025475    14.322405      729.76822     -47.450162      682.31806    
    770000   308.47907      0.024025475    8.318705       765.34508     -44.876621      720.46846    
    771000   304.2047       0.024025475    6.9700039      754.74024     -47.552263      707.18798    
    772000   293.05509      0.024025475    13.065313      727.07776     -40.766637      686.31112    
    773000   301.52834      0.024025475    23.83729       748.10013     -48.453391      699.64674    
    774000   309.35314      0.024025475    13.855002      767.51366     -51.726387      715.78727    
    775000   298.55398      0.024025475    0.099160985    740.72065     -52.173949      688.5467     
    776000   296.48342      0.024025475    2.3792135      735.58353     -44.072183      691.51135    
    777000   293.13781      0.024025475    4.8330512      727.28299     -40.835691      686.4473     
    778000   300.08092      0.024025475    25.172339      744.50903     -44.251583      700.25745    
    779000   315.82389      0.024025475    14.558119      783.56777     -45.590327      737.97744    
    780000   296.06684      0.024025475    8.7330395      734.54998     -43.307773      691.24221    
    781000   282.28004      0.024025475    13.349793      700.34457     -41.718871      658.6257     
    782000   300.29242      0.024025475    16.063473      745.03378     -42.9687        702.06508    
    783000   308.14703      0.024025475    7.591271       764.52126     -43.082938      721.43833    
    784000   289.4959       0.024025475    11.056001      718.24731     -38.905649      679.34166    
    785000   291.27995      0.024025475    16.312312      722.67358     -39.157512      683.51607    
    786000   299.73087      0.024025475    25.191749      743.64055     -44.00327       699.63728    
    787000   310.76138      0.024025475    12.889734      771.00755     -46.467318      724.54023    
    788000   285.85378      0.024025475    9.1776462      709.21111     -46.125491      663.08562    
    789000   308.22234      0.024025475    13.729449      764.70813     -40.022327      724.6858     
    790000   302.2526       0.024025475    14.431629      749.89702     -39.919488      709.97753    
    791000   297.3202       0.024025475    7.8522735      737.65962     -40.941411      696.71821    
    792000   307.86363      0.024025475    11.221845      763.81814     -46.444474      717.37367    
    793000   298.54466      0.024025475    17.422745      740.69753     -42.040494      698.65703    
    794000   314.36732      0.024025475    13.259881      779.95399     -44.961551      734.99244    
    795000   308.07512      0.024025475    13.596665      764.34288     -48.449775      715.8931     
    796000   285.45331      0.024025475    12.540217      708.21752     -40.310728      667.90679    
    797000   294.93992      0.024025475    12.832471      731.75407     -45.073459      686.68061    
    798000   306.73836      0.024025475    13.365933      761.02634     -45.203253      715.82308    
    799000   294.44295      0.024025475    12.060783      730.52107     -45.907976      684.6131     
    800000   298.97736      0.024025475    10.911799      741.77106     -47.088705      694.68236    
    801000   299.94985      0.024025475    12.463026      744.18386     -48.855003      695.32885    
    802000   298.191        0.024025475    12.2465        739.8201      -43.80252       696.01758    
    803000   305.58283      0.024025475    10.172714      758.15943     -41.853357      716.30607    
    804000   295.34831      0.024025475    23.949555      732.7673      -39.401554      693.36575    
    805000   308.87574      0.024025475    14.800684      766.32922     -40.929943      725.39928    
    806000   301.94059      0.024025475    5.0754732      749.12293     -38.389983      710.73295    
    807000   298.5418       0.024025475    12.185644      740.69044     -35.739928      704.95051    
    808000   297.61375      0.024025475    15.861259      738.38792     -39.00745       699.38047    
    809000   306.8836       0.024025475    9.571695       761.38666     -38.816255      722.5704     
    810000   290.14657      0.024025475    9.984336       719.86163     -39.062125      680.79951    
    811000   284.72457      0.024025475    9.3698089      706.40951     -39.809608      666.59991    
    812000   293.7127       0.024025475    16.753373      728.7093      -38.018792      690.69051    
    813000   305.56606      0.024025475    12.088628      758.11781     -37.772433      720.34538    
    814000   294.31639      0.024025475    9.7481654      730.20707     -38.954941      691.25212    
    815000   304.27961      0.024025475    12.46836       754.92611     -36.483406      718.44271    
    816000   290.05223      0.024025475    13.470392      719.62758     -29.641266      689.98632    
    817000   294.8259       0.024025475    11.656656      731.47119     -34.259672      697.21152    
    818000   314.43536      0.024025475    14.28315       780.12278     -38.208549      741.91423    
    819000   303.29083      0.024025475    13.109149      752.4729      -38.876218      713.59669    
    820000   285.2749       0.024025475    12.063455      707.77488     -41.709937      666.06495    
    821000   297.98509      0.024025475    14.83432       739.30923     -38.962056      700.34717    
    822000   310.09663      0.024025475    13.077661      769.3583      -38.244128      731.11417    
    823000   292.8253       0.024025475    11.622404      726.50765     -43.993947      682.5137     
    824000   295.22503      0.024025475    12.105766      732.46143     -38.396421      694.06501    
    825000   311.42046      0.024025475    13.194146      772.64275     -35.239109      737.40364    
    826000   316.14628      0.024025475    14.589697      784.36764     -41.787669      742.57997    
    827000   291.65377      0.024025475    12.627069      723.60106     -41.662201      681.93885    
    828000   296.22945      0.024025475    11.389787      734.95343     -40.413825      694.5396     
    829000   307.65728      0.024025475    14.045579      763.30618     -39.169585      724.1366     
    830000   295.1351       0.024025475    17.734354      732.23831     -37.967051      694.27126    
    831000   295.74175      0.024025475    14.023536      733.74343     -38.69784       695.04558    
    832000   293.93835      0.024025475    10.529267      729.26915     -40.024231      689.24492    
    833000   297.40853      0.024025475    12.851207      737.87877     -39.618918      698.25985    
    834000   296.70125      0.024025475    13.175851      736.12399     -42.188277      693.93572    
    835000   316.03814      0.024025475    11.250412      784.09933     -47.291536      736.8078     
    836000   321.81253      0.024025475    10.872363      798.42576     -49.622877      748.80288    
    837000   299.45153      0.024025475    9.79636        742.9475      -47.036867      695.91063    
    838000   294.8586       0.024025475    16.474434      731.55231     -41.545463      690.00684    
    839000   302.057        0.024025475    18.383919      749.41175     -41.457774      707.95398    
    840000   308.47786      0.024025475    10.754989      765.34208     -45.190439      720.15164    
    841000   290.3847       0.024025475    11.991822      720.45245     -42.163385      678.28907    
    842000   301.94635      0.024025475    11.374062      749.13721     -44.841622      704.29559    
    843000   299.87517      0.024025475    10.440725      743.99857     -42.591712      701.40685    
    844000   303.05571      0.024025475    13.29204       751.88957     -48.126861      703.76271    
    845000   306.37723      0.024025475    13.047373      760.13036     -42.554406      717.57596    
    846000   310.18982      0.024025475    12.41676       769.58948     -42.023143      727.56634    
    847000   310.80826      0.024025475    13.779422      771.12385     -38.739944      732.38391    
    848000   290.88677      0.024025475    14.148753      721.6981      -32.862554      688.83554    
    849000   295.14726      0.024025475    13.928879      732.26848     -37.872615      694.39587    
    850000   312.49122      0.024025475    12.844872      775.29933     -40.501365      734.79796    
    851000   294.56156      0.024025475    9.3467167      730.81535     -39.910744      690.90461    
    852000   303.76435      0.024025475    14.790023      753.64773     -41.937418      711.71032    
    853000   302.82347      0.024025475    14.17031       751.31337     -35.598049      715.71533    
    854000   300.98412      0.024025475    12.358069      746.74991     -40.129         706.62091    
    855000   294.46583      0.024025475    6.7254666      730.57784     -38.18425       692.39359    
    856000   303.80037      0.024025475    17.331572      753.7371      -36.953562      716.78353    
    857000   294.77468      0.024025475   -1.0633133      731.34411     -34.907789      696.43632    
    858000   303.78667      0.024025475    13.6025        753.70309     -37.218438      716.48465    
    859000   304.62032      0.024025475    14.112984      755.77141     -32.877548      722.89386    
    860000   299.98819      0.024025475    6.6156018      744.27897     -36.567269      707.7117     
    861000   295.17283      0.024025475    8.7385635      732.33193     -36.948684      695.38324    
    862000   292.33682      0.024025475    12.792374      725.2957      -38.780672      686.51503    
    863000   301.87441      0.024025475    16.720051      748.95874     -40.413698      708.54505    
    864000   311.71709      0.024025475    12.37261       773.37869     -39.943072      733.43562    
    865000   297.48495      0.024025475    13.182486      738.06836     -39.067821      699.00054    
    866000   303.95135      0.024025475    13.190675      754.11167     -37.77982       716.33185    
    867000   283.90133      0.024025475    12.523776      704.36703     -42.317158      662.04988    
    868000   298.03168      0.024025475    18.375087      739.42482     -38.385843      701.03898    
    869000   324.83674      0.024025475    3.8413335      805.9289      -40.328694      765.60021    
    870000   293.14311      0.024025475    13.414363      727.29614     -36.286213      691.00993    
    871000   285.71374      0.024025475    14.11893       708.86367     -37.312987      671.55069    
    872000   314.97723      0.024025475    13.561122      781.46718     -29.193323      752.27386    
    873000   306.17615      0.024025475    11.093432      759.63147     -24.347635      735.28384    
    874000   288.91524      0.024025475    9.6258686      716.80669     -32.407548      684.39914    
    875000   293.28717      0.024025475    22.186298      727.65355     -36.697065      690.95649    
    876000   314.92991      0.024025475    10.946808      781.34979     -37.843683      743.5061     
    877000   302.22245      0.024025475    10.88019       749.82222     -38.280098      711.54212    
    878000   298.56023      0.024025475    10.920676      740.73615     -38.791808      701.94435    
    879000   284.34407      0.024025475    18.306354      705.46548     -39.436897      666.02858    
    880000   304.12295      0.024025475    20.447597      754.53743     -39.312416      715.22502    
    881000   310.41449      0.024025475    16.112572      770.14692     -42.839367      727.30755    
    882000   300.82915      0.024025475    17.045898      746.36542     -36.96264       709.40278    
    883000   301.52178      0.024025475    9.0907236      748.08385     -40.288527      707.79532    
    884000   305.18784      0.024025475    21.261743      757.17944     -33.749418      723.43002    
    885000   309.08941      0.024025475    11.295353      766.85936     -39.031701      727.82765    
    886000   280.50728      0.024025475    10.211173      695.9463      -38.399687      657.54662    
    887000   293.92977      0.024025475    16.926755      729.24787     -44.130536      685.11734    
    888000   320.27002      0.024025475    19.1807        794.59874     -42.656177      751.94256    
    889000   308.0391       0.024025475    17.983002      764.2535      -42.324155      721.92934    
    890000   300.92346      0.024025475    9.5952566      746.59939     -42.323263      704.27613    
    891000   284.06556      0.024025475    13.596512      704.77449     -41.661864      663.11263    
    892000   296.77278      0.024025475    13.134153      736.30146     -39.674623      696.62684    
    893000   313.65309      0.024025475    13.319146      778.18196     -42.036436      736.14553    
    894000   288.64187      0.024025475    11.886349      716.12845     -44.163376      671.96507    
    895000   286.09937      0.024025475    11.300028      709.82042     -47.767774      662.05265    
    896000   310.79718      0.024025475    13.324517      771.09638     -44.454226      726.64216    
    897000   304.90034      0.024025475    12.452741      756.46616     -40.181796      716.28436    
    898000   299.44154      0.024025475    20.526735      742.92271     -37.718083      705.20463    
    899000   303.8946       0.024025475    11.384994      753.97087     -39.403927      714.56695    
    900000   309.79123      0.024025475    11.48352       768.60059     -38.308629      730.29196    
    901000   299.14363      0.024025475   -0.093911782    742.18358     -39.227348      702.95623    
    902000   292.33526      0.024025475    16.064222      725.29184     -33.969956      691.32188    
    903000   309.25495      0.024025475    16.9694        767.27004     -31.310064      735.95998    
    904000   313.26272      0.024025475    10.351707      777.21344     -38.610085      738.60335    
    905000   288.90591      0.024025475    10.805449      716.78353     -42.465033      674.31849    
    906000   292.3069       0.024025475    14.336134      725.22149     -38.963792      686.25769    
    907000   304.75746      0.024025475    13.221756      756.11167     -39.64135       716.47032    
    908000   300.97699      0.024025475    3.3018472      746.7322      -41.349693      705.38251    
    909000   295.73004      0.024025475    11.638796      733.71438     -43.607638      690.10674    
    910000   293.01672      0.024025475    10.981119      726.98255     -41.662898      685.31965    
    911000   302.47741      0.024025475    11.315231      750.45479     -38.849808      711.60498    
    912000   312.12162      0.024025475    20.346205      774.38235     -41.88361       732.49874    
    913000   296.54893      0.024025475    19.726755      735.74608     -36.285088      699.46099    
    914000   298.8153       0.024025475    6.3312808      741.369       -35.904661      705.46434    
    915000   306.55261      0.024025475    16.233621      760.56547     -37.614357      722.95111    
    916000   300.56871      0.024025475    16.149166      745.71925     -36.261306      709.45795    
    917000   294.49208      0.024025475    10.504942      730.64298     -36.391653      694.25132    
    918000   301.86487      0.024025475    11.3291        748.93507     -32.541939      716.39313    
    919000   311.81079      0.024025475    13.037275      773.61117     -33.018608      740.59257    
    920000   296.719        0.024025475    10.905558      736.16801     -39.01407       697.15394    
    921000   290.95681      0.024025475    11.517922      721.87187     -34.701669      687.1702     
    922000   295.12216      0.024025475    11.567633      732.20622     -34.226765      697.97946    
    923000   310.50911      0.024025475    10.223622      770.38167     -35.598843      734.78283    
    924000   308.79768      0.024025475    16.781573      766.13557     -35.588405      730.54716    
    925000   302.78408      0.024025475    13.34284       751.21565     -36.270834      714.94482    
    926000   299.46326      0.024025475    13.020735      742.9766      -35.829027      707.14758    
    927000   291.19631      0.024025475    11.405184      722.46607     -41.054851      681.41122    
    928000   304.01061      0.024025475    9.8474082      754.25871     -40.213285      714.04543    
    929000   312.00309      0.024025475    17.599215      774.08826     -43.551944      730.53631    
    930000   293.58518      0.024025475    18.480102      728.39292     -42.792369      685.60055    
    931000   289.51877      0.024025475    14.607379      718.30406     -43.559446      674.74461    
    932000   285.98569      0.024025475    12.116888      709.53839     -47.932589      661.6058     
    933000   290.85109      0.024025475    12.51619       721.60958     -43.281         678.32858    
    934000   308.48102      0.024025475    11.928324      765.34992     -40.702217      724.6477     
    935000   305.60731      0.024025475    13.983408      758.22017     -40.672592      717.54757    
    936000   300.14638      0.024025475    13.576957      744.67144     -38.70518       705.96626    
    937000   288.27176      0.024025475    12.312836      715.21019     -37.259982      677.95021    
    938000   296.87921      0.024025475    12.975298      736.5655      -42.938515      693.62698    
    939000   302.05175      0.024025475    15.03728       749.39873     -44.626072      704.77266    
    940000   296.76817      0.024025475    11.957394      736.29001     -49.28509       687.00492    
    941000   304.38759      0.024025475    12.691041      755.19401     -50.973567      704.22044    
    942000   309.49539      0.024025475    10.682922      767.8666      -45.896897      721.9697     
    943000   297.47829      0.024025475    12.357221      738.05184     -48.637124      689.41472    
    944000   291.12462      0.024025475    14.97466       722.28822     -45.515997      676.77222    
    945000   289.02527      0.024025475    12.682578      717.07967     -41.429431      675.65024    
    946000   318.01457      0.024025475    13.756739      789.0029      -42.700138      746.30277    
    947000   295.7294       0.024025475    14.466846      733.7128      -39.300955      694.41185    
    948000   296.05211      0.024025475    11.321415      734.51345     -40.032988      694.48046    
    949000   293.38854      0.024025475    11.959335      727.90506     -37.775001      690.13006    
    950000   301.95689      0.024025475    22.629742      749.16337     -34.370181      714.79319    
    951000   286.10047      0.024025475    11.19883       709.82315     -36.107735      673.71542    
    952000   281.93533      0.024025475    4.7043394      699.48931     -37.687294      661.80202    
    953000   314.01073      0.024025475    11.411154      779.06928     -39.39771       739.67157    
    954000   307.2363       0.024025475    26.65931       762.26172     -33.049104      729.21262    
    955000   287.85156      0.024025475    13.722223      714.16765     -39.408853      674.75879    
    956000   286.96886      0.024025475    7.3365231      711.97766     -34.89157       677.08609    
    957000   299.09313      0.024025475    2.4148096      742.05831     -29.364706      712.6936     
    958000   302.24922      0.024025475    13.197433      749.88864     -34.21858       715.67006    
    959000   308.28246      0.024025475    26.865691      764.85728     -34.484279      730.373      
    960000   299.31263      0.024025475    8.8215343      742.60288     -36.315287      706.28759    
    961000   305.81368      0.024025475    13.641143      758.73218     -33.940587      724.79159    
    962000   299.31615      0.024025475    5.846502       742.61161     -36.087159      706.52445    
    963000   318.47212      0.024025475    9.7529341      790.1381      -32.032558      758.10554    
    964000   298.60771      0.024025475    31.768925      740.85396     -34.765007      706.08895    
    965000   298.31847      0.024025475    6.0893535      740.13636     -35.027272      705.10909    
    966000   296.36447      0.024025475    1.2169389      735.28841     -38.851953      696.43646    
    967000   309.09718      0.024025475    20.262542      766.87861     -38.804152      728.07446    
    968000   309.15719      0.024025475    20.765981      767.02751     -36.450935      730.57658    
    969000   298.57234      0.024025475    16.879825      740.76621     -36.298424      704.46778    
    970000   287.40915      0.024025475    4.0829656      713.07001     -32.954384      680.11563    
    971000   309.3697       0.024025475    10.892005      767.55476     -34.27124       733.28352    
    972000   306.41677      0.024025475    7.5381851      760.22844     -32.454021      727.77442    
    973000   320.12047      0.024025475    12.320208      794.22772     -35.645296      758.58242    
    974000   294.45764      0.024025475    15.313886      730.55751     -37.263063      693.29445    
    975000   290.96471      0.024025475    4.7249516      721.89146     -35.326339      686.56512    
    976000   298.98502      0.024025475    13.665594      741.79007     -37.220955      704.56911    
    977000   302.63617      0.024025475    14.594953      750.84869     -40.130732      710.71796    
    978000   304.675        0.024025475    13.831414      755.90706     -35.867842      720.03922    
    979000   301.17704      0.024025475    4.4540195      747.22853     -33.745444      713.48309    
    980000   304.7383       0.024025475    11.894394      756.06412     -39.550694      716.51343    
    981000   304.4152       0.024025475    15.963939      755.2625      -38.960942      716.30156    
    982000   304.1285       0.024025475    14.205246      754.5512      -40.458374      714.09283    
    983000   292.4836       0.024025475    11.6884        725.65987     -34.9027        690.75717    
    984000   302.41261      0.024025475    11.458347      750.29402     -34.995848      715.29817    
    985000   314.78434      0.024025475    13.015046      780.98862     -36.086615      744.90201    
    986000   295.07649      0.024025475    12.399188      732.0929      -33.958582      698.13432    
    987000   294.75348      0.024025475    21.582787      731.29152     -34.917466      696.37405    
    988000   303.53422      0.024025475    8.5044043      753.07677     -36.819884      716.25688    
    989000   297.40888      0.024025475    5.5470013      737.87963     -33.841275      704.03836    
    990000   309.00257      0.024025475    5.7930662      766.6439      -36.060692      730.58321    
    991000   305.65671      0.024025475    14.980987      758.34272     -38.658455      719.68426    
    992000   291.66889      0.024025475    16.390383      723.63856     -35.32326       688.3153     
    993000   300.34498      0.024025475    11.734388      745.16418     -36.46231       708.70187    
    994000   301.63277      0.024025475    16.116149      748.35922     -35.077325      713.28189    
    995000   300.55299      0.024025475    14.018389      745.68024     -35.589625      710.09062    
    996000   310.61358      0.024025475    11.108412      770.64086     -32.857911      737.78295    
    997000   304.45188      0.024025475    10.371288      755.35352     -30.66299       724.69053    
    998000   282.92484      0.024025475    14.691118      701.94433     -30.392399      671.55193    
    999000   298.67847      0.024025475    11.996426      741.02952     -32.619284      708.41023    
   1000000   311.72593      0.024025475    12.261105      773.40063     -32.38395       741.01668    
   1001000   300.60952      0.024025475    14.744525      745.82051     -29.945484      715.87502    
   1002000   283.67884      0.024025475    11.916537      703.81503     -36.172003      667.64303    
   1003000   312.31132      0.024025475    15.620984      774.85299     -34.313778      740.53921    
   1004000   297.65165      0.024025475    11.895195      738.48196     -31.023219      707.45874    
   1005000   288.60616      0.024025475    9.9955486      716.03983     -37.338126      678.7017     
   1006000   308.19481      0.024025475    9.6756709      764.63981     -33.981046      730.65877    
   1007000   313.53523      0.024025475    15.537184      777.88955     -38.094147      739.7954     
   1008000   298.60404      0.024025475    16.625522      740.84487     -35.078971      705.76589    
   1009000   293.43121      0.024025475    12.794878      728.01092     -39.698395      688.31253    
   1010000   310.58901      0.024025475    11.298054      770.5799      -37.403737      733.17617    
   1011000   304.98698      0.024025475    11.713121      756.68111     -39.612459      717.06865    
   1012000   287.35919      0.024025475    11.232823      712.94608     -40.483629      672.46245    
   1013000   297.72271      0.024025475    15.24909       738.65825     -38.049617      700.60864    
   1014000   312.87684      0.024025475    9.1288239      776.25605     -39.373455      736.8826     
   1015000   299.13784      0.024025475    11.819119      742.16923     -38.390761      703.77847    
   1016000   284.70915      0.024025475    11.509108      706.37125     -33.000085      673.37117    
   1017000   295.70861      0.024025475    11.180372      733.66122     -37.990198      695.67102    
   1018000   288.75049      0.024025475    11.81957       716.39794     -40.469088      675.92885    
   1019000   307.39184      0.024025475    13.350877      762.64762     -40.159167      722.48845    
   1020000   300.02776      0.024025475    13.42126       744.37714     -43.57267       700.80447    
   1021000   297.8578       0.024025475    12.226032      738.99342     -38.808575      700.18485    
   1022000   293.38439      0.024025475    13.309437      727.89475     -46.4151        681.47965    
   1023000   295.25199      0.024025475    14.132463      732.52832     -45.266395      687.26193    
   1024000   303.73603      0.024025475    12.238802      753.57746     -52.361813      701.21564    
   1025000   315.73899      0.024025475    12.466556      783.35713     -51.097218      732.25991    
   1026000   302.89777      0.024025475    12.838969      751.49772     -48.633314      702.86441    
   1027000   300.26899      0.024025475    11.811195      744.97564     -45.218253      699.75738    
   1028000   287.55219      0.024025475    11.513631      713.4249      -42.453606      670.9713     
   1029000   298.70323      0.024025475    9.9291161      741.09095     -40.491919      700.59903    
   1030000   306.70538      0.024025475    12.804897      760.94451     -47.704185      713.24033    
   1031000   300.33311      0.024025475    12.324135      745.13473     -38.211087      706.92365    
   1032000   284.16239      0.024025475    12.567012      705.01473     -38.969032      666.0457     
   1033000   295.94761      0.024025475    14.948997      734.25417     -36.060098      698.19408    
   1034000   325.14064      0.024025475    14.132996      806.68289     -41.731728      764.95116    
   1035000   300.73324      0.024025475    12.867139      746.12747     -37.280901      708.84657    
   1036000   295.11032      0.024025475    11.43371       732.17683     -44.199374      687.97746    
   1037000   300.2561       0.024025475    10.681974      744.94365     -41.059542      703.88411    
   1038000   291.73761      0.024025475    12.032577      723.80904     -43.92566       679.88338    
   1039000   298.99841      0.024025475    22.676536      741.82331     -41.099704      700.7236     
   1040000   298.95099      0.024025475    11.678826      741.70565     -38.342154      703.3635     
   1041000   292.21983      0.024025475    10.65553       725.00546     -38.005466      687          
   1042000   302.11247      0.024025475    11.106789      749.54937     -42.889532      706.65983    
   1043000   310.42496      0.024025475    9.9684326      770.17289     -41.647702      728.52518    
   1044000   297.31987      0.024025475    13.914202      737.6588      -38.36516       699.29364    
   1045000   289.81764      0.024025475    10.767467      719.04555     -42.93689       676.10866    
   1046000   298.44768      0.024025475    12.047494      740.45691     -37.13253       703.32438    
   1047000   279.52035      0.024025475    15.133735      693.49769     -37.164423      656.33327    
   1048000   294.848        0.024025475    14.176898      731.52601     -39.931199      691.59481    
   1049000   306.49841      0.024025475    9.2647171      760.43101     -39.961757      720.46926    
   1050000   301.75899      0.024025475    10.466093      748.67236     -43.236024      705.43634    
   1051000   305.08474      0.024025475    11.560973      756.92364     -47.591688      709.33195    
   1052000   294.83602      0.024025475    13.914542      731.4963      -43.12997       688.36633    
   1053000   305.9831       0.024025475    11.497143      759.15252     -45.440943      713.71157    
   1054000   296.71632      0.024025475    10.406165      736.16138     -41.369659      694.79172    
   1055000   299.19105      0.024025475    11.295665      742.30123     -41.21573       701.0855     
   1056000   300.15369      0.024025475    14.150016      744.68957     -40.347838      704.34174    
   1057000   303.50486      0.024025475    13.462086      753.00392     -43.978622      709.0253     
   1058000   301.18367      0.024025475    11.905115      747.24498     -43.556986      703.68799    
   1059000   300.57019      0.024025475    12.618024      745.72294     -44.18856       701.53438    
   1060000   296.79888      0.024025475    4.6936278      736.3662      -41.493822      694.87238    
   1061000   320.98016      0.024025475    12.510124      796.36063     -48.602867      747.75776    
   1062000   303.3377       0.024025475    19.204591      752.58919     -41.712286      710.8769     
   1063000   288.52737      0.024025475    11.828181      715.84435     -46.929159      668.9152     
   1064000   305.41751      0.024025475    12.65369       757.74925     -44.641319      713.10793    
   1065000   316.80227      0.024025475    14.493739      785.99516     -42.41942       743.57574    
   1066000   302.93711      0.024025475    13.423481      751.59531     -42.6723        708.92301    
   1067000   294.74717      0.024025475    13.778866      731.27585     -42.488877      688.78698    
   1068000   311.47173      0.024025475    13.33816       772.76994     -42.288992      730.48095    
   1069000   306.47365      0.024025475    12.739321      760.36958     -42.725058      717.64452    
   1070000   277.58263      0.024025475    10.237411      688.69016     -48.085371      640.60479    
   1071000   304.44542      0.024025475    14.469197      755.33748     -47.4595        707.87798    
   1072000   307.56462      0.024025475    12.670987      763.0763      -45.159466      717.91684    
   1073000   303.86584      0.024025475    12.788583      753.89952     -40.397727      713.50179    
   1074000   294.48575      0.024025475    15.334519      730.62727     -43.564378      687.06289    
   1075000   313.74658      0.024025475    24.617283      778.41391     -42.393717      736.0202     
   1076000   296.78009      0.024025475    10.081397      736.31958     -45.509394      690.81019    
   1077000   285.90249      0.024025475    9.3260247      709.33196     -41.401084      667.93087    
   1078000   311.29276      0.024025475    15.424701      772.32593     -37.593786      734.73214    
   1079000   314.12071      0.024025475    14.520407      779.34213     -44.723633      734.6185     
   1080000   298.07476      0.024025475    8.4600949      739.53169     -44.632976      694.89872    
   1081000   292.43271      0.024025475    13.606713      725.53362     -42.680184      682.85344    
   1082000   289.245        0.024025475    13.02387       717.62483     -45.333565      672.29126    
   1083000   315.66479      0.024025475    11.083563      783.17303     -42.244659      740.92838    
   1084000   304.30184      0.024025475    10.541055      754.98125     -46.908151      708.0731     
   1085000   282.70111      0.024025475    12.208943      701.38925     -46.766312      654.62294    
   1086000   300.04238      0.024025475    9.9364745      744.41342     -48.403314      696.0101     
   1087000   300.03841      0.024025475    11.34233       744.40357     -42.77381       701.62976    
   1088000   292.18033      0.024025475    17.31935       724.90745     -44.138002      680.76945    
   1089000   298.02915      0.024025475    22.468103      739.41854     -38.918281      700.50026    
   1090000   320.03495      0.024025475    16.366027      794.01552     -39.584313      754.43121    
   1091000   301.68193      0.024025475    10.094822      748.48118     -43.155434      705.32575    
   1092000   284.72898      0.024025475    10.044892      706.42044     -38.557252      667.86318    
   1093000   294.16437      0.024025475    23.482544      729.82992     -44.295602      685.53432    
   1094000   307.44737      0.024025475    9.958161       762.7854      -47.517546      715.26785    
   1095000   297.1535       0.024025475    16.469425      737.24602     -54.072885      683.17313    
   1096000   285.82381      0.024025475    16.94715       709.13676     -54.039744      655.09702    
   1097000   302.87162      0.024025475    14.445982      751.43285     -51.280958      700.15189    
   1098000   321.45245      0.024025475    6.5333696      797.53239     -53.329586      744.20281    
   1099000   311.55776      0.024025475    13.137499      772.98339     -48.95322       724.03016    
   1100000   300.94854      0.024025475    20.480717      746.66163     -48.478174      698.18345    
   1101000   301.85472      0.024025475    11.385729      748.90987     -46.815956      702.09392    
   1102000   301.96006      0.024025475    6.3383265      749.17123     -40.239557      708.93167    
   1103000   287.75749      0.024025475    10.68133       713.93427     -41.91665       672.01762    
   1104000   306.08827      0.024025475    19.228956      759.41344     -43.075125      716.33832    
   1105000   302.50787      0.024025475    6.6387136      750.53036     -37.388442      713.14191    
   1106000   294.70142      0.024025475    14.596939      731.16234     -33.554198      697.60814    
   1107000   302.65579      0.024025475    12.343357      750.89736     -32.105013      718.79235    
   1108000   303.58977      0.024025475    20.8989        753.21458     -33.774617      719.43996    
   1109000   304.71644      0.024025475    5.6092991      756.00988     -34.70455       721.30533    
   1110000   298.51602      0.024025475    13.15451       740.62648     -34.570737      706.05574    
   1111000   306.96097      0.024025475    15.353684      761.57862     -43.004474      718.57414    
   1112000   313.61718      0.024025475    20.142825      778.09287     -41.330972      736.7619     
   1113000   293.828        0.024025475    8.3473784      728.99537     -40.913353      688.08202    
   1114000   284.78191      0.024025475    20.133166      706.55176     -39.762013      666.78975    
   1115000   295.39437      0.024025475    18.830072      732.88158     -38.028818      694.85276    
   1116000   312.56026      0.024025475    13.589972      775.47062     -42.397028      733.07359    
   1117000   293.01023      0.024025475    9.1837458      726.96647     -40.224364      686.74211    
   1118000   297.01888      0.024025475    15.250756      736.91203     -45.137819      691.77421    
   1119000   314.14501      0.024025475    14.444448      779.40242     -44.161257      735.24117    
   1120000   304.63604      0.024025475    9.5844083      755.81041     -47.385911      708.4245     
   1121000   293.49737      0.024025475    7.1178765      728.17507     -42.501726      685.67334    
   1122000   295.83278      0.024025475    10.33173       733.96928     -36.303198      697.66608    
   1123000   302.08098      0.024025475    12.832053      749.47123     -38.036141      711.43509    
   1124000   306.54429      0.024025475    14.036835      760.54482     -38.627214      721.91761    
   1125000   313.51723      0.024025475    15.014696      777.84489     -41.401333      736.44356    
   1126000   307.28737      0.024025475    12.951233      762.38844     -31.87089       730.51755    
   1127000   293.14128      0.024025475    10.817873      727.29159     -32.916141      694.37544    
   1128000   310.37126      0.024025475    23.289551      770.03966     -35.075425      734.96423    
   1129000   299.04612      0.024025475    12.097923      741.94168     -35.205118      706.73656    
   1130000   302.15047      0.024025475    13.828044      749.64363     -31.405794      718.23784    
   1131000   300.25774      0.024025475    16.545859      744.94774     -33.836204      711.11153    
   1132000   291.95557      0.024025475    13.997657      724.34981     -26.918409      697.43141    
   1133000   294.76791      0.024025475    11.949127      731.32731     -34.149861      697.17745    
   1134000   297.17344      0.024025475    13.729808      737.29549     -39.828304      697.46718    
   1135000   293.17776      0.024025475    12.507338      727.38211     -40.585884      686.79623    
   1136000   298.54071      0.024025475    14.129077      740.68773     -40.664512      700.02322    
   1137000   291.47385      0.024025475    11.763582      723.15466     -36.174604      686.98006    
   1138000   312.29745      0.024025475    14.136174      774.81857     -38.442982      736.37559    
   1139000   307.71642      0.024025475    14.775562      763.45291     -36.023921      727.42899    
   1140000   296.71784      0.024025475    16.888988      736.16513     -37.306146      698.85898    
   1141000   297.67089      0.024025475    9.055222       738.52969     -43.192403      695.33728    
   1142000   302.04838      0.024025475    8.0924983      749.39036     -41.939907      707.45045    
   1143000   304.08036      0.024025475    13.811078      754.43175     -41.217325      713.21443    
   1144000   286.9144       0.024025475    13.361017      711.84254     -42.325801      669.51673    
   1145000   297.46342      0.024025475    11.79217       738.01495     -38.961841      699.05311    
   1146000   311.75952      0.024025475    15.246465      773.48396     -36.91777       736.56619    
   1147000   291.1714       0.024025475    9.5638436      722.40427     -36.996401      685.40787    
   1148000   286.81715      0.024025475    15.764478      711.60124     -39.716258      671.88499    
   1149000   308.49224      0.024025475    13.349132      765.37775     -37.769394      727.60835    
   1150000   300.99709      0.024025475    12.12217       746.78207     -36.809275      709.97279    
   1151000   284.32795      0.024025475    10.361143      705.42547     -41.202628      664.22284    
   1152000   302.54781      0.024025475    13.209886      750.62946     -38.047113      712.58235    
   1153000   307.68587      0.024025475    12.34181       763.37711     -38.201555      725.17556    
   1154000   294.25053      0.024025475    7.3630728      730.04368     -35.178322      694.86536    
   1155000   288.98795      0.024025475    10.444875      716.98707     -39.558302      677.42876    
   1156000   304.38897      0.024025475    13.835443      755.19743     -40.746464      714.45097    
   1157000   304.80989      0.024025475    14.292026      756.24175     -33.724031      722.51772    
   1158000   294.19548      0.024025475    8.6016306      729.90708     -40.214699      689.69238    
   1159000   300.14041      0.024025475    11.480591      744.65664     -46.607639      698.049      
   1160000   306.95935      0.024025475    15.751324      761.57461     -38.811473      722.76313    
   1161000   311.42135      0.024025475    10.677143      772.64497     -41.026244      731.61872    
   1162000   289.42777      0.024025475    10.141911      718.07827     -38.087883      679.99039    
   1163000   280.64136      0.024025475    8.0176805      696.27894     -39.359396      656.91955    
   1164000   300.25192      0.024025475    14.718136      744.93329     -39.30864       705.62465    
   1165000   316.62036      0.024025475    13.234022      785.54385     -37.353276      748.19057    
   1166000   302.62513      0.024025475    12.435584      750.8213      -35.429982      715.39132    
   1167000   296.28403      0.024025475    9.4012486      735.08885     -35.177929      699.91092    
   1168000   303.14965      0.024025475    18.774827      752.12265     -36.963578      715.15907    
   1169000   309.75371      0.024025475    17.520627      768.5075      -41.470988      727.03652    
   1170000   287.85086      0.024025475    8.4830677      714.16592     -47.659053      666.50686    
   1171000   297.69668      0.024025475    22.826721      738.59367     -41.671861      696.92181    
   1172000   309.11584      0.024025475    14.053872      766.92491     -42.065229      724.85969    
   1173000   295.62782      0.024025475    8.5674088      733.46078     -37.637423      695.82336    
   1174000   286.71394      0.024025475    20.913646      711.34518     -36.252645      675.09254    
   1175000   311.11139      0.024025475    12.735667      771.87594     -39.524323      732.35161    
   1176000   302.47218      0.024025475    9.1636488      750.44182     -33.460778      716.98104    
   1177000   295.94626      0.024025475    5.6162824      734.25082     -31.957034      702.29379    
   1178000   291.84383      0.024025475    9.1048299      724.0726      -39.133158      684.93944    
   1179000   296.26596      0.024025475    13.063884      735.04401     -41.920032      693.12398    
   1180000   305.70314      0.024025475    12.986561      758.45792     -40.408366      718.04955    
   1181000   308.7455       0.024025475    13.341387      766.00608     -42.098698      723.90739    
   1182000   306.98104      0.024025475    14.980685      761.62842     -39.536846      722.09158    
   1183000   311.22867      0.024025475    12.968848      772.16692     -35.800269      736.36665    
   1184000   296.95848      0.024025475    14.861095      736.76216     -38.451077      698.31109    
   1185000   286.64392      0.024025475    10.535529      711.17147     -36.327768      674.8437     
   1186000   301.43324      0.024025475    10.863398      747.86418     -38.418977      709.4452     
   1187000   314.99552      0.024025475    15.660011      781.51258     -33.844354      747.66822    
   1188000   300.20326      0.024025475    12.518488      744.81256     -34.203009      710.60955    
   1189000   289.42747      0.024025475    11.454612      718.07754     -38.565814      679.51172    
   1190000   313.53109      0.024025475    9.9445657      777.87928     -39.08956       738.78972    
   1191000   304.09039      0.024025475    14.223379      754.45664     -40.164938      714.2917     
   1192000   292.37843      0.024025475    11.741122      725.39895     -37.759546      687.63941    
   1193000   291.60912      0.024025475    14.232118      723.49027     -36.085747      687.40452    
   1194000   300.79365      0.024025475    13.895495      746.27733     -42.820677      703.45666    
   1195000   307.946        0.024025475    13.3299        764.02251     -33.393263      730.62925    
   1196000   296.98104      0.024025475    14.247041      736.81816     -42.171585      694.64657    
   1197000   302.38509      0.024025475    10.948582      750.22575     -40.574643      709.65111    
   1198000   294.78447      0.024025475    9.7961348      731.36841     -38.75534       692.61307    
   1199000   302.83297      0.024025475    12.861992      751.33694     -39.967388      711.36956    
   1200000   306.97803      0.024025475    11.37536       761.62094     -42.801464      718.81948    
   1201000   293.0659       0.024025475    10.798982      727.10457     -46.684421      680.42015    
   1202000   300.24734      0.024025475    14.019666      744.92192     -40.835899      704.08602    
   1203000   296.47287      0.024025475    12.593505      735.55735     -40.920586      694.63677    
   1204000   308.14477      0.024025475    14.259717      764.51567     -40.27343       724.24224    
   1205000   294.29637      0.024025475    12.786215      730.15741     -42.098506      688.0589     
   1206000   293.21434      0.024025475    10.722819      727.47285     -45.199578      682.27327    
   1207000   303.24741      0.024025475    14.252724      752.36519     -50.055505      702.30968    
   1208000   295.9178       0.024025475    13.787194      734.18023     -49.852575      684.32765    
   1209000   295.07187      0.024025475    12.10163       732.08144     -49.538225      682.54322    
   1210000   311.61602      0.024025475    13.965498      773.12793     -42.575147      730.55278    
   1211000   300.16744      0.024025475    7.0539018      744.72369     -45.355415      699.36827    
   1212000   284.59792      0.024025475    8.8001393      706.09528     -39.046971      667.04831    
   1213000   303.66889      0.024025475    14.449138      753.41089     -39.108734      714.30216    
   1214000   303.826        0.024025475    7.5317944      753.80069     -35.829569      717.97112    
   1215000   290.02003      0.024025475    13.688296      719.5477      -34.932623      684.61508    
   1216000   303.35617      0.024025475    23.393704      752.63501     -42.150024      710.48499    
   1217000   311.30687      0.024025475    11.967441      772.36092     -42.950295      729.41063    
   1218000   294.66954      0.024025475    8.9028448      731.08325     -42.552052      688.5312     
   1219000   295.3709       0.024025475    14.447143      732.82335     -39.799346      693.02401    
   1220000   315.30296      0.024025475    8.5598428      782.27534     -36.633841      745.6415     
   1221000   299.65829      0.024025475    10.89049       743.46049     -42.101383      701.3591     
   1222000   291.41372      0.024025475    15.307776      723.00547     -37.011313      685.99415    
   1223000   317.53443      0.024025475    16.934291      787.81166     -40.500268      747.31139    
   1224000   301.59331      0.024025475    14.087143      748.26132     -36.906326      711.355      
   1225000   294.58069      0.024025475    12.086906      730.86282     -33.519118      697.3437     
   1226000   315.41467      0.024025475    14.219863      782.55248     -36.121156      746.43132    
   1227000   293.32511      0.024025475    11.629386      727.74768     -37.86887       689.87881    
   1228000   298.02657      0.024025475    11.162016      739.41212     -40.01181       699.40031    
   1229000   310.39766      0.024025475    13.800609      770.10516     -38.010109      732.09505    
   1230000   292.41406      0.024025475    13.550261      725.48735     -36.670649      688.81671    
   1231000   302.47683      0.024025475    11.077141      750.45335     -35.049299      715.40405    
   1232000   293.03725      0.024025475    10.752041      727.0335      -32.625022      694.40848    
   1233000   282.96283      0.024025475    13.63825       702.03859     -38.134857      663.90373    
   1234000   299.84442      0.024025475    13.113455      743.92228     -44.794242      699.12804    
   1235000   317.26264      0.024025475    14.1879        787.13735     -39.084885      748.05246    
   1236000   298.0818       0.024025475    12.668237      739.54916     -39.679423      699.86974    
   1237000   297.72632      0.024025475    12.796839      738.66721     -35.525239      703.14197    
   1238000   303.03654      0.024025475    11.059259      751.842       -41.07034       710.77166    
   1239000   293.27255      0.024025475    13.452162      727.61729     -39.498349      688.11894    
   1240000   289.05378      0.024025475    12.197507      717.15039     -44.354508      672.79588    
   1241000   293.9178       0.024025475    6.0528787      729.21817     -36.716275      692.5019     
   1242000   299.54923      0.024025475    9.6378738      743.18989     -38.231513      704.95837    
   1243000   310.97111      0.024025475    17.508372      771.5279      -35.625172      735.90273    
   1244000   296.30002      0.024025475    13.087776      735.12853     -38.001244      697.12729    
   1245000   302.2298       0.024025475    3.3411604      749.84045     -38.022783      711.81767    
   1246000   308.85035      0.024025475    8.7531702      766.26623     -41.165026      725.1012     
   1247000   311.9608       0.024025475    15.604667      773.98335     -39.729289      734.25406    
   1248000   310.48675      0.024025475    29.029889      770.32619     -38.358627      731.96757    
   1249000   291.59057      0.024025475    13.686526      723.44425     -40.606761      682.83749    
   1250000   287.74198      0.024025475    16.131503      713.89578     -35.14278       678.753      
   1251000   299.64119      0.024025475   -4.0900013      743.41805     -37.548325      705.86972    
   1252000   306.27229      0.024025475    13.787172      759.87001     -34.005768      725.86424    
   1253000   294.43675      0.024025475    20.47866       730.5057      -36.098409      694.40729    
   1254000   283.21482      0.024025475    5.3479068      702.66377     -38.900469      663.7633     
   1255000   299.23895      0.024025475    11.015965      742.42009     -37.425513      704.99458    
   1256000   311.7436       0.024025475    12.088009      773.44447     -36.485331      736.95914    
   1257000   312.33359      0.024025475    33.641856      774.90824     -33.185616      741.72263    
   1258000   293.8236       0.024025475    17.4215        728.98446     -41.41737       687.56709    
   1259000   282.24318      0.024025475    4.3596792      700.2531      -39.930435      660.32267    
   1260000   313.77761      0.024025475    16.305377      778.49091     -40.502348      737.98856    
   1261000   311.05041      0.024025475    17.396653      771.72463     -37.522052      734.20258    
   1262000   299.26916      0.024025475    3.0186128      742.49504     -38.049823      704.44522    
   1263000   294.08933      0.024025475    12.744355      729.64373     -36.397761      693.24597    
   1264000   302.05494      0.024025475    13.588733      749.40663     -37.890578      711.51606    
   1265000   298.21334      0.024025475    12.345658      739.87552     -39.450892      700.42462    
   1266000   303.92011      0.024025475    11.467733      754.03416     -43.479786      710.55438    
   1267000   286.18352      0.024025475    24.34732       710.0292      -41.689793      668.3394     
   1268000   301.36939      0.024025475    8.4594905      747.70577     -48.834705      698.87106    
   1269000   314.38657      0.024025475    19.065046      780.00175     -47.419758      732.58199    
   1270000   287.08775      0.024025475    15.403365      712.27263     -46.163876      666.10875    
   1271000   304.60267      0.024025475    10.198715      755.72763     -43.094655      712.63298    
   1272000   309.20082      0.024025475    13.166399      767.13576     -41.275048      725.86071    
   1273000   299.38502      0.024025475    13.678609      742.7825      -44.87531       697.90719    
   1274000   300.99548      0.024025475    12.856945      746.77808     -48.471488      698.30659    
   1275000   295.86071      0.024025475    9.1587091      734.03858     -37.199202      696.83938    
   1276000   305.17375      0.024025475    13.682545      757.14449     -33.619199      723.52529    
   1277000   299.46347      0.024025475    13.006222      742.97712     -33.805261      709.17186    
   1278000   302.07371      0.024025475    17.623133      749.4532      -33.255726      716.19747    
   1279000   311.86627      0.024025475    13.053843      773.74882     -38.527889      735.22093    
   1280000   305.03679      0.024025475    8.8025354      756.80468     -43.401601      713.40308    
   1281000   291.43803      0.024025475    8.5371478      723.06578     -45.383137      677.68264    
   1282000   310.29848      0.024025475    14.107381      769.85909     -41.846593      728.01249    
   1283000   296.487        0.024025475    8.094119       735.59243     -40.792591      694.79984    
   1284000   290.94066      0.024025475    10.566074      721.83179     -44.233628      677.59816    
   1285000   295.25482      0.024025475    19.695085      732.53534     -44.810743      687.7246     
   1286000   312.38783      0.024025475    12.152623      775.04283     -42.800881      732.24194    
   1287000   303.83054      0.024025475    13.116333      753.81194     -47.485014      706.32693    
   1288000   295.09754      0.024025475    10.555323      732.14514     -47.000379      685.14476    
   1289000   303.55141      0.024025475    14.558765      753.11942     -42.322552      710.79687    
   1290000   316.5598       0.024025475    16.050433      785.39359     -43.125018      742.26857    
   1291000   289.29457      0.024025475    8.2389782      717.74779     -46.172309      671.57548    
   1292000   300.81768      0.024025475    12.03537       746.33697     -44.388914      701.94805    
   1293000   304.04911      0.024025475    14.370233      754.35423     -43.036255      711.31798    
   1294000   292.57605      0.024025475    17.399656      725.88925     -47.992733      677.89652    
   1295000   301.04001      0.024025475    13.162655      746.88857     -44.477362      702.41121    
   1296000   305.06699      0.024025475    12.159296      756.87962     -42.038781      714.84084    
   1297000   309.68539      0.024025475    12.227856      768.33798     -40.5168        727.82118    
   1298000   300.13992      0.024025475    12.057796      744.65541     -42.79752       701.85789    
   1299000   300.73926      0.024025475    12.490924      746.1424      -47.184751      698.95765    
   1300000   290.11136      0.024025475    11.43944       719.77429     -39.722806      680.05148    
   1301000   294.58907      0.024025475    11.427108      730.8836      -43.587746      687.29586    
   1302000   314.20693      0.024025475    13.624769      779.55606     -40.707832      738.84823    
   1303000   295.27689      0.024025475    11.230497      732.59009     -40.607827      691.98227    
   1304000   287.69344      0.024025475    11.812879      713.77535     -36.228481      677.54687    
   1305000   303.61132      0.024025475    13.671667      753.26804     -37.749979      715.51807    
   1306000   312.35588      0.024025475    16.091171      774.96354     -32.380273      742.58327    
   1307000   305.10553      0.024025475    11.681849      756.97522     -37.705264      719.26996    
   1308000   282.74123      0.024025475    10.614663      701.48879     -42.675226      658.81357    
   1309000   292.54712      0.024025475    17.435385      725.81747     -42.076407      683.74106    
   1310000   311.58406      0.024025475    25.88482       773.04864     -40.511304      732.53734    
   1311000   302.88301      0.024025475    10.621555      751.4611      -44.269642      707.19146    
   1312000   288.84764      0.024025475    9.5313632      716.63896     -43.029023      673.60994    
   1313000   318.42535      0.024025475    16.876707      790.02207     -44.118         745.90407    
   1314000   307.96053      0.024025475    9.4649448      764.05857     -47.469147      716.58942    
   1315000   292.39811      0.024025475    11.944549      725.44776     -35.277222      690.17054    
   1316000   296.15219      0.024025475    14.048331      734.76175     -42.305359      692.45639    
   1317000   308.36294      0.024025475    2.6812282      765.05697     -46.334449      718.72252    
   1318000   303.37739      0.024025475    13.029335      752.68766     -42.296916      710.39074    
   1319000   312.51511      0.024025475    14.685648      775.35859     -35.789998      739.5686     
   1320000   300.4467       0.024025475    12.930684      745.41654     -42.196168      703.22038    
   1321000   297.90206      0.024025475    10.000485      739.10323     -43.074622      696.02861    
   1322000   294.54278      0.024025475    10.577561      730.76876     -38.149092      692.61967    
   1323000   284.11056      0.024025475    16.213849      704.88613     -43.441643      661.44448    
   1324000   311.10675      0.024025475    13.316241      771.86442     -45.116327      726.74809    
   1325000   309.06801      0.024025475    10.167773      766.80625     -47.076863      719.72938    
   1326000   295.0808       0.024025475    11.619422      732.10359     -41.271485      690.83211    
   1327000   303.1571       0.024025475    10.794399      752.14111     -36.158714      715.9824     
   1328000   303.69683      0.024025475    13.253601      753.4802      -39.479359      714.00084    
   1329000   306.09653      0.024025475    13.914098      759.43393     -37.647344      721.78659    
   1330000   298.0129       0.024025475    12.101553      739.37823     -35.105099      704.27313    
   1331000   293.23287      0.024025475    13.003568      727.51883     -42.573669      684.94516    
   1332000   304.08643      0.024025475    12.185751      754.44683     -38.718624      715.7282     
   1333000   301.25982      0.024025475    13.149741      747.43391     -40.785221      706.64869    
   1334000   311.60809      0.024025475    16.930807      773.10826     -34.967086      738.14117    
   1335000   299.16151      0.024025475    16.452124      742.22795     -34.621037      707.60691    
   1336000   294.25593      0.024025475    12.335814      730.05707     -35.312089      694.74498    
   1337000   298.98633      0.024025475    9.0808937      741.79334     -39.975357      701.81798    
   1338000   313.75295      0.024025475    17.997092      778.42971     -37.114952      741.31475    
   1339000   295.04235      0.024025475    13.170952      732.0082      -39.690235      692.31796    
   1340000   300.46537      0.024025475    0.04163981     745.46286     -38.361308      707.10156    
   1341000   316.22058      0.024025475    23.117663      784.55197     -37.010013      747.54196    
   1342000   293.4948       0.024025475    18.547719      728.16869     -36.768376      691.40031    
   1343000   297.07156      0.024025475    4.9794389      737.04273     -39.474758      697.56798    
   1344000   307.11813      0.024025475    21.673786      761.96855     -41.133256      720.8353     
   1345000   304.51301      0.024025475    12.303823      755.50517     -36.405181      719.09999    
   1346000   302.57656      0.024025475    12.448712      750.70079     -38.962045      711.73875    
   1347000   298.20985      0.024025475    11.488377      739.86687     -42.784222      697.08265    
   1348000   305.92562      0.024025475    24.634229      759.00989     -43.253555      715.75633    
   1349000   299.33916      0.024025475    18.099881      742.6687      -44.539215      698.12949    
   1350000   301.35796      0.024025475    11.420718      747.67741     -41.165727      706.51168    
   1351000   291.15076      0.024025475    9.7605093      722.35306     -41.270805      681.08225    
   1352000   297.38179      0.024025475    14.26254       737.81243     -40.020434      697.79199    
   1353000   300.72066      0.024025475    10.264088      746.09625     -49.296541      696.79971    
   1354000   312.30682      0.024025475    13.143383      774.84182     -44.988683      729.85314    
   1355000   299.68964      0.024025475    12.19671       743.53825     -38.308154      705.2301     
   1356000   293.66442      0.024025475    9.6411095      728.58952     -38.487184      690.10234    
   1357000   287.80312      0.024025475    11.583627      714.04746     -44.55992       669.48754    
   1358000   303.92634      0.024025475    14.614474      754.04962     -39.80571       714.24391    
   1359000   310.0655       0.024025475    13.038556      769.28105     -40.948876      728.33217    
   1360000   291.85823      0.024025475    9.3884869      724.10831     -39.446943      684.66137    
   1361000   294.34656      0.024025475    10.344718      730.28193     -40.227739      690.05419    
   1362000   304.75364      0.024025475    13.816752      756.10218     -45.107889      710.99429    
   1363000   311.5636       0.024025475    13.817761      772.99787     -38.351018      734.64686    
   1364000   303.12233      0.024025475   -8.7031684      752.05485     -37.717088      714.33777    
   1365000   289.64758      0.024025475    9.741177       718.62363     -40.584392      678.03924    
   1366000   294.1678       0.024025475    27.210392      729.83841     -44.902536      684.93588    
   1367000   313.90364      0.024025475    10.811813      778.80359     -42.494441      736.30915    
   1368000   305.59108      0.024025475    9.2436008      758.17989     -40.531186      717.64871    
   1369000   294.58284      0.024025475    6.3554125      730.86815     -41.093466      689.77469    
   1370000   293.06452      0.024025475    23.921014      727.10116     -39.32134       687.77982    
   1371000   299.18157      0.024025475    39.024836      742.27771     -37.527367      704.75035    
   1372000   316.5641       0.024025475   -2.9985259      785.40426     -33.928844      751.47542    
   1373000   293.92674      0.024025475    4.0996739      729.24035     -38.62149       690.61885    
   1374000   302.74047      0.024025475    19.303067      751.10744     -43.524921      707.58252    
   1375000   305.58143      0.024025475    7.7662936      758.15596     -40.521296      717.63466    
   1376000   310.05982      0.024025475   -3.5608592      769.26695     -44.535602      724.73135    
   1377000   294.47485      0.024025475    22.204026      730.60021     -45.391182      685.20903    
   1378000   295.55039      0.024025475    16.060644      733.26867     -51.447223      681.82144    
   1379000   301.62929      0.024025475    6.9972809      748.35058     -45.527265      702.82331    
   1380000   307.04525      0.024025475    9.4910649      761.78772     -43.500942      718.28677    
   1381000   306.27026      0.024025475    1.3468117      759.86496     -45.552831      714.31213    
   1382000   291.04203      0.024025475    22.51794       722.0833      -43.028282      679.05502    
   1383000   295.05854      0.024025475    41.297111      732.04836     -49.75971       682.28865    
   1384000   308.98971      0.024025475    25.335344      766.61198     -47.889026      718.72296    
   1385000   294.38204      0.024025475    3.6460109      730.36996     -52.510213      677.85975    
   1386000   290.47756      0.024025475    1.4964194      720.68284     -50.781646      669.9012     
   1387000   296.85777      0.024025475    19.523744      736.5123      -50.492111      686.02019    
   1388000   297.18204      0.024025475    15.382752      737.31684     -50.161185      687.15565    
   1389000   302.88748      0.024025475    11.775259      751.47218     -51.305472      700.16671    
   1390000   304.07895      0.024025475    12.367597      754.42827     -50.921089      703.50718    
   1391000   293.3676       0.024025475    14.541942      727.8531      -49.114498      678.7386     
   1392000   291.96778      0.024025475    10.910456      724.38012     -49.705675      674.67444    
   1393000   309.81378      0.024025475    13.424708      768.65653     -51.538287      717.11824    
   1394000   291.22196      0.024025475    13.033301      722.5297      -53.939569      668.59013    
   1395000   306.20816      0.024025475   -0.93765177     759.71089     -49.329533      710.38136    
   1396000   311.39046      0.024025475    19.384652      772.5683      -51.034709      721.5336     
   1397000   296.68439      0.024025475    24.11787       736.08216     -46.565206      689.51695    
   1398000   300.34791      0.024025475    10.079169      745.17145     -43.494993      701.67645    
   1399000   305.8874       0.024025475    6.1208118      758.91507     -37.23974       721.67533    
   1400000   299.57704      0.024025475    15.07833       743.25889     -39.674617      703.58428    
   1401000   287.10521      0.024025475    4.5639072      712.31594     -40.637845      671.67809    
   1402000   305.63154      0.024025475    4.0407941      758.28028     -36.82776       721.45252    
   1403000   302.17713      0.024025475    15.189982      749.70978     -36.184069      713.52571    
   1404000   284.6064       0.024025475    19.433749      706.11632     -37.576214      668.54011    
   1405000   297.69152      0.024025475    9.0541116      738.58086     -42.168735      696.41213    
   1406000   306.40598      0.024025475    4.2247545      760.20168     -41.668385      718.5333     
   1407000   299.13615      0.024025475    21.070333      742.16504     -44.484841      697.6802     
   1408000   292.19607      0.024025475    19.760025      724.9465      -48.601702      676.3448     
   1409000   297.41631      0.024025475    17.709039      737.89806     -42.822249      695.07581    
   1410000   303.60673      0.024025475    0.70486703     753.25667     -46.453608      706.80306    
   1411000   313.77585      0.024025475    8.9896929      778.48652     -37.278011      741.20851    
   1412000   308.6547       0.024025475    17.884744      765.78081     -37.662683      728.11813    
   1413000   283.81105      0.024025475    3.4165756      704.14303     -46.278085      657.86495    
   1414000   293.77436      0.024025475    6.9585529      728.86229     -43.624851      685.23744    
   1415000   308.81523      0.024025475    8.7806089      766.17911     -44.792512      721.3866     
   1416000   312.20719      0.024025475    7.9798835      774.59463     -46.363374      728.23126    
   1417000   307.42976      0.024025475    18.607591      762.7417      -48.75562       713.98608    
   1418000   288.74168      0.024025475    7.2932034      716.37607     -38.906688      677.46938    
   1419000   301.93511      0.024025475    9.7850573      749.10934     -38.929581      710.17976    
   1420000   300.44492      0.024025475    12.480621      745.41213     -36.159094      709.25304    
   1421000   300.2935       0.024025475    16.413561      745.03645     -42.079199      702.95725    
   1422000   300.48532      0.024025475    10.809642      745.51236     -43.250191      702.26217    
   1423000   303.02323      0.024025475    10.195649      751.80899     -40.018073      711.79091    
   1424000   292.82551      0.024025475    31.689842      726.50816     -42.99889       683.50927    
   1425000   290.47428      0.024025475    11.143537      720.67471     -42.483453      678.19125    
   1426000   317.77539      0.024025475    12.385492      788.40949     -38.889927      749.51956    
   1427000   295.25743      0.024025475    22.912674      732.54182     -40.756997      691.78482    
   1428000   299.49476      0.024025475    0.066607801    743.05476     -48.354586      694.70018    
   1429000   294.76391      0.024025475    13.953953      731.3174      -48.406164      682.91123    
   1430000   316.00054      0.024025475    22.578677      784.00604     -53.93415       730.07189    
   1431000   300.58356      0.024025475    17.31487       745.75611     -48.570406      697.1857     
   1432000   286.36462      0.024025475    10.600274      710.47852     -50.319054      660.15947    
   1433000   311.97944      0.024025475    7.4668637      774.02958     -45.181735      728.84785    
   1434000   302.93478      0.024025475    22.172797      751.58953     -45.309976      706.27956    
   1435000   304.29132      0.024025475    26.938053      754.95515     -39.629398      715.32575    
   1436000   289.73475      0.024025475    13.505422      718.83989     -44.977931      673.86196    
   1437000   302.35924      0.024025475    9.0278259      750.16161     -48.796549      701.36506    
   1438000   312.20735      0.024025475    16.068695      774.59503     -42.559479      732.03555    
   1439000   287.43949      0.024025475    13.791991      713.14531     -41.67141       671.4739     
   1440000   295.37833      0.024025475    11.350955      732.84178     -42.917713      689.92407    
   1441000   316.09116      0.024025475    12.242871      784.23087     -46.737895      737.49298    
   1442000   286.97817      0.024025475    13.609006      712.00075     -40.09109       671.90966    
   1443000   289.12669      0.024025475    13.070883      717.33128     -45.148711      672.18257    
   1444000   295.05619      0.024025475    13.132708      732.04255     -37.062888      694.97966    
   1445000   318.19529      0.024025475    12.879302      789.45128     -38.636236      750.81505    
   1446000   309.09816      0.024025475    9.5548148      766.88106     -38.259293      728.62176    
   1447000   288.88893      0.024025475    12.605577      716.7414      -39.208171      677.53323    
   1448000   299.9007       0.024025475    13.746511      744.06189     -38.476742      705.58515    
   1449000   314.49001      0.024025475    13.403615      780.25839     -37.146419      743.11197    
   1450000   291.74185      0.024025475    11.308524      723.81956     -44.338461      679.4811     
   1451000   287.28528      0.024025475    19.973191      712.76269     -46.550879      666.21181    
   1452000   313.58982      0.024025475    14.468369      778.02499     -43.653492      734.3715     
   1453000   304.44447      0.024025475    12.604037      755.33512     -39.19646       716.13866    
   1454000   293.18368      0.024025475    10.511092      727.39679     -43.632933      683.76386    
   1455000   297.21863      0.024025475    15.202337      737.4076      -38.511841      698.89576    
   1456000   306.88066      0.024025475    10.960761      761.37938     -45.093461      716.28592    
   1457000   300.77941      0.024025475    12.986794      746.242       -42.782471      703.45953    
   1458000   281.4007       0.024025475    11.211345      698.16291     -45.432488      652.73042    
   1459000   298.19687      0.024025475    11.623852      739.83465     -42.599096      697.23555    
   1460000   315.20077      0.024025475    14.71859       782.0218      -39.752939      742.26886    
   1461000   298.56149      0.024025475    12.473591      740.73928     -40.574642      700.16464    
   1462000   292.88907      0.024025475    11.390848      726.66586     -41.207669      685.45819    
   1463000   290.32193      0.024025475    11.448209      720.2967      -41.06233       679.23437    
   1464000   299.36566      0.024025475    14.579836      742.73445     -44.6751        698.05935    
   1465000   298.54383      0.024025475    12.755113      740.69547     -46.774795      693.92068    
   1466000   309.96912      0.024025475    12.874136      769.04193     -51.263448      717.77849    
   1467000   296.08461      0.024025475    12.99312       734.59407     -49.340082      685.25399    
   1468000   291.06544      0.024025475    12.730677      722.14137     -46.551855      675.58952    
   1469000   308.08286      0.024025475    11.951238      764.36207     -47.82683       716.53524    
   1470000   302.18649      0.024025475    7.9417751      749.73302     -43.425982      706.30704    
   1471000   320.81023      0.024025475    13.480169      795.93902     -42.139307      753.79972    
   1472000   301.55901      0.024025475    13.575674      748.17621     -43.55454       704.62167    
   1473000   296.60217      0.024025475    12.666274      735.87815     -44.008753      691.8694     
   1474000   305.77761      0.024025475    12.700531      758.64268     -42.890491      715.75218    
   1475000   302.85328      0.024025475    11.772104      751.38734     -43.064635      708.3227     
   1476000   288.07908      0.024025475    11.419783      714.73213     -48.263925      666.4682     
   1477000   297.9434       0.024025475    13.988708      739.20579     -44.079823      695.12596    
   1478000   319.26714      0.024025475    14.5281        792.11056     -49.6209        742.48966    
   1479000   315.61933      0.024025475    11.286467      783.06026     -46.71961       736.34065    
   1480000   288.29932      0.024025475    11.254119      715.27855     -41.627512      673.65104    
   1481000   305.1676       0.024025475    13.747661      757.12922     -45.349051      711.78017    
   1482000   304.90318      0.024025475    11.052642      756.4732      -41.945467      714.52773    
   1483000   286.40821      0.024025475    13.273139      710.58667     -41.590041      668.99663    
   1484000   277.50476      0.024025475    10.242848      688.49696     -40.505989      647.99097    
   1485000   310.10201      0.024025475    15.730388      769.37163     -40.496274      728.87535    
   1486000   305.07713      0.024025475    10.725626      756.90476     -37.944061      718.9607     
   1487000   291.5159       0.024025475    9.5101048      723.25899     -39.6061        683.65289    
   1488000   298.27305      0.024025475    20.366609      740.02366     -36.362439      703.66122    
   1489000   312.07695      0.024025475    17.581274      774.27152     -37.61925       736.65227    
   1490000   304.77765      0.024025475    1.1593565      756.16174     -38.778436      717.38331    
   1491000   297.5608       0.024025475    10.655354      738.25656     -36.809124      701.44743    
   1492000   295.86535      0.024025475    22.322523      734.0501      -39.156426      694.89367    
   1493000   306.15959      0.024025475    18.007805      759.59038     -38.671352      720.91903    
   1494000   282.1547       0.024025475    6.3522571      700.03359     -41.03139       659.0022     
   1495000   281.43107      0.024025475    12.215789      698.23824     -40.73687       657.50137    
   1496000   309.30028      0.024025475    26.717208      767.38252     -39.604989      727.77753    
   1497000   303.99345      0.024025475    10.535527      754.21612     -39.310324      714.9058     
   1498000   291.57356      0.024025475    7.4379602      723.40205     -45.687024      677.71503    
   1499000   292.14237      0.024025475    19.578204      724.81328     -46.842627      677.97066    
   1500000   304.79182      0.024025475    30.492361      756.19691     -43.166318      713.03059    
   1501000   316.61898      0.024025475    14.185426      785.54041     -40.480957      745.05945    
   1502000   289.1162       0.024025475    1.6641815      717.30527     -41.367788      675.93748    
   1503000   289.91231      0.024025475    19.838676      719.28042     -39.895588      679.38483    
   1504000   304.88875      0.024025475    14.230408      756.43739     -39.916812      716.52058    
   1505000   308.19687      0.024025475    3.4091907      764.64493     -36.995269      727.64966    
   1506000   283.5866       0.024025475    6.3143426      703.58617     -41.080823      662.50534    
   1507000   298.36014      0.024025475    18.672784      740.23972     -36.606377      703.63335    
   1508000   306.87974      0.024025475    13.388198      761.37709     -41.056606      720.32048    
   1509000   295.68883      0.024025475    3.5424064      733.61214     -41.356635      692.2555     
   1510000   283.87489      0.024025475    22.341951      704.30144     -40.396195      663.90524    
   1511000   313.79341      0.024025475    16.890319      778.5301      -40.206525      738.32358    
   1512000   314.24595      0.024025475    6.8725212      779.65286     -38.530205      741.12265    
   1513000   289.01593      0.024025475    9.9949346      717.05649     -36.423225      680.63327    
   1514000   285.79601      0.024025475    12.470951      709.06779     -33.019896      676.04789    
   1515000   299.95688      0.024025475    11.267075      744.20129     -28.024246      716.17705    
   1516000   310.22657      0.024025475    12.406883      769.68068     -30.012821      739.66786    
   1517000   306.90204      0.024025475    12.771926      761.43243     -32.895721      728.53671    
   1518000   285.93905      0.024025475    10.341326      709.42265     -43.104543      666.31811    
   1519000   293.27429      0.024025475    13.740762      727.62159     -40.605773      687.01581    
   1520000   313.71623      0.024025475    12.202768      778.33862     -42.649581      735.68904    
   1521000   307.91745      0.024025475    8.9865424      763.95167     -42.584407      721.36727    
   1522000   286.36093      0.024025475    21.716657      710.46937     -44.706764      665.7626     
   1523000   310.89192      0.024025475    19.465329      771.33142     -39.80998       731.52144    
   1524000   309.28948      0.024025475    11.163092      767.35573     -48.706982      718.64875    
   1525000   294.17348      0.024025475    12.652724      729.85251     -51.05166       678.80085    
   1526000   303.41016      0.024025475    15.506214      752.76898     -49.400258      703.36872    
   1527000   297.10896      0.024025475    2.3770485      737.13551     -49.416018      687.71949    
   1528000   278.63136      0.024025475    14.115981      691.2921      -42.790075      648.50202    
   1529000   296.39076      0.024025475    28.219827      735.35364     -44.889318      690.46432    
   1530000   319.52103      0.024025475    12.373473      792.74048     -48.249584      744.4909     
   1531000   301.24756      0.024025475    5.1966352      747.4035      -44.240627      703.16288    
   1532000   290.71741      0.024025475    11.743966      721.27791     -42.33868       678.93923    
   1533000   299.43311      0.024025475    10.807587      742.9018      -42.693778      700.20802    
   1534000   300.49477      0.024025475    18.911971      745.5358      -44.622737      700.91306    
   1535000   303.27873      0.024025475    15.977257      752.4429      -47.528152      704.91474    
   1536000   297.6974       0.024025475    11.255144      738.59546     -49.920915      688.67455    
   1537000   301.53558      0.024025475    12.120058      748.11809     -44.881178      703.23692    
   1538000   301.69685      0.024025475    12.702598      748.51821     -40.834673      707.68353    
   1539000   295.33999      0.024025475    13.641588      732.74665     -43.137926      689.60872    
   1540000   302.58431      0.024025475    8.5617132      750.72002     -43.269224      707.45079    
   1541000   294.59518      0.024025475    11.385213      730.89877     -49.994336      680.90443    
   1542000   294.90351      0.024025475    12.909285      731.66373     -49.59869       682.06504    
   1543000   304.11633      0.024025475    12.425358      754.521       -42.936963      711.58404    
   1544000   300.93404      0.024025475    12.205571      746.62565     -42.604828      704.02082    
   1545000   301.17258      0.024025475    12.888786      747.21748     -40.986178      706.2313     
   1546000   302.49839      0.024025475    11.608169      750.50684     -48.912173      701.59466    
   1547000   303.38493      0.024025475    14.675445      752.70638     -41.532204      711.17417    
   1548000   299.22957      0.024025475    11.601661      742.39681     -47.074504      695.32231    
   1549000   300.25791      0.024025475    10.796837      744.94815     -42.57904       702.36911    
   1550000   305.24809      0.024025475    14.128275      757.32894     -41.795881      715.53306    
   1551000   305.24531      0.024025475    13.375194      757.32204     -40.209968      717.11207    
   1552000   294.44747      0.024025475    12.239134      730.53228     -43.084012      687.44827    
   1553000   298.0566       0.024025475    11.044065      739.48665     -46.493032      692.99362    
   1554000   293.71792      0.024025475    12.425233      728.72226     -45.226803      683.49546    
   1555000   301.74877      0.024025475    12.272186      748.64701     -44.880527      703.76648    
   1556000   311.80908      0.024025475    14.299071      773.60691     -41.494048      732.11286    
   1557000   303.86152      0.024025475    10.480807      753.88881     -42.19585       711.69296    
   1558000   288.13011      0.024025475    13.573996      714.85874     -42.706352      672.15239    
   1559000   299.23028      0.024025475    13.355937      742.39857     -40.662786      701.73579    
   1560000   302.12565      0.024025475    16.23394       749.58205     -41.027226      708.55483    
   1561000   297.31543      0.024025475    11.467915      737.64779     -36.013966      701.63382    
   1562000   311.21393      0.024025475    5.1585888      772.13034     -37.422886      734.70746    
   1563000   301.78221      0.024025475    16.332972      748.72999     -37.773299      710.95669    
   1564000   293.16149      0.024025475    13.863623      727.34173     -43.811257      683.53047    
   1565000   291.98826      0.024025475    14.746435      724.43091     -44.083276      680.34763    
   1566000   296.23157      0.024025475    7.6230425      734.95869     -42.593562      692.36513    
   1567000   308.32819      0.024025475    0.62075267     764.97074     -41.789736      723.181      
   1568000   309.9245       0.024025475    15.092515      768.93122     -38.056692      730.87452    
   1569000   298.67302      0.024025475    20.99587       741.01599     -39.644796      701.37119    
   1570000   279.9059       0.024025475    7.4200454      694.45426     -39.560959      654.8933     
   1571000   300.81688      0.024025475    11.515593      746.33497     -38.011125      708.32384    
   1572000   315.79337      0.024025475    26.191971      783.49207     -41.235536      742.25653    
   1573000   297.48059      0.024025475    10.563         738.05755     -42.331081      695.72647    
   1574000   288.09745      0.024025475    6.2858821      714.77772     -42.82433       671.95339    
   1575000   298.22103      0.024025475    14.238271      739.89459     -42.357109      697.53748    
   1576000   310.48672      0.024025475    11.813518      770.32611     -48.42711       721.89901    
   1577000   302.14581      0.024025475    13.999164      749.63209     -46.193933      703.43815    
   1578000   288.87343      0.024025475    11.322304      716.70295     -54.574471      662.12847    
   1579000   315.03299      0.024025475    5.0748799      781.60553     -51.252025      730.3535     
   1580000   300.01366      0.024025475    13.931195      744.34216     -45.663808      698.67835    
   1581000   289.93492      0.024025475    14.10883       719.33653     -38.712353      680.62417    
   1582000   298.28708      0.024025475    11.903924      740.05848     -41.79412       698.26436    
   1583000   304.14995      0.024025475    12.174398      754.60442     -41.353134      713.25129    
   1584000   302.5954       0.024025475    12.882202      750.74753     -44.157191      706.59034    
   1585000   309.34864      0.024025475    14.37871       767.50251     -38.179175      729.32333    
   1586000   310.70596      0.024025475    12.920907      770.87006     -44.113177      726.75688    
   1587000   296.79172      0.024025475    13.862098      736.34844     -43.036659      693.31178    
   1588000   308.87408      0.024025475    13.376221      766.3251      -43.515712      722.80939    
   1589000   304.10408      0.024025475    12.481554      754.49061     -44.874926      709.61569    
   1590000   305.17165      0.024025475    14.090783      757.13926     -32.681039      724.45822    
   1591000   298.24904      0.024025475    11.586331      739.96408     -33.787099      706.17698    
   1592000   302.21197      0.024025475    12.000104      749.79622     -31.222011      718.57421    
   1593000   311.86674      0.024025475    13.857821      773.74998     -34.293355      739.45662    
   1594000   299.48229      0.024025475    11.668835      743.02381     -36.186274      706.83754    
   1595000   298.89465      0.024025475    11.984958      741.56587     -43.325924      698.23995    
   1596000   293.32843      0.024025475    12.707488      727.75592     -40.289907      687.46601    
   1597000   312.65716      0.024025475    17.383159      775.71104     -37.172503      738.53853    
   1598000   305.18897      0.024025475    12.259502      757.18224     -43.30086       713.88138    
   1599000   296.64283      0.024025475    7.9740387      735.97905     -42.389674      693.58938    
   1600000   300.77604      0.024025475    10.900843      746.23365     -44.25034       701.98331    
   1601000   300.48217      0.024025475    13.492408      745.50455     -41.089097      704.41546    
   1602000   295.04681      0.024025475    12.353175      732.01927     -45.804087      686.21518    
   1603000   300.06265      0.024025475    12.569892      744.46371     -40.518895      703.94481    
   1604000   289.73818      0.024025475    11.503653      718.84842     -42.604109      676.24431    
   1605000   304.23981      0.024025475    12.476773      754.82737     -41.690514      713.13685    
   1606000   306.33148      0.024025475    13.769373      760.01684     -40.168541      719.8483     
   1607000   318.8439       0.024025475    13.831441      791.06051     -41.253554      749.80696    
   1608000   301.54908      0.024025475    11.915585      748.15157     -39.582796      708.56877    
   1609000   288.30246      0.024025475    15.819466      715.28634     -41.177917      674.10842    
   1610000   298.04223      0.024025475    12.013582      739.45099     -42.252909      697.19808    
   1611000   302.61548      0.024025475    8.8741105      750.79735     -38.579748      712.2176     
   1612000   302.67147      0.024025475    15.569132      750.93627     -34.370483      716.56579    
   1613000   285.62251      0.024025475    10.994755      708.63732     -38.127084      670.51024    
   1614000   310.60554      0.024025475    9.6869267      770.62089     -38.108715      732.51218    
   1615000   303.43026      0.024025475    18.846773      752.81883     -40.518409      712.30042    
   1616000   287.92707      0.024025475    7.1199605      714.355       -43.686957      670.66805    
   1617000   300.65981      0.024025475    13.793663      745.94527     -44.288466      701.6568     
   1618000   307.32294      0.024025475    13.632903      762.47668     -43.527754      718.94892    
   1619000   298.44912      0.024025475    13.605318      740.46051     -42.664169      697.79634    
   1620000   296.6367       0.024025475    11.083163      735.96382     -37.526431      698.43739    
   1621000   319.39443      0.024025475    13.457533      792.42639     -44.407695      748.0187     
   1622000   304.55687      0.024025475    14.239076      755.61399     -41.444264      714.16972    
   1623000   294.43212      0.024025475    11.55345       730.49421     -44.808926      685.68528    
   1624000   297.29221      0.024025475    12.443593      737.59018     -39.142241      698.44794    
   1625000   299.5901       0.024025475    13.410351      743.2913      -41.867774      701.42352    
   1626000   297.81046      0.024025475    11.690104      738.87597     -35.569297      703.30667    
   1627000   299.10779      0.024025475    11.654599      742.09467     -34.260936      707.83374    
   1628000   305.77102      0.024025475    17.087749      758.62633     -30.639652      727.98668    
   1629000   300.95978      0.024025475    12.972418      746.68951     -36.124211      710.5653     
   1630000   294.28475      0.024025475    9.9928539      730.12858     -38.030252      692.09832    
   1631000   306.29293      0.024025475    13.040347      759.92119     -42.501571      717.41962    
   1632000   302.6862       0.024025475    15.592917      750.9728      -41.494032      709.47877    
   1633000   300.41784      0.024025475    12.059591      745.34494     -41.22977       704.11517    
   1634000   300.02992      0.024025475    3.4826162      744.38251     -46.075755      698.30675    
   1635000   297.04475      0.024025475    12.812917      736.97621     -49.053951      687.92226    
   1636000   305.97638      0.024025475    14.135509      759.13583     -46.572203      712.56363    
   1637000   294.58494      0.024025475    2.1056808      730.87335     -42.513816      688.35953    
   1638000   298.01029      0.024025475    13.908002      739.37175     -46.881106      692.49064    
   1639000   300.79451      0.024025475    17.028814      746.27946     -39.044113      707.23535    
   1640000   298.37979      0.024025475    13.029741      740.28847     -41.896316      698.39216    
   1641000   303.84845      0.024025475    4.4344246      753.85638     -40.688125      713.16826    
   1642000   296.52186      0.024025475    16.157017      735.67892     -39.362342      696.31658    
   1643000   300.21253      0.024025475    22.649705      744.83556     -40.539503      704.29606    
   1644000   303.48523      0.024025475    29.083965      752.95521     -41.799474      711.15574    
   1645000   304.29864      0.024025475    17.176569      754.97331     -42.121256      712.85205    
   1646000   312.62125      0.024025475    4.718625       775.62193     -44.640369      730.98156    
   1647000   292.08054      0.024025475   -1.7074778      724.65988     -47.992425      676.66745    
   1648000   291.93174      0.024025475    10.029386      724.2907      -47.221276      677.06943    
   1649000   289.13139      0.024025475    27.740649      717.34294     -39.582238      677.7607     
   1650000   308.7424       0.024025475    23.580754      765.99842     -43.822801      722.17561    
   1651000   301.18523      0.024025475   -4.7111433      747.24885     -40.905585      706.34327    
   1652000   293.89323      0.024025475    11.060638      729.15722     -43.362321      685.7949     
   1653000   302.71908      0.024025475    23.656078      751.05438     -46.163491      704.89088    
   1654000   309.85394      0.024025475    16.855288      768.75617     -45.166783      723.58939    
   1655000   297.73496      0.024025475   -7.7675942      738.68864     -46.347192      692.34145    
   1656000   289.16959      0.024025475    15.601338      717.43772     -44.397589      673.04013    
   1657000   311.70368      0.024025475    12.694032      773.34543     -43.989164      729.35626    
   1658000   303.58483      0.024025475    3.026748       753.20232     -44.802851      708.39947    
   1659000   295.9528       0.024025475   -0.14026401     734.26706     -47.748223      686.51884    
   1660000   298.07686      0.024025475    17.355257      739.53691     -48.725286      690.81162    
   1661000   301.40781      0.024025475    15.212797      747.80109     -45.39264       702.40845    
   1662000   300.07585      0.024025475    11.82998       744.49645     -41.984231      702.51222    
   1663000   283.84033      0.024025475    3.9671758      704.21569     -45.253329      658.96236    
   1664000   288.2857       0.024025475    14.737453      715.24476     -42.584087      672.66067    
   1665000   303.14052      0.024025475    13.393806      752.1         -40.338013      711.76198    
   1666000   303.57522      0.024025475    14.350861      753.17848     -38.364104      714.81437    
   1667000   293.4074       0.024025475    13.066964      727.95185     -46.351898      681.59995    
   1668000   302.56418      0.024025475    11.061176      750.67008     -41.492053      709.17803    
   1669000   291.61001      0.024025475    11.682798      723.49246     -39.262362      684.2301     
   1670000   293.76151      0.024025475    13.992794      728.8304      -41.02793       687.80247    
   1671000   298.35098      0.024025475    13.306475      740.217       -43.195019      697.02198    
   1672000   308.55361      0.024025475    13.35006       765.53001     -41.677325      723.85269    
   1673000   293.72788      0.024025475    12.605287      728.74697     -43.137495      685.60947    
   1674000   289.86655      0.024025475    13.306511      719.1669      -39.521747      679.64515    
   1675000   311.42122      0.024025475    19.921793      772.64463     -35.035996      737.60864    
   1676000   306.47118      0.024025475    12.032845      760.36344     -43.474898      716.88854    
   1677000   298.27757      0.024025475    12.660432      740.03488     -43.242705      696.79218    
   1678000   285.61246      0.024025475    12.389038      708.61238     -43.703618      664.90877    
   1679000   292.58178      0.024025475    12.944627      725.90345     -43.407858      682.49559    
   1680000   306.24124      0.024025475    12.354048      759.79295     -44.684411      715.10854    
   1681000   293.49902      0.024025475    12.727246      728.17916     -39.227245      688.95192    
   1682000   288.06784      0.024025475    12.747687      714.70425     -42.762904      671.94135    
   1683000   307.87663      0.024025475    9.4077622      763.85041     -40.668155      723.18225    
   1684000   309.6118       0.024025475    12.610425      768.15541     -41.538197      726.61722    
   1685000   286.07405      0.024025475    11.211531      709.7576      -43.181493      666.5761     
   1686000   286.40092      0.024025475    10.810158      710.56857     -42.229102      668.33947    
   1687000   298.34384      0.024025475    10.434122      740.19929     -38.419194      701.78009    
   1688000   306.59709      0.024025475    12.221329      760.67583     -42.865276      717.81055    
   1689000   306.56206      0.024025475    14.541768      760.58891     -43.257833      717.33108    
   1690000   288.33932      0.024025475    12.842061      715.37779     -44.190467      671.18733    
   1691000   292.44939      0.024025475    12.500076      725.57499     -38.782192      686.7928     
   1692000   304.73306      0.024025475    12.50052       756.05112     -40.113237      715.93788    
   1693000   308.66576      0.024025475    13.872963      765.80826     -37.780411      728.02785    
   1694000   295.48653      0.024025475    14.086454      733.11023     -36.542001      696.56823    
   1695000   295.686        0.024025475    13.352529      733.60512     -39.292433      694.31269    
   1696000   310.55481      0.024025475    14.126024      770.49504     -34.961696      735.53334    
   1697000   298.80423      0.024025475    14.188658      741.34153     -38.765641      702.57589    
   1698000   287.0774       0.024025475    9.1162948      712.24694     -42.23492       670.01202    
   1699000   313.88041      0.024025475    13.377686      778.74595     -45.30465       733.4413     
   1700000   292.32867      0.024025475    16.958804      725.27549     -49.286712      675.98878    
   1701000   277.84546      0.024025475    10.225298      689.34224     -45.367946      643.9743     
   1702000   314.85732      0.024025475    12.628848      781.16969     -43.707044      737.46265    
   1703000   302.85029      0.024025475    16.815432      751.37991     -41.407015      709.97289    
   1704000   297.4218       0.024025475    12.040858      737.91169     -39.387405      698.52429    
   1705000   299.44572      0.024025475    13.155408      742.93309     -35.306756      707.62633    
   1706000   305.3607       0.024025475    13.043727      757.60831     -47.069043      710.53927    
   1707000   307.0366       0.024025475    14.872589      761.76626     -50.426606      711.33965    
   1708000   298.18273      0.024025475    16.016701      739.79958     -42.191327      697.60826    
   1709000   289.81653      0.024025475    12.421224      719.0428      -36.040959      683.00184    
   1710000   305.23391      0.024025475    11.04827       757.29376     -38.029083      719.26467    
   1711000   302.56575      0.024025475    15.271731      750.67397     -32.754194      717.91978    
   1712000   303.5672       0.024025475    15.905723      753.15858     -45.862776      707.2958     
   1713000   294.85355      0.024025475    15.871368      731.53978     -47.81016       683.72962    
   1714000   304.67511      0.024025475    9.3908712      755.90734     -48.776655      707.13068    
   1715000   301.94925      0.024025475    14.071914      749.14441     -41.707548      707.43686    
   1716000   281.32745      0.024025475    11.951747      697.98117     -47.577539      650.40363    
   1717000   307.55311      0.024025475    11.440234      763.04774     -43.167501      719.88024    
   1718000   304.98339      0.024025475    15.139522      756.67219     -41.94179       714.7304     
   1719000   285.35852      0.024025475    13.491516      707.98234     -39.137841      668.8445     
   1720000   310.34817      0.024025475    13.535489      769.98237     -41.221393      728.76098    
   1721000   307.81083      0.024025475    13.734588      763.68717     -39.457522      724.22964    
   1722000   300.61495      0.024025475    25.646484      745.83397     -42.718781      703.11518    
   1723000   288.85825      0.024025475    20.218294      716.66528     -37.933716      678.73157    
   1724000   299.69501      0.024025475    12.738939      743.55158     -34.306851      709.24473    
   1725000   297.21082      0.024025475    9.7271067      737.38824     -36.538137      700.8501     
   1726000   313.53549      0.024025475    16.581542      777.8902      -37.355563      740.53464    
   1727000   304.93057      0.024025475    18.474832      756.54115     -36.907292      719.63386    
   1728000   302.54352      0.024025475    14.360318      750.6188      -39.927475      710.69133    
   1729000   291.26001      0.024025475    12.651829      722.62412     -46.81202       675.8121     
   1730000   298.69275      0.024025475    11.668213      741.06494     -44.689844      696.37509    
   1731000   305.17713      0.024025475    12.676867      757.15288     -47.075718      710.07716    
   1732000   305.95489      0.024025475    17.884843      759.08252     -43.410816      715.6717     
   1733000   289.57318      0.024025475    10.612666      718.43904     -47.196575      671.24247    
   1734000   310.66024      0.024025475    11.59913       770.75662     -44.048457      726.70816    
   1735000   306.84981      0.024025475    14.825342      761.30284     -41.167085      720.13575    
   1736000   308.32818      0.024025475    14.799387      764.97071     -47.065995      717.90471    
   1737000   285.86497      0.024025475    13.545565      709.23886     -47.348315      661.89055    
   1738000   296.90046      0.024025475    11.096892      736.61822     -51.358566      685.25965    
   1739000   317.82872      0.024025475    19.301126      788.54181     -43.910468      744.63134    
   1740000   305.98574      0.024025475    14.569848      759.15905     -41.174227      717.98482    
   1741000   292.96664      0.024025475    7.9405498      726.85831     -38.370318      688.48799    
   1742000   294.14987      0.024025475    8.673953       729.79394     -42.447583      687.34635    
   1743000   305.34765      0.024025475    13.736245      757.57595     -44.450814      713.12513    
   1744000   297.61702      0.024025475    14.334221      738.39603     -44.953918      693.44211    
   1745000   309.86489      0.024025475    6.6648233      768.78333     -43.066294      725.71703    
   1746000   322.5005       0.024025475    5.1782033      800.13264     -43.711894      756.42075    
   1747000   303.29502      0.024025475    20.435395      752.48332     -48.383627      704.09969    
   1748000   289.27712      0.024025475    12.372986      717.7045      -48.377593      669.32691    
   1749000   306.41091      0.024025475    9.9565174      760.21391     -41.328527      718.88538    
   1750000   310.62706      0.024025475    11.041321      770.67429     -52.724045      717.95025    
   1751000   290.27416      0.024025475    16.334007      720.1782      -47.108241      673.06996    
   1752000   295.87117      0.024025475    12.872569      734.06454     -46.121579      687.94296    
   1753000   296.95464      0.024025475    3.0986448      736.75265     -49.513494      687.23915    
   1754000   304.86582      0.024025475    8.6367917      756.3805      -43.305277      713.07522    
   1755000   300.64327      0.024025475    16.193451      745.90423     -38.790728      707.11351    
   1756000   294.21031      0.024025475    7.4376506      729.94388     -42.807066      687.13682    
   1757000   305.62412      0.024025475    12.423653      758.26188     -43.454349      714.80753    
   1758000   298.17443      0.024025475    27.376943      739.77899     -42.445454      697.33354    
   1759000   290.8427       0.024025475    12.917162      721.58876     -37.826649      683.76211    
   1760000   297.36993      0.024025475    8.8458109      737.783       -38.824618      698.95838    
   1761000   318.30444      0.024025475    15.157863      789.72208     -39.047431      750.67465    
   1762000   309.30067      0.024025475    16.345125      767.3835      -43.936211      723.44729    
   1763000   283.47456      0.024025475    12.518576      703.30819     -47.070981      656.23721    
   1764000   301.69741      0.024025475    12.512859      748.51959     -47.811017      700.70857    
   1765000   312.35396      0.024025475    13.056085      774.95879     -50.004885      724.9539     
   1766000   291.50466      0.024025475    12.352051      723.2311      -46.436271      676.79483    
   1767000   295.76605      0.024025475    16.982699      733.80372     -43.44578       690.35794    
   1768000   297.83946      0.024025475    11.822979      738.94791     -44.829798      694.11811    
   1769000   306.05736      0.024025475    13.191839      759.33675     -44.568049      714.7687     
   1770000   298.63981      0.024025475    13.035089      740.9336      -43.04475       697.88885    
   1771000   292.33981      0.024025475    12.549034      725.30311     -45.206066      680.09705    
   1772000   317.76624      0.024025475    10.026606      788.38679     -52.378799      736.00799    
   1773000   310.19909      0.024025475    11.296002      769.6125      -49.749276      719.86322    
   1774000   291.31476      0.024025475    10.701117      722.75996     -50.889325      671.87063    
   1775000   301.71582      0.024025475    14.342309      748.56526     -46.657473      701.90779    
   1776000   298.65056      0.024025475    10.782402      740.96026     -48.660881      692.29938    
   1777000   298.62386      0.024025475    12.600034      740.89403     -43.758664      697.13537    
   1778000   292.02318      0.024025475    11.496709      724.51755     -40.444241      684.07331    
   1779000   313.54228      0.024025475    13.006493      777.90704     -35.80725       742.09979    
   1780000   315.4134       0.024025475    18.775838      782.54934     -40.039845      742.5095     
   1781000   311.20762      0.024025475    13.222211      772.11469     -40.817845      731.29685    
   1782000   301.67983      0.024025475    9.3869276      748.47597     -45.993673      702.4823     
   1783000   306.49024      0.024025475    10.899928      760.41074     -48.25057       712.16017    
   1784000   295.44837      0.024025475    8.7805608      733.01555     -52.940166      680.07538    
   1785000   295.1427       0.024025475    14.446378      732.25719     -52.634281      679.6229     
   1786000   300.19106      0.024025475    14.165854      744.7823      -49.66935       695.11295    
   1787000   303.85333      0.024025475    9.1671228      753.86848     -51.205603      702.66288    
   1788000   284.30834      0.024025475    10.791579      705.37683     -49.676584      655.70024    
   1789000   291.78342      0.024025475    13.612923      723.92271     -51.052715      672.87       
   1790000   307.65801      0.024025475    11.471883      763.30801     -47.462814      715.8452     
   1791000   304.09758      0.024025475    11.752667      754.47448     -46.900396      707.57408    
   1792000   298.7075       0.024025475    14.532616      741.10153     -43.898577      697.20296    
   1793000   305.61955      0.024025475    13.315485      758.25052     -47.555647      710.69487    
   1794000   314.64639      0.024025475    12.904062      780.64636     -42.963525      737.68284    
   1795000   303.15916      0.024025475    11.619827      752.14622     -48.032873      704.11335    
   1796000   290.46387      0.024025475    12.486276      720.64887     -46.098936      674.54994    
   1797000   307.34348      0.024025475    11.556745      762.52765     -46.467704      716.05995    
   1798000   298.969        0.024025475    15.124201      741.75033     -47.911237      693.83909    
   1799000   299.16876      0.024025475    12.464241      742.24593     -47.81797       694.42796    
   1800000   300.31941      0.024025475    3.6237114      745.10073     -47.106673      697.99406    
   1801000   296.31974      0.024025475    14.154325      735.17743     -50.930593      684.24684    
   1802000   310.26051      0.024025475    17.837144      769.76487     -48.999128      720.76574    
   1803000   294.56741      0.024025475    10.668647      730.82985     -43.931725      686.89813    
   1804000   300.75497      0.024025475    19.890853      746.18138     -49.297072      696.88431    
   1805000   308.49846      0.024025475    19.253942      765.39319     -52.331002      713.06219    
   1806000   302.49301      0.024025475    18.074654      750.49351     -57.861816      692.63169    
   1807000   310.55387      0.024025475    11.297649      770.49272     -50.187036      720.30569    
   1808000   299.14728      0.024025475    6.7992205      742.19265     -52.593736      689.59891    
   1809000   302.79342      0.024025475    22.510397      751.23882     -51.558393      699.68042    
   1810000   295.3495       0.024025475    12.453492      732.77025     -47.396361      685.37389    
   1811000   303.16199      0.024025475    11.652039      752.15325     -47.83515       704.3181     
   1812000   300.05283      0.024025475    1.1705886      744.43934     -47.07442       697.36492    
   1813000   294.50937      0.024025475    16.107141      730.68587     -44.427922      686.25795    
   1814000   306.00024      0.024025475    15.790333      759.19503     -43.539154      715.65588    
   1815000   288.75041      0.024025475    11.191535      716.39772     -47.916113      668.48161    
   1816000   300.33351      0.024025475    13.853713      745.13571     -49.656308      695.4794     
   1817000   310.10384      0.024025475    14.112352      769.37617     -43.394176      725.982      
   1818000   301.11414      0.024025475    11.700394      747.07248     -39.397857      707.67462    
   1819000   283.71926      0.024025475    11.662243      703.91529     -41.361505      662.55379    
   1820000   308.76389      0.024025475    14.902214      766.05171     -40.434698      725.61702    
   1821000   302.20937      0.024025475    7.9468065      749.78978     -47.339244      702.45054    
   1822000   294.53686      0.024025475    13.554255      730.75408     -49.051106      681.70297    
   1823000   305.62922      0.024025475    13.98231       758.27453     -48.535005      709.73952    
   1824000   313.98597      0.024025475    11.920814      779.00784     -42.436527      736.57132    
   1825000   302.67168      0.024025475    12.523163      750.93677     -41.442308      709.49447    
   1826000   302.11227      0.024025475    17.860401      749.54886     -44.640587      704.90828    
   1827000   297.39367      0.024025475    12.472798      737.84189     -34.733133      703.10876    
   1828000   292.49678      0.024025475    12.162305      725.69257     -42.070412      683.62216    
   1829000   305.48139      0.024025475    14.188069      757.90775     -38.691846      719.2159     
   1830000   312.39089      0.024025475    14.205378      775.0504      -40.593381      734.45702    
   1831000   296.49113      0.024025475    12.25429       735.60268     -45.494827      690.10785    
   1832000   295.24023      0.024025475    14.207097      732.49914     -46.278347      686.22079    
   1833000   307.80491      0.024025475    12.605358      763.67247     -40.402406      723.27006    
   1834000   301.76669      0.024025475    13.034968      748.69148     -43.745299      704.94618    
   1835000   298.23191      0.024025475    13.025987      739.9216      -46.172832      693.74876    
   1836000   317.39026      0.024025475    12.334157      787.45399     -52.124966      735.32902    
   1837000   303.90002      0.024025475    12.499394      753.98432     -51.521719      702.4626     
   1838000   291.93342      0.024025475    12.450599      724.29487     -53.854702      670.44017    
   1839000   300.98408      0.024025475    11.956899      746.7498      -47.961454      698.78835    
   1840000   312.91874      0.024025475    24.089395      776.36002     -39.002438      737.35758    
   1841000   307.82161      0.024025475    14.190318      763.71389     -45.430654      718.28324    
   1842000   295.70634      0.024025475    13.194608      733.65557     -43.247915      690.40765    
   1843000   293.32556      0.024025475    12.484449      727.74881     -42.849739      684.89907    
   1844000   315.01303      0.024025475    14.564047      781.556       -44.378535      737.17747    
   1845000   304.13971      0.024025475    9.1288098      754.579       -46.442057      708.13695    
   1846000   292.60102      0.024025475    7.6158457      725.95119     -43.141612      682.80958    
   1847000   295.02591      0.024025475    13.416096      731.96742     -42.509399      689.45802    
   1848000   295.0263       0.024025475    14.361554      731.96838     -38.742997      693.22538    
   1849000   305.22023      0.024025475    8.199811       757.2598      -42.987747      714.27205    
   1850000   286.83353      0.024025475    11.028181      711.64189     -34.175507      677.46639    
   1851000   301.16775      0.024025475    16.641853      747.20549     -38.145113      709.06038    
   1852000   318.53486      0.024025475    14.722421      790.29378     -43.008951      747.28483    
   1853000   293.36815      0.024025475    7.9619504      727.85446     -44.643527      683.21093    
   1854000   297.68238      0.024025475    11.523859      738.5582      -43.261784      695.29642    
   1855000   319.76202      0.024025475    24.143765      793.33838     -39.72208       753.6163     
   1856000   310.32647      0.024025475    13.646245      769.92853     -37.364969      732.56356    
   1857000   296.39989      0.024025475    12.268453      735.3763      -38.81586       696.56044    
   1858000   298.15745      0.024025475    8.5256294      739.73684     -40.896781      698.84006    
   1859000   302.21057      0.024025475    11.471048      749.79275     -37.939005      711.85374    
   1860000   289.66954      0.024025475    11.455229      718.67811     -38.251183      680.42693    
   1861000   303.39037      0.024025475    13.56631       752.71986     -39.57854       713.14132    
   1862000   294.35204      0.024025475    8.4077092      730.29551     -40.387459      689.90805    
   1863000   292.11884      0.024025475    15.745109      724.75488     -38.954533      685.80035    
   1864000   309.92885      0.024025475    12.734097      768.94203     -37.870926      731.0711     
   1865000   290.05363      0.024025475    6.633121       719.63104     -43.18019       676.45085    
   1866000   288.49007      0.024025475    13.855005      715.75182     -45.018017      670.73381    
   1867000   305.06408      0.024025475    13.554315      756.87238     -49.785854      707.08653    
   1868000   305.81507      0.024025475    12.86224       758.73563     -42.061116      716.67451    
   1869000   288.86283      0.024025475    10.903593      716.67664     -43.700028      672.97661    
   1870000   293.29422      0.024025475    16.332063      727.67104     -41.806296      685.86475    
   1871000   309.44289      0.024025475    15.847869      767.73633     -36.528512      731.20782    
   1872000   294.59462      0.024025475    10.229925      730.89737     -35.95293       694.94444    
   1873000   277.66811      0.024025475    13.49513       688.90224     -41.415716      647.48652    
   1874000   306.35205      0.024025475    15.387533      760.06787     -41.860655      718.20722    
   1875000   308.40608      0.024025475    10.830189      765.16399     -39.871531      725.29246    
   1876000   296.87518      0.024025475    12.219484      736.55551     -38.782473      697.77304    
   1877000   304.1118       0.024025475    12.033472      754.50975     -38.689439      715.82031    
   1878000   314.09453      0.024025475    17.79793       779.27718     -40.689307      738.58787    
   1879000   302.27311      0.024025475    11.860937      749.94792     -35.454948      714.49297    
   1880000   303.08384      0.024025475    11.562593      751.95937     -35.1191        716.84027    
   1881000   299.00674      0.024025475    7.5561489      741.84396     -42.011852      699.83211    
   1882000   293.87206      0.024025475    11.641051      729.10468     -44.317749      684.78693    
   1883000   293.76102      0.024025475    15.038687      728.82919     -39.731786      689.0974     
   1884000   296.0298       0.024025475    16.006562      734.45808     -40.547665      693.91042    
   1885000   321.15303      0.024025475    13.919128      796.78952     -44.812078      751.97744    
   1886000   307.06276      0.024025475    11.29952       761.83118     -44.486028      717.34515    
   1887000   296.45373      0.024025475    4.8778884      735.50988     -43.960218      691.54967    
   1888000   288.46034      0.024025475    12.628544      715.67805     -39.149476      676.52857    
   1889000   300.87231      0.024025475    14.484451      746.4725      -39.819043      706.65346    
   1890000   315.07778      0.024025475    9.560981       781.71667     -31.28594       750.43073    
   1891000   296.60855      0.024025475    11.935895      735.89399     -31.016473      704.87752    
   1892000   296.36597      0.024025475    12.002696      735.29213     -31.841409      703.45072    
   1893000   308.98914      0.024025475    12.480724      766.61056     -31.465782      735.14478    
   1894000   294.01399      0.024025475    16.265195      729.45682     -35.722382      693.73444    
   1895000   295.22582      0.024025475    11.532624      732.46339     -37.18693       695.27646    
   1896000   299.85887      0.024025475    9.5205403      743.95811     -36.503761      707.45435    
   1897000   312.00103      0.024025475    14.96278       774.08316     -35.36273       738.72043    
   1898000   292.09514      0.024025475    15.535484      724.69609     -38.157355      686.53873    
   1899000   300.62693      0.024025475    9.418583       745.86371     -35.964647      709.89907    
   1900000   311.91112      0.024025475    17.782491      773.86008     -41.469229      732.39085    
   1901000   296.31814      0.024025475    9.843843       735.17347     -42.217696      692.95578    
   1902000   297.58709      0.024025475    5.1756611      738.32178     -42.646569      695.67521    
   1903000   305.85617      0.024025475    17.254161      758.8376      -37.632933      721.20467    
   1904000   305.81153      0.024025475    23.454142      758.72684     -39.554062      719.17278    
   1905000   296.24289      0.024025475    10.697555      734.98678     -37.463522      697.52325    
   1906000   281.9619       0.024025475   -4.2838794      699.55524     -45.039068      654.51617    
   1907000   307.21657      0.024025475    12.106987      762.21277     -45.010571      717.2022     
   1908000   295.75342      0.024025475    16.019528      733.77239     -42.639044      691.13335    
   1909000   299.65834      0.024025475    0.13940329     743.4606      -40.059049      703.40156    
   1910000   299.10328      0.024025475    5.1530537      742.08349     -41.417024      700.66646    
   1911000   306.40397      0.024025475    19.029803      760.1967      -42.008414      718.18828    
   1912000   302.19931      0.024025475    12.257964      749.76482     -39.38524       710.37958    
   1913000   292.88896      0.024025475    4.9140444      726.66559     -38.835907      687.82968    
   1914000   295.39926      0.024025475    10.591451      732.89371     -36.059674      696.83404    
   1915000   302.91429      0.024025475    17.157392      751.5387      -37.505499      714.0332     
   1916000   297.43097      0.024025475    12.65397       737.93442     -37.832816      700.10161    
   1917000   300.0046       0.024025475    1.6776588      744.31969     -37.626664      706.69303    
   1918000   298.55374      0.024025475    17.239147      740.72005     -37.032756      703.68729    
   1919000   290.58092      0.024025475    14.52076       720.93928     -37.490608      683.44867    
   1920000   303.5713       0.024025475   -1.3767327      753.16876     -41.077588      712.09117    
   1921000   317.61971      0.024025475    15.371896      788.02327     -46.570708      741.45256    
   1922000   291.66527      0.024025475    15.669953      723.62956     -41.389164      682.2404     
   1923000   295.14706      0.024025475    12.073413      732.26799     -41.865581      690.40241    
   1924000   308.47973      0.024025475    11.848122      765.3467      -35.98857       729.35813    
   1925000   306.98371      0.024025475    14.185604      761.63504     -43.010957      718.62408    
   1926000   296.70784      0.024025475    18.736425      736.14033     -42.640887      693.49944    
   1927000   297.00529      0.024025475    14.496976      736.87831     -38.582552      698.29575    
   1928000   294.7044       0.024025475    8.7150472      731.16974     -35.717291      695.45245    
   1929000   300.54604      0.024025475    10.697982      745.663       -35.030067      710.63294    
   1930000   306.24345      0.024025475    14.681434      759.79845     -33.574051      726.2244     
   1931000   303.31518      0.024025475    12.100186      752.53332     -29.765684      722.76764    
   1932000   288.43562      0.024025475    11.069036      715.61673     -35.434443      680.18228    
   1933000   298.12728      0.024025475    16.555787      739.66201     -33.791788      705.87022    
   1934000   307.29799      0.024025475    11.212875      762.41477     -39.209222      723.20555    
   1935000   303.35473      0.024025475    12.054655      752.63144     -38.857133      713.77431    
   1936000   301.01564      0.024025475    17.955544      746.82811     -32.704293      714.12382    
   1937000   299.24116      0.024025475    12.158306      742.42558     -33.182703      709.24288    
   1938000   305.43608      0.024025475    10.817128      757.79534     -34.970516      722.82482    
   1939000   296.87423      0.024025475    10.603233      736.55315     -35.169846      701.3833     
   1940000   294.95991      0.024025475    10.492651      731.80367     -29.582964      702.22071    
   1941000   310.58349      0.024025475    13.277639      770.56621     -28.326197      742.24001    
   1942000   298.45621      0.024025475    11.554079      740.47809     -28.039606      712.43848    
   1943000   296.24883      0.024025475    9.4248381      735.00151     -23.345326      711.65619    
   1944000   292.70121      0.024025475    12.509746      726.19978     -28.239168      697.96061    
   1945000   302.67527      0.024025475    16.096722      750.94569     -34.42022       716.52547    
   1946000   303.83082      0.024025475    10.285361      753.81263     -35.723501      718.08913    
   1947000   292.71056      0.024025475    8.9866305      726.22296     -40.8926        685.33036    
   1948000   292.25298      0.024025475    14.039121      725.0877      -45.81502       679.27268    
   1949000   304.36787      0.024025475    14.74178       755.14509     -46.75627       708.38882    
   1950000   292.86748      0.024025475   -0.40985228     726.6123      -43.042046      683.57025    
   1951000   298.38798      0.024025475    9.5054907      740.30879     -39.990631      700.31816    
   1952000   298.11535      0.024025475    27.567826      739.63239     -38.23139       701.401      
   1953000   302.25642      0.024025475    13.482034      749.90652     -40.655222      709.2513     
   1954000   298.09353      0.024025475    10.337212      739.57826     -38.60703       700.97123    
   1955000   300.06325      0.024025475    11.47062       744.46521     -36.423392      708.04181    
   1956000   299.18207      0.024025475    12.671334      742.27897     -41.831135      700.44783    
   1957000   313.34866      0.024025475    15.36601       777.42666     -38.259266      739.1674     
   1958000   291.41434      0.024025475    7.1681582      723.00701     -40.361436      682.64558    
   1959000   292.07922      0.024025475    13.074355      724.65659     -38.212434      686.44415    
   1960000   302.76761      0.024025475    14.498165      751.1748      -34.287441      716.88736    
   1961000   311.01262      0.024025475    7.9004089      771.63089     -35.928443      735.70245    
   1962000   289.04315      0.024025475    12.054413      717.12403     -34.699803      682.42423    
   1963000   287.34299      0.024025475    13.15293       712.90589     -33.677633      679.22825    
   1964000   309.94228      0.024025475    14.419666      768.97533     -35.896455      733.07888    
   1965000   304.60457      0.024025475    12.68566       755.73233     -37.39965       718.33268    
   1966000   273.09175      0.024025475    8.5211993      677.54815     -37.644041      639.90411    
   1967000   298.3672       0.024025475    12.567468      740.25725     -41.804225      698.45302    
   1968000   312.51151      0.024025475    14.386378      775.34966     -35.165707      740.18396    
   1969000   297.07141      0.024025475    13.133611      737.04235     -36.151663      700.89068    
   1970000   294.45666      0.024025475    11.170603      730.55508     -38.478905      692.07617    
   1971000   294.63015      0.024025475    10.954319      730.98553     -42.96218       688.02335    
   1972000   300.77082      0.024025475    17.691051      746.2207      -40.748028      705.47267    
   1973000   299.13026      0.024025475    16.187254      742.15041     -41.001442      701.14897    
   1974000   305.95732      0.024025475    12.181789      759.08855     -44.806491      714.28206    
   1975000   304.5353       0.024025475    11.493961      755.56048     -43.059683      712.50079    
   1976000   312.45492      0.024025475    12.187449      775.20928     -41.154427      734.05485    
   1977000   303.84781      0.024025475    12.80004       753.85479     -38.341281      715.51351    
   1978000   288.95376      0.024025475    12.539974      716.90225     -41.398848      675.5034     
   1979000   296.11744      0.024025475    12.472183      734.67553     -39.685531      694.99       
   1980000   306.79612      0.024025475    18.866563      761.16964     -47.60225       713.56739    
   1981000   307.46264      0.024025475    15.504647      762.8233      -47.777943      715.04535    
   1982000   297.17725      0.024025475    8.5323981      737.30494     -44.932928      692.37201    
   1983000   297.87445      0.024025475    19.17701       739.03471     -46.946356      692.08836    
   1984000   307.31699      0.024025475    15.191816      762.46193     -43.322337      719.13959    
   1985000   304.8111       0.024025475    15.854039      756.24474     -40.808745      715.43599    
   1986000   299.34917      0.024025475    8.7979865      742.69355     -45.145083      697.54846    
   1987000   289.89143      0.024025475    15.938562      719.22862     -43.259198      675.96942    
   1988000   304.48695      0.024025475    14.593202      755.4405      -41.731725      713.70878    
   1989000   301.04435      0.024025475    10.16038       746.89932     -42.460719      704.4386     
   1990000   301.8581       0.024025475    11.815256      748.91826     -39.077633      709.84063    
   1991000   296.17709      0.024025475    12.27118       734.82353     -33.898754      700.92477    
   1992000   304.10067      0.024025475    18.47394       754.48214     -32.379792      722.10235    
   1993000   303.40081      0.024025475    11.552132      752.74576     -29.11881       723.62695    
   1994000   291.92446      0.024025475    11.339068      724.27263     -30.331348      693.94128    
   1995000   303.52379      0.024025475    18.316184      753.05088     -33.663842      719.38704    
   1996000   310.44636      0.024025475    15.310789      770.22597     -32.147082      738.07889    
   1997000   290.60224      0.024025475    9.4292634      720.99217     -37.344829      683.64734    
   1998000   300.22851      0.024025475    17.316301      744.8752      -42.487286      702.38792    
   1999000   312.64893      0.024025475    11.175227      775.69061     -37.080655      738.60995    
   2000000   299.91884      0.024025475    5.887637       744.1069      -38.426559      705.68034    
   2001000   295.46665      0.024025475    12.15014       733.06091     -44.143725      688.91719    
   2002000   296.78202      0.024025475    13.681448      736.32437     -32.242651      704.08172    
   2003000   312.64353      0.024025475    14.063387      775.67722     -33.84178       741.83544    
   2004000   292.5696       0.024025475    13.683153      725.87325     -35.025485      690.84776    
   2005000   289.33258      0.024025475    11.586475      717.84211     -34.738013      683.1041     
   2006000   299.1982       0.024025475    13.690579      742.31898     -34.502705      707.81627    
   2007000   320.32984      0.024025475    12.986329      794.74715     -34.26937       760.47778    
   2008000   297.67167      0.024025475    12.260311      738.53161     -30.854531      707.67708    
   2009000   288.77083      0.024025475    12.11686       716.4484      -34.22575       682.22265    
   2010000   294.3929       0.024025475    12.03049       730.39689     -31.656822      698.74007    
   2011000   304.59433      0.024025475    14.606574      755.70693     -30.583062      725.12387    
   2012000   311.28597      0.024025475    8.2012476      772.30908     -33.875841      738.43324    
   2013000   299.71126      0.024025475    13.711646      743.5919      -36.216879      707.37502    
   2014000   310.42703      0.024025475    13.199463      770.17802     -33.072646      737.10537    
   2015000   308.16659      0.024025475    14.113167      764.56979     -33.060022      731.50977    
   2016000   299.19847      0.024025475    12.432718      742.31966     -40.95096       701.3687     
   2017000   289.42205      0.024025475    8.7308249      718.06409     -37.639382      680.4247     
   2018000   307.86891      0.024025475    13.358016      763.83124     -37.652852      726.17839    
   2019000   301.22593      0.024025475    12.616975      747.34985     -37.132473      710.21737    
   2020000   284.95055      0.024025475    12.346514      706.97018     -37.303308      669.66687    
   2021000   295.7319       0.024025475    12.874169      733.71899     -36.722807      696.99618    
   2022000   305.66923      0.024025475    12.853985      758.37377     -38.86283       719.51094    
   2023000   303.22731      0.024025475    13.554531      752.31531     -36.380995      715.93432    
   2024000   291.92105      0.024025475    15.421941      724.26417     -35.289709      688.97446    
   2025000   292.47306      0.024025475    13.331447      725.63373     -34.694481      690.93925    
   2026000   317.41409      0.024025475    15.649395      787.51311     -32.358385      755.15472    
   2027000   310.7697       0.024025475    16.151798      771.0282      -39.041128      731.98707    
   2028000   300.14917      0.024025475    13.178553      744.67836     -39.410195      705.26817    
   2029000   296.22413      0.024025475    12.125815      734.94024     -38.262297      696.67795    
   2030000   287.20617      0.024025475    10.257881      712.56643     -43.307517      669.25892    
   2031000   296.30336      0.024025475    14.751383      735.1368      -40.129621      695.00718    
   2032000   311.85911      0.024025475    14.310536      773.73105     -45.491652      728.2394     
   2033000   294.47654      0.024025475    7.6588264      730.60442     -48.69549       681.90893    
   2034000   278.42892      0.024025475    11.768097      690.78983     -42.810986      647.97885    
   2035000   297.77404      0.024025475    14.669575      738.7856      -41.982617      696.80298    
   2036000   310.42483      0.024025475    12.442679      770.17255     -39.858293      730.31425    
   2037000   291.39526      0.024025475    10.369653      722.95967     -39.824406      683.13527    
   2038000   290.67481      0.024025475    12.447635      721.17221     -40.825053      680.34715    
   2039000   302.446        0.024025475    14.916609      750.37686     -45.683486      704.69337    
   2040000   317.14736      0.024025475    8.4946813      786.85133     -41.388506      745.46283    
   2041000   302.22558      0.024025475    11.411753      749.83001     -47.563462      702.26654    
   2042000   292.46883      0.024025475    14.509903      725.62322     -41.62589       683.99733    
   2043000   304.41814      0.024025475    13.154589      755.26981     -43.725541      711.54427    
   2044000   305.05824      0.024025475    12.311835      756.85791     -46.691515      710.16639    
   2045000   285.74786      0.024025475    12.107973      708.94831     -49.846063      659.10225    
   2046000   307.48548      0.024025475    13.145032      762.87995     -44.129172      718.75078    
   2047000   307.93883      0.024025475    17.658673      764.00473     -42.845668      721.15906    
   2048000   296.45009      0.024025475    13.264508      735.50086     -46.157285      689.34357    
   2049000   292.74417      0.024025475    12.484007      726.30635     -49.389431      676.91692    
   2050000   317.62121      0.024025475    14.708503      788.02698     -52.717252      735.30973    
   2051000   314.32852      0.024025475    17.057089      779.85773     -47.496         732.36173    
   2052000   292.25581      0.024025475    12.309298      725.09471     -50.397448      674.69727    
   2053000   299.97466      0.024025475    11.833982      744.24539     -46.352709      697.89268    
   2054000   295.07582      0.024025475    10.83209       732.09123     -50.150783      681.94045    
   2055000   299.97321      0.024025475    11.697026      744.24181     -48.432816      695.809      
   2056000   300.52297      0.024025475    17.214252      745.60577     -44.602124      701.00365    
   2057000   297.26517      0.024025475    10.493145      737.52309     -44.257346      693.26574    
   2058000   281.39967      0.024025475    9.0691019      698.16035     -38.326235      659.83411    
   2059000   305.48984      0.024025475    13.059836      757.92871     -36.411295      721.51741    
   2060000   312.62141      0.024025475    15.415856      775.62234     -37.802179      737.82016    
   2061000   291.56208      0.024025475    13.44119       723.37357     -35.94765       687.42592    
   2062000   295.9928       0.024025475    11.018248      734.36629     -38.686484      695.6798     
   2063000   306.97412      0.024025475    13.41755       761.61125     -42.23637       719.37488    
   2064000   300.42019      0.024025475    12.594182      745.35078     -40.512604      704.83818    
   2065000   294.90998      0.024025475    8.5416695      731.67979     -48.454615      683.22518    
   2066000   295.21868      0.024025475    8.7999612      732.44567     -47.238524      685.20715    
   2067000   304.95136      0.024025475    17.307684      756.59274     -46.089844      710.5029     
   2068000   306.65159      0.024025475    14.888727      760.81104     -41.493329      719.31771    
   2069000   305.68714      0.024025475    9.2945835      758.41823     -44.039057      714.37917    
   2070000   301.68393      0.024025475    10.081612      748.48615     -42.114946      706.3712     
   2071000   298.91881      0.024025475    17.958231      741.62581     -37.195408      704.4304     
   2072000   298.82559      0.024025475    11.998919      741.39453     -41.427125      699.9674     
   2073000   319.53612      0.024025475    8.6531467      792.77793     -38.786488      753.99144    
   2074000   302.8661       0.024025475    15.485847      751.41913     -33.792132      717.627      
   2075000   286.91822      0.024025475    16.967518      711.85201     -37.979295      673.87271    
   2076000   305.50585      0.024025475    8.1196543      757.96843     -37.143695      720.82474    
   2077000   308.49871      0.024025475    20.797837      765.39379     -36.434758      728.95904    
   2078000   290.77442      0.024025475    16.411017      721.41935     -35.290627      686.12873    
   2079000   296.90083      0.024025475    9.1588299      736.61915     -35.968374      700.65078    
   2080000   320.98545      0.024025475    10.085156      796.37376     -41.731785      754.64197    
   2081000   298.83792      0.024025475    19.197541      741.42513     -44.207328      697.2178     
   2082000   287.3189       0.024025475    9.7206317      712.8461      -44.32883       668.51727    
   2083000   290.31738      0.024025475    3.0077593      720.28541     -45.863275      674.42214    
   2084000   318.35994      0.024025475    7.8909367      789.8598      -38.205349      751.65445    
   2085000   304.76892      0.024025475    17.013789      756.14008     -32.802033      723.33805    
   2086000   298.15598      0.024025475    13.521078      739.7332      -37.030019      702.70318    
   2087000   293.04102      0.024025475    11.343354      727.04285     -39.581362      687.46149    
   2088000   302.03653      0.024025475    11.256015      749.36096     -36.666579      712.69439    
   2089000   315.53138      0.024025475    16.148318      782.84205     -40.843788      741.99826    
   2090000   291.69519      0.024025475    19.599929      723.7038      -36.661327      687.04247    
   2091000   291.30874      0.024025475    6.0234501      722.74502     -37.618261      685.12676    
   2092000   312.08721      0.024025475    13.15225       774.29697     -34.224464      740.0725     
   2093000   305.4878       0.024025475    24.339844      757.92365     -29.629878      728.29377    
   2094000   287.37668      0.024025475    17.740639      712.98946     -32.557386      680.43207    
   2095000   299.54477      0.024025475    2.7142134      743.17884     -39.362507      703.81633    
   2096000   319.22894      0.024025475    19.14108       792.01579     -37.79626       754.21953    
   2097000   288.98209      0.024025475    21.642384      716.97252     -40.163708      676.80882    
   2098000   293.76544      0.024025475    21.73372       728.84015     -39.752627      689.08752    
   2099000   296.72898      0.024025475    16.031174      736.19279     -34.635478      701.55731    
   2100000   305.78926      0.024025475    3.2269634      758.67157     -38.527995      720.14358    
   2101000   304.72975      0.024025475    13.389155      756.04292     -33.776484      722.26644    
   2102000   298.75154      0.024025475    15.502716      741.21082     -39.926161      701.28466    
   2103000   297.3375       0.024025475    7.6393568      737.70252     -30.710751      706.99177    
   2104000   305.77781      0.024025475    9.1413394      758.64318     -33.052692      725.59049    
   2105000   295.37422      0.024025475    24.026075      732.83157     -31.287159      701.54441    
   2106000   294.5913       0.024025475    8.9872413      730.88913     -33.453347      697.43579    
   2107000   307.5486       0.024025475    0.2034891      763.03655     -34.724308      728.31224    
   2108000   303.41052      0.024025475    17.387004      752.76986     -36.12117       716.64869    
   2109000   318.30388      0.024025475    18.41186       789.72071     -32.640638      757.08007    
   2110000   297.13593      0.024025475    15.220285      737.20244     -35.900787      701.30165    
   2111000   296.55659      0.024025475    7.3867908      735.76508     -36.664126      699.10096    
   2112000   298.00783      0.024025475    9.3886788      739.36565     -35.78449       703.58116    
   2113000   310.68187      0.024025475    14.327846      770.81028     -34.583946      736.22634    
   2114000   309.32428      0.024025475    13.091878      767.44206     -35.424869      732.01719    
   2115000   277.70496      0.024025475    14.356577      688.99367     -34.280205      654.71346    
   2116000   291.56961      0.024025475    12.293838      723.39223     -37.839472      685.55276    
   2117000   292.8119       0.024025475    12.081195      726.47441     -41.524522      684.94988    
   2118000   318.94501      0.024025475    14.214378      791.31135     -34.601599      756.70975    
   2119000   289.32919      0.024025475    13.179895      717.83369     -27.023878      690.80982    
   2120000   295.01187      0.024025475    11.063625      731.93259     -28.458382      703.47421    
   2121000   296.39978      0.024025475    13.671098      735.37602     -31.631021      703.745      
   2122000   318.06695      0.024025475    21.316947      789.13286     -36.203807      752.92906    
   2123000   304.4977       0.024025475    11.950793      755.46719     -30.118867      725.34832    
   2124000   283.99517      0.024025475    5.9249949      704.59983     -29.551669      675.04816    
   2125000   292.44412      0.024025475    16.904215      725.56192     -31.580353      693.98157    
   2126000   317.35892      0.024025475    14.917323      787.37622     -32.248441      755.12778    
   2127000   295.67888      0.024025475    10.983371      733.58745     -33.788931      699.79851    
   2128000   291.99394      0.024025475    13.445011      724.44501     -27.869302      696.57571    
   2129000   314.83451      0.024025475    13.123082      781.1131      -32.045783      749.06731    
   2130000   300.06492      0.024025475    13.010218      744.46933     -29.309412      715.15992    
   2131000   288.46532      0.024025475    8.7578048      715.6904      -32.123276      683.56713    
   2132000   300.13558      0.024025475    13.400427      744.64465     -31.916067      712.72858    
   2133000   300.01581      0.024025475    12.064739      744.3475      -35.009185      709.33831    
   2134000   317.45993      0.024025475    13.494761      787.62684     -39.469508      748.15734    
   2135000   301.59977      0.024025475    13.717233      748.27736     -40.903319      707.37404    
   2136000   288.93463      0.024025475    10.913937      716.85478     -39.59912       677.25566    
   2137000   300.18088      0.024025475    11.973139      744.75703     -34.560011      710.19702    
   2138000   310.82102      0.024025475    13.582174      771.15552     -34.243229      736.91229    
   2139000   300.2579       0.024025475    11.933309      744.94813     -38.153519      706.79461    
   2140000   296.83574      0.024025475    13.273179      736.45766     -37.663461      698.7942     
   2141000   300.11555      0.024025475    15.713763      744.59495     -36.231228      708.36372    
   2142000   321.99824      0.024025475    14.546245      798.88651     -39.536561      759.34995    
   2143000   291.7671       0.024025475    10.898447      723.88223     -39.469367      684.41286    
   2144000   290.22974      0.024025475    19.922489      720.06797     -32.903356      687.16462    
   2145000   311.2986       0.024025475    14.029689      772.34042     -37.658274      734.68215    
   2146000   309.96747      0.024025475    11.019278      769.03783     -41.838753      727.19908    
   2147000   295.13988      0.024025475    10.418718      732.25017     -41.409631      690.84054    
   2148000   298.12417      0.024025475    11.801561      739.65428     -44.846867      694.80741    
   2149000   303.91797      0.024025475    12.042218      754.02886     -41.501916      712.52694    
   2150000   315.50725      0.024025475    14.09565       782.78218     -43.163167      739.61901    
   2151000   298.48846      0.024025475    12.207401      740.55809     -36.899784      703.6583     
   2152000   307.30101      0.024025475    12.211225      762.42228     -40.195666      722.22662    
   2153000   305.00292      0.024025475    16.439488      756.72066     -43.26594       713.45472    
   2154000   304.98459      0.024025475    14.997281      756.67517     -39.883573      716.7916     
   2155000   289.70873      0.024025475    8.7591386      718.77533     -40.19024       678.58509    
   2156000   283.98314      0.024025475    10.137017      704.57001     -42.269815      662.30019    
   2157000   308.48576      0.024025475    13.690857      765.36166     -37.838193      727.52347    
   2158000   294.34173      0.024025475    11.29176       730.26995     -42.137157      688.1328     
   2159000   292.66948      0.024025475    14.643892      726.12105     -40.413103      685.70795    
   2160000   310.60261      0.024025475    13.247486      770.61364     -35.604156      735.00948    
   2161000   301.08487      0.024025475    8.9842487      746.99986     -38.80711       708.19275    
   2162000   302.81835      0.024025475    12.436974      751.30068     -42.611173      708.6895     
   2163000   292.12374      0.024025475    19.975972      724.76704     -39.800211      684.96683    
   2164000   298.71417      0.024025475    8.5215451      741.11808     -43.6105        697.50758    
   2165000   301.04765      0.024025475    9.8529753      746.90752     -41.559795      705.34773    
   2166000   297.33584      0.024025475    7.0445031      737.69842     -45.001421      692.697      
   2167000   287.59297      0.024025475    12.102758      713.52609     -43.519952      670.00614    
   2168000   291.42772      0.024025475    20.580693      723.0402      -43.502082      679.53812    
   2169000   312.41877      0.024025475    12.386944      775.11957     -42.763779      732.35579    
   2170000   291.28342      0.024025475    12.094665      722.6822      -42.453173      680.22903    
   2171000   303.10922      0.024025475    13.669917      752.02232     -42.823615      709.19871    
   2172000   289.89103      0.024025475    10.116342      719.22763     -42.404733      676.8229     
   2173000   303.19942      0.024025475    11.614475      752.24613     -44.391813      707.85432    
   2174000   293.82235      0.024025475    13.806079      728.98134     -40.128147      688.85319    
   2175000   285.16339      0.024025475    15.04195       707.49824     -40.613767      666.88448    
   2176000   303.90925      0.024025475    22.430351      754.00723     -36.637632      717.3696     
   2177000   305.99088      0.024025475    11.716398      759.17182     -38.927045      720.24477    
   2178000   303.63916      0.024025475    11.326481      753.33712     -43.276901      710.06022    
   2179000   285.89759      0.024025475    11.251967      709.31981     -39.464862      669.85495    
   2180000   295.09731      0.024025475    9.1111131      732.14455     -41.68966       690.45489    
   2181000   295.41252      0.024025475    10.894625      732.92659     -45.002409      687.92419    
   2182000   305.74472      0.024025475    21.80834       758.56107     -41.036416      717.52465    
   2183000   296.1627       0.024025475    12.299287      734.78783     -41.666364      693.12147    
   2184000   305.00021      0.024025475    7.423675       756.71392     -34.262419      722.45151    
   2185000   301.63793      0.024025475    3.3071104      748.37203     -34.796705      713.57532    
   2186000   288.36384      0.024025475    21.285798      715.43864     -35.309349      680.12929    
   2187000   290.29688      0.024025475   -1.6606432      720.23457     -38.953102      681.28146    
   2188000   312.26428      0.024025475    8.8473945      774.7363      -37.853614      736.88268    
   2189000   300.51097      0.024025475    22.021676      745.576       -42.510818      703.06518    
   2190000   280.66903      0.024025475    16.689707      696.34761     -39.658797      656.68881    
   2191000   306.05963      0.024025475    6.9227533      759.34238     -38.955707      720.38667    
   2192000   315.73905      0.024025475    26.055373      783.35729     -37.407505      745.94979    
   2193000   295.49613      0.024025475    13.211953      733.13405     -35.988191      697.14586    
   2194000   293.52089      0.024025475    7.3004641      728.23341     -38.307323      689.92609    
   2195000   320.32451      0.024025475    11.999608      794.73394     -35.684912      759.04903    
   2196000   316.2495       0.024025475    16.289995      784.62373     -40.067561      744.55617    
   2197000   294.02122      0.024025475    15.117029      729.47475     -38.516901      690.95785    
   2198000   292.7468       0.024025475    8.4223193      726.31289     -35.479293      690.83359    
   2199000   315.62348      0.024025475    7.3041122      783.07056     -38.977675      744.09289    
   2200000   311.35221      0.024025475    16.318015      772.47341     -42.259805      730.21361    
   2201000   302.56666      0.024025475    14.481506      750.67622     -34.368359      716.30787    
   2202000   298.51228      0.024025475    11.783196      740.61719     -36.728986      703.8882     
   2203000   295.87269      0.024025475    12.396533      734.0683      -36.381068      697.68723    
   2204000   300.00538      0.024025475    8.9791158      744.32161     -39.408385      704.91323    
   2205000   304.01198      0.024025475    11.289699      754.2621      -44.503457      709.75864    
   2206000   303.37038      0.024025475    16.632724      752.67026     -43.039635      709.63063    
   2207000   294.98616      0.024025475    12.806617      731.86879     -41.615529      690.25326    
   2208000   302.8979       0.024025475    9.9589946      751.49804     -43.141261      708.35678    
   2209000   297.77841      0.024025475    10.124018      738.79645     -48.60224       690.19421    
   2210000   301.71853      0.024025475    22.081074      748.57199     -48.58518       699.98681    
   2211000   308.85135      0.024025475    11.609961      766.26871     -48.610536      717.65817    
   2212000   296.61038      0.024025475   -3.3076455      735.89853     -46.270856      689.62768    
   2213000   298.06289      0.024025475    13.229488      739.50226     -48.661788      690.84047    
   2214000   298.92127      0.024025475    17.263085      741.63192     -43.967807      697.66411    
   2215000   308.34174      0.024025475    10.835633      765.00435     -44.301268      720.70308    
   2216000   288.36217      0.024025475    8.6918268      715.43449     -46.227542      669.20695    
   2217000   284.7184       0.024025475    13.798745      706.3942      -37.377171      669.01703    
   2218000   303.59774      0.024025475    12.522531      753.23437     -43.285087      709.94928    
   2219000   309.61785      0.024025475    15.484029      768.17041     -47.252908      720.91751    
   2220000   308.44129      0.024025475    15.530687      765.25133     -47.260656      717.99068    
   2221000   292.07104      0.024025475    7.9886855      724.63629     -47.454146      677.18215    
   2222000   301.80143      0.024025475    10.952569      748.77768     -48.52375       700.25393    
   2223000   293.67105      0.024025475    15.690603      728.60597     -44.686306      683.91966    
   2224000   296.43386      0.024025475    17.940788      735.46057     -44.98441       690.47616    
   2225000   301.52524      0.024025475    11.781761      748.09243     -43.134136      704.95829    
   2226000   302.90529      0.024025475    10.717988      751.51637     -45.193096      706.32328    
   2227000   297.88864      0.024025475    14.196242      739.06992     -49.913332      689.15659    
   2228000   288.82816      0.024025475    13.735644      716.59063     -47.646345      668.94428    
   2229000   306.12043      0.024025475    11.082679      759.49323     -42.027738      717.46549    
   2230000   300.17232      0.024025475    12.530444      744.7358      -41.298621      703.43718    
   2231000   292.97321      0.024025475    6.3712921      726.87462     -50.901658      675.97296    
   2232000   307.73095      0.024025475    15.019444      763.48897     -47.945571      715.5434     
   2233000   299.07346      0.024025475    19.250002      742.00949     -48.787137      693.22236    
   2234000   297.82923      0.024025475    12.483888      738.92254     -47.215229      691.70731    
   2235000   296.72242      0.024025475    9.9900645      736.17651     -45.664017      690.5125     
   2236000   299.28586      0.024025475    18.168337      742.53647     -45.128556      697.40792    
   2237000   294.07986      0.024025475    16.075805      729.62024     -41.088294      688.53195    
   2238000   299.31979      0.024025475    8.0653         742.62065     -47.67174       694.94891    
   2239000   307.2317       0.024025475    18.870274      762.25033     -39.585693      722.66463    
   2240000   290.02707      0.024025475    22.094101      719.56517     -38.148665      681.4165     
   2241000   304.90096      0.024025475    10.507178      756.46768     -42.133774      714.3339     
   2242000   308.68395      0.024025475    7.8042844      765.8534      -33.390925      732.46247    
   2243000   301.24308      0.024025475    15.219107      747.39239     -38.657697      708.73469    
   2244000   285.6363       0.024025475    8.4012754      708.67152     -37.088507      671.58302    
   2245000   290.08075      0.024025475    3.9329469      719.69835     -39.99149       679.70686    
   2246000   301.07017      0.024025475    12.664728      746.9634      -38.629539      708.33386    
   2247000   291.21294      0.024025475    12.818096      722.50733     -38.11098       684.39635    
   2248000   301.97619      0.024025475    11.86023       749.21124     -38.123943      711.0873     
   2249000   284.11547      0.024025475    12.411955      704.89831     -39.933982      664.96433    
   2250000   301.1309       0.024025475    13.621106      747.11406     -39.547611      707.56644    
   2251000   291.73627      0.024025475    15.000916      723.80573     -42.655769      681.14996    
   2252000   302.79284      0.024025475    9.0312645      751.23737     -44.115214      707.12216    
   2253000   307.16463      0.024025475    13.22133       762.08391     -41.129582      720.95433    
   2254000   297.52527      0.024025475    14.003182      738.16839     -43.901219      694.26717    
   2255000   309.29529      0.024025475    17.316434      767.37015     -41.187486      726.18266    
   2256000   322.09844      0.024025475    32.643981      799.13511     -35.786065      763.34905    
   2257000   284.89291      0.024025475    12.439945      706.82715     -40.693032      666.13412    
   2258000   296.73116      0.024025475    10.138703      736.1982      -41.017922      695.18027    
   2259000   311.66185      0.024025475    15.49311       773.24165     -36.502507      736.73915    
   2260000   296.88785      0.024025475    14.026174      736.58693     -35.867082      700.71985    
   2261000   291.71356      0.024025475    6.0094055      723.74939     -44.520217      679.22917    
   2262000   299.07607      0.024025475    14.242588      742.01598     -40.95257       701.06341    
   2263000   301.82721      0.024025475    16.387792      748.84163     -48.815306      700.02632    
   2264000   298.03442      0.024025475    12.318525      739.43162     -44.623718      694.8079     
   2265000   305.35041      0.024025475    15.751674      757.58279     -45.498333      712.08446    
   2266000   315.33032      0.024025475    13.613357      782.34321     -45.859012      736.48419    
   2267000   314.04173      0.024025475    13.263798      779.14619     -45.337017      733.80917    
   2268000   288.78732      0.024025475    13.378633      716.4893      -42.422889      674.06641    
   2269000   294.61221      0.024025475    12.014229      730.94102     -44.014448      686.92657    
   2270000   298.18843      0.024025475    13.79855       739.81371     -46.453779      693.35994    
   2271000   311.68511      0.024025475    16.049344      773.29935     -53.081693      720.21766    
   2272000   306.42954      0.024025475    8.7467297      760.26014     -56.826169      703.43397    
   2273000   290.01909      0.024025475    15.732236      719.54535     -48.551131      670.99422    
   2274000   304.29674      0.024025475    18.004944      754.9686      -48.515052      706.45355    
   2275000   320.90362      0.024025475    8.9313164      796.17073     -48.900275      747.27045    
   2276000   305.37461      0.024025475    1.9507538      757.64283     -50.189408      707.45342    
   2277000   293.61975      0.024025475    31.026225      728.47869     -56.698075      671.78061    
   2278000   299.76738      0.024025475    9.5568354      743.73113     -57.413119      686.31801    
   2279000   295.99563      0.024025475    7.4812181      734.37332     -52.040476      682.33284    
   2280000   296.14409      0.024025475    22.368223      734.74166     -48.892985      685.84868    
   2281000   316.86656      0.024025475    1.1512477      786.15468     -47.036743      739.11794    
   2282000   290.72753      0.024025475   -0.11209449     721.30303     -45.147225      676.1558     
   2283000   296.72976      0.024025475    7.7440164      736.1947      -44.310415      691.88429    
   2284000   303.89768      0.024025475    20.195129      753.97853     -44.389637      709.58889    
   2285000   308.0431       0.024025475    13.474707      764.26342     -42.020713      722.2427     
   2286000   290.35212      0.024025475   -1.5450682      720.3716      -41.482259      678.88934    
   2287000   297.07806      0.024025475    8.7892095      737.05885     -39.778391      697.28046    
   2288000   294.15314      0.024025475    11.003253      729.80205     -40.493         689.30905    
   2289000   303.17879      0.024025475    18.17545       752.19494     -39.680842      712.5141     
   2290000   291.75123      0.024025475   -2.5433059      723.84285     -38.990886      684.85196    
   2291000   291.15791      0.024025475    18.681409      722.3708      -41.874965      680.49584    
   2292000   318.13604      0.024025475    27.730741      789.30429     -43.03592       746.26837    
   2293000   315.59899      0.024025475    18.000496      783.00981     -44.995168      738.01464    
   2294000   285.26417      0.024025475    9.9578024      707.74826     -42.129554      665.61871    
   2295000   295.28405      0.024025475    18.45287       732.60786     -40.635513      691.97235    
   2296000   313.08776      0.024025475    11.133906      776.77936     -39.986814      736.79255    
   2297000   309.79054      0.024025475    9.4068075      768.59888     -34.27006       734.32882    
   2298000   301.58092      0.024025475    7.9037854      748.23058     -34.919516      713.31106    
   2299000   282.98159      0.024025475    18.963738      702.08513     -36.444842      665.64028    
   2300000   298.181        0.024025475    16.605328      739.79529     -36.41214       703.38315    
   2301000   309.38242      0.024025475    13.893508      767.5863      -38.764929      728.82137    
   2302000   305.58711      0.024025475    6.7872358      758.17005     -41.509301      716.66075    
   2303000   293.16135      0.024025475    11.655017      727.34139     -41.292106      686.04928    
   2304000   290.94161      0.024025475    12.60946       721.83415     -41.432964      680.40118    
   2305000   295.49893      0.024025475    12.826287      733.14098     -38.340268      694.80071    
   2306000   308.21906      0.024025475    12.574229      764.69998     -40.987153      723.71283    
   2307000   301.66019      0.024025475    12.188896      748.42725     -35.013563      713.41369    
   2308000   294.05362      0.024025475    13.817398      729.55513     -42.945119      686.61001    
   2309000   293.83862      0.024025475    15.447752      729.02171     -44.994012      684.0277     
   2310000   300.75905      0.024025475    12.235664      746.19148     -46.83157       699.35991    
   2311000   309.01456      0.024025475    12.958251      766.67365     -46.606539      720.06711    
   2312000   305.75045      0.024025475    13.458757      758.5753      -46.636772      711.93853    
   2313000   292.36122      0.024025475    13.313364      725.35624     -45.531254      679.82499    
   2314000   308.68494      0.024025475    12.505512      765.85584     -44.47098       721.38486    
   2315000   306.05207      0.024025475    12.74661       759.32363     -47.196853      712.12677    
   2316000   296.56485      0.024025475    11.601961      735.78557     -40.137371      695.6482     
   2317000   293.42407      0.024025475    10.279163      727.99321     -43.427987      684.56523    
   2318000   302.42314      0.024025475    16.454091      750.32014     -37.874412      712.44572    
   2319000   298.09766      0.024025475    12.620975      739.58852     -36.675461      702.91306    
   2320000   298.31483      0.024025475    9.7111072      740.12732     -33.027863      707.09946    
   2321000   285.55942      0.024025475    11.390233      708.48079     -43.965946      664.51484    
   2322000   300.03881      0.024025475    15.237593      744.40455     -43.067375      701.33717    
   2323000   311.00907      0.024025475    11.280161      771.62207     -45.843723      725.77835    
   2324000   279.95387      0.024025475    8.8730796      694.57328     -46.970216      647.60306    
   2325000   292.08993      0.024025475    14.905734      724.68318     -36.113366      688.56981    
   2326000   310.23724      0.024025475    16.482824      769.70714     -40.727162      728.97998    
   2327000   299.54783      0.024025475    17.766507      743.18644     -37.972327      705.21411    
   2328000   293.26614      0.024025475    19.731069      727.60137     -30.155202      697.44617    
   2329000   303.18417      0.024025475    10.601028      752.20828     -33.984994      718.22329    
   2330000   307.58954      0.024025475    8.6197405      763.13812     -38.33982       724.7983     
   2331000   294.59368      0.024025475    25.320077      730.89505     -47.300608      683.59444    
   2332000   294.64853      0.024025475    16.29199       731.03113     -43.540962      687.49017    
   2333000   301.68019      0.024025475    7.5766521      748.47688     -43.867876      704.609      
   2334000   287.72851      0.024025475    12.896819      713.86237     -42.655776      671.2066     
   2335000   307.70281      0.024025475    15.301656      763.41915     -39.331137      724.08802    
   2336000   297.80595      0.024025475    11.97159       738.86477     -35.429243      703.43553    
   2337000   299.0253       0.024025475    11.612772      741.89001     -39.328411      702.5616     
   2338000   297.0646       0.024025475    14.057733      737.02547     -42.024676      695.00079    
   2339000   292.4288       0.024025475    18.285682      725.52391     -39.262452      686.26146    
   2340000   313.51821      0.024025475    10.699821      777.84733     -33.559245      744.28809    
   2341000   293.8438       0.024025475    5.5461701      729.03457     -36.240045      692.79452    
   2342000   299.99979      0.024025475    13.475971      744.30775     -39.102675      705.20508    
   2343000   303.00193      0.024025475    14.696827      751.75614     -43.92514       707.831      
   2344000   308.65558      0.024025475   -6.798384       765.78301     -41.47273       724.31028    
   2345000   300.24186      0.024025475    6.1853998      744.90834     -42.946752      701.96158    
   2346000   302.63006      0.024025475    13.616529      750.83352     -38.848323      711.98519    
   2347000   289.80728      0.024025475    14.594582      719.01986     -37.290649      681.72921    
   2348000   296.3836       0.024025475    13.430058      735.33589     -32.271011      703.06488    
   2349000   301.68556      0.024025475   -5.0433823      748.49018     -40.170279      708.3199     
   2350000   295.27678      0.024025475    11.746015      732.58983     -39.921602      692.66823    
   2351000   286.64703      0.024025475    11.285002      711.17919     -39.977658      671.20154    
   2352000   294.44329      0.024025475    16.968003      730.52192     -42.002346      688.51957    
   2353000   314.75178      0.024025475    6.0690937      780.90784     -42.100465      738.80738    
   2354000   292.51093      0.024025475    13.294421      725.72767     -35.660916      690.06676    
   2355000   296.95113      0.024025475    21.462414      736.74394     -36.786313      699.95762    
   2356000   301.83136      0.024025475    10.565557      748.85192     -36.89678       711.95514    
   2357000   296.5082       0.024025475    11.590349      735.64501     -39.873541      695.77147    
   2358000   305.57381      0.024025475    13.484194      758.13706     -38.834138      719.30292    
   2359000   298.04673      0.024025475    17.491767      739.46215     -36.983893      702.47826    
   2360000   307.9126       0.024025475    2.9032004      763.93964     -40.53445       723.40519    
   2361000   295.73649      0.024025475    14.512573      733.73037     -39.360543      694.36983    
   2362000   315.10545      0.024025475    13.909851      781.78531     -43.806105      737.97921    
   2363000   300.31231      0.024025475    14.874992      745.08312     -44.573075      700.51005    
   2364000   294.61092      0.024025475    15.326447      730.93782     -38.64496       692.29286    
   2365000   294.11854      0.024025475    12.948586      729.7162      -33.09357       696.62263    
   2366000   316.20487      0.024025475    14.174651      784.51299     -39.170979      745.34201    
   2367000   303.42456      0.024025475    12.277255      752.80469     -32.317621      720.48707    
   2368000   295.15896      0.024025475    11.826579      732.29751     -36.72856       695.56895    
   2369000   290.79432      0.024025475    14.170464      721.46873     -35.470956      685.99777    
   2370000   298.36357      0.024025475    13.397223      740.24825     -38.687773      701.56048    
   2371000   316.11879      0.024025475    4.8850294      784.29943     -37.89723       746.4022     
   2372000   296.47874      0.024025475    13.174102      735.57192     -35.955277      699.61664    
   2373000   302.45782      0.024025475    14.153985      750.40618     -39.806846      710.59934    
   2374000   309.9182       0.024025475    13.158771      768.9156      -44.022467      724.89313    
   2375000   288.61997      0.024025475    15.01662       716.07411     -46.44621       669.6279     
   2376000   287.78315      0.024025475    12.287872      713.99793     -41.480023      672.5179     
   2377000   309.72212      0.024025475    14.127805      768.42912     -40.307109      728.12201    
   2378000   304.35594      0.024025475    12.967239      755.11547     -36.699414      718.41605    
   2379000   292.17649      0.024025475    12.582993      724.89792     -36.923335      687.97458    
   2380000   298.84535      0.024025475    12.155235      741.44355     -44.907099      696.53645    
   2381000   307.3799       0.024025475    12.432522      762.61801     -39.705427      722.91258    
   2382000   297.73894      0.024025475    10.427736      738.69851     -40.78709       697.91142    
   2383000   289.03951      0.024025475    16.100452      717.115       -37.736657      679.37834    
   2384000   306.40902      0.024025475    13.515632      760.20922     -44.26956       715.93966    
   2385000   308.97453      0.024025475    10.098047      766.57432     -39.066128      727.50819    
   2386000   294.37239      0.024025475    8.3973193      730.34602     -44.625043      685.72098    
   2387000   285.6767       0.024025475    11.074442      708.77176     -40.912593      667.85916    
   2388000   309.54752      0.024025475    19.128644      767.99592     -35.064435      732.93148    
   2389000   309.94904      0.024025475    10.669353      768.99211     -36.986483      732.00562    
   2390000   298.2777       0.024025475    7.5263268      740.0352      -32.480074      707.55513    
   2391000   287.52266      0.024025475    11.746594      713.35164     -33.56264       679.789      
   2392000   307.02301      0.024025475    18.928367      761.73254     -30.231039      731.5015     
   2393000   306.73739      0.024025475    4.8433581      761.02393     -34.594472      726.42946    
   2394000   294.9396       0.024025475    6.9607333      731.75328     -26.787069      704.96621    
   2395000   299.04426      0.024025475    14.163946      741.93705     -33.252125      708.68492    
   2396000   294.80926      0.024025475    13.502263      731.4299      -35.046674      696.38323    
   2397000   292.68646      0.024025475    9.1863033      726.16318     -40.179609      685.98357    
   2398000   292.95274      0.024025475    12.038214      726.82383     -37.846739      688.97709    
   2399000   293.20484      0.024025475    12.854109      727.44929     -38.010349      689.43895    
   2400000   301.49626      0.024025475    12.673855      748.02052     -39.320189      708.70033    
   2401000   285.36176      0.024025475    15.773549      707.99039     -40.208444      667.78195    
   2402000   293.87372      0.024025475    9.8235489      729.1088      -38.167148      690.94165    
   2403000   300.43586      0.024025475    11.255924      745.38965     -40.993868      704.39578    
   2404000   303.66459      0.024025475    17.250748      753.40023     -37.225373      716.17486    
   2405000   298.19037      0.024025475    11.096572      739.81852     -36.810159      703.00836    
   2406000   296.77205      0.024025475    3.3139602      736.29964     -39.715442      696.5842     
   2407000   301.20027      0.024025475   -9.8210597      747.28617     -40.390272      706.8959     
   2408000   304.08419      0.024025475    19.911042      754.44127     -38.938022      715.50325    
   2409000   282.33693      0.024025475    3.4272924      700.48569     -37.979377      662.50632    
   2410000   292.38945      0.024025475   -5.3380183      725.42628     -41.20507       684.22121    
   2411000   307.08062      0.024025475    4.6540792      761.87549     -36.426447      725.44904    
   2412000   315.98307      0.024025475    35.129266      783.96271     -36.669093      747.29361    
   2413000   293.37495      0.024025475    13.485671      727.87133     -37.092907      690.77843    
   2414000   299.41426      0.024025475   -1.6556253      742.85503     -43.669934      699.18509    
   2415000   307.64459      0.024025475    12.49626       763.2747      -43.00097       720.27373    
   2416000   289.6108       0.024025475    29.417174      718.53237     -33.945566      684.58681    
   2417000   296.50877      0.024025475    7.9154465      735.64642     -42.500041      693.14638    
   2418000   302.87625      0.024025475    4.3718904      751.44433     -42.173699      709.27064    
   2419000   304.69264      0.024025475    17.895195      755.95083     -37.137117      718.81371    
   2420000   298.4463       0.024025475    17.699421      740.45351     -37.320533      703.13297    
   2421000   298.96683      0.024025475    10.957436      741.74496     -42.908159      698.8368     
   2422000   297.57684      0.024025475    3.4780796      738.29635     -40.444643      697.85171    
   2423000   297.75722      0.024025475    19.003198      738.74386     -39.159793      699.58407    
   2424000   289.25484      0.024025475    15.68151       717.64924     -43.466214      674.18303    
   2425000   299.11158      0.024025475    9.2858075      742.10406     -41.250223      700.85384    
   2426000   308.52427      0.024025475    12.964744      765.45721     -38.42108       727.03613    
   2427000   307.42119      0.024025475    16.769534      762.72043     -37.071812      725.64862    
   2428000   291.01707      0.024025475    14.998593      722.02137     -31.52504       690.49633    
   2429000   306.88478      0.024025475    12.384233      761.38959     -31.663544      729.72604    
   2430000   317.05764      0.024025475    10.588807      786.62873     -34.79962       751.82911    
   2431000   294.85128      0.024025475    16.419052      731.53416     -35.83323       695.70093    
   2432000   301.35405      0.024025475    14.457401      747.6677      -34.789822      712.87788    
   2433000   296.42235      0.024025475    11.469765      735.43202     -34.748077      700.68394    
   2434000   295.88736      0.024025475    13.383531      734.1047      -29.627349      704.47735    
   2435000   314.68091      0.024025475    13.578697      780.732       -30.086087      750.64592    
   2436000   304.06632      0.024025475    11.794685      754.39692     -25.105965      729.29096    
   2437000   286.40792      0.024025475    11.103142      710.58594     -32.369222      678.21672    
   2438000   286.96914      0.024025475    11.582467      711.97834     -35.146209      676.83213    
   2439000   315.59715      0.024025475    5.871427       783.00522     -38.920371      744.08485    
   2440000   306.39487      0.024025475    12.877075      760.17411     -38.565765      721.60835    
   2441000   296.00384      0.024025475    12.793565      734.39368     -38.507517      695.88617    
   2442000   294.14288      0.024025475    11.765656      729.77659     -34.044535      695.73206    
   2443000   292.44222      0.024025475    14.772767      725.55721     -35.10791       690.4493     
   2444000   305.07023      0.024025475    14.696603      756.88764     -33.383832      723.50381    
   2445000   303.47211      0.024025475    13.218545      752.92266     -39.269479      713.65318    
   2446000   295.90456      0.024025475    8.6524215      734.14736     -37.951819      696.19554    
   2447000   287.66845      0.024025475    22.941487      713.71336     -37.224141      676.48921    
   2448000   313.628        0.024025475    13.870451      778.1197      -36.846073      741.27363    
   2449000   287.67085      0.024025475    6.5424651      713.71932     -36.45057       677.26875    
   2450000   287.61478      0.024025475    10.938429      713.58019     -39.243683      674.33651    
   2451000   292.24042      0.024025475    16.025068      725.05655     -42.893252      682.16329    
   2452000   278.89646      0.024025475    13.528682      691.94979     -47.304449      644.64535    
   2453000   289.90933      0.024025475    14.878126      719.27303     -39.981024      679.292      
   2454000   306.29264      0.024025475    19.868491      759.92048     -35.771909      724.14858    
   2455000   311.32388      0.024025475    9.1332419      772.40312     -38.458403      733.94471    
   2456000   303.04254      0.024025475   -0.22660814     751.85691     -38.830462      713.02645    
   2457000   294.93881      0.024025475    16.101504      731.75131     -38.739047      693.01227    
   2458000   297.31398      0.024025475    23.806122      737.64418     -39.923147      697.72104    
   2459000   308.01395      0.024025475    3.7079474      764.1911      -42.189683      722.00141    
   2460000   307.45338      0.024025475    3.1778407      762.80031     -38.462402      724.33791    
   2461000   311.30005      0.024025475    25.148996      772.34401     -39.668591      732.67542    
   2462000   309.19535      0.024025475    3.7888945      767.12217     -39.055984      728.06619    
   2463000   281.13853      0.024025475    8.3959685      697.51245     -40.642032      656.87042    
   2464000   294.85696      0.024025475    21.253456      731.54824     -40.464107      691.08414    
   2465000   295.68908      0.024025475    16.807497      733.61276     -38.41932       695.19344    
   2466000   310.28759      0.024025475    22.404453      769.83206     -45.513367      724.3187     
   2467000   306.41403      0.024025475   -5.5255565      760.22166     -43.300596      716.92106    
   2468000   288.59515      0.024025475    16.4131        716.01253     -39.767179      676.24535    
   2469000   303.15016      0.024025475    20.633844      752.12391     -41.844058      710.27985    
   2470000   300.42666      0.024025475    7.6900949      745.36682     -38.358622      707.0082     
   2471000   298.93113      0.024025475    10.734975      741.65638     -39.939196      701.71718    
   2472000   303.84966      0.024025475    19.268927      753.85937     -42.211983      711.64739    
   2473000   304.18484      0.024025475    10.348743      754.69098     -36.94787       717.74311    
   2474000   300.89785      0.024025475    1.1505558      746.53585     -39.044495      707.49136    
   2475000   294.44133      0.024025475    10.041094      730.51706     -40.961011      689.55605    
   2476000   307.34345      0.024025475    16.690257      762.52757     -37.178086      725.34948    
   2477000   304.10004      0.024025475    9.0884002      754.48059     -34.3345        720.14609    
   2478000   298.76018      0.024025475    14.067759      741.23224     -30.928204      710.30404    
   2479000   303.93575      0.024025475    20.175737      754.07298     -38.808668      715.26431    
   2480000   303.23222      0.024025475    12.64023       752.3275      -38.932381      713.39512    
   2481000   313.89726      0.024025475    7.9261519      778.78776     -39.333201      739.45456    
   2482000   300.22196      0.024025475    7.4736885      744.85897     -35.786214      709.07276    
   2483000   307.46356      0.024025475    13.228222      762.82556     -37.140505      725.68506    
   2484000   300.12553      0.024025475    23.253351      744.6197      -37.209234      707.41047    
   2485000   300.97103      0.024025475    6.0644975      746.71742     -33.019181      713.69824    
   2486000   298.35025      0.024025475    16.688805      740.21519     -38.00614       702.20905    
   2487000   304.4996       0.024025475    14.284164      755.47189     -37.233169      718.23872    
   2488000   302.80652      0.024025475    13.198842      751.27133     -38.657979      712.61335    
   2489000   299.63946      0.024025475    15.021165      743.41376     -36.284097      707.12966    
   2490000   300.67328      0.024025475    12.104844      745.97869     -43.415198      702.56349    
   2491000   304.67775      0.024025475    13.054495      755.91389     -34.801992      721.11189    
   2492000   295.02765      0.024025475    15.592465      731.97173     -34.864419      697.10731    
   2493000   305.97956      0.024025475    11.957359      759.14372     -38.650383      720.49333    
   2494000   304.82708      0.024025475    13.92254       756.28438     -37.546551      718.73783    
   2495000   298.70071      0.024025475    13.622458      741.0847      -39.97133       701.11337    
   2496000   297.70627      0.024025475    13.397752      738.61745     -36.889403      701.72805    
   2497000   292.68937      0.024025475    5.5237242      726.17039     -33.076958      693.09343    
   2498000   287.15284      0.024025475    11.078094      712.43412     -31.923373      680.51075    
   2499000   298.23148      0.024025475    12.712267      739.92051     -35.353656      704.56685    
   2500000   302.68991      0.024025475    12.878842      750.982       -35.92717       715.05483    
   2501000   300.35064      0.024025475    12.931946      745.17823     -36.376086      708.80214    
   2502000   281.88853      0.024025475    5.6201806      699.37321     -33.055124      666.31808    
   2503000   306.8404       0.024025475    1.1608804      761.27948     -33.990415      727.28907    
   2504000   306.69425      0.024025475    22.525967      760.91689     -34.667406      726.24949    
   2505000   288.15187      0.024025475    10.880874      714.91273     -36.920541      677.99219    
   2506000   284.47276      0.024025475    4.9727543      705.78476     -36.739818      669.04494    
   2507000   304.33371      0.024025475    13.149287      755.06033     -36.109387      718.95094    
   2508000   288.96734      0.024025475    16.485282      716.93593     -43.045632      673.8903     
   2509000   287.85849      0.024025475    9.8123784      714.18485     -40.00074       674.18411    
   2510000   305.93495      0.024025475    10.482577      759.03304     -40.682262      718.35078    
   2511000   312.77039      0.024025475    11.388527      775.99196     -40.23271       735.75925    
   2512000   303.93255      0.024025475    12.316309      754.06503     -43.673373      710.39166    
   2513000   302.14029      0.024025475    13.366981      749.61838     -40.608024      709.01036    
   2514000   316.33849      0.024025475    14.140796      784.84452     -39.090412      745.7541     
   2515000   296.39798      0.024025475    10.179023      735.37156     -40.919215      694.45235    
   2516000   292.43458      0.024025475    10.067475      725.53825     -36.345665      689.19258    
   2517000   315.91719      0.024025475    15.917611      783.79927     -37.227712      746.57156    
   2518000   294.98221      0.024025475    13.197702      731.859       -41.622598      690.2364     
   2519000   295.7604       0.024025475    10.647949      733.78971     -42.517458      691.27226    
   2520000   295.97583      0.024025475    8.8204878      734.32419     -39.298326      695.02587    
   2521000   303.29464      0.024025475    12.937814      752.48235     -38.881846      713.60051    
   2522000   296.17114      0.024025475    14.630013      734.80877     -42.095751      692.71301    
   2523000   306.83891      0.024025475    11.28191       761.27579     -46.484919      714.79087    
   2524000   309.78847      0.024025475    13.55551       768.59373     -46.557225      722.0365     
   2525000   298.63264      0.024025475    13.402848      740.91582     -42.619679      698.29614    
   2526000   300.10514      0.024025475    11.974723      744.56912     -40.765534      703.80359    
   2527000   304.31496      0.024025475    14.198422      755.0138      -39.306795      715.70701    
   2528000   299.73336      0.024025475    14.659267      743.64672     -43.200291      700.44643    
   2529000   289.97757      0.024025475    11.637803      719.44235     -39.558201      679.88415    
   2530000   302.60701      0.024025475    14.706582      750.77634     -41.857335      708.91901    
   2531000   312.46543      0.024025475    12.50158       775.23534     -38.527579      736.70776    
   2532000   301.07051      0.024025475    12.970509      746.96424     -41.004975      705.95927    
   2533000   293.21854      0.024025475    12.210187      727.48329     -40.518861      686.96443    
   2534000   303.42401      0.024025475    14.559354      752.80333     -39.317552      713.48578    
   2535000   312.94084      0.024025475    14.507661      776.41486     -43.709737      732.70512    
   2536000   311.45748      0.024025475    12.618056      772.73459     -45.07901       727.65558    
   2537000   289.35854      0.024025475    12.242232      717.90651     -46.177699      671.72881    
   2538000   304.21978      0.024025475    16.389115      754.77767     -42.647657      712.13001    
   2539000   314.2933       0.024025475    13.193642      779.77035     -40.746305      739.02405    
   2540000   304.35466      0.024025475    9.9067289      755.1123      -38.542116      716.57018    
   2541000   284.55887      0.024025475    9.9883112      705.99841     -40.256441      665.74197    
   2542000   312.21927      0.024025475    12.728375      774.62463     -36.907826      737.7168     
   2543000   305.0322       0.024025475    16.202008      756.79329     -39.626399      717.16689    
   2544000   298.39753      0.024025475    12.582131      740.33249     -40.145626      700.18686    
   2545000   297.28259      0.024025475    12.041613      737.56629     -38.337965      699.22833    
   2546000   298.46407      0.024025475    14.415876      740.4976      -37.360087      703.13751    
   2547000   317.35078      0.024025475    12.78537       787.35604     -38.92951       748.42653    
   2548000   306.4487       0.024025475    11.748808      760.30766     -37.069954      723.23771    
   2549000   290.10976      0.024025475    11.767091      719.77032     -37.583016      682.18731    
   2550000   289.29114      0.024025475    14.10135       717.73928     -38.367645      679.37164    
   2551000   294.69023      0.024025475    10.911109      731.13458     -41.56024       689.57434    
   2552000   315.75372      0.024025475    13.678466      783.39369     -42.093737      741.29995    
   2553000   305.36474      0.024025475    11.954029      757.61834     -42.257875      715.36047    
   2554000   302.76006      0.024025475    11.202909      751.15606     -41.403938      709.75212    
   2555000   305.16568      0.024025475    5.8358159      757.12446     -43.439597      713.68486    
   2556000   294.66795      0.024025475    13.177194      731.07932     -42.985279      688.09404    
   2557000   308.77099      0.024025475    21.607603      766.06934     -43.571941      722.4974     
   2558000   307.40441      0.024025475    6.6267339      762.67881     -45.274808      717.404      
   2559000   293.60492      0.024025475    11.20586       728.4419      -45.977749      682.46415    
   2560000   296.24855      0.024025475    16.301035      735.00082     -49.636801      685.36402    
   2561000   311.21707      0.024025475    13.698472      772.13812     -52.66875       719.46937    
   2562000   310.98265      0.024025475    11.785875      771.55654     -51.796287      719.76025    
   2563000   305.66125      0.024025475    12.440361      758.35398     -45.808426      712.54556    
   2564000   302.49687      0.024025475    13.973528      750.50308     -42.118663      708.38442    
   2565000   307.41666      0.024025475    13.486715      762.7092      -40.039766      722.66943    
   2566000   302.75632      0.024025475    14.31103       751.14678     -37.734531      713.41225    
   2567000   292.83658      0.024025475    9.0481822      726.53564     -37.307069      689.22857    
   2568000   291.29979      0.024025475    8.5464105      722.72281     -37.656709      685.0661     
   2569000   313.98563      0.024025475    18.206708      779.00701     -42.565953      736.44105    
   2570000   296.38355      0.024025475    12.494858      735.33576     -45.108831      690.22693    
   2571000   310.72266      0.024025475    4.0177045      770.91149     -42.24005       728.67144    
   2572000   308.24772      0.024025475    15.032268      764.77109     -38.741254      726.02983    
   2573000   290.35905      0.024025475    20.867076      720.38881     -39.321571      681.06724    
   2574000   299.08183      0.024025475    9.8921907      742.03028     -35.843603      706.18667    
   2575000   301.94812      0.024025475    11.4292        749.14162     -39.680135      709.46149    
   2576000   290.01879      0.024025475    12.245925      719.54461     -45.670833      673.87378    
   2577000   290.92852      0.024025475    11.828528      721.80168     -45.246108      676.55557    
   2578000   297.08945      0.024025475    12.22294       737.08712     -47.826828      689.2603     
   2579000   308.63828      0.024025475    15.622161      765.74008     -46.4069        719.33318    
   2580000   294.49341      0.024025475    13.100021      730.64628     -46.420121      684.22616    
   2581000   302.88478      0.024025475    13.814946      751.46548     -48.315743      703.14974    
   2582000   296.13342      0.024025475    11.909677      734.71519     -48.698324      686.01686    
   2583000   297.98675      0.024025475    12.619213      739.31333     -45.710313      693.60302    
   2584000   296.39949      0.024025475    15.394255      735.3753      -44.255606      691.11969    
   2585000   294.83601      0.024025475    10.900651      731.49628     -45.699549      685.79673    
   2586000   303.57409      0.024025475    11.87045       753.17567     -44.672348      708.50332    
   2587000   305.53163      0.024025475    11.226512      758.0324      -45.784744      712.24766    
   2588000   302.7459       0.024025475    14.144748      751.12092     -48.292471      702.82845    
   2589000   280.10271      0.024025475    11.757015      694.94255     -50.218757      644.72379    
   2590000   289.96635      0.024025475    12.130132      719.41451     -44.63821       674.7763     
   2591000   304.21786      0.024025475    11.046172      754.77291     -42.542805      712.2301     
   2592000   302.61132      0.024025475    13.089628      750.78703     -44.262168      706.52486    
   2593000   301.96993      0.024025475    13.204658      749.19572     -47.406106      701.78961    
   2594000   293.13401      0.024025475    10.356245      727.27355     -44.417596      682.85595    
   2595000   306.72473      0.024025475    14.427185      760.9925      -46.620391      714.37211    
   2596000   288.04133      0.024025475    19.263311      714.63847     -42.502392      672.13608    
   2597000   297.25332      0.024025475    13.376512      737.49367     -38.602284      698.89139    
   2598000   307.68849      0.024025475    9.8474737      763.38362     -38.565517      724.8181     
   2599000   302.83822      0.024025475    11.356805      751.34996     -41.915054      709.43491    
   2600000   298.76898      0.024025475    20.474265      741.25408     -42.198192      699.05588    
   2601000   297.02498      0.024025475    12.040524      736.92716     -38.865953      698.06121    
   2602000   305.64198      0.024025475    13.678815      758.30619     -38.389457      719.91673    
   2603000   305.096        0.024025475    12.422382      756.95159     -41.874028      715.07756    
   2604000   301.9195       0.024025475    11.46115       749.07061     -42.916942      706.15367    
   2605000   305.46268      0.024025475    12.621915      757.86133     -40.764132      717.0972     
   2606000   303.93895      0.024025475    20.220203      754.08091     -38.241547      715.83936    
   2607000   302.94329      0.024025475    10.3136        751.61064     -41.606369      710.00427    
   2608000   306.97355      0.024025475    12.158145      761.60984     -34.323604      727.28623    
   2609000   300.98775      0.024025475    12.732207      746.75889     -36.464708      710.29418    
   2610000   310.94163      0.024025475    21.156625      771.45476     -36.064849      735.38991    
   2611000   300.08472      0.024025475    16.199058      744.51847     -39.774065      704.7444     
   2612000   308.16887      0.024025475    4.5189003      764.57546     -38.223002      726.35246    
   2613000   299.00867      0.024025475   -3.2934132      741.84875     -46.791094      695.05766    
   2614000   288.42271      0.024025475    14.861575      715.58468     -45.868935      669.71575    
   2615000   300.74548      0.024025475    18.037229      746.15784     -42.934573      703.22327    
   2616000   297.4708       0.024025475    10.954473      738.03324     -41.786697      696.24655    
   2617000   302.44375      0.024025475    14.845351      750.37128     -42.251333      708.11995    
   2618000   302.77291      0.024025475    26.592615      751.18794     -42.414216      708.77372    
   2619000   296.83186      0.024025475    8.5212887      736.44803     -48.143938      688.30409    
   2620000   288.74788      0.024025475    10.076825      716.39146     -46.349469      670.04199    
   2621000   297.92195      0.024025475    24.467615      739.15256     -41.986235      697.16633    
   2622000   309.69723      0.024025475    13.676213      768.36736     -42.224108      726.14325    
   2623000   301.75491      0.024025475    2.6563669      748.66225     -43.949683      704.71257    
   2624000   294.16096      0.024025475    1.9249695      729.82145     -39.608699      690.21275    
   2625000   311.48321      0.024025475    33.606098      772.79842     -45.454204      727.34422    
   2626000   306.62513      0.024025475    10.817239      760.74541     -49.851121      710.89429    
   2627000   287.46537      0.024025475   -1.899918       713.20952     -49.099915      664.1096     
   2628000   293.80705      0.024025475    24.635474      728.9434      -46.646368      682.29703    
   2629000   312.61821      0.024025475    27.474611      775.61439     -42.07837       733.53602    
   2630000   295.9546       0.024025475    15.976996      734.27152     -51.386125      682.88539    
   2631000   309.70969      0.024025475    9.9922142      768.39829     -47.772562      720.62573    
   2632000   307.70104      0.024025475    8.3376518      763.41476     -53.310645      710.10412    
   2633000   295.10885      0.024025475    14.733781      732.17319     -45.221574      686.95162    
   2634000   308.2924       0.024025475    16.708149      764.88194     -45.759149      719.12279    
   2635000   305.97935      0.024025475    12.499509      759.14321     -45.204991      713.93822    
   2636000   299.28758      0.024025475    10.413594      742.54075     -47.934749      694.606      
   2637000   280.89028      0.024025475    20.93421       696.89653     -49.298455      647.59807    
   2638000   307.46748      0.024025475    25.422274      762.83529     -49.704252      713.13103    
   2639000   309.33001      0.024025475   -0.49909203     767.45628     -45.284551      722.17173    
   2640000   298.26869      0.024025475    11.812162      740.01285     -45.714886      694.29796    
   2641000   287.71783      0.024025475    3.219891       713.83586     -48.351207      665.48466    
   2642000   303.41399      0.024025475    14.777643      752.77847     -48.8421        703.93637    
   2643000   298.13677      0.024025475    20.52081       739.68554     -54.699481      684.98606    
   2644000   307.09541      0.024025475    10.65447       761.91219     -50.91377       710.99842    
   2645000   308.38102      0.024025475    10.622492      765.10181     -54.520662      710.58115    
   2646000   300.02697      0.024025475    4.4504709      744.37519     -51.405783      692.96941    
   2647000   290.71552      0.024025475    22.69179       721.27322     -48.882769      672.39045    
   2648000   305.99029      0.024025475    12.593788      759.17035     -50.272087      708.89826    
   2649000   307.0921       0.024025475    12.509947      761.90398     -50.477933      711.42604    
   2650000   300.95194      0.024025475    13.036185      746.67005     -53.47227       693.19778    
   2651000   289.41848      0.024025475    17.58691       718.05522     -48.932098      669.12312    
   2652000   293.83033      0.024025475    13.259553      729.00114     -44.264577      684.73656    
   2653000   309.48572      0.024025475    11.335263      767.8426      -48.260112      719.58249    
   2654000   298.21137      0.024025475    19.299864      739.87063     -50.577467      689.29316    
   2655000   296.29101      0.024025475    14.18261       735.10617     -46.573309      688.53286    
   2656000   310.10329      0.024025475    18.150853      769.37482     -43.845825      725.52899    
   2657000   310.26608      0.024025475    4.9833606      769.77869     -46.400442      723.37824    
   2658000   307.06457      0.024025475    14.217924      761.83565     -49.247368      712.58828    
   2659000   296.97989      0.024025475    23.952137      736.81529     -48.683399      688.13189    
   2660000   300.00783      0.024025475    17.516533      744.32769     -48.50645       695.82124    
   2661000   296.75973      0.024025475    2.2187972      736.26907     -51.246443      685.02262    
   2662000   298.65862      0.024025475    7.4873394      740.98027     -50.552092      690.42818    
   2663000   302.99869      0.024025475    20.964028      751.74809     -47.23998       704.50811    
   2664000   297.35089      0.024025475    21.544288      737.73576     -51.085671      686.65009    
   2665000   288.32709      0.024025475    4.0390832      715.34747     -46.619285      668.72818    
   2666000   319.03723      0.024025475    5.5964889      791.54016     -42.267591      749.27257    
   2667000   302.94459      0.024025475    29.803911      751.61388     -43.924464      707.68942    
   2668000   279.84729      0.024025475    6.6476194      694.30885     -49.569159      644.73969    
   2669000   302.36522      0.024025475    7.9339852      750.17644     -43.327317      706.84912    
   2670000   308.87059      0.024025475    15.840138      766.31645     -49.957227      716.35922    
   2671000   293.16859      0.024025475    11.891173      727.35934     -43.534662      683.82468    
   2672000   292.3961       0.024025475    9.7347587      725.44279     -43.732621      681.71017    
   2673000   314.15244      0.024025475    14.794775      779.42086     -42.528749      736.89211    
   2674000   312.20238      0.024025475    16.794762      774.58272     -43.285593      731.29713    
   2675000   293.15706      0.024025475    8.2882823      727.33074     -46.086892      681.24384    
   2676000   276.96473      0.024025475   -1.1084743      687.15713     -45.492877      641.66425    
   2677000   310.33505      0.024025475    10.097298      769.94981     -43.057735      726.89207    
   2678000   309.11148      0.024025475    26.159474      766.9141      -45.047407      721.86669    
   2679000   299.27927      0.024025475    18.93839       742.52013     -45.788571      696.73155    
   2680000   289.77316      0.024025475    6.8655177      718.9352      -46.447397      672.4878     
   2681000   311.14914      0.024025475    12.977601      771.9696      -44.842111      727.12749    
   2682000   302.56922      0.024025475    14.741007      750.68257     -49.159446      701.52313    
   2683000   279.7326       0.024025475    14.756651      694.0243      -47.601076      646.42322    
   2684000   295.49887      0.024025475    10.519553      733.14084     -42.366955      690.77389    
   2685000   311.99752      0.024025475    12.907558      774.07446     -39.684351      734.39011    
   2686000   315.21708      0.024025475    14.281799      782.06227     -38.949038      743.11323    
   2687000   288.53347      0.024025475    11.488338      715.85949     -39.215266      676.64422    
   2688000   300.73308      0.024025475    4.3118887      746.12706     -39.840519      706.28654    
   2689000   300.84424      0.024025475    20.275455      746.40286     -35.04013       711.36273    
   2690000   298.58692      0.024025475    3.5067651      740.80237     -38.048844      702.75353    
   2691000   296.94822      0.024025475    9.8173926      736.73672     -38.247676      698.48904    
   2692000   307.2531       0.024025475    18.45549       762.30342     -43.93042       718.373      
   2693000   315.62436      0.024025475    13.272549      783.07274     -46.33048       736.74226    
   2694000   297.20873      0.024025475    21.359149      737.38306     -39.397471      697.98559    
   2695000   295.28351      0.024025475    11.982386      732.60653     -43.62526       688.98127    
   2696000   309.15148      0.024025475    4.5929609      767.01334     -43.664161      723.34918    
   2697000   301.70374      0.024025475    14.468877      748.5353      -37.759282      710.77602    
   2698000   288.69275      0.024025475    10.330445      716.25467     -41.314033      674.94064    
   2699000   304.67686      0.024025475    7.0639716      755.9117      -36.377175      719.53452    
   2700000   307.25885      0.024025475    17.975106      762.31769     -34.991389      727.3263     
   2701000   293.04112      0.024025475    10.829542      727.04309     -32.192103      694.85099    
   2702000   300.40139      0.024025475    8.5224319      745.30412     -34.95165       710.35247    
   2703000   298.2393       0.024025475    17.064021      739.93994     -34.750484      705.18945    
   2704000   298.17637      0.024025475    18.959278      739.7838      -35.846714      703.93709    
   2705000   296.90445      0.024025475    12.548361      736.62813     -34.349362      702.27877    
   2706000   299.49448      0.024025475    15.434449      743.05406     -36.417483      706.63658    
   2707000   309.2206       0.024025475    13.270617      767.18484     -34.851277      732.33356    
   2708000   306.49021      0.024025475    12.814854      760.41067     -34.925668      725.485      
   2709000   286.3404       0.024025475    11.941545      710.41842     -35.002634      675.41579    
   2710000   305.64062      0.024025475    13.233568      758.30279     -42.144383      716.15841    
   2711000   300.99831      0.024025475    11.472375      746.78511     -45.60464       701.18047    
   2712000   295.32559      0.024025475    12.965888      732.71094     -41.90481       690.80613    
   2713000   283.468        0.024025475    12.24747       703.29193     -40.768999      662.52293    
   2714000   303.3281       0.024025475    13.749687      752.56538     -39.624797      712.94059    
   2715000   299.62865      0.024025475    5.2877367      743.38694     -36.566785      706.82015    
   2716000   302.20455      0.024025475    13.521573      749.77782     -32.6822        717.09562    
   2717000   310.70674      0.024025475    12.352802      770.87199     -41.834463      729.03753    
   2718000   302.63657      0.024025475    13.630541      750.84968     -38.722855      712.12682    
   2719000   294.98047      0.024025475    11.97541       731.85469     -41.065562      690.78913    
   2720000   291.89817      0.024025475    10.172418      724.20742     -40.99604       683.21138    
   2721000   296.89354      0.024025475    13.391075      736.60106     -37.046169      699.55489    
   2722000   309.64906      0.024025475    12.610603      768.24784     -32.669452      735.57839    
   2723000   299.53439      0.024025475    9.7939324      743.15309     -38.832027      704.32106    
   2724000   292.28478      0.024025475    12.68138       725.1666      -40.916995      684.24961    
   2725000   300.27839      0.024025475    12.518208      744.99897     -43.383398      701.61557    
   2726000   325.89391      0.024025475    12.446903      808.55177     -40.020435      768.53134    
   2727000   298.54285      0.024025475    13.1098        740.69303     -36.88759       703.80544    
   2728000   295.68388      0.024025475    11.656259      733.59985     -35.489901      698.10994    
   2729000   296.06692      0.024025475    14.658846      734.55018     -33.05872       701.49146    
   2730000   319.18229      0.024025475    11.466445      791.90006     -36.58153       755.31853    
   2731000   287.08403      0.024025475    12.966535      712.26339     -32.945779      679.31761    
   2732000   295.88625      0.024025475    22.729753      734.10194     -37.341689      696.76025    
   2733000   311.16136      0.024025475    7.4653413      771.9999      -37.797911      734.20199    
   2734000   299.10856      0.024025475    7.8637269      742.09657     -37.489157      704.60742    
   2735000   292.69255      0.024025475    12.658273      726.17828     -36.192245      689.98604    
   2736000   307.07561      0.024025475    22.232425      761.86305     -35.453441      726.40961    
   2737000   315.26623      0.024025475    22.872218      782.18422     -34.017876      748.16634    
   2738000   292.47604      0.024025475    6.424926       725.64113     -37.21571       688.42542    
   2739000   298.56082      0.024025475    22.832077      740.73761     -32.927588      707.81003    
   2740000   303.4715       0.024025475    27.699271      752.92117     -35.219771      717.7014     
   2741000   311.87838      0.024025475    8.2853479      773.77886     -35.655656      738.1232     
   2742000   277.21252      0.024025475    10.500329      687.77191     -37.5342        650.23771    
   2743000   300.06156      0.024025475    16.202763      744.461       -35.099162      709.36184    
   2744000   324.63878      0.024025475    15.561821      805.43777     -39.653935      765.78384    
   2745000   294.77602      0.024025475    12.152619      731.34743     -38.05613       693.2913     
   2746000   296.5272       0.024025475    12.268777      735.69216     -40.462486      695.22968    
   2747000   301.54191      0.024025475    13.022369      748.1338      -45.481118      702.65268    
   2748000   305.7657       0.024025475    14.448687      758.61314     -36.01846       722.59468    
   2749000   302.4863       0.024025475    8.2195664      750.47684     -40.06998       710.40686    
   2750000   280.54959      0.024025475    13.438286      696.05127     -38.745007      657.30626    
   2751000   297.99867      0.024025475    20.576162      739.34292     -37.254841      702.08807    
   2752000   327.12187      0.024025475    11.75667       811.59839     -37.910137      773.68825    
   2753000   294.10828      0.024025475    9.8894924      729.69075     -38.882699      690.80805    
   2754000   289.25702      0.024025475    13.752158      717.65465     -37.716097      679.93855    
   2755000   311.00674      0.024025475    14.842528      771.6163      -41.819767      729.79654    
   2756000   299.57861      0.024025475    6.3386215      743.2628      -44.081907      699.18089    
   2757000   302.20312      0.024025475    13.496041      749.77426     -40.466732      709.30753    
   2758000   300.02136      0.024025475    16.089258      744.36128     -33.910618      710.45066    
   2759000   311.51493      0.024025475    12.334647      772.87714     -34.67793       738.19921    
   2760000   293.56348      0.024025475    3.0602245      728.33908     -29.625562      698.71352    
   2761000   288.61433      0.024025475    12.014289      716.06011     -34.767583      681.29253    
   2762000   300.6534       0.024025475    14.662809      745.92937     -35.15881       710.77056    
   2763000   307.31803      0.024025475    13.42436       762.46451     -33.836043      728.62846    
   2764000   300.63613      0.024025475    11.420637      745.88652     -43.672835      702.21369    
   2765000   287.38344      0.024025475    11.65041       713.00623     -40.859756      672.14648    
   2766000   292.51041      0.024025475    11.499884      725.7264      -43.227588      682.49881    
   2767000   307.01522      0.024025475    10.434124      761.71323     -41.452412      720.26082    
   2768000   313.99627      0.024025475    14.521568      779.03339     -41.244748      737.78864    
   2769000   296.82749      0.024025475    13.283509      736.43717     -45.757543      690.67963    
   2770000   283.56726      0.024025475    5.6938653      703.53819     -40.437652      663.10054    
   2771000   305.6027       0.024025475    10.226958      758.20873     -42.948707      715.26002    
   2772000   312.29375      0.024025475    16.802795      774.8094      -44.945634      729.86377    
   2773000   292.28885      0.024025475    9.6570099      725.1767      -44.790271      680.38643    
   2774000   304.9169       0.024025475    5.7511341      756.50724     -44.757539      711.7497     
   2775000   306.73494      0.024025475    14.956849      761.01785     -44.566867      716.45098    
   2776000   292.20881      0.024025475    8.0581476      724.9781      -55.381271      669.59683    
   2777000   307.58407      0.024025475    14.725367      763.12455     -52.013597      711.11095    
   2778000   295.89665      0.024025475    12.837143      734.12775     -51.524666      682.60308    
   2779000   285.53868      0.024025475    13.439732      708.42934     -42.61416       665.81518    
   2780000   306.72398      0.024025475    10.771792      760.99065     -40.157111      720.83354    
   2781000   299.87746      0.024025475    16.229517      744.00424     -40.101532      703.90271    
   2782000   291.62373      0.024025475    10.171729      723.52652     -40.724576      682.80195    
   2783000   307.74259      0.024025475   -6.9593462      763.51786     -39.662881      723.85498    
   2784000   312.92315      0.024025475    13.978336      776.37097     -32.899089      743.47188    
   2785000   297.82099      0.024025475    24.608687      738.90208     -39.857949      699.04414    
   2786000   292.55642      0.024025475    0.84690956     725.84054     -42.604338      683.2362     
   2787000   300.54204      0.024025475    13.177918      745.65307     -47.028279      698.6248     
   2788000   306.64555      0.024025475    28.733663      760.79605     -45.952323      714.84373    
   2789000   298.38002      0.024025475    8.4860123      740.28906     -43.057366      697.23169    
   2790000   298.01647      0.024025475   -1.1404524      739.38708     -40.0873        699.29978    
   2791000   292.76502      0.024025475    14.433179      726.35809     -41.376536      684.98156    
   2792000   299.46866      0.024025475    14.528433      742.98999     -46.458016      696.53198    
   2793000   306.83809      0.024025475    12.534737      761.27375     -48.873215      712.40053    
   2794000   286.83835      0.024025475    4.4708822      711.65384     -46.361867      665.29198    
   2795000   304.61839      0.024025475    2.9994904      755.76662     -48.920383      706.84623    
   2796000   309.40558      0.024025475    10.866084      767.64377     -46.159524      721.48425    
   2797000   300.71597      0.024025475    20.746533      746.08462     -40.953465      705.13115    
   2798000   296.06112      0.024025475    10.672137      734.5358      -41.65146       692.88434    
   2799000   309.97522      0.024025475    10.916905      769.05708     -39.283809      729.77327    
   2800000   304.33824      0.024025475    20.477319      755.07157     -39.414886      715.65668    
   2801000   286.57702      0.024025475    15.129647      711.00548     -30.848628      680.15685    
   2802000   294.80457      0.024025475    10.244049      731.41827     -37.426571      693.9917     
   2803000   305.23397      0.024025475    17.145842      757.29389     -38.484626      718.80927    
   2804000   295.12486      0.024025475    13.159453      732.21291     -35.727142      696.48576    
   2805000   304.1999       0.024025475    14.196846      754.72835     -42.605595      712.12275    
   2806000   300.38862      0.024025475    9.6340173      745.27246     -36.624761      708.6477     
   2807000   293.77382      0.024025475    13.759629      728.86095     -33.966263      694.89469    
   2808000   291.10939      0.024025475    13.347033      722.25043     -32.609729      689.6407     
   2809000   311.07155      0.024025475    14.601952      771.7771      -39.883005      731.8941     
   2810000   310.95428      0.024025475    9.6908508      771.48614     -42.884475      728.60167    
   2811000   297.48398      0.024025475    10.510186      738.06596     -37.135781      700.93017    
   2812000   297.72672      0.024025475    12.895838      738.66819     -36.326841      702.34135    
   2813000   309.25478      0.024025475    9.1194898      767.26963     -35.278361      731.99127    
   2814000   300.04881      0.024025475    8.3132802      744.42938     -36.06552       708.36386    
   2815000   300.447        0.024025475    13.553293      745.41728     -36.21523       709.20205    
   2816000   317.08311      0.024025475    17.181132      786.69195     -32.684837      754.00711    
   2817000   303.5909       0.024025475    11.004325      753.21739     -37.860688      715.3567     
   2818000   294.82062      0.024025475    12.583329      731.4581      -37.282666      694.17543    
   2819000   295.91623      0.024025475    26.932267      734.17631     -38.380994      695.79532    
   2820000   301.267        0.024025475    14.872183      747.45172     -39.382839      708.06888    
   2821000   304.52618      0.024025475    4.7964283      755.53784     -41.108842      714.42899    
   2822000   296.93926      0.024025475    16.092594      736.71448     -43.179945      693.53454    
   2823000   306.41062      0.024025475    18.800721      760.2132      -42.923022      717.29018    
   2824000   306.91768      0.024025475    11.392412      761.47124     -36.081381      725.38985    
   2825000   291.12763      0.024025475   -4.113466       722.29569     -38.479658      683.81603    
   2826000   296.16285      0.024025475    11.555274      734.78819     -36.296408      698.49178    
   2827000   302.34581      0.024025475    21.472711      750.1283      -36.367741      713.76056    
   2828000   304.71258      0.024025475    15.810963      756.00032     -35.886966      720.11336    
   2829000   300.51076      0.024025475    9.665574       745.57547     -42.293921      703.28155    
   2830000   281.74675      0.024025475    0.71881994     699.02145     -39.310875      659.71057    
   2831000   293.19468      0.024025475    25.978506      727.42408     -35.812358      691.61172    
   2832000   299.49877      0.024025475    27.675085      743.06471     -33.614598      709.45011    
   2833000   320.12781      0.024025475    8.8119613      794.24592     -31.503438      762.74248    
   2834000   311.93672      0.024025475    6.1015062      773.9236      -34.545674      739.37793    
   2835000   297.01638      0.024025475    26.875856      736.90581     -37.141633      699.76418    
   2836000   300.88071      0.024025475    19.476647      746.49332     -36.957217      709.53611    
   2837000   303.83429      0.024025475    17.593077      753.82124     -32.538131      721.28311    
   2838000   302.66777      0.024025475    7.1383847      750.92708     -34.496355      716.43072    
   2839000   304.53634      0.024025475    11.841391      755.56306     -35.793801      719.76926    
   2840000   304.53107      0.024025475    13.173412      755.54999     -39.296505      716.25349    
   2841000   302.51101      0.024025475    6.6321593      750.53814     -37.710716      712.82743    
   2842000   298.74546      0.024025475    10.41727       741.19572     -40.314681      700.88104    
   2843000   291.84522      0.024025475    22.347661      724.07604     -34.484771      689.59127    
   2844000   300.38558      0.024025475    11.388205      745.26491     -35.161954      710.10296    
   2845000   310.72126      0.024025475    9.7611966      770.90802     -35.450156      735.45787    
   2846000   295.12202      0.024025475    9.5776412      732.20586     -33.386644      698.81922    
   2847000   290.00783      0.024025475    13.581845      719.51743     -39.217426      680.3        
   2848000   299.04892      0.024025475    15.142312      741.94862     -35.52063       706.42799    
   2849000   322.52034      0.024025475    15.928204      800.18186     -35.504629      764.67723    
   2850000   310.29571      0.024025475    9.8163698      769.85222     -33.820819      736.0314     
   2851000   297.80036      0.024025475    6.9512969      738.85089     -38.777065      700.07383    
   2852000   291.16613      0.024025475    14.609375      722.39119     -39.613216      682.77797    
   2853000   302.78571      0.024025475    16.267577      751.21969     -43.337462      707.88223    
   2854000   301.21104      0.024025475    12.792965      747.3129      -42.433804      704.8791     
   2855000   304.92811      0.024025475    13.109298      756.53505     -38.691868      717.84318    
   2856000   290.96154      0.024025475    12.31396       721.88359     -39.371238      682.51236    
   2857000   292.23951      0.024025475    10.841875      725.05427     -40.886592      684.16768    
   2858000   305.76789      0.024025475    10.749332      758.61856     -35.156838      723.46173    
   2859000   313.34318      0.024025475    14.010389      777.41307     -34.059419      743.35365    
   2860000   293.95636      0.024025475    12.405511      729.31383     -32.270185      697.04364    
   2861000   300.74502      0.024025475    13.933973      746.15669     -34.692874      711.46382    
   2862000   317.05312      0.024025475    14.945079      786.61754     -35.822468      750.79507    
   2863000   298.24331      0.024025475    13.433416      739.94986     -29.00541       710.94445    
   2864000   296.14303      0.024025475    13.559964      734.73901     -33.189332      701.54968    
   2865000   302.93921      0.024025475    8.4798805      751.60054     -37.710383      713.89015    
   2866000   299.93653      0.024025475    15.100744      744.15081     -39.454836      704.69597    
   2867000   288.55353      0.024025475    14.940816      715.90926     -41.111357      674.79791    
   2868000   292.71473      0.024025475    10.185996      726.23332     -37.80645       688.42687    
   2869000   308.85562      0.024025475    9.2268527      766.27932     -40.165369      726.11395    
   2870000   308.7784       0.024025475    14.358883      766.08771     -38.735305      727.35241    
   2871000   289.04376      0.024025475    16.906547      717.12552     -39.134573      677.99095    
   2872000   295.17394      0.024025475    9.1933915      732.33468     -45.181923      687.15276    
   2873000   301.98318      0.024025475    12.062408      749.22859     -47.942855      701.28573    
   2874000   300.27763      0.024025475    25.459997      744.99708     -46.06016       698.93692    
   2875000   292.97198      0.024025475    11.142681      726.87155     -41.634848      685.23671    
   2876000   309.52494      0.024025475    5.9005442      767.93992     -46.73338       721.20654    
   2877000   297.40913      0.024025475    23.793144      737.88025     -51.801602      686.07865    
   2878000   293.86794      0.024025475    0.52006362     729.09446     -41.608552      687.48591    
   2879000   305.85488      0.024025475    11.427733      758.83439     -45.158759      713.67563    
   2880000   298.95355      0.024025475    26.931535      741.71199     -41.006782      700.70521    
   2881000   298.09194      0.024025475    0.42669278     739.57433     -45.034683      694.53965    
   2882000   308.79487      0.024025475    20.441777      766.12858     -43.279393      722.84919    
   2883000   301.77051      0.024025475    25.701309      748.70096     -43.363141      705.33782    
   2884000   298.88209      0.024025475    16.07174       741.5347      -41.693387      699.84131    
   2885000   294.33066      0.024025475   -11.594027      730.24247     -40.722068      689.5204     
   2886000   303.95902      0.024025475    15.399611      754.13071     -34.816603      719.31411    
   2887000   307.71399      0.024025475    16.555379      763.4469      -35.114989      728.33191    
   2888000   289.83203      0.024025475    9.346878       719.08127     -29.384614      689.69665    
   2889000   306.71645      0.024025475    7.5251911      760.97197     -34.186466      726.7855     
   2890000   313.34914      0.024025475    24.74558       777.42786     -32.492793      744.93506    
   2891000   295.25842      0.024025475    21.367282      732.54428     -35.74569       696.79859    
   2892000   295.6805       0.024025475    8.2450671      733.59146     -37.958671      695.63279    
   2893000   311.74066      0.024025475    20.297831      773.43717     -40.129793      733.30737    
   2894000   296.22864      0.024025475    14.634089      734.95142     -37.829394      697.12202    
   2895000   291.2384       0.024025475    4.4410252      722.57049     -43.71815       678.85234    
   2896000   310.38432      0.024025475    10.98174       770.07205     -43.289623      726.78243    
   2897000   313.43432      0.024025475    14.330825      777.63918     -44.148513      733.49066    
   2898000   288.55749      0.024025475    11.763893      715.91909     -36.123638      679.79545    
   2899000   302.33551      0.024025475    11.722486      750.10274     -36.98306       713.11968    
   2900000   311.75239      0.024025475    13.785935      773.46627     -39.969943      733.49633    
   2901000   310.91328      0.024025475    12.291066      771.38441     -45.157778      726.22663    
   2902000   294.63496      0.024025475    13.951146      730.99746     -42.972975      688.02448    
   2903000   296.41355      0.024025475    11.77865       735.41018     -46.353952      689.05622    
   2904000   291.60266      0.024025475    13.05879       723.47423     -40.262681      683.21155    
   2905000   304.29767      0.024025475    12.710112      754.97092     -38.975822      715.9951     
   2906000   312.49593      0.024025475    10.548489      775.31103     -41.894957      733.41607    
   2907000   295.21243      0.024025475    11.915689      732.43018     -42.047771      690.3824     
   2908000   291.59408      0.024025475    16.656154      723.45294     -43.124903      680.32804    
   2909000   304.03876      0.024025475    20.120894      754.32856     -48.119747      706.20881    
   2910000   296.19999      0.024025475    8.3995599      734.88035     -42.513172      692.36718    
   2911000   304.09058      0.024025475    12.734777      754.45712     -37.82721       716.62991    
   2912000   299.1412       0.024025475    16.729297      742.17757     -39.446049      702.73152    
   2913000   310.65518      0.024025475    18.086844      770.74406     -38.890393      731.85367    
   2914000   299.69134      0.024025475    7.7509619      743.54249     -38.116779      705.42571    
   2915000   290.08958      0.024025475    3.7654988      719.72025     -37.513567      682.20668    
   2916000   302.0772       0.024025475    16.658988      749.46185     -34.831346      714.63051    
   2917000   296.46745      0.024025475    15.219869      735.54391     -39.229305      696.3146     
   2918000   300.33434      0.024025475    14.146822      745.13778     -45.069187      700.06859    
   2919000   305.35571      0.024025475    5.1505096      757.59595     -41.856853      715.73909    
   2920000   302.82677      0.024025475    4.6208322      751.32157     -33.120746      718.20082    
   2921000   282.73908      0.024025475    27.194368      701.48346     -36.917356      664.56611    
   2922000   309.09275      0.024025475    9.6973831      766.86764     -44.708306      722.15933    
   2923000   299.11897      0.024025475    9.9163951      742.12242     -43.149758      698.97266    
   2924000   304.46908      0.024025475    13.464844      755.39618     -38.161211      717.23497    
   2925000   307.73997      0.024025475    32.947041      763.51135     -37.102064      726.40929    
   2926000   311.07631      0.024025475    14.547331      771.78889     -37.909189      733.8797     
   2927000   299.46587      0.024025475    3.8854418      742.98308     -39.550736      703.43235    
   2928000   291.77878      0.024025475    8.1927116      723.9112      -39.095817      684.81538    
   2929000   298.20977      0.024025475    12.543198      739.86665     -37.696048      702.1706     
   2930000   304.91742      0.024025475    15.389086      756.50852     -39.557121      716.95139    
   2931000   300.45342      0.024025475    14.614902      745.43321     -41.437507      703.9957     
   2932000   301.53198      0.024025475    9.6119308      748.10917     -44.3281        703.78107    
   2933000   288.67841      0.024025475    16.187966      716.21908     -45.608719      670.61037    
   2934000   304.55979      0.024025475    13.900524      755.62124     -42.879878      712.74136    
   2935000   301.67482      0.024025475    10.309155      748.46354     -41.349986      707.11355    
   2936000   295.24705      0.024025475    8.4218748      732.51607     -35.91339       696.60268    
   2937000   300.44574      0.024025475    12.532384      745.41416     -37.444585      707.96958    
   2938000   304.88258      0.024025475    14.657983      756.4221      -35.293487      721.12861    
   2939000   306.7223       0.024025475    15.478213      760.98649     -35.078828      725.90766    
   2940000   304.93792      0.024025475    12.022453      756.55938     -42.09031       714.46907    
   2941000   292.18522      0.024025475    12.325072      724.91958     -32.764571      692.15501    
   2942000   291.7251       0.024025475    11.426642      723.77801     -33.250754      690.52726    
   2943000   308.79139      0.024025475    17.397486      766.11994     -32.301883      733.81806    
   2944000   299.4119       0.024025475    18.23511       742.84917     -36.072923      706.77625    
   2945000   291.91431      0.024025475    7.7049259      724.24746     -40.050773      684.19669    
   2946000   300.76377      0.024025475    11.260341      746.2032      -43.432985      702.77022    
   2947000   303.48956      0.024025475    14.431212      752.96597     -42.719956      710.24601    
   2948000   295.71389      0.024025475    16.185853      733.6743      -42.760481      690.91382    
   2949000   290.73116      0.024025475    10.09892       721.31202     -43.105022      678.207      
   2950000   297.00447      0.024025475    13.28712       736.87629     -44.468245      692.40804    
   2951000   313.91459      0.024025475    13.67222       778.83075     -47.257962      731.57279    
   2952000   299.46207      0.024025475    11.20204       742.97364     -44.222791      698.75085    
   2953000   301.7718       0.024025475    13.231689      748.70415     -42.708652      705.99549    
   2954000   315.36669      0.024025475    11.587808      782.43345     -41.070601      741.36285    
   2955000   287.43332      0.024025475    5.2175429      713.12998     -48.036177      665.0938     
   2956000   282.06393      0.024025475    14.054483      699.80839     -43.058031      656.75035    
   2957000   312.34985      0.024025475    17.746144      774.94859     -47.273409      727.67518    
   2958000   306.62353      0.024025475    9.830812       760.74142     -48.779043      711.96238    
   2959000   289.48111      0.024025475    10.649171      718.21062     -45.934498      672.27612    
   2960000   290.09014      0.024025475    14.074757      719.72163     -50.636714      669.08491    
   2961000   303.19036      0.024025475    13.235658      752.22365     -52.294373      699.92928    
   2962000   313.72101      0.024025475    13.604884      778.35047     -54.436058      723.91441    
   2963000   294.90021      0.024025475    17.244438      731.65556     -53.897537      677.75802    
   2964000   284.49787      0.024025475    9.269927       705.84705     -55.317444      650.52961    
   2965000   310.16043      0.024025475    13.470943      769.51657     -50.253924      719.26265    
   2966000   294.12487      0.024025475    13.716957      729.73191     -42.310825      687.42109    
   2967000   307.48538      0.024025475    13.160264      762.87971     -45.89192       716.98779    
   2968000   308.54268      0.024025475    12.872552      765.5029      -46.757379      718.74552    
   2969000   300.55788      0.024025475    13.046415      745.69238     -42.004053      703.68833    
   2970000   294.46073      0.024025475    13.81596       730.56519     -40.696093      689.86909    
   2971000   296.43621      0.024025475    7.1598905      735.46642     -43.155493      692.31093    
   2972000   311.85387      0.024025475    15.773114      773.71805     -47.86332       725.85473    
   2973000   278.23229      0.024025475    13.593366      690.30199     -42.093284      648.20871    
   2974000   304.25036      0.024025475    9.5247758      754.85353     -41.910319      712.94321    
   2975000   301.40877      0.024025475    2.7326656      747.80346     -41.151538      706.65192    
   2976000   306.34572      0.024025475    10.299804      760.05217     -39.343046      720.70912    
   2977000   299.93524      0.024025475    17.805474      744.14761     -42.351802      701.7958     
   2978000   291.14668      0.024025475    11.295319      722.34293     -47.399443      674.94348    
   2979000   290.46393      0.024025475    9.1632937      720.64901     -48.523562      672.12545    
   2980000   315.26892      0.024025475    11.146863      782.19089     -43.448116      738.74277    
   2981000   306.28294      0.024025475    13.287331      759.89642     -43.955843      715.94058    
   2982000   288.89745      0.024025475    10.741264      716.76253     -41.373902      675.38863    
   2983000   308.2789       0.024025475    8.0727078      764.84845     -36.29551       728.55294    
   2984000   299.11687      0.024025475    21.575067      742.1172      -41.664403      700.4528     
   2985000   300.30054      0.024025475    8.3332391      745.05392     -39.556337      705.49758    
   2986000   302.39995      0.024025475    14.273113      750.26262     -40.862709      709.39991    
   2987000   296.5909       0.024025475    18.266218      735.85019     -40.526726      695.32346    
   2988000   298.24241      0.024025475    13.099944      739.94765     -45.65032       694.29733    
   2989000   299.99045      0.024025475    1.5280237      744.28456     -41.058649      703.22592    
   2990000   299.90308      0.024025475    17.517738      744.06781     -41.764286      702.30353    
   2991000   292.60093      0.024025475    12.151236      725.95096     -44.01481       681.93615    
   2992000   303.96767      0.024025475    13.526328      754.15217     -44.446433      709.70573    
   2993000   317.68675      0.024025475    13.565634      788.18958     -40.10488       748.0847     
   2994000   301.79053      0.024025475    9.8076223      748.75063     -43.934465      704.81616    
   2995000   300.13603      0.024025475    10.67135       744.64576     -39.374964      705.27079    
   2996000   309.17787      0.024025475    15.548643      767.07883     -36.873702      730.20513    
   2997000   317.51013      0.024025475    15.175114      787.7514      -36.726163      751.02523    
   2998000   299.60952      0.024025475    13.095901      743.33948     -36.594701      706.74478    
   2999000   284.42858      0.024025475    12.21785       705.67516     -40.557409      665.11775    
   3000000   306.67221      0.024025475    13.443338      760.8622      -41.150232      719.71197    
   3001000   306.53659      0.024025475    12.769084      760.52573     -45.709255      714.81647    
   3002000   307.34606      0.024025475    15.979843      762.53404     -44.048306      718.48574    
   3003000   292.2073       0.024025475    13.823703      724.97437     -42.581173      682.3932     
   3004000   289.16303      0.024025475    13.977379      717.42144     -49.204876      668.21656    
   3005000   308.76549      0.024025475    12.52809       766.0557      -45.36874       720.68696    
   3006000   302.77408      0.024025475    10.139489      751.19083     -43.848985      707.34185    
   3007000   295.8786       0.024025475    12.715204      734.08296     -39.693869      694.38909    
   3008000   307.87642      0.024025475    12.818944      763.84988     -44.673257      719.17662    
   3009000   303.96913      0.024025475    13.251761      754.15579     -38.609089      715.5467     
   3010000   298.3246       0.024025475    12.329653      740.15155     -38.492081      701.65947    
   3011000   299.91188      0.024025475    7.7071851      744.08964     -41.442729      702.64691    
   3012000   306.00165      0.024025475    10.805141      759.19853     -35.793804      723.40472    
   3013000   321.36243      0.024025475    13.625296      797.30904     -40.651532      756.65751    
   3014000   294.75274      0.024025475    13.612541      731.28968     -42.285457      689.00423    
   3015000   295.65289      0.024025475    7.1861154      733.52297     -44.612827      688.91014    
   3016000   312.50922      0.024025475    13.064647      775.34399     -36.891476      738.45251    
   3017000   297.21058      0.024025475    14.444308      737.38763     -36.523917      700.86372    
   3018000   294.47654      0.024025475    12.350507      730.6044      -37.106308      693.49809    
   3019000   297.94145      0.024025475    11.50223       739.20094     -37.889222      701.31172    
   3020000   307.88177      0.024025475    12.502069      763.86315     -39.554862      724.30829    
   3021000   315.33759      0.024025475    16.504187      782.36126     -43.408462      738.9528     
   3022000   285.87855      0.024025475    13.2838        709.27256     -39.755513      669.51705    
   3023000   296.95128      0.024025475    12.470565      736.7443      -37.530944      699.21336    
   3024000   312.03458      0.024025475    13.546524      774.16639     -38.687804      735.47859    
   3025000   292.98808      0.024025475    12.500318      726.9115      -32.575661      694.33584    
   3026000   297.66593      0.024025475    13.752402      738.51737     -34.586015      703.93135    
   3027000   302.47132      0.024025475    13.11208       750.43967     -36.265054      714.17462    
   3028000   293.5481       0.024025475    11.020967      728.30094     -37.051232      691.2497     
   3029000   304.04073      0.024025475    12.454802      754.33344     -36.26264       718.0708     
   3030000   302.58468      0.024025475    14.765474      750.72092     -35.667285      715.05364    
   3031000   301.4058       0.024025475    9.8497446      747.7961      -36.866257      710.92984    
   3032000   304.86571      0.024025475    10.286302      756.38023     -33.931866      722.44837    
   3033000   279.60891      0.024025475    7.1772092      693.71742     -43.820193      649.89723    
   3034000   288.38103      0.024025475    14.590182      715.48128     -44.98485       670.49643    
   3035000   320.18652      0.024025475    23.891326      794.39158     -44.026441      750.36514    
   3036000   309.96694      0.024025475    10.514309      769.03653     -40.804658      728.23188    
   3037000   289.15263      0.024025475    11.48704       717.39566     -38.373585      679.02207    
   3038000   297.08011      0.024025475    24.781384      737.06394     -36.806016      700.25792    
   3039000   304.47686      0.024025475    14.339793      755.41547     -35.017475      720.398      
   3040000   312.54808      0.024025475    11.392382      775.44041     -39.229929      736.21048    
   3041000   300.40456      0.024025475    6.6344109      745.312       -42.593811      702.71819    
   3042000   292.06563      0.024025475    12.514503      724.62287     -42.402901      682.21997    
   3043000   295.44785      0.024025475    15.520911      733.01427     -41.38687       691.6274     
   3044000   311.94037      0.024025475    5.9793629      773.93267     -46.590747      727.34192    
   3045000   282.89267      0.024025475    5.3563347      701.86452     -50.770092      651.09443    
   3046000   277.11408      0.024025475    3.5752247      687.52766     -48.059368      639.4683     
   3047000   304.6485       0.024025475    23.996002      755.84132     -47.725065      708.11626    
   3048000   299.94381      0.024025475    10.519398      744.16886     -46.369569      697.79929    
   3049000   303.12946      0.024025475    7.5412561      752.07256     -44.990379      707.08218    
   3050000   302.00575      0.024025475    5.9543748      749.28459     -40.802102      708.48248    
   3051000   291.65686      0.024025475    13.508433      723.60871     -36.484523      687.12419    
   3052000   294.63949      0.024025475    15.081594      731.0087      -39.077468      691.93123    
   3053000   311.14958      0.024025475    13.847087      771.97069     -40.866691      731.104      
   3054000   318.49361      0.024025475    10.64916       790.19143     -37.210721      752.98071    
   3055000   293.98186      0.024025475    13.227848      729.3771      -37.39882       691.97828    
   3056000   299.0836       0.024025475    12.750949      742.03465     -43.359047      698.6756     
   3057000   304.15936      0.024025475    9.2580133      754.62777     -44.703352      709.92442    
   3058000   284.39816      0.024025475    11.74716       705.59968     -38.188876      667.41081    
   3059000   299.47678      0.024025475    13.080184      743.01014     -39.824591      703.18554    
   3060000   318.9443       0.024025475    13.239694      791.30961     -41.330489      749.97912    
   3061000   306.41964      0.024025475    12.39605       760.23558     -34.709604      725.52598    
   3062000   295.91513      0.024025475    8.9110532      734.17359     -37.053757      697.11983    
   3063000   301.39484      0.024025475    14.932582      747.76889     -36.612439      711.15646    
   3064000   308.55891      0.024025475    14.546184      765.54317     -35.768115      729.77506    
   3065000   305.64187      0.024025475    14.144963      758.30591     -33.065854      725.24006    
   3066000   304.95933      0.024025475    7.2280225      756.6125      -31.041551      725.57095    
   3067000   295.66952      0.024025475    10.902807      733.56424     -36.70456       696.85968    
   3068000   293.67033      0.024025475    24.053935      728.60419     -37.442194      691.162      
   3069000   303.86818      0.024025475    12.320072      753.90534     -42.722513      711.18283    
   3070000   299.24072      0.024025475    12.980805      742.42447     -41.658103      700.76637    
   3071000   287.33238      0.024025475    10.698524      712.87957     -37.63432       675.24525    
   3072000   295.70457      0.024025475    6.8555528      733.65119     -41.500269      692.15092    
   3073000   293.62862      0.024025475    8.7116002      728.50069     -40.127031      688.37366    
   3074000   311.34177      0.024025475    15.297569      772.4475      -44.199143      728.24836    
   3075000   294.33072      0.024025475    13.760862      730.24263     -44.386821      685.85581    
   3076000   300.55042      0.024025475    14.220464      745.67387     -40.6071        705.06677    
   3077000   277.28484      0.024025475    12.562787      687.95133     -42.837149      645.11418    
   3078000   311.04633      0.024025475    15.242318      771.71451     -41.663685      730.05083    
   3079000   304.85438      0.024025475    11.516688      756.35211     -44.391141      711.96097    
   3080000   293.22049      0.024025475    12.090489      727.48811     -47.047002      680.44111    
   3081000   299.61445      0.024025475    15.054607      743.35171     -39.680708      703.671      
   3082000   316.29019      0.024025475    9.8358192      784.72468     -40.026641      744.69804    
   3083000   301.17272      0.024025475    0.46700116     747.21782     -37.473587      709.74423    
   3084000   292.56798      0.024025475    11.044997      725.86923     -40.225831      685.6434     
   3085000   289.59582      0.024025475    14.936696      718.49521     -42.073711      676.4215     
   3086000   303.38942      0.024025475    11.062715      752.71752     -48.283761      704.43376    
   3087000   307.54441      0.024025475    12.028535      763.02617     -42.916308      720.10986    
   3088000   298.13976      0.024025475    10.933958      739.69297     -45.227676      694.4653     
   3089000   290.68669      0.024025475    12.799166      721.20169     -45.869095      675.3326     
   3090000   295.50844      0.024025475    10.638559      733.16459     -46.44435       686.72024    
   3091000   307.42517      0.024025475    14.30158       762.73033     -44.322462      718.40786    
   3092000   305.43105      0.024025475    15.55893       757.78286     -44.934172      712.84868    
   3093000   303.21909      0.024025475    7.5168618      752.29492     -40.954458      711.34046    
   3094000   305.22181      0.024025475    12.915961      757.26374     -37.366384      719.89735    
   3095000   293.04648      0.024025475    15.377094      727.0564      -37.530694      689.5257     
   3096000   307.27597      0.024025475    7.9275393      762.36014     -36.098501      726.26164    
   3097000   301.54586      0.024025475    0.39579494     748.14358     -33.046494      715.09709    
   3098000   309.07899      0.024025475    13.414716      766.8335      -35.324654      731.50885    
   3099000   312.68653      0.024025475    20.890506      775.7839      -34.242937      741.54097    
   3100000   302.93033      0.024025475    19.012868      751.57849     -33.523283      718.05521    
   3101000   295.78598      0.024025475    12.772903      733.85318     -37.525105      696.32807    
   3102000   309.13052      0.024025475    21.903479      766.96134     -36.331246      730.63009    
   3103000   296.66493      0.024025475    15.994586      736.03386     -31.488133      704.54573    
   3104000   300.81764      0.024025475    8.5924176      746.33687     -27.925211      718.41166    
   3105000   300.54262      0.024025475    9.877664       745.65452     -33.978324      711.67619    
   3106000   296.00535      0.024025475    9.3324418      734.39744     -31.561196      702.83624    
   3107000   302.6583       0.024025475    13.681069      750.90359     -36.20122       714.70237    
   3108000   289.77728      0.024025475    10.781587      718.94541     -42.303737      676.64167    
   3109000   301.283        0.024025475    13.604819      747.49142     -44.694195      702.79722    
   3110000   297.1268       0.024025475    13.710562      737.17977     -44.753822      692.42595    
   3111000   300.55131      0.024025475    13.392379      745.6761      -44.818743      700.85735    
   3112000   302.37057      0.024025475    11.88901       750.18972     -39.568866      710.62086    
   3113000   304.53498      0.024025475    14.276784      755.55968     -40.078851      715.48083    
   3114000   297.80558      0.024025475    12.081204      738.86385     -39.328017      699.53584    
   3115000   305.63664      0.024025475    13.203876      758.29292     -39.071648      719.22127    
   3116000   309.04411      0.024025475    11.097063      766.74695     -40.616014      726.13094    
   3117000   291.41922      0.024025475    11.929058      723.01912     -38.0802        684.93892    
   3118000   299.65657      0.024025475    10.700944      743.45621     -35.980779      707.47543    
   3119000   308.80546      0.024025475    11.136389      766.15485     -39.412735      726.74211    
   3120000   303.70158      0.024025475    20.240747      753.49198     -32.778482      720.7135     
   3121000   292.21155      0.024025475    12.136427      724.98492     -38.942678      686.04224    
   3122000   314.67775      0.024025475    12.481485      780.72417     -39.10363       741.62054    
   3123000   298.0697       0.024025475    12.375466      739.51915     -41.74526       697.77389    
   3124000   280.99965      0.024025475    12.54397       697.16788     -40.874967      656.29291    
   3125000   301.61805      0.024025475    13.525692      748.3227      -42.320227      706.00247    
   3126000   308.22179      0.024025475    11.137362      764.70675     -44.681877      720.02487    
   3127000   292.49957      0.024025475    12.355034      725.69949     -46.056053      679.64343    
   3128000   292.82456      0.024025475    13.281584      726.50581     -49.680541      676.82527    
   3129000   295.35728      0.024025475    13.02106       732.78956     -50.004365      682.7852     
   3130000   292.95234      0.024025475    14.505869      726.82283     -45.494869      681.32796    
   3131000   314.231        0.024025475    6.4960748      779.61578     -42.91731       736.69847    
   3132000   307.35259      0.024025475    11.452233      762.55024     -40.309422      722.24082    
   3133000   308.14896      0.024025475    14.533521      764.52605     -37.745879      726.78017    
   3134000   305.07681      0.024025475    15.121539      756.90398     -37.812122      719.09186    
   3135000   298.25451      0.024025475    10.312402      739.97766     -39.477391      700.50027    
   3136000   304.07423      0.024025475    12.321438      754.41655     -43.199759      711.2168     
   3137000   291.95604      0.024025475    13.497842      724.35099     -41.55166       682.79933    
   3138000   309.17891      0.024025475    12.658352      767.0814      -44.330959      722.75044    
   3139000   310.0487       0.024025475    14.016108      769.23936     -42.543148      726.69621    
   3140000   293.01344      0.024025475    14.018239      726.97441     -37.341726      689.63269    
   3141000   291.92757      0.024025475    13.312384      724.28036     -42.691522      681.58883    
   3142000   294.63663      0.024025475    13.980537      731.0016      -39.152244      691.84935    
   3143000   310.72179      0.024025475    14.065822      770.90934     -41.412831      729.49651    
   3144000   319.8424       0.024025475    12.892472      793.53781     -43.038821      750.49898    
   3145000   294.21361      0.024025475    11.712033      729.95207     -42.979207      686.97286    
   3146000   294.55184      0.024025475    16.190888      730.79124     -42.441651      688.34959    
   3147000   307.20514      0.024025475    12.93711       762.18442     -37.531904      724.65252    
   3148000   294.99254      0.024025475    8.8588036      731.88462     -35.457284      696.42734    
   3149000   294.44116      0.024025475    11.193156      730.51664     -44.681342      685.8353     
   3150000   299.4584       0.024025475    12.47177       742.96454     -44.24305       698.72149    
   3151000   308.41429      0.024025475    13.644937      765.18435     -40.829773      724.35458    
   3152000   304.18244      0.024025475    12.616483      754.68501     -44.821074      709.86394    
   3153000   286.16104      0.024025475    13.943198      709.97343     -44.073326      665.9001     
   3154000   306.47753      0.024025475    11.483867      760.37921     -45.925371      714.45384    
   3155000   304.58652      0.024025475    11.100279      755.68755     -44.929299      710.75826    
   3156000   316.67601      0.024025475    14.301605      785.6819      -43.982497      741.6994     
   3157000   293.46284      0.024025475    12.01512       728.0894      -46.825878      681.26352    
   3158000   291.78762      0.024025475    12.453817      723.93314     -43.107162      680.82598    
   3159000   299.82678      0.024025475    17.662553      743.8785      -43.677704      700.2008     
   3160000   311.57069      0.024025475    16.089018      773.01547     -45.620058      727.39541    
   3161000   308.86813      0.024025475    4.5922263      766.31035     -47.720384      718.58997    
   3162000   303.13382      0.024025475    1.4411786      752.08336     -45.527765      706.5556     
   3163000   304.37818      0.024025475    26.205143      755.17065     -42.268866      712.90178    
   3164000   301.55052      0.024025475    8.4835956      748.15515     -43.116282      705.03887    
   3165000   296.83514      0.024025475    13.854535      736.45616     -40.540989      695.91517    
   3166000   315.67803      0.024025475    15.959121      783.2059      -38.552649      744.65325    
   3167000   302.86051      0.024025475    9.7766896      751.40527     -39.911021      711.49424    
   3168000   300.46585      0.024025475    8.9071765      745.46407     -39.476324      705.98774    
   3169000   292.84137      0.024025475    10.161901      726.54751     -37.750672      688.79683    
   3170000   286.83553      0.024025475    20.608277      711.64687     -41.309738      670.33713    
   3171000   301.08524      0.024025475    21.478414      747.00078     -38.334307      708.66647    
   3172000   307.20865      0.024025475    12.747326      762.19312     -37.846853      724.34627    
   3173000   287.34681      0.024025475    12.244837      712.91535     -40.283566      672.63178    
   3174000   295.26552      0.024025475    18.843541      732.5619      -34.870521      697.69138    
   3175000   316.87697      0.024025475    16.267136      786.1805      -35.396989      750.78351    
   3176000   311.34637      0.024025475    8.7918437      772.45891     -34.066627      738.39229    
   3177000   291.6666       0.024025475    5.5827737      723.63288     -35.561204      688.07167    
   3178000   295.86481      0.024025475    22.468208      734.04875     -36.675955      697.3728     
   3179000   311.78173      0.024025475    14.770105      773.53906     -37.51685       736.02221    
   3180000   302.68348      0.024025475    10.893322      750.96607     -36.077472      714.88859    
   3181000   302.89538      0.024025475    1.6378899      751.49178     -37.572934      713.91885    
   3182000   299.91864      0.024025475    6.9792131      744.10642     -38.991449      705.11497    
   3183000   293.6064       0.024025475    22.119086      728.44557     -46.779675      681.66589    
   3184000   300.64637      0.024025475    15.295499      745.91194     -36.976356      708.93558    
   3185000   304.75603      0.024025475    10.266854      756.10811     -36.730892      719.37722    
   3186000   302.73102      0.024025475    12.369086      751.084       -36.939407      714.14459    
   3187000   311.84672      0.024025475    16.044432      773.7003      -33.983414      739.71688    
   3188000   297.95239      0.024025475    13.923184      739.2281      -37.237513      701.99058    
   3189000   287.44301      0.024025475    11.524428      713.15403     -41.426958      671.72707    
   3190000   302.48677      0.024025475    13.582033      750.47802     -37.13544       713.34258    
   3191000   314.81442      0.024025475    18.059184      781.06326     -38.655016      742.40825    
   3192000   292.50654      0.024025475    11.981727      725.71678     -42.120437      683.59635    
   3193000   296.7203       0.024025475    7.7832308      736.17125     -37.513486      698.65776    
   3194000   297.19512      0.024025475    9.3011137      737.3493      -34.546922      702.80237    
   3195000   298.55006      0.024025475    14.354066      740.71094     -32.475803      708.23514    
   3196000   297.72496      0.024025475   -1.2944427      738.66383     -33.653827      705.01       
   3197000   289.64763      0.024025475    3.8545771      718.62376     -35.029634      683.59412    
   3198000   307.11926      0.024025475    17.929792      761.97135     -35.386685      726.58467    
   3199000   305.02202      0.024025475    15.794574      756.76804     -36.297308      720.47073    
   3200000   297.22427      0.024025475    1.3421081      737.42162     -40.399149      697.02247    
   3201000   295.9186       0.024025475    9.9564904      734.18221     -39.544076      694.63813    
   3202000   290.9262       0.024025475    21.685048      721.79593     -42.673485      679.12244    
   3203000   297.5486       0.024025475    12.864648      738.22627     -35.560268      702.666      
   3204000   300.67128      0.024025475    12.307579      745.97373     -33.456745      712.51699    
   3205000   306.34859      0.024025475    4.4739679      760.0593      -32.242539      727.81676    
   3206000   295.48907      0.024025475    15.94027       733.11653     -34.042232      699.07429    
   3207000   308.46254      0.024025475    21.478502      765.30406     -37.396799      727.90727    
   3208000   299.05165      0.024025475    9.8179336      741.95539     -35.497394      706.458      
   3209000   298.68712      0.024025475    7.8226773      741.05098     -36.989279      704.0617     
   3210000   299.38026      0.024025475    13.724688      742.77067     -38.309211      704.46145    
   3211000   301.95407      0.024025475    13.500307      749.15637     -45.066726      704.08964    
   3212000   309.55095      0.024025475    22.216947      768.00445     -46.62236       721.38209    
   3213000   307.00441      0.024025475    10.018546      761.6864      -47.700225      713.98617    
   3214000   306.04666      0.024025475    9.8710871      759.3102      -48.145         711.1652     
   3215000   301.6212       0.024025475    11.987658      748.3305      -44.485979      703.84452    
   3216000   301.1174       0.024025475    13.568042      747.08057     -39.339774      707.74079    
   3217000   305.0508       0.024025475    12.782745      756.83943     -44.952393      711.88704    
   3218000   299.9509       0.024025475    13.353146      744.18646     -38.60597       705.58049    
   3219000   286.67928      0.024025475    13.99771       711.25921     -45.987         665.27221    
   3220000   309.50379      0.024025475    13.263404      767.88743     -40.186122      727.70131    
   3221000   303.03922      0.024025475    14.672283      751.84867     -42.718916      709.12975    
   3222000   296.84213      0.024025475    12.407813      736.4735      -42.211574      694.26193    
   3223000   300.04956      0.024025475    13.582975      744.43122     -39.491441      704.93978    
   3224000   292.70705      0.024025475    12.326883      726.21426     -38.271807      687.94245    
   3225000   304.53359      0.024025475    11.378233      755.55622     -38.289031      717.26719    
   3226000   293.60272      0.024025475    9.5912158      728.43644     -43.031981      685.40446    
   3227000   304.01953      0.024025475    11.614736      754.28084     -46.013897      708.26695    
   3228000   315.10498      0.024025475    25.274855      781.78413     -40.124933      741.6592     
   3229000   299.06663      0.024025475    13.827586      741.99256     -44.341855      697.65071    
   3230000   296.73937      0.024025475    3.6194125      736.21857     -40.972761      695.2458     
   3231000   297.85264      0.024025475    11.144913      738.98062     -40.354699      698.62592    
   3232000   296.88986      0.024025475    12.595468      736.59194     -35.047837      701.5441     
   3233000   298.19135      0.024025475    8.0859749      739.82096     -36.953857      702.8671     
   3234000   301.15292      0.024025475    29.180069      747.16869     -35.624889      711.5438     
   3235000   299.74193      0.024025475    12.684686      743.66799     -38.151041      705.51695    
   3236000   311.56675      0.024025475    6.3729754      773.00569     -40.95733       732.04836    
   3237000   300.01346      0.024025475    20.386395      744.34166     -42.716664      701.62499    
   3238000   292.8996       0.024025475    24.33171       726.69198     -44.143299      682.54868    
   3239000   289.13114      0.024025475    8.9176945      717.34232     -42.276923      675.0654     
   3240000   318.64505      0.024025475    5.9354349      790.56714     -40.625605      749.94154    
   3241000   304.45332      0.024025475    19.113172      755.35709     -36.28333       719.07376    
   3242000   288.6997       0.024025475    20.943462      716.27192     -31.917409      684.35451    
   3243000   302.46046      0.024025475    16.93359       750.41274     -33.755498      716.65724    
   3244000   294.72891      0.024025475    2.9329456      731.23055     -32.01156       699.21899    
   3245000   304.6609       0.024025475    13.414441      755.87209     -34.78331       721.08878    
   3246000   294.74121      0.024025475    16.969779      731.26106     -33.758635      697.50242    
   3247000   295.13899      0.024025475   -3.8799525      732.24797     -33.456452      698.79151    
   3248000   304.69557      0.024025475    11.270977      755.95811     -36.938147      719.01996    
   3249000   312.64465      0.024025475    22.227893      775.68        -38.955105      736.7249     
   3250000   293.63101      0.024025475    15.558516      728.50663     -40.774878      687.73175    
   3251000   289.05693      0.024025475    19.24426       717.15821     -35.420463      681.73775    
   3252000   302.18427      0.024025475    10.706976      749.7275      -35.112121      714.61538    
   3253000   295.2059       0.024025475    7.0940998      732.41398     -39.642014      692.77196    
   3254000   302.16069      0.024025475    11.480917      749.66901     -43.130678      706.53833    
   3255000   312.54188      0.024025475    15.518851      775.42502     -40.110106      735.31492    
   3256000   302.77816      0.024025475    12.753831      751.20096     -41.821326      709.37963    
   3257000   290.84471      0.024025475    13.306825      721.59374     -35.926822      685.66692    
   3258000   296.086        0.024025475    16.956914      734.59753     -36.951249      697.64628    
   3259000   307.81554      0.024025475    16.852217      763.69883     -34.009133      729.6897     
   3260000   315.82345      0.024025475    10.84639       783.56668     -37.24081       746.32587    
   3261000   293.364        0.024025475    9.7019078      727.84417     -37.95457       689.8896     
   3262000   287.58571      0.024025475    12.279877      713.50808     -41.35332       672.15476    
   3263000   301.35818      0.024025475    12.300153      747.67795     -45.383394      702.29456    
   3264000   313.35321      0.024025475    15.88549       777.43796     -43.695554      733.74241    
   3265000   291.31376      0.024025475    14.998853      722.75747     -39.454144      683.30333    
   3266000   281.63426      0.024025475    11.218475      698.74236     -36.547186      662.19517    
   3267000   298.80528      0.024025475    11.136875      741.34413     -35.560933      705.7832     
   3268000   305.27043      0.024025475    13.643787      757.38435     -38.678436      718.70591    
   3269000   303.56409      0.024025475    15.921753      753.15089     -38.29534       714.85555    
   3270000   294.2553       0.024025475    10.628952      730.05551     -41.976404      688.07911    
   3271000   295.3655       0.024025475    15.62457       732.80995     -38.727964      694.08198    
   3272000   289.88624      0.024025475    14.417656      719.21575     -40.002419      679.21334    
   3273000   308.69729      0.024025475    14.290281      765.88648     -36.788173      729.0983     
   3274000   304.45731      0.024025475    10.460749      755.36697     -38.994519      716.37245    
   3275000   297.89959      0.024025475    12.803924      739.0971      -38.326755      700.77034    
   3276000   283.60737      0.024025475    20.103342      703.6377      -31.38828       672.24942    
   3277000   313.36879      0.024025475    13.634941      777.4766      -33.257465      744.21914    
   3278000   296.07381      0.024025475    7.9768856      734.56729     -37.258193      697.3091     
   3279000   281.24629      0.024025475    7.6226462      697.7798      -37.320076      660.45972    
   3280000   302.46794      0.024025475    16.428496      750.4313      -41.750596      708.68071    
   3281000   305.113        0.024025475    15.880727      756.99377     -38.633361      718.36041    
   3282000   304.86201      0.024025475    15.34264       756.37104     -39.514967      716.85607    
   3283000   300.48818      0.024025475    9.7898114      745.51945     -36.164926      709.35453    
   3284000   293.68637      0.024025475    11.528323      728.64399     -33.903073      694.74092    
   3285000   308.2921       0.024025475    14.480967      764.8812      -39.904749      724.97645    
   3286000   306.97253      0.024025475    15.904202      761.60731     -40.158964      721.44834    
   3287000   285.2435       0.024025475    10.795452      707.69698     -37.584936      670.11205    
   3288000   289.26075      0.024025475    13.837718      717.66389     -35.091416      682.57247    
   3289000   294.67202      0.024025475    12.31709       731.0894      -33.334061      697.75534    
   3290000   300.57557      0.024025475    14.0749        745.73628     -36.186544      709.54974    
   3291000   307.26147      0.024025475    13.096575      762.32417     -34.159929      728.16424    
   3292000   300.77664      0.024025475    12.65737       746.23512     -33.89593       712.33919    
   3293000   296.73598      0.024025475    13.792604      736.21014     -34.469454      701.74069    
   3294000   303.02869      0.024025475    13.670807      751.82254     -34.114875      717.70767    
   3295000   310.26275      0.024025475    11.44666       769.77043     -33.386518      736.38391    
   3296000   293.99542      0.024025475    6.7471104      729.41074     -36.277161      693.13358    
   3297000   289.2331       0.024025475    12.387599      717.59529     -31.696875      685.89841    
   3298000   307.23517      0.024025475    17.500942      762.25893     -41.071689      721.18724    
   3299000   305.37235      0.024025475    7.0371003      757.63721     -43.006545      714.63067    
   3300000   287.80948      0.024025475    13.211033      714.06325     -40.67038       673.39287    
   3301000   308.78674      0.024025475    12.578561      766.1084      -36.829659      729.27874    
   3302000   302.75992      0.024025475    12.187602      751.1557      -33.55704       717.59866    
   3303000   291.67617      0.024025475    11.547023      723.65662     -38.028339      685.62828    
   3304000   286.56376      0.024025475    16.10183       710.97259     -40.310769      670.66182    
   3305000   308.14737      0.024025475    17.591971      764.52212     -42.081615      722.44051    
   3306000   309.96734      0.024025475    16.889864      769.03751     -41.287285      727.75023    
   3307000   294.62608      0.024025475    14.581052      730.97544     -46.085084      684.89035    
   3308000   292.88078      0.024025475    12.53364       726.64528     -43.62694       683.01834    
   3309000   305.60605      0.024025475    13.268427      758.21704     -42.224697      715.99235    
   3310000   307.62702      0.024025475    15.789775      763.23111     -38.44092       724.79019    
   3311000   305.42404      0.024025475    14.06809       757.76546     -44.366846      713.39861    
   3312000   292.81223      0.024025475    14.651772      726.47521     -39.293717      687.18149    
   3313000   292.68496      0.024025475    12.966664      726.15945     -40.356726      685.80272    
   3314000   299.02874      0.024025475    14.102799      741.89853     -39.818702      702.07983    
   3315000   306.43177      0.024025475    14.949016      760.26567     -35.695133      724.57054    
   3316000   290.32297      0.024025475    13.575089      720.29928     -38.88025       681.41903    
   3317000   303.14007      0.024025475    12.422525      752.09888     -43.564913      708.53397    
   3318000   294.88091      0.024025475    10.504098      731.60765     -36.582424      695.02523    
   3319000   306.23113      0.024025475    12.744254      759.76787     -41.381872      718.386      
   3320000   298.82633      0.024025475    12.662409      741.39637     -38.617714      702.77866    
   3321000   296.88348      0.024025475    11.572851      736.57611     -41.451654      695.12445    
   3322000   298.63293      0.024025475    11.832127      740.91653     -43.0275        697.88903    
   3323000   299.32853      0.024025475    13.712335      742.64234     -40.152619      702.48972    
   3324000   315.61417      0.024025475    14.423586      783.04745     -44.400044      738.6474     
   3325000   288.03527      0.024025475    12.261069      714.62344     -44.727366      669.89608    
   3326000   305.53412      0.024025475    12.00939       758.03858     -47.689962      710.34862    
   3327000   312.37536      0.024025475    12.835204      775.01187     -50.117814      724.89406    
   3328000   295.13132      0.024025475    13.724344      732.22895     -45.407596      686.82135    
   3329000   295.22885      0.024025475    10.189449      732.47092     -44.165791      688.30513    
   3330000   300.66801      0.024025475    9.8986301      745.96563     -46.796556      699.16908    
   3331000   297.32788      0.024025475    12.602467      737.67867     -42.357378      695.32129    
   3332000   292.57184      0.024025475    14.095115      725.87879     -47.077784      678.801      
   3333000   298.18784      0.024025475    10.713369      739.81225     -40.76289       699.04936    
   3334000   307.4978       0.024025475    15.856857      762.91052     -38.961626      723.9489     
   3335000   301.78459      0.024025475    16.261247      748.7359      -45.851534      702.88436    
   3336000   297.69054      0.024025475    12.787437      738.57844     -40.394169      698.18427    
   3337000   310.05049      0.024025475    9.7167473      769.24382     -45.304135      723.93969    
   3338000   302.11259      0.024025475    14.27106       749.54966     -41.944791      707.60487    
   3339000   291.21673      0.024025475    16.43336       722.51673     -42.897106      679.61963    
   3340000   298.5055       0.024025475    17.16676       740.60036     -35.704487      704.89588    
   3341000   301.46279      0.024025475    13.41464       747.93748     -37.584144      710.35334    
   3342000   316.29437      0.024025475    12.626202      784.73506     -34.862279      749.87278    
   3343000   290.31429      0.024025475    11.476427      720.27775     -36.897644      683.3801     
   3344000   300.91997      0.024025475    12.501684      746.59073     -34.246093      712.34464    
   3345000   297.55292      0.024025475    12.948076      738.237       -34.25323       703.98377    
   3346000   293.73761      0.024025475    16.835804      728.77111     -33.536233      695.23488    
   3347000   303.46489      0.024025475    13.731951      752.90475     -32.384727      720.52002    
   3348000   311.079        0.024025475    13.554854      771.79557     -31.513024      740.28254    
   3349000   282.65394      0.024025475    9.5234354      701.27221     -35.839461      665.43274    
   3350000   302.03784      0.024025475    13.976921      749.3642      -34.609252      714.75495    
   3351000   300.72804      0.024025475    15.145536      746.11456     -39.607953      706.50661    
   3352000   295.26814      0.024025475    11.701026      732.56838     -44.593166      687.97522    
   3353000   309.43051      0.024025475    14.668908      767.70562     -40.809739      726.89588    
   3354000   306.75868      0.024025475    10.599362      761.07675     -37.86515       723.2116     
   3355000   311.33677      0.024025475    9.8598544      772.43511     -42.062074      730.37304    
   3356000   293.57128      0.024025475    9.654048       728.35844     -42.819636      685.5388     
   3357000   287.49178      0.024025475    17.770641      713.27503     -43.495186      669.77984    
   3358000   305.69218      0.024025475    12.515068      758.43073     -45.615141      712.81559    
   3359000   298.8782       0.024025475    10.615585      741.52504     -45.41075       696.11429    
   3360000   302.57877      0.024025475    12.697026      750.70628     -39.206266      711.50002    
   3361000   306.23467      0.024025475    11.648934      759.77665     -41.898604      717.87805    
   3362000   306.14126      0.024025475    15.072427      759.54491     -40.093573      719.45134    
   3363000   308.58363      0.024025475    15.121327      765.6045      -40.531828      725.07267    
   3364000   301.52159      0.024025475    11.847049      748.08337     -40.168285      707.91509    
   3365000   308.90867      0.024025475    12.296543      766.41092     -38.929151      727.48177    
   3366000   285.36938      0.024025475    17.176514      708.00931     -47.245357      660.76395    
   3367000   289.83423      0.024025475    10.882082      719.08671     -42.591194      676.49551    
   3368000   313.90713      0.024025475    14.151894      778.81224     -44.095764      734.71648    
   3369000   308.6765       0.024025475    14.534851      765.83491     -41.990099      723.84481    
   3370000   298.46334      0.024025475    14.221011      740.49577     -44.05623       696.43954    
   3371000   293.21869      0.024025475    10.919777      727.48365     -44.132081      683.35157    
   3372000   303.58794      0.024025475    12.744903      753.21005     -40.315203      712.89485    
   3373000   302.98251      0.024025475    12.199893      751.70795     -41.966698      709.74125    
   3374000   299.9882       0.024025475    13.189401      744.279       -43.644103      700.6349     
   3375000   284.29191      0.024025475    10.336001      705.33605     -45.679938      659.65612    
   3376000   303.1202       0.024025475    14.319157      752.04957     -39.242104      712.80746    
   3377000   303.79646      0.024025475    13.605972      753.7274      -44.467097      709.26031    
   3378000   300.18121      0.024025475    12.048891      744.75785     -49.442449      695.31541    
   3379000   292.04123      0.024025475    10.987982      724.56233     -45.186115      679.37622    
   3380000   300.87784      0.024025475    11.573074      746.48621     -42.471437      704.01477    
   3381000   311.89691      0.024025475    14.020998      773.82483     -38.127048      735.69778    
   3382000   295.77685      0.024025475    12.081607      733.83051     -37.964459      695.86606    
   3383000   293.22384      0.024025475    11.269249      727.49642     -38.152442      689.34398    
   3384000   309.22609      0.024025475    12.565757      767.19846     -36.204438      730.99402    
   3385000   303.69384      0.024025475    15.754775      753.47278     -35.02029       718.45249    
   3386000   294.49718      0.024025475    11.480575      730.65563     -40.240843      690.41478    
   3387000   298.10168      0.024025475    13.910553      739.59848     -35.33498       704.2635     
   3388000   315.46331      0.024025475    12.837639      782.67317     -36.051766      746.62141    
   3389000   280.42343      0.024025475    5.155356       695.73825     -31.207473      664.53078    
   3390000   292.99364      0.024025475    12.022367      726.9253      -33.510052      693.41524    
   3391000   311.46492      0.024025475    13.391464      772.75305     -32.777943      739.97511    
   3392000   302.75273      0.024025475    12.317163      751.13786     -31.871126      719.26674    
   3393000   298.31726      0.024025475    12.158975      740.13334     -33.535171      706.59817    
   3394000   283.0266       0.024025475    10.003938      702.19679     -30.156451      672.04034    
   3395000   295.22904      0.024025475    15.88756       732.47139     -35.726194      696.7452     
   3396000   305.69652      0.024025475    16.194782      758.4415      -30.345634      728.09587    
   3397000   296.93765      0.024025475    12.785527      736.7105      -33.079577      703.63092    
   3398000   296.43609      0.024025475    8.9490605      735.4661      -35.260544      700.20556    
   3399000   304.62399      0.024025475    13.038783      755.78051     -30.708089      725.07242    
   3400000   303.70082      0.024025475    9.9274986      753.49012     -30.012828      723.47729    
   3401000   291.34923      0.024025475    6.7293049      722.84546     -32.507858      690.3376     
   3402000   299.70611      0.024025475    12.564147      743.57912     -33.658404      709.92072    
   3403000   305.0034       0.024025475    11.995305      756.72184     -34.43568       722.28616    
   3404000   312.95125      0.024025475    14.104225      776.44067     -32.063396      744.37728    
   3405000   293.24406      0.024025475    11.111591      727.54661     -36.315035      691.23157    
   3406000   300.62376      0.024025475    11.970544      745.85584     -34.722404      711.13344    
   3407000   317.03218      0.024025475    13.872448      786.56557     -35.170276      751.39529    
   3408000   302.78919      0.024025475    11.33464       751.22834     -41.744867      709.48347    
   3409000   292.17342      0.024025475    9.8067979      724.89032     -45.508575      679.38175    
   3410000   301.02492      0.024025475    13.302257      746.85113     -46.343625      700.50751    
   3411000   315.42232      0.024025475    10.76679       782.57148     -45.244384      737.32709    
   3412000   290.77616      0.024025475    10.563369      721.42367     -45.839872      675.5838     
   3413000   301.09384      0.024025475    12.836205      747.02211     -49.804979      697.21713    
   3414000   296.04446      0.024025475    15.315189      734.49447     -46.188323      688.30615    
   3415000   305.81637      0.024025475    14.546109      758.73885     -44.78971       713.94914    
   3416000   299.71243      0.024025475    12.388677      743.59481     -45.565875      698.02894    
   3417000   306.24958      0.024025475    13.435053      759.81366     -41.75208       718.06158    
   3418000   295.36225      0.024025475    14.879201      732.80187     -43.476859      689.32502    
   3419000   335.09452      0.024025475    13.891881      831.37875     -41.973053      789.40569    
   3420000   291.62909      0.024025475    5.3358654      723.53981     -39.206259      684.33355    
   3421000   293.8479       0.024025475    9.5419996      729.04474     -42.669115      686.37563    
   3422000   290.5803       0.024025475    11.134082      720.93773     -42.598835      678.3389     
   3423000   307.29817      0.024025475    13.454784      762.41522     -42.688889      719.72633    
   3424000   292.93011      0.024025475    4.8680031      726.76767     -43.697254      683.07041    
   3425000   280.90036      0.024025475    15.441506      696.92153     -40.835185      656.08635    
   3426000   299.54631      0.024025475    16.931059      743.18266     -40.729307      702.45335    
   3427000   322.47837      0.024025475    11.104806      800.07772     -38.73784       761.33988    
   3428000   294.54217      0.024025475    5.733743       730.76725     -38.655081      692.11217    
   3429000   286.20018      0.024025475    10.563217      710.07054     -32.608776      677.46176    
   3430000   298.3666       0.024025475    24.939766      740.25576     -32.393279      707.86248    
   3431000   311.75633      0.024025475    7.4189863      773.47605     -34.569607      738.90644    
   3432000   293.54139      0.024025475    16.067771      728.28428     -36.057172      692.2271     
   3433000   287.39398      0.024025475    27.276754      713.03238     -40.958352      672.07403    
   3434000   305.28582      0.024025475    10.938108      757.42253     -43.676281      713.74625    
   3435000   290.84536      0.024025475    11.842218      721.59535     -48.668602      672.92674    
   3436000   297.84021      0.024025475    33.539689      738.94977     -40.000768      698.949      
   3437000   306.32622      0.024025475    15.97107       760.00381     -43.921791      716.08201    
   3438000   306.87452      0.024025475   -9.4188575      761.36415     -42.130321      719.23383    
   3439000   296.4828       0.024025475    11.168964      735.58201     -39.035345      696.54667    
   3440000   300.64911      0.024025475    15.197217      745.91874     -45.266187      700.65255    
   3441000   297.81895      0.024025475    0.96303651     738.89702     -41.463617      697.4334     
   3442000   297.85717      0.024025475    14.116648      738.99185     -38.914321      700.07753    
   3443000   302.45936      0.024025475    16.696038      750.41001     -41.473793      708.93622    
   3444000   296.72467      0.024025475    8.1904027      736.18208     -44.926514      691.25557    
   3445000   290.49136      0.024025475    8.4151088      720.71707     -45.698602      675.01847    
   3446000   303.47771      0.024025475    13.310275      752.93657     -42.604229      710.33234    
   3447000   307.93525      0.024025475    14.884395      763.99585     -42.34038       721.65547    
   3448000   309.02096      0.024025475    12.791697      766.68951     -41.105645      725.58386    
   3449000   298.48741      0.024025475    21.226973      740.5555      -50.475912      690.07959    
   3450000   297.52431      0.024025475    4.383364       738.16601     -44.803171      693.36284    
   3451000   294.423        0.024025475    10.294993      730.47159     -42.178542      688.29305    
   3452000   299.62614      0.024025475    5.2958041      743.3807      -41.578471      701.80223    
   3453000   314.79224      0.024025475    8.7596178      781.00821     -44.421413      736.5868     
   3454000   302.20474      0.024025475    21.731035      749.7783      -38.490111      711.28819    
   3455000   292.67279      0.024025475    5.6580126      726.12927     -40.014819      686.11445    
   3456000   306.6707       0.024025475    9.8558237      760.85846     -44.352734      716.50572    
   3457000   298.72341      0.024025475    18.318329      741.14103     -44.084339      697.05669    
   3458000   285.7727       0.024025475    11.635487      709.00993     -41.319134      667.6908     
   3459000   302.68132      0.024025475    2.657416       750.96071     -45.768565      705.19214    
   3460000   312.28588      0.024025475    19.626248      774.78988     -47.422908      727.36697    
   3461000   298.18017      0.024025475    18.507049      739.79323     -48.464954      691.32827    
   3462000   296.3665       0.024025475    6.0810171      735.29345     -49.108227      686.18523    
   3463000   307.14601      0.024025475   -0.0020094757   762.03771     -46.336467      715.70124    
   3464000   313.48446      0.024025475    29.244018      777.76358     -48.771375      728.99221    
   3465000   289.62625      0.024025475    15.033914      718.5707      -44.603827      673.96687    
   3466000   293.74059      0.024025475    0.21969722     728.7785      -44.723488      684.05501    
   3467000   315.35351      0.024025475    10.896497      782.40076     -45.356487      737.04427    
   3468000   294.2229       0.024025475    21.720759      729.97514     -44.963742      685.01139    
   3469000   290.5493       0.024025475    13.279077      720.86083     -42.953933      677.9069     
   3470000   305.56055      0.024025475    2.1695745      758.10414     -45.762422      712.34172    
   3471000   307.23667      0.024025475    4.8091506      762.26266     -48.266338      713.99632    
   3472000   297.49461      0.024025475    28.354607      738.09232     -40.953761      697.13855    
   3473000   287.98061      0.024025475    16.461023      714.48784     -40.630249      673.85759    
   3474000   294.57314      0.024025475    9.9394982      730.84408     -36.785881      694.0582     
   3475000   301.1524       0.024025475    8.1896211      747.1674      -34.757957      712.40945    
   3476000   315.22541      0.024025475    10.118691      782.08292     -37.065042      745.01788    
   3477000   304.53337      0.024025475    6.9833446      755.55568     -36.627342      718.92834    
   3478000   297.43169      0.024025475    15.39392       737.93621     -39.638959      698.29725    
   3479000   301.69525      0.024025475    15.704928      748.51423     -35.831896      712.68234    
   3480000   302.49595      0.024025475    9.9711987      750.5008      -34.931067      715.56973    
   3481000   300.88488      0.024025475    13.521129      746.50369     -36.680138      709.82356    
   3482000   296.27409      0.024025475    15.835041      735.06418     -37.931818      697.13236    
   3483000   290.81871      0.024025475    11.507142      721.52923     -43.720809      677.80842    
   3484000   307.63774      0.024025475    11.418461      763.25772     -41.610117      721.6476     
   3485000   297.16737      0.024025475    15.515591      737.28043     -43.561444      693.71899    
   3486000   289.97537      0.024025475    11.544634      719.43688     -46.342361      673.09452    
   3487000   312.05965      0.024025475    12.055491      774.22858     -41.197571      733.03101    
   3488000   307.50942      0.024025475    13.913591      762.93935     -34.320898      728.61845    
   3489000   288.09179      0.024025475    12.361031      714.76368     -45.785249      668.97843    
   3490000   296.16814      0.024025475    10.837839      734.80131     -45.412887      689.38843    
   3491000   323.76386      0.024025475    12.755071      803.26707     -43.671644      759.59543    
   3492000   301.02087      0.024025475    11.509046      746.84108     -49.270476      697.57061    
   3493000   289.21699      0.024025475    12.390508      717.55533     -47.391624      670.1637     
   3494000   297.91571      0.024025475    13.190686      739.13709     -42.713413      696.42368    
   3495000   312.19334      0.024025475    16.355396      774.56027     -43.991482      730.56879    
   3496000   303.55446      0.024025475    10.945128      753.12698     -40.390954      712.73603    
   3497000   289.01593      0.024025475    13.106107      717.05649     -32.435706      684.62078    
   3498000   297.94991      0.024025475    13.632309      739.22194     -33.687008      705.53494    
   3499000   300.95844      0.024025475    8.5945998      746.68619     -33.015757      713.67043    
   3500000   298.01105      0.024025475    14.107045      739.37363     -36.220054      703.15357    
   3501000   304.15849      0.024025475    14.333333      754.6256      -39.219172      715.40643    
   3502000   301.39608      0.024025475    8.9762646      747.77198     -35.613606      712.15838    
   3503000   296.80442      0.024025475    11.93267       736.37996     -36.900194      699.47977    
   3504000   307.78016      0.024025475    13.824558      763.61106     -40.535096      723.07596    
   3505000   298.07113      0.024025475    16.258669      739.52268     -44.823319      694.69936    
   3506000   306.18968      0.024025475    10.877262      759.66505     -47.166312      712.49873    
   3507000   288.57652      0.024025475    7.4879301      715.96629     -48.032836      667.93346    
   3508000   291.41595      0.024025475    11.785483      723.011       -34.517038      688.49396    
   3509000   297.3565       0.024025475    18.343464      737.74967     -34.339257      703.41042    
   3510000   298.36661      0.024025475    16.033819      740.25578     -40.627159      699.62863    
   3511000   307.65384      0.024025475    13.707271      763.29765     -41.874248      721.4234     
   3512000   308.10869      0.024025475    10.683824      764.42616     -35.685017      728.74114    
   3513000   295.72543      0.024025475    12.825609      733.70295     -39.519819      694.18313    
   3514000   286.79906      0.024025475    13.087177      711.55639     -43.910956      667.64543    
   3515000   311.87906      0.024025475    16.292437      773.78055     -39.70643       734.07412    
   3516000   308.31303      0.024025475    11.832925      764.93312     -37.610683      727.32244    
   3517000   292.22997      0.024025475    11.655843      725.03061     -45.675358      679.35525    
   3518000   297.18451      0.024025475    10.51149       737.32295     -43.875741      693.44721    
   3519000   308.0658       0.024025475    12.981516      764.31974     -47.278971      717.04077    
   3520000   301.92195      0.024025475    21.150347      749.07667     -49.182042      699.89463    
   3521000   296.72667      0.024025475    12.828959      736.18704     -43.412666      692.77437    
   3522000   299.00902      0.024025475    10.204532      741.84963     -39.733277      702.11635    
   3523000   315.14755      0.024025475    17.673777      781.88975     -42.013164      739.87659    
   3524000   298.37109      0.024025475    19.17203       740.26689     -43.166813      697.10008    
   3525000   297.05956      0.024025475    9.3817142      737.01296     -42.455471      694.55749    
   3526000   302.92886      0.024025475    13.328434      751.57485     -39.545291      712.02956    
   3527000   309.95543      0.024025475    14.775342      769.00798     -41.743         727.26498    
   3528000   305.48968      0.024025475    13.764564      757.92832     -39.412296      718.51603    
   3529000   293.76336      0.024025475    11.177353      728.835       -39.731717      689.10328    
   3530000   313.53043      0.024025475    12.432613      777.87765     -39.13022       738.74743    
   3531000   311.42022      0.024025475    15.770699      772.64215     -35.228273      737.41388    
   3532000   299.01106      0.024025475    12.910547      741.85468     -38.571453      703.28323    
   3533000   286.94362      0.024025475    11.626185      711.91502     -40.713514      671.20151    
   3534000   306.27853      0.024025475    11.79771       759.88547     -47.761101      712.12437    
   3535000   311.15674      0.024025475    13.623014      771.98844     -44.760388      727.22805    
   3536000   303.59719      0.024025475    11.466317      753.23301     -50.903532      702.32948    
   3537000   287.15406      0.024025475    8.8643429      712.43713     -49.295329      663.1418     
   3538000   297.80994      0.024025475    14.475291      738.87468     -44.807965      694.06672    
   3539000   309.70797      0.024025475    12.071206      768.39401     -43.002151      725.39186    
   3540000   311.53593      0.024025475    12.748867      772.92923     -40.023185      732.90604    
   3541000   287.45216      0.024025475    11.478598      713.17673     -37.894454      675.28228    
   3542000   308.87668      0.024025475    9.6884039      766.33156     -39.134019      727.19754    
   3543000   307.76529      0.024025475    12.874683      763.57416     -39.969243      723.60492    
   3544000   289.83215      0.024025475    13.111804      719.08155     -36.350201      682.73135    
   3545000   288.08531      0.024025475    11.388692      714.7476      -44.790199      669.9574     
   3546000   306.96531      0.024025475    14.086416      761.5894      -34.326684      727.26272    
   3547000   302.61464      0.024025475    11.936506      750.79527     -35.760852      715.03442    
   3548000   296.51198      0.024025475    8.2950735      735.65439     -36.733774      698.92062    
   3549000   295.51995      0.024025475    15.470542      733.19314     -37.446266      695.74688    
   3550000   311.74814      0.024025475    14.255756      773.45573     -39.487862      733.96787    
   3551000   300.20863      0.024025475    13.261315      744.82589     -32.131367      712.69452    
   3552000   296.58367      0.024025475    9.5309538      735.83226     -35.239932      700.59232    
   3553000   291.43823      0.024025475    16.705809      723.06629     -31.790746      691.27554    
   3554000   312.19248      0.024025475    13.553356      774.55815     -36.638151      737.92       
   3555000   293.73233      0.024025475    8.4521527      728.75801     -31.553588      697.20442    
   3556000   291.56354      0.024025475    11.793125      723.37718     -38.504525      684.87265    
   3557000   303.81356      0.024025475    12.624047      753.76981     -41.132853      712.63696    
   3558000   296.40166      0.024025475    12.152659      735.38069     -42.221719      693.15897    
   3559000   301.33167      0.024025475    16.120925      747.61218     -40.593479      707.0187     
   3560000   297.98171      0.024025475    12.622957      739.30083     -42.986138      696.3147     
   3561000   292.30039      0.024025475    2.981464       725.20532     -40.016912      685.18841    
   3562000   282.82258      0.024025475    22.497594      701.69062     -44.784208      656.90642    
   3563000   306.08013      0.024025475    14.266589      759.39323     -35.373317      724.01992    
   3564000   295.39156      0.024025475    1.9582631      732.8746      -36.222359      696.65224    
   3565000   290.71105      0.024025475    13.337374      721.26213     -38.307668      682.95446    
   3566000   293.65551      0.024025475    15.174551      728.56741     -37.759363      690.80805    
   3567000   308.29398      0.024025475    13.670516      764.88585     -35.195675      729.69018    
   3568000   299.14483      0.024025475    13.523891      742.18657     -33.018563      709.16801    
   3569000   296.79371      0.024025475    11.671599      736.35337     -32.723278      703.63009    
   3570000   304.80336      0.024025475    14.558427      756.22553     -30.489125      725.7364     
   3571000   289.63414      0.024025475    11.091805      718.59029     -33.651652      684.93864    
   3572000   308.78289      0.024025475    15.792544      766.09886     -33.806831      732.29203    
   3573000   316.61778      0.024025475    13.917453      785.53743     -31.532622      754.0048     
   3574000   308.83727      0.024025475    11.769255      766.23377     -32.192763      734.04101    
   3575000   293.06039      0.024025475    12.891203      727.09092     -31.08368       696.00724    
   3576000   295.99907      0.024025475    13.147835      734.38185     -36.711827      697.67003    
   3577000   315.33382      0.024025475    12.850389      782.35191     -37.726116      744.62579    
   3578000   300.01017      0.024025475    9.4111966      744.3335      -36.002864      708.33064    
   3579000   286.46824      0.024025475    11.256302      710.7356      -33.924928      676.81068    
   3580000   299.90021      0.024025475    22.067822      744.06068     -37.726598      706.33409    
   3581000   308.6523       0.024025475    7.9173757      765.77487     -39.886784      725.88809    
   3582000   306.22146      0.024025475    2.4354276      759.74387     -43.184383      716.55949    
   3583000   296.94175      0.024025475    14.104237      736.72066     -45.004404      691.71626    
   3584000   289.18856      0.024025475    17.175727      717.48479     -45.981908      671.50288    
   3585000   301.75587      0.024025475    22.626649      748.66462     -41.274146      707.39048    
   3586000   305.76172      0.024025475   -0.17667465     758.60327     -40.354563      718.2487     
   3587000   295.271        0.024025475    16.559606      732.57549     -41.040987      691.5345     
   3588000   303.56468      0.024025475    13.417116      753.15234     -36.245987      716.90635    
   3589000   294.81069      0.024025475    6.7917386      731.43345     -40.23866       691.19479    
   3590000   299.18002      0.024025475    14.85604       742.27389     -36.409831      705.86405    
   3591000   290.82655      0.024025475    36.107076      721.5487      -35.711281      685.83742    
   3592000   296.11443      0.024025475    8.2811269      734.66807     -39.827938      694.84014    
   3593000   304.66757      0.024025475    7.460782       755.88863     -39.535027      716.3536     
   3594000   305.35671      0.024025475    9.8121651      757.59841     -40.191671      717.40674    
   3595000   295.32336      0.024025475    13.566042      732.70539     -41.31469       691.3907     
   3596000   302.91167      0.024025475    18.377069      751.5322      -45.579683      705.95251    
   3597000   308.97967      0.024025475    21.802741      766.58709     -46.709398      719.87769    
   3598000   299.1695       0.024025475    16.987974      742.24777     -43.132883      699.11489    
   3599000   307.55957      0.024025475   -14.354031      763.06377     -36.389367      726.67441    
   3600000   299.06137      0.024025475    12.474238      741.9795      -35.13899       706.84051    
   3601000   308.78921      0.024025475    25.350203      766.11454     -34.374888      731.73965    
   3602000   302.8731       0.024025475    11.87955       751.43651     -43.033295      708.40322    
   3603000   297.80548      0.024025475    6.3884826      738.8636      -45.237321      693.62628    
   3604000   303.12011      0.024025475    12.978423      752.04936     -42.207833      709.84153    
   3605000   309.44046      0.024025475    17.693136      767.73031     -47.316293      720.41402    
   3606000   298.07157      0.024025475   -8.3326292      739.52379     -42.317055      697.20673    
   3607000   303.60792      0.024025475    11.299922      753.25962     -45.559314      707.70031    
   3608000   295.473        0.024025475    17.304563      733.07667     -47.26312       685.81355    
   3609000   298.22175      0.024025475    17.372098      739.89639     -44.154488      695.7419     
   3610000   310.023        0.024025475    1.6477777      769.1756      -41.439452      727.73615    
   3611000   287.93544      0.024025475   -3.401884       714.37575     -36.293728      678.08203    
   3612000   297.80261      0.024025475    11.652317      738.85648     -34.728687      704.1278     
   3613000   301.34127      0.024025475    19.617331      747.63599     -36.951271      710.68471    
   3614000   304.60761      0.024025475    16.495095      755.73987     -38.888037      716.85183    
   3615000   295.62129      0.024025475    3.4266173      733.44457     -36.936996      696.50758    
   3616000   298.06258      0.024025475    11.134841      739.50149     -34.902469      704.59902    
   3617000   308.89443      0.024025475    14.341392      766.3756      -41.638164      724.73744    
   3618000   307.53793      0.024025475    9.3212209      763.01008     -40.355381      722.6547     
   3619000   285.98313      0.024025475    8.6931106      709.53204     -50.793368      658.73867    
   3620000   293.33769      0.024025475    11.63367       727.77889     -46.904141      680.87475    
   3621000   302.71636      0.024025475    20.824117      751.04763     -47.6402        703.40743    
   3622000   311.09163      0.024025475    7.0702668      771.82691     -41.643077      730.18384    
   3623000   291.02495      0.024025475    3.8389555      722.04091     -41.507445      680.53347    
   3624000   288.59295      0.024025475    12.213546      716.00708     -31.569734      684.43734    
   3625000   300.72918      0.024025475    20.369541      746.11738     -39.908392      706.20898    
   3626000   305.18563      0.024025475    19.268292      757.17395     -40.978235      716.19572    
   3627000   304.61301      0.024025475    9.3238985      755.75328     -35.337854      720.41543    
   3628000   275.3811       0.024025475    13.766894      683.22809     -35.33169       647.8964     
   3629000   302.82088      0.024025475    14.506312      751.30694     -42.235302      709.07164    
   3630000   304.70792      0.024025475    20.216069      755.98876     -34.261932      721.72683    
   3631000   288.28133      0.024025475    11.20207       715.23393     -34.404625      680.8293     
   3632000   290.06603      0.024025475    15.571224      719.66182     -38.923464      680.73836    
   3633000   310.71284      0.024025475    11.194083      770.88712     -35.265825      735.6213     
   3634000   293.39648      0.024025475    10.435501      727.92474     -39.15125       688.7735     
   3635000   303.51658      0.024025475    15.64611       753.03299     -32.755007      720.27799    
   3636000   301.42687      0.024025475    13.782792      747.84838     -35.801945      712.04644    
   3637000   302.50896      0.024025475    8.6942825      750.53307     -39.301986      711.23108    
   3638000   293.90321      0.024025475    12.78659       729.18196     -36.260775      692.92118    
   3639000   301.86341      0.024025475    21.515481      748.93145     -41.701094      707.23035    
   3640000   289.05532      0.024025475    12.820278      717.15422     -43.851374      673.30285    
   3641000   297.20816      0.024025475    6.8395254      737.38163     -45.304081      692.07755    
   3642000   300.74796      0.024025475    10.3044        746.16399     -40.997757      705.16623    
   3643000   305.29549      0.024025475    15.905446      757.44652     -43.84204       713.60448    
   3644000   293.59379      0.024025475    11.862252      728.41428     -37.598765      690.81552    
   3645000   306.99558      0.024025475    9.3972085      761.66451     -37.447341      724.21717    
   3646000   296.81662      0.024025475    18.608843      736.41023     -32.703819      703.70641    
   3647000   291.42058      0.024025475    0.71540786     723.0225      -36.842619      686.17988    
   3648000   317.31808      0.024025475    10.458636      787.27489     -38.272801      749.00209    
   3649000   299.81947      0.024025475    16.71823       743.86038     -38.022312      705.83807    
   3650000   292.95726      0.024025475    12.391218      726.83503     -42.32747       684.50756    
   3651000   288.86618      0.024025475    12.643738      716.68496     -39.055214      677.62974    
   3652000   317.31003      0.024025475    11.370903      787.25493     -45.867692      741.38723    
   3653000   314.29834      0.024025475    13.892269      779.78285     -49.902837      729.88002    
   3654000   293.53333      0.024025475    11.33201       728.26428     -44.470879      683.79341    
   3655000   297.94864      0.024025475    10.067107      739.21879     -42.252882      696.96591    
   3656000   303.61311      0.024025475    12.130186      753.27249     -41.877235      711.39525    
   3657000   309.23279      0.024025475    13.585935      767.21507     -45.83699       721.37808    
   3658000   295.88577      0.024025475    12.714378      734.10075     -47.319547      686.7812     
   3659000   293.29856      0.024025475    9.0768706      727.68182     -41.806341      685.87547    
   3660000   320.77705      0.024025475    13.828915      795.85671     -39.705382      756.15133    
   3661000   299.06306      0.024025475    14.721854      741.9837      -35.126639      706.85706    
   3662000   282.96553      0.024025475    13.577598      702.04527     -37.313507      664.73176    
   3663000   294.47875      0.024025475    9.933353       730.60989     -35.659068      694.95083    
   3664000   303.21         0.024025475    10.319998      752.27236     -33.205048      719.06732    
   3665000   297.75395      0.024025475    12.266124      738.73575     -39.680783      699.05496    
   3666000   303.99587      0.024025475    15.157188      754.22212     -36.089531      718.13259    
   3667000   289.18776      0.024025475    12.434204      717.48281     -36.253905      681.22891    
   3668000   292.15676      0.024025475    11.106017      724.84898     -33.070903      691.77808    
   3669000   304.35138      0.024025475    12.296993      755.10416     -37.007879      718.09628    
   3670000   296.23194      0.024025475    16.338119      734.95962     -39.953109      695.00651    
   3671000   297.98387      0.024025475    14.022855      739.3062      -40.491692      698.81451    
   3672000   294.67792      0.024025475    2.3277395      731.10405     -45.609204      685.49484    
   3673000   302.32497      0.024025475    10.817082      750.07659     -45.517337      704.55925    
   3674000   313.35649      0.024025475    16.911418      777.44609     -43.508249      733.93784    
   3675000   296.72618      0.024025475    12.709137      736.18582     -38.934657      697.25116    
   3676000   285.99751      0.024025475    9.943324       709.56771     -35.504778      674.06293    
   3677000   307.5484       0.024025475    13.191405      763.03605     -30.306435      732.72962    
   3678000   300.16141      0.024025475    12.569621      744.70872     -32.800523      711.9082     
   3679000   303.73564      0.024025475    14.306772      753.5765      -31.150105      722.4264     
   3680000   298.7491       0.024025475    13.363684      741.20475     -31.190105      710.01464    
   3681000   292.82755      0.024025475    12.939916      726.51323     -31.18821       695.32502    
   3682000   310.5878       0.024025475    12.335099      770.5769      -36.078993      734.49791    
   3683000   301.011        0.024025475    10.024076      746.81658     -37.120614      709.69596    
   3684000   284.19669      0.024025475    11.256631      705.09981     -35.155668      669.94414    
   3685000   302.61048      0.024025475    10.247694      750.78495     -35.598463      715.18649    
   3686000   303.3152       0.024025475    24.369511      752.53338     -36.237094      716.29628    
   3687000   297.56135      0.024025475    11.509759      738.2579      -34.715128      703.54277    
   3688000   295.9232       0.024025475    9.4934226      734.19361     -34.274832      699.91878    
   3689000   298.76462      0.024025475    11.581776      741.24325     -34.161699      707.08156    
   3690000   306.53195      0.024025475    24.896252      760.51421     -35.474692      725.03952    
   3691000   304.26676      0.024025475    10.493391      754.89422     -38.069513      716.82471    
   3692000   309.70641      0.024025475    17.245822      768.39014     -34.473274      733.91686    
   3693000   288.79205      0.024025475    17.203874      716.50103     -39.578749      676.92228    
   3694000   300.59329      0.024025475    11.608358      745.78024     -34.526901      711.25334    
   3695000   293.95273      0.024025475    14.315634      729.30482     -29.776523      699.5283     
   3696000   303.32674      0.024025475    12.794286      752.56199     -32.550646      720.01135    
   3697000   292.3941       0.024025475    8.858525       725.43783     -37.415072      688.02275    
   3698000   293.54398      0.024025475    11.969258      728.29072     -44.57205       683.71867    
   3699000   303.39541      0.024025475    15.565278      752.73237     -38.17605       714.55632    
   3700000   291.19073      0.024025475    14.478281      722.45223     -40.690715      681.76151    
   3701000   314.51501      0.024025475    11.978974      780.3204      -39.658574      740.66182    
   3702000   301.11799      0.024025475    13.236188      747.08204     -37.168145      709.91389    
   3703000   291.05776      0.024025475    15.531924      722.12232     -37.410408      684.71191    
   3704000   295.69014      0.024025475    10.291007      733.6154      -37.863544      695.75185    
   3705000   314.24653      0.024025475    10.274479      779.6543      -39.66554       739.98876    
   3706000   296.98466      0.024025475    14.581355      736.82712     -45.039198      691.78793    
   3707000   289.51582      0.024025475    12.142529      718.29672     -36.55631       681.74041    
   3708000   310.27261      0.024025475    11.051441      769.79491     -37.410847      732.38406    
   3709000   307.88622      0.024025475    13.651282      763.87419     -38.945955      724.92824    
   3710000   288.77365      0.024025475    10.319998      716.45539     -42.286061      674.16933    
   3711000   303.27067      0.024025475    14.073437      752.4229      -42.453167      709.96974    
   3712000   310.59289      0.024025475    11.4981        770.58953     -40.695727      729.89381    
   3713000   303.35706      0.024025475    9.8057792      752.63723     -40.319428      712.3178     
   3714000   271.36102      0.024025475    14.938634      673.25417     -39.014286      634.23988    
   3715000   301.9702       0.024025475    14.009625      749.1964      -39.545382      709.65102    
   3716000   322.75489      0.024025475    7.8167393      800.76378     -43.177343      757.58643    
   3717000   292.62861      0.024025475    6.8248053      726.01965     -40.121918      685.89773    
   3718000   299.94946      0.024025475    13.552424      744.18288     -40.08579       704.09709    
   3719000   310.48681      0.024025475    14.446581      770.32633     -34.455484      735.87085    
   3720000   301.59003      0.024025475    13.23154       748.25319     -43.392728      704.86046    
   3721000   284.33479      0.024025475    12.870124      705.44245     -39.706417      665.73604    
   3722000   300.3089       0.024025475    12.692372      745.07466     -41.469943      703.60472    
   3723000   312.63476      0.024025475    11.662631      775.65546     -36.463537      739.19192    
   3724000   292.305        0.024025475    15.673455      725.21676     -38.744979      686.47178    
   3725000   296.35945      0.024025475    6.3526791      735.27596     -33.732847      701.54311    
   3726000   308.74555      0.024025475    12.359317      766.00623     -42.844236      723.16199    
   3727000   294.08275      0.024025475    16.219635      729.62741     -43.191669      686.43574    
   3728000   279.77003      0.024025475    6.9312958      694.11715     -40.07506       654.04209    
   3729000   303.87075      0.024025475    11.492741      753.91171     -38.996029      714.91568    
   3730000   307.3107       0.024025475    17.27472       762.44632     -44.579827      717.86649    
   3731000   293.76446      0.024025475    12.208352      728.83773     -42.31072       686.52701    
   3732000   304.41585      0.024025475    11.306463      755.26411     -39.723925      715.54018    
   3733000   316.3488       0.024025475    16.748233      784.87009     -45.689299      739.1808     
   3734000   301.24698      0.024025475    13.91152       747.40206     -41.562493      705.83957    
   3735000   295.29277      0.024025475    14.470611      732.6295      -37.376558      695.25294    
   3736000   303.67152      0.024025475    12.28701       753.41741     -47.078092      706.33932    
   3737000   302.95198      0.024025475    13.55628       751.63222     -38.546672      713.08555    
   3738000   305.52592      0.024025475    12.95132       758.01823     -41.9624        716.05583    
   3739000   302.32254      0.024025475    11.780817      750.07056     -38.831854      711.23871    
   3740000   308.22143      0.024025475    21.368034      764.70587     -41.844382      722.86148    
   3741000   300.04019      0.024025475    10.178687      744.40798     -44.858501      699.54948    
   3742000   283.95681      0.024025475    14.716307      704.50466     -41.660429      662.84423    
   3743000   288.57805      0.024025475    11.798512      715.9701      -40.300127      675.66997    
   3744000   310.54841      0.024025475    12.840752      770.47916     -40.811461      729.6677     
   3745000   313.37185      0.024025475    14.655731      777.48419     -42.792178      734.69202    
   3746000   289.08087      0.024025475    11.454941      717.2176      -44.278184      672.93941    
   3747000   294.68487      0.024025475    15.785212      731.12128     -42.091445      689.02984    
   3748000   310.03632      0.024025475    16.048832      769.20865     -45.344892      723.86376    
   3749000   309.82332      0.024025475    12.899337      768.6802      -43.099299      725.5809     
   3750000   290.35139      0.024025475    10.926957      720.3698      -40.546934      679.82286    
   3751000   281.85902      0.024025475    11.985925      699.3         -38.723938      660.57607    
   3752000   300.91635      0.024025475    12.572046      746.58176     -39.960904      706.62086    
   3753000   314.19125      0.024025475    15.192162      779.51716     -44.022939      735.49422    
   3754000   293.74121      0.024025475    14.585897      728.78004     -38.135195      690.64484    
   3755000   293.9125       0.024025475    8.4118267      729.20501     -45.013855      684.19116    
   3756000   308.76234      0.024025475    12.102463      766.04787     -40.99058       725.05729    
   3757000   297.97344      0.024025475    12.476797      739.28032     -32.648841      706.63148    
   3758000   289.6591       0.024025475    13.910683      718.65222     -35.434455      683.21777    
   3759000   304.15023      0.024025475    14.353311      754.60509     -39.696323      714.90877    
   3760000   305.65022      0.024025475    12.010119      758.32662     -41.032108      717.29451    
   3761000   299.51464      0.024025475    11.889377      743.10409     -40.310268      702.79382    
   3762000   288.75722      0.024025475    12.377588      716.41462     -40.41282       676.0018     
   3763000   281.55453      0.024025475    8.8260542      698.54455     -44.984361      653.56019    
   3764000   298.00427      0.024025475    13.608554      739.35681     -39.413831      699.94298    
   3765000   310.02322      0.024025475    12.832941      769.17616     -42.30247       726.87369    
   3766000   297.82874      0.024025475    11.874202      738.92133     -39.466555      699.45477    
   3767000   290.03336      0.024025475    12.276307      719.58076     -41.028366      678.55239    
   3768000   309.97934      0.024025475    6.6794566      769.06728     -38.646876      730.4204     
   3769000   314.28767      0.024025475    14.143305      779.75638     -42.345019      737.41136    
   3770000   298.35197      0.024025475    12.863691      740.21946     -42.600642      697.61882    
   3771000   281.25618      0.024025475    11.157721      697.80433     -37.426548      660.37778    
   3772000   309.43922      0.024025475    10.003087      767.72723     -37.016565      730.71066    
   3773000   312.87004      0.024025475    14.248349      776.2392      -39.893851      736.34535    
   3774000   296.66626      0.024025475    15.103007      736.03718     -46.115503      689.92167    
   3775000   288.20776      0.024025475    8.6839452      715.05139     -38.633604      676.41779    
   3776000   307.90616      0.024025475    4.4847328      763.92367     -37.173597      726.75007    
   3777000   321.4987       0.024025475    12.240081      797.64714     -38.75934       758.8878     
   3778000   290.2513       0.024025475    14.166462      720.12147     -33.335532      686.78593    
   3779000   276.67625      0.024025475    13.576266      686.44139     -38.539331      647.90206    
   3780000   299.26386      0.024025475    12.351739      742.48188     -39.960573      702.52131    
   3781000   312.63487      0.024025475    10.80253       775.65573     -40.746903      734.90883    
   3782000   298.61896      0.024025475    13.350238      740.88188     -37.853273      703.02861    
   3783000   287.97977      0.024025475    11.313648      714.48576     -32.06208       682.42368    
   3784000   318.0331       0.024025475    12.950759      789.04889     -34.567593      754.4813     
   3785000   315.70842      0.024025475    12.812794      783.28129     -33.822192      749.45909    
   3786000   287.14694      0.024025475    11.560481      712.41948     -30.185097      682.23439    
   3787000   302.25341      0.024025475    12.72642       749.89904     -29.276283      720.62275    
   3788000   312.90566      0.024025475    13.974297      776.32758     -32.757057      743.57052    
   3789000   299.38435      0.024025475    14.267594      742.78082     -30.768426      712.01239    
   3790000   288.85673      0.024025475    12.707875      716.66151     -28.867109      687.7944     
   3791000   308.34028      0.024025475    12.45136       765.00074     -27.457003      737.54374    
   3792000   300.13082      0.024025475    13.440534      744.63285     -27.507863      717.12498    
   3793000   301.67828      0.024025475    12.079022      748.47213     -28.592095      719.88004    
   3794000   285.46232      0.024025475    11.309825      708.23987     -36.28421       671.95566    
   3795000   293.73776      0.024025475    15.370521      728.77147     -34.843141      693.92833    
   3796000   318.00561      0.024025475    16.622845      788.98067     -35.970531      753.01014    
   3797000   297.44238      0.024025475    12.94883       737.96273     -30.436572      707.52616    
   3798000   296.54196      0.024025475    20.303197      735.72879     -33.730111      701.99868    
   3799000   310.70436      0.024025475    11.026516      770.86608     -44.422811      726.44327    
   3800000   294.30895      0.024025475    12.109605      730.18861     -42.490503      687.69811    
   3801000   297.88695      0.024025475    14.338349      739.06573     -40.239276      698.82645    
   3802000   308.99713      0.024025475    13.670354      766.63039     -34.96011       731.67028    
   3803000   314.46468      0.024025475    7.3624928      780.19553     -35.799837      744.39569    
   3804000   305.4432       0.024025475    11.419512      757.813       -41.171993      716.64101    
   3805000   296.81723      0.024025475    15.14103       736.41172     -42.58432       693.8274     
   3806000   292.44743      0.024025475    19.296729      725.57013     -41.989728      683.5804     
   3807000   302.19282      0.024025475    15.955309      749.74872     -39.568601      710.18012    
   3808000   308.17474      0.024025475    8.5908062      764.59002     -33.571896      731.01813    
   3809000   292.05394      0.024025475    16.362875      724.59388     -33.255747      691.33813    
   3810000   292.84877      0.024025475    20.535255      726.56587     -37.135404      689.43047    
   3811000   310.87753      0.024025475    6.6704226      771.29572     -35.559445      735.73628    
   3812000   297.89099      0.024025475    8.5456677      739.07575     -32.927761      706.14799    
   3813000   305.12854      0.024025475    18.901967      757.03231     -32.701571      724.33074    
   3814000   300.14426      0.024025475    13.732067      744.66618     -39.441461      705.22472    
   3815000   305.02322      0.024025475    7.1569015      756.771       -38.676508      718.0945     
   3816000   303.31638      0.024025475    5.6415074      752.5363      -31.88948       720.64682    
   3817000   292.83581      0.024025475    9.5976825      726.53371     -36.12774       690.40597    
   3818000   288.38489      0.024025475    25.118523      715.49086     -39.079914      676.41095    
   3819000   302.42677      0.024025475    18.139582      750.32916     -35.093238      715.23593    
   3820000   302.40935      0.024025475    10.450937      750.28593     -35.608545      714.67738    
   3821000   304.38561      0.024025475    12.834077      755.18909     -37.490499      717.69859    
   3822000   302.08618      0.024025475    20.012277      749.48414     -39.112699      710.37144    
   3823000   299.45783      0.024025475    17.95207       742.96314     -40.164971      702.79817    
   3824000   306.66425      0.024025475   -6.9443338      760.84245     -42.318943      718.52351    
   3825000   296.06054      0.024025475    12.552819      734.53436     -38.390644      696.14372    
   3826000   294.88969      0.024025475    22.821054      731.62944     -37.408564      694.22088    
   3827000   311.98058      0.024025475    14.337883      774.03242     -36.766214      737.26621    
   3828000   298.31905      0.024025475    9.2668717      740.13778     -36.679561      703.45822    
   3829000   293.2652       0.024025475    11.250824      727.59906     -36.501776      691.09728    
   3830000   294.13236      0.024025475    13.006103      729.75049     -34.310821      695.43967    
   3831000   291.13688      0.024025475    14.253798      722.31863     -37.103935      685.21469    
   3832000   314.62741      0.024025475    13.761813      780.59927     -37.441196      743.15808    
   3833000   305.84707      0.024025475    9.7115446      758.815       -37.169525      721.64548    
   3834000   292.00581      0.024025475    12.581377      724.47445     -36.339686      688.13477    
   3835000   295.82831      0.024025475    13.929728      733.95819     -43.581184      690.37701    
   3836000   308.21741      0.024025475    11.725845      764.69589     -40.539845      724.15604    
   3837000   300.46518      0.024025475    12.328932      745.46239     -44.073419      701.38897    
   3838000   297.01483      0.024025475    12.469807      736.90199     -38.369508      698.53248    
   3839000   297.57277      0.024025475    11.891616      738.28625     -34.551901      703.73435    
   3840000   308.86164      0.024025475    7.5803447      766.29424     -39.346901      726.94734    
   3841000   297.77666      0.024025475    13.652059      738.79211     -39.205097      699.58701    
   3842000   300.96735      0.024025475    14.856058      746.70829     -40.789064      705.91922    
   3843000   286.70244      0.024025475    11.082136      711.31666     -39.471258      671.84541    
   3844000   298.04159      0.024025475    9.4364092      739.44939     -40.035975      699.41342    
   3845000   298.94625      0.024025475    15.255687      741.69388     -44.506235      697.18764    
   3846000   300.98374      0.024025475    21.128711      746.74897     -46.353785      700.39518    
   3847000   292.74539      0.024025475    16.089706      726.30937     -42.558441      683.75093    
   3848000   290.0074       0.024025475    8.4672218      719.51634     -39.916106      679.60024    
   3849000   307.40666      0.024025475    24.955996      762.6844      -38.495988      724.18841    
   3850000   300.9068       0.024025475    31.315669      746.55807     -41.860621      704.69745    
   3851000   297.04212      0.024025475    17.458757      736.96968     -43.843465      693.12621    
   3852000   279.54588      0.024025475    7.8326399      693.56103     -44.022154      649.53887    
   3853000   307.46947      0.024025475    10.642749      762.84024     -37.530606      725.30963    
   3854000   308.48531      0.024025475    18.162757      765.36056     -38.489195      726.87137    
   3855000   298.77791      0.024025475    10.893691      741.27623     -40.175737      701.1005     
   3856000   302.11701      0.024025475    11.818632      749.56063     -42.082046      707.47858    
   3857000   302.29582      0.024025475    10.022279      750.00425     -39.704844      710.29941    
   3858000   308.06565      0.024025475    18.253149      764.31936     -39.709277      724.61008    
   3859000   291.77786      0.024025475    12.000634      723.90891     -37.481723      686.42719    
   3860000   304.39658      0.024025475    11.323031      755.2163      -34.728465      720.48783    
   3861000   295.21182      0.024025475    33.893023      732.42866     -39.85011       692.57855    
   3862000   284.53612      0.024025475    7.8245271      705.94196     -38.652927      667.28904    
   3863000   304.80664      0.024025475    1.5061716      756.23367     -37.059767      719.1739     
   3864000   309.43952      0.024025475    14.680985      767.72797     -42.612066      725.1159     
   3865000   304.84625      0.024025475    15.531109      756.33194     -40.629081      715.70286    
   3866000   288.59913      0.024025475    13.866917      716.0224      -45.480696      670.5417     
   3867000   300.30214      0.024025475    8.4254043      745.05788     -48.554316      696.50356    
   3868000   315.18047      0.024025475    14.402312      781.97144     -46.044418      735.92702    
   3869000   300.8633       0.024025475    15.379222      746.45014     -40.821297      705.62884    
   3870000   292.12032      0.024025475    12.377005      724.75856     -46.807676      677.95089    
   3871000   311.68363      0.024025475    14.155568      773.29568     -41.989531      731.30615    
   3872000   297.28521      0.024025475    14.835704      737.57279     -46.842691      690.7301     
   3873000   294.88259      0.024025475    4.3189924      731.61184     -43.76401       687.84783    
   3874000   303.6016       0.024025475    8.9883618      753.24395     -39.260242      713.98371    
   3875000   299.89892      0.024025475    19.867846      744.05749     -42.441619      701.61587    
   3876000   305.10469      0.024025475    17.760055      756.97314     -39.992358      716.98079    
   3877000   290.65243      0.024025475    13.452783      721.11669     -42.211151      678.90553    
   3878000   291.26492      0.024025475    10.353975      722.63629     -45.801327      676.83496    
   3879000   293.10216      0.024025475    8.0632551      727.19453     -44.172337      683.02219    
   3880000   310.59269      0.024025475    9.5269559      770.58901     -45.546304      725.04271    
   3881000   294.55537      0.024025475    21.981614      730.79999     -44.078458      686.72153    
   3882000   285.99577      0.024025475    10.736554      709.56338     -43.721653      665.84172    
   3883000   298.49829      0.024025475    8.0627986      740.58249     -42.152224      698.43027    
   3884000   310.93842      0.024025475    14.325838      771.44679     -37.627545      733.81925    
   3885000   304.51766      0.024025475    14.195633      755.51672     -42.396469      713.12025    
   3886000   290.85076      0.024025475    6.9477199      721.60876     -38.137765      683.471      
   3887000   303.15935      0.024025475    13.82805       752.14672     -41.134425      711.01229    
   3888000   303.47304      0.024025475    10.556366      752.92497     -46.163675      706.7613     
   3889000   296.55097      0.024025475    11.121         735.75112     -51.138727      684.61239    
   3890000   306.27457      0.024025475    16.978632      759.87566     -46.734259      713.1414     
   3891000   296.04029      0.024025475    9.2458115      734.48412     -48.833283      685.65084    
   3892000   285.03273      0.024025475    9.0841698      707.17406     -47.894055      659.28001    
   3893000   298.8231       0.024025475    13.897956      741.38835     -51.522146      689.8662     
   3894000   317.78792      0.024025475    17.051719      788.44059     -47.266831      741.17376    
   3895000   298.70495      0.024025475    12.183346      741.09521     -45.023228      696.07198    
   3896000   287.61753      0.024025475    13.102449      713.58702     -45.421815      668.16521    
   3897000   300.66869      0.024025475    13.188395      745.96731     -44.901471      701.06584    
   3898000   314.67617      0.024025475    11.570696      780.72025     -49.554048      731.1662     
   3899000   291.92169      0.024025475    10.688628      724.26576     -42.25894       682.00682    
   3900000   297.62565      0.024025475    12.79295       738.41744     -41.057891      697.35955    
   3901000   306.15494      0.024025475    14.438302      759.57883     -43.173828      716.40501    
   3902000   303.40307      0.024025475    12.993036      752.75139     -47.192264      705.55912    
   3903000   290.90791      0.024025475    11.924934      721.75054     -41.997269      679.75327    
   3904000   296.25965      0.024025475    16.627891      735.02836     -42.125804      692.90256    
   3905000   321.9638       0.024025475    17.20505       798.80107     -46.313641      752.48743    
   3906000   301.3981       0.024025475    11.903968      747.77699     -44.186556      703.59043    
   3907000   299.75115      0.024025475    12.654538      743.69086     -44.493382      699.19748    
   3908000   292.16871      0.024025475    13.018446      724.87862     -42.851519      682.0271     
   3909000   304.3274       0.024025475    11.040724      755.04467     -44.999244      710.04543    
   3910000   318.30377      0.024025475    13.81619       789.72042     -47.837452      741.88297    
   3911000   294.18526      0.024025475    16.433266      729.88173     -52.790373      677.09136    
   3912000   294.13948      0.024025475    11.647354      729.76816     -54.805327      674.96284    
   3913000   314.80547      0.024025475    13.32875       781.04105     -46.036823      735.00422    
   3914000   306.154        0.024025475    12.928122      759.57651     -46.182174      713.39433    
   3915000   302.03635      0.024025475    13.671237      749.36052     -49.153092      700.20742    
   3916000   283.6418       0.024025475    13.389369      703.72311     -37.965726      665.75739    
   3917000   296.86684      0.024025475    9.8926615      736.53482     -42.100242      694.43458    
   3918000   303.76048      0.024025475    12.653957      753.63814     -37.465432      716.1727     
   3919000   298.48806      0.024025475    13.574716      740.55711     -35.207022      705.35009    
   3920000   289.89067      0.024025475    11.088878      719.22673     -39.058798      680.16794    
   3921000   299.94632      0.024025475    10.460187      744.17509     -40.676583      703.49851    
   3922000   302.17262      0.024025475    12.211636      749.69861     -39.301903      710.39671    
   3923000   303.53511      0.024025475    1.1556459      753.07897     -40.922648      712.15632    
   3924000   312.90309      0.024025475    16.803573      776.3212      -44.79693       731.52427    
   3925000   285.57179      0.024025475    14.674124      708.51149     -39.456185      669.05531    
   3926000   278.30254      0.024025475   -0.65686951     690.47628     -43.863354      646.61293    
   3927000   301.55429      0.024025475    6.8369735      748.16451     -41.852897      706.31162    
   3928000   313.73593      0.024025475    26.031527      778.38749     -45.970106      732.41738    
   3929000   295.31891      0.024025475    16.672942      732.69437     -45.622927      687.07144    
   3930000   296.55462      0.024025475    6.1724674      735.76019     -44.086665      691.67353    
   3931000   318.67297      0.024025475    7.7182227      790.63642     -45.5787        745.05772    
   3932000   292.2036       0.024025475    17.327681      724.96518     -43.035617      681.92956    
   3933000   288.69329      0.024025475    8.9601425      716.25601     -40.623811      675.6322     
   3934000   308.04275      0.024025475    6.2916661      764.26255     -41.032433      723.23012    
   3935000   304.63774      0.024025475    2.1839437      755.81463     -45.11725       710.69738    
   3936000   302.53062      0.024025475   -2.1856925      750.5868      -44.838358      705.74844    
   3937000   308.98347      0.024025475    9.5642523      766.59651     -41.5696        725.02691    
   3938000   301.08997      0.024025475    16.084925      747.01252     -40.440837      706.57169    
   3939000   293.57707      0.024025475    13.909534      728.3728      -41.882677      686.49012    
   3940000   281.44887      0.024025475    11.702688      698.28239     -44.075948      654.20645    
   3941000   305.89101      0.024025475    11.581976      758.92402     -40.089892      718.83413    
   3942000   310.52456      0.024025475    12.557464      770.42        -43.550191      726.8698     
   3943000   294.71483      0.024025475    13.454489      731.19562     -47.459643      683.73598    
   3944000   292.0228       0.024025475    12.524035      724.51661     -45.617741      678.89887    
   3945000   301.35803      0.024025475    13.450239      747.67757     -43.644869      704.0327     
   3946000   295.45567      0.024025475    9.5308326      733.03366     -40.327814      692.70584    
   3947000   297.18754      0.024025475    10.975501      737.33047     -39.265478      698.06499    
   3948000   285.8991       0.024025475    14.603851      709.32355     -37.607357      671.7162     
   3949000   306.05897      0.024025475    12.845388      759.34075     -44.048518      715.29223    
   3950000   296.6517       0.024025475    12.15239       736.00105     -43.132879      692.86817    
   3951000   288.19397      0.024025475    11.374538      715.01719     -47.255082      667.76211    
   3952000   314.26539      0.024025475    14.57249       779.7011      -41.312531      738.38856    
   3953000   293.72404      0.024025475    17.906441      728.73743     -40.494117      688.24331    
   3954000   296.9214       0.024025475    11.526357      736.67017     -44.327145      692.34303    
   3955000   306.61826      0.024025475    11.211461      760.72835     -44.76776       715.96059    
   3956000   308.4283       0.024025475    13.401565      765.21911     -41.132515      724.08659    
   3957000   296.14414      0.024025475    13.006045      734.74177     -42.025205      692.71657    
   3958000   287.67884      0.024025475    13.075767      713.73914     -40.950847      672.78829    
   3959000   312.56191      0.024025475    13.254598      775.47471     -38.734172      736.74054    
   3960000   300.85632      0.024025475    10.090324      746.43282     -37.429194      709.00363    
   3961000   295.87784      0.024025475    17.555645      734.08107     -37.370724      696.71035    
   3962000   301.42092      0.024025475    15.567306      747.8336      -38.703117      709.13049    
   3963000   316.97391      0.024025475    8.9373652      786.42101     -35.589759      750.83125    
   3964000   292.17771      0.024025475   -6.5713633      724.90095     -34.504248      690.3967     
   3965000   301.71484      0.024025475    16.123106      748.56284     -36.258099      712.30474    
   3966000   308.58764      0.024025475    19.555641      765.61445     -34.47455       731.1399     
   3967000   303.39808      0.024025475    11.075255      752.73899     -44.07164       708.66735    
   3968000   290.4916       0.024025475    12.245257      720.71768     -41.918049      678.79963    
   3969000   291.34316      0.024025475    16.246326      722.83042     -44.467337      678.36308    
   3970000   297.24687      0.024025475    12.688578      737.47767     -44.214973      693.2627     
   3971000   304.60429      0.024025475    16.085205      755.73164     -39.832611      715.89902    
   3972000   291.43569      0.024025475    11.162427      723.05997     -33.813016      689.24695    
   3973000   296.352        0.024025475    9.3247404      735.25749     -41.952224      693.30527    
   3974000   299.76463      0.024025475    13.219348      743.7243      -40.451436      703.27287    
   3975000   314.83412      0.024025475    16.129555      781.11214     -38.64297       742.46917    
   3976000   293.98602      0.024025475    11.411981      729.38741     -35.297444      694.08997    
   3977000   295.51745      0.024025475    11.738729      733.18695     -35.263928      697.92302    
   3978000   289.30091      0.024025475    15.868665      717.76354     -38.79747       678.96607    
   3979000   314.4701       0.024025475    15.887998      780.20898     -45.667767      734.54121    
   3980000   313.63336      0.024025475    16.356156      778.133       -41.422385      736.71062    
   3981000   295.33044      0.024025475    5.6323557      732.72297     -46.132293      686.59067    
   3982000   298.06538      0.024025475    18.067493      739.50842     -38.295387      701.21303    
   3983000   309.78883      0.024025475    21.687146      768.59464     -37.678691      730.91595    
   3984000   302.364        0.024025475    14.848099      750.17341     -40.184243      709.98917    
   3985000   284.53036      0.024025475    5.5784812      705.92767     -35.672049      670.25562    
   3986000   296.26128      0.024025475    6.2562582      735.0324      -39.442535      695.58987    
   3987000   289.97457      0.024025475    12.667014      719.43491     -40.669479      678.76543    
   3988000   310.76401      0.024025475    16.065995      771.01408     -36.304913      734.70916    
   3989000   297.89489      0.024025475    7.9447548      739.08543     -35.335113      703.75032    
   3990000   291.5792       0.024025475    16.619254      723.41604     -32.30655       691.10949    
   3991000   296.33997      0.024025475    15.036995      735.22764     -39.199163      696.02848    
   3992000   301.69523      0.024025475    8.9382309      748.51419     -32.924894      715.58929    
   3993000   310.81484      0.024025475    12.059881      771.14019     -32.573285      738.56691    
   3994000   298.05457      0.024025475    12.443414      739.48161     -34.338929      705.14268    
   3995000   292.09015      0.024025475    12.100105      724.68372     -38.342898      686.34082    
   3996000   299.71433      0.024025475    10.705867      743.59951     -40.72582       702.87369    
   3997000   301.48755      0.024025475    12.630427      747.99893     -36.519591      711.47934    
   3998000   295.22286      0.024025475    11.673675      732.45607     -46.089826      686.36624    
   3999000   311.36374      0.024025475    14.053575      772.50201     -40.227512      732.2745     
   4000000   314.42315      0.024025475    10.589093      780.09251     -42.041         738.05151    
Loop time of 5330.52 on 1 procs for 4000000 steps with 1500 atoms

Performance: 16.209 ns/day, 1.481 hours/ns, 750.395 timesteps/s, 1.126 Matom-step/s
100.0% CPU use with 1 MPI tasks x 1 OpenMP threads

MPI task timing breakdown:
Section |  min time  |  avg time  |  max time  |%varavg| %total
---------------------------------------------------------------
Pair    | 554.85     | 554.85     | 554.85     |   0.0 | 10.41
Bond    | 104.18     | 104.18     | 104.18     |   0.0 |  1.95
Kspace  | 4086.1     | 4086.1     | 4086.1     |   0.0 | 76.66
Neigh   | 0.031745   | 0.031745   | 0.031745   |   0.0 |  0.00
Comm    | 23.779     | 23.779     | 23.779     |   0.0 |  0.45
Output  | 0.1041     | 0.1041     | 0.1041     |   0.0 |  0.00
Modify  | 547.05     | 547.05     | 547.05     |   0.0 | 10.26
Other   |            | 14.38      |            |       |  0.27

Nlocal:           1500 ave        1500 max        1500 min
Histogram: 1 0 0 0 0 0 0 0 0 0
Nghost:           1382 ave        1382 max        1382 min
Histogram: 1 0 0 0 0 0 0 0 0 0
Neighs:              0 ave           0 max           0 min
Histogram: 1 0 0 0 0 0 0 0 0 0

Total # of neighbors = 0
Ave neighs/atom = 0
Ave special neighs/atom = 2
Neighbor list builds = 15937
Dangerous builds = 0
write_data	last_conf.data pair ij
System init for write_data ...
PPPM initialization ...
  using 12-bit tables for long-range coulomb (src/kspace.cpp:342)
  G vector (1/distance) = 0.1676322
  grid = 25 25 25
  stencil order = 5
  estimated absolute RMS force accuracy = 0.036473453
  estimated relative force accuracy = 0.00010983872
  using double precision FFTW3
  3d grid and FFT values/proc = 27000 15625
Generated 1 of 1 mixed pair_coeff terms from arithmetic mixing rule
Total wall time: 1:28:50
