LAMMPS (29 Aug 2024 - Update 1)
  using 1 OpenMP thread(s) per MPI task
package gpu 1 gpuID 0
# GCMC for CO2 molecular fluid, rigid/small/nvt dynamics
# Rigid CO2 TraPPE model
# [Potoff and J.I. Siepmann, Vapor-liquid equilibria of
# mixtures containing alkanes, carbon dioxide and
# nitrogen AIChE J., 47,1676-1682 (2001)].

# global model settings

units           real
atom_style      full
boundary        p p p
pair_style      lj/cut/coul/long  12
pair_modify     mix arithmetic shift yes
kspace_style    pppm 1.0e-4
bond_style      harmonic
angle_style     harmonic
neigh_modify    one 4000

# box, start molecules on simple cubic lattice
region          mbox block 0 ${lbox} 0 ${lbox} 0 ${lbox} units box
region          mbox block 0 216 0 ${lbox} 0 ${lbox} units box
region          mbox block 0 216 0 216 0 ${lbox} units box
region          mbox block 0 216 0 216 0 216 units box
create_box      2 mbox                                       bond/types 1                                angle/types 1                               extra/bond/per/atom 2                       extra/angle/per/atom 1                      extra/special/per/atom 2
Created orthogonal box = (0 0 0) to (216 216 216)
  1 by 1 by 1 MPI processor grid
molecule        co2mol ../CO2.txt
Read molecule template co2mol:
# CO2 molecule file. TraPPE model.
  1 molecules
  0 fragments
  3 atoms with max type 2
  2 bonds with max type 1
  1 angles with max type 1
  0 dihedrals with max type 0
  0 impropers with max type 0
create_atoms   	0 random ${nmols} 34578 mbox mol co2mol 464563 overlap 1.2
create_atoms   	0 random 500 34578 mbox mol co2mol 464563 overlap 1.2
Created 1500 atoms
  using lattice units in orthogonal box = (0 0 0) to (216 216 216)
  create_atoms CPU = 0.013 seconds

# rigid CO2 TraPPE model

pair_coeff      1   1  0.053649   2.800
pair_coeff      2   2  0.156973   3.050
bond_coeff      1       0       1.16
angle_coeff     1       0       180

# masses

mass 1 12.0107
mass 2 15.9994

write_data init_conf.data  pair ij
System init for write_data ...
PPPM initialization ...
  using 12-bit tables for long-range coulomb (src/kspace.cpp:342)
  G vector (1/distance) = 0.14624004
  grid = 36 36 36
  stencil order = 5
  estimated absolute RMS force accuracy = 0.037261173
  estimated relative force accuracy = 0.00011221091
  using double precision FFTW3
  3d grid and FFT values/proc = 68921 46656
Generated 1 of 1 mixed pair_coeff terms from arithmetic mixing rule

# MD settings

group           co2 type 1 2
1500 atoms in group co2
velocity       	all create 300 54654
timestep        0.25

# rigid constraints with thermostat
fix             myrigidnvt co2 rigid/nvt molecule temp 300 300 $(100*dt)
fix             myrigidnvt co2 rigid/nvt molecule temp 300 300 25
  500 rigid bodies with 1500 atoms

thermo 1000
thermo_style custom step temp density press ke pe etotal


variable    mvol equal vol
variable    mden equal density
variable	mtmp equal temp
variable    mpre equal press

fix mydat all ave/time 1 4000 4000 v_mtmp v_mden v_mpre file statistics.dat ## every 1ps

run 4000000 ## 1ns

CITE-CITE-CITE-CITE-CITE-CITE-CITE-CITE-CITE-CITE-CITE-CITE-CITE

Your simulation uses code contributions which should be cited:

- GPU package (short-range, long-range and three-body potentials): doi:10.1016/j.cpc.2010.12.021, doi:10.1016/j.cpc.2011.10.012, doi:10.1016/j.cpc.2013.08.002, doi:10.1016/j.commatsci.2014.10.068, doi:10.1016/j.cpc.2016.10.020, doi:10.3233/APC200086

@Article{Brown11,
 author = {W. M. Brown and P. Wang and S. J. Plimpton and A. N. Tharrington},
 title = {Implementing Molecular Dynamics on Hybrid High Performance Computers---Short Range Forces},
 journal = {Comput.\ Phys.\ Commun.},
 year =    2011,
 volume =  182,
 pages =   {898--911},
 doi =     {10.1016/j.cpc.2010.12.021}
}

@Article{Brown12,
 author = {W. M. Brown and A. Kohlmeyer and S. J. Plimpton and A. N. Tharrington},
 title = {Implementing Molecular Dynamics on Hybrid High Performance Computers - Particle-Particle Particle-Mesh},
 journal = {Comput.\ Phys.\ Commun.},
 year =    2012,
 volume =  183,
 doi =     {10.1016/j.cpc.2011.10.012},
 pages =   {449--459}
}

@Article{Brown13,
 author = {W. M. Brown and Y. Masako},
 title = {Implementing Molecular Dynamics on Hybrid High Performance Computers---Three-Body Potentials},
 journal = {Comput.\ Phys.\ Commun.},
 year =    2013,
 volume =  184,
 pages =   {2785--2793},
 doi =     {10.1016/j.cpc.2013.08.002},
}

@Article{Trung15,
 author = {T. D. Nguyen and S. J. Plimpton},
 title = {Accelerating Dissipative Particle Dynamics Simulations for Soft Matter Systems},
 journal = {Comput.\ Mater.\ Sci.},
 year =    2015,
 doi =     {10.1016/j.commatsci.2014.10.068},
 volume =  100,
 pages =   {173--180}
}

@Article{Trung17,
 author = {T. D. Nguyen},
 title = {{GPU}-Accelerated {T}ersoff Potentials for Massively Parallel
    Molecular Dynamics Simulations},
 journal = {Comput.\ Phys.\ Commun.},
 year =    2017,
 doi =     {10.1016/j.cpc.2016.10.020},
 volume =  212,
 pages =   {113--122}
}

@inproceedings{Nikolskiy19,
 author = {V. Nikolskiy and V. Stegailov},
 title = {{GPU} Acceleration of Four-Site Water Models in {LAMMPS}},
 booktitle = {Proceedings of the International Conference on Parallel
    Computing (ParCo 2019), Prague, Czech Republic},
 doi =     {10.3233/APC200086},
 year =    2019
}

CITE-CITE-CITE-CITE-CITE-CITE-CITE-CITE-CITE-CITE-CITE-CITE-CITE

PPPM initialization ...
  using 12-bit tables for long-range coulomb (src/kspace.cpp:342)
  G vector (1/distance) = 0.14624004
  grid = 36 36 36
  stencil order = 5
  estimated absolute RMS force accuracy = 0.037261173
  estimated relative force accuracy = 0.00011221091
  using double precision FFTW3
  3d grid and FFT values/proc = 68921 46656
Generated 1 of 1 mixed pair_coeff terms from arithmetic mixing rule
Per MPI rank memory allocation (min/avg/max) = 14 | 14 | 14 Mbytes
   Step          Temp         Density         Press          KinEng         PotEng         TotEng    
         0   306.91746      0.0036258033   22.314447      761.47069      1167.3129      1928.7836    
      1000   293.86867      0.0036258033   0.2423047      729.09627     -3.0563968      726.03988    
      2000   296.73031      0.0036258033   2.2358577      736.19607     -3.6326165      732.56345    
      3000   299.99552      0.0036258033   4.6865831      744.29716     -2.3961953      741.90097    
      4000   319.89242      0.0036258033  -2.2973479      793.6619      -3.5496388      790.11226    
      5000   290.28011      0.0036258033   0.64536342     720.19296     -4.144556       716.0484     
      6000   297.56424      0.0036258033   3.4773019      738.26507     -4.2211454      734.04393    
      7000   312.1322       0.0036258033  -2.0679689      774.40858     -5.8334004      768.57518    
      8000   303.0788       0.0036258033   1.4943638      751.94687     -8.2056867      743.74118    
      9000   298.94292      0.0036258033   3.9019403      741.68562     -7.649587       734.03603    
     10000   305.06414      0.0036258033   2.4395392      756.87254     -6.2469656      750.62557    
     11000   297.92416      0.0036258033   1.6969719      739.15806     -7.6445029      731.51356    
     12000   297.19448      0.0036258033   0.048464326    737.34771     -8.5191376      728.82857    
     13000   310.91231      0.0036258033   2.9104824      771.382       -8.7033913      762.67861    
     14000   316.61569      0.0036258033   2.0966541      785.53226     -8.4816708      777.05059    
     15000   297.65531      0.0036258033   0.95445085     738.49102     -8.2404262      730.25059    
     16000   288.36851      0.0036258033   3.000966       715.45021     -9.2937321      706.15648    
     17000   318.20773      0.0036258033   1.2987652      789.48215     -8.4879593      780.99419    
     18000   309.97973      0.0036258033   1.6878168      769.06826     -9.528972       759.53928    
     19000   286.68594      0.0036258033   1.8841112      711.27572     -8.6106024      702.66512    
     20000   309.8987       0.0036258033   2.1124352      768.86721     -7.8984141      760.9688     
     21000   303.24009      0.0036258033   2.2099355      752.34703     -8.8163732      743.53066    
     22000   293.14825      0.0036258033   2.0436132      727.30888     -8.0081679      719.30071    
     23000   288.21808      0.0036258033   2.0704787      715.077       -12.788094      702.28891    
     24000   311.98193      0.0036258033   2.9685819      774.03577     -14.686683      759.34908    
     25000   305.49723      0.0036258033   2.2127023      757.94705     -12.036271      745.91077    
     26000   299.45743      0.0036258033   2.0007924      742.96214     -11.765124      731.19702    
     27000   305.42725      0.0036258033   1.8343136      757.77344     -9.7449123      748.02852    
     28000   301.40875      0.0036258033   1.2629967      747.80341     -8.5128002      739.29061    
     29000   286.77349      0.0036258033   2.2389031      711.49293     -8.5786098      702.91432    
     30000   298.2713       0.0036258033   3.0542512      740.01931     -7.6151725      732.40413    
     31000   311.94953      0.0036258033   1.5470614      773.95538     -7.2603153      766.69507    
     32000   303.84436      0.0036258033   1.8132775      753.84624     -6.3840201      747.46222    
     33000   296.20599      0.0036258033   1.8364616      734.89522     -8.510381       726.38484    
     34000   295.42878      0.0036258033  -0.036099406    732.96694     -8.3548422      724.6121     
     35000   310.19909      0.0036258033  -0.099146165    769.61249     -8.6732693      760.93922    
     36000   319.51221      0.0036258033   0.40755377     792.71859     -8.6627798      784.05581    
     37000   305.04304      0.0036258033   2.8518744      756.82018     -10.467166      746.35302    
     38000   285.07183      0.0036258033   2.2802984      707.27106     -8.4599932      698.81107    
     39000   308.74711      0.0036258033   1.7093747      766.01009     -9.3498218      756.66027    
     40000   308.6131       0.0036258033   2.1281278      765.67761     -9.5953393      756.08227    
     41000   290.10752      0.0036258033   1.6264299      719.76475     -7.7190718      712.04568    
     42000   296.14564      0.0036258033   2.3783712      734.74551     -7.6203318      727.12518    
     43000   300.41831      0.0036258033   1.3600953      745.34612     -6.9902566      738.35586    
     44000   312.47068      0.0036258033   2.0223205      775.24836     -7.7049147      767.54345    
     45000   297.96187      0.0036258033   2.0953753      739.25162     -8.908064       730.34355    
     46000   283.92193      0.0036258033   2.3145712      704.41813     -3.9786443      700.43949    
     47000   302.2048       0.0036258033   1.6949089      749.77843     -8.7168255      741.06161    
     48000   318.25617      0.0036258033   2.0539999      789.60233     -8.8376035      780.76473    
     49000   287.73137      0.0036258033   0.97293538     713.86945     -8.7669101      705.10254    
     50000   296.48267      0.0036258033   2.5628898      735.58169     -9.4278928      726.15379    
     51000   311.53193      0.0036258033   3.1905927      772.91932     -10.218292      762.70102    
     52000   299.10264      0.0036258033   2.3888129      742.08189     -8.2751471      733.80674    
     53000   277.5577       0.0036258033   1.690931       688.62831     -11.523264      677.10504    
     54000   292.58243      0.0036258033   1.4011118      725.90507     -12.524428      713.38064    
     55000   300.71699      0.0036258033   1.4558708      746.08714     -12.105858      733.98128    
     56000   309.35514      0.0036258033   2.266213       767.51864     -11.923424      755.59522    
     57000   301.06485      0.0036258033   1.3660854      746.9502      -14.31611       732.63409    
     58000   307.99577      0.0036258033   2.516766       764.14601     -11.367715      752.77829    
     59000   284.78819      0.0036258033   2.9370976      706.56736     -13.323562      693.2438     
     60000   295.71572      0.0036258033   1.5140795      733.67884     -15.107197      718.57165    
     61000   317.42756      0.0036258033   2.0588479      787.54654     -18.735391      768.81115    
     62000   299.35785      0.0036258033   6.2238715      742.71508     -15.773466      726.94162    
     63000   292.95576      0.0036258033   2.3464145      726.83131     -14.6395        712.19181    
     64000   300.31406      0.0036258033  -0.89127735     745.08747     -15.216769      729.8707     
     65000   304.7518       0.0036258033   1.1915273      756.09761     -13.980938      742.11667    
     66000   305.61299      0.0036258033   5.3199962      758.23425     -10.743225      747.49103    
     67000   296.2187       0.0036258033   2.1717769      734.92677     -11.927019      722.99975    
     68000   293.02059      0.0036258033   0.76213233     726.99215     -12.103806      714.88835    
     69000   303.3904       0.0036258033  -0.009145869    752.71995     -12.633716      740.08623    
     70000   306.01554      0.0036258033   3.305601       759.23299     -13.61632       745.61667    
     71000   301.63327      0.0036258033   1.3343232      748.36046     -15.503883      732.85658    
     72000   302.47116      0.0036258033   4.3629622      750.43929     -12.419109      738.02018    
     73000   290.1988       0.0036258033   2.4355011      719.99122     -12.265327      707.72589    
     74000   303.18447      0.0036258033   1.4858011      752.20902     -12.044961      740.16406    
     75000   319.8893       0.0036258033   2.4178434      793.65418     -12.312185      781.34199    
     76000   289.38847      0.0036258033   4.3870352      717.98078     -11.965774      706.015      
     77000   294.39366      0.0036258033  -0.56973881     730.39879     -12.323848      718.07495    
     78000   310.79775      0.0036258033   1.8043856      771.09778     -12.428773      758.66901    
     79000   293.77962      0.0036258033   2.5553171      728.87533     -11.493515      717.38182    
     80000   288.80487      0.0036258033   2.4194954      716.53285     -6.8521829      709.68067    
     81000   305.11405      0.0036258033   1.5433324      756.99637     -10.031998      746.96438    
     82000   294.09295      0.0036258033   2.105045       729.65272     -7.4284211      722.2243     
     83000   303.27248      0.0036258033   2.6826237      752.42738     -7.973214       744.45417    
     84000   296.01568      0.0036258033   2.494763       734.42305     -8.3864331      726.03662    
     85000   303.31168      0.0036258033   0.87387802     752.52464     -8.7316427      743.793      
     86000   307.58546      0.0036258033   2.44135        763.128       -9.3115866      753.81641    
     87000   293.07594      0.0036258033   2.2032293      727.12949     -11.058454      716.07104    
     88000   296.53088      0.0036258033   1.7423457      735.70128     -10.858965      724.84232    
     89000   301.87723      0.0036258033   2.0363738      748.96574     -12.345547      736.62019    
     90000   299.70579      0.0036258033   2.25691        743.57832     -12.593878      730.98444    
     91000   299.27327      0.0036258033   0.52643159     742.50522     -11.40146       731.10376    
     92000   287.58904      0.0036258033   2.0754625      713.51634     -11.988254      701.52808    
     93000   304.48381      0.0036258033   2.742651       755.43273     -12.858533      742.5742     
     94000   311.73449      0.0036258033   0.33486883     773.42187     -12.38002       761.04185    
     95000   292.82847      0.0036258033   1.7164696      726.5155      -11.295871      715.21963    
     96000   291.2809       0.0036258033   2.7217929      722.67595     -12.773331      709.90262    
     97000   310.85417      0.0036258033   1.791586       771.23777     -10.96359       760.27418    
     98000   300.42737      0.0036258033  -0.27593973     745.3686      -11.774247      733.59435    
     99000   293.65459      0.0036258033   3.5271168      728.56514     -12.843689      715.72145    
    100000   296.14382      0.0036258033   2.6109254      734.74099     -12.445352      722.29564    
    101000   304.11292      0.0036258033  -0.88469081     754.51253     -12.007541      742.50499    
    102000   304.7081       0.0036258033  -0.060672729    755.9892      -13.887099      742.1021     
    103000   305.58227      0.0036258033   4.5048832      758.15803     -12.285761      745.87227    
    104000   306.20759      0.0036258033   0.76885147     759.70947     -14.187515      745.52196    
    105000   290.75837      0.0036258033   0.035714429    721.37953     -13.554974      707.82456    
    106000   300.42519      0.0036258033   3.136104       745.36317     -15.872985      729.49019    
    107000   313.00557      0.0036258033   2.8953924      776.57543     -16.660399      759.91504    
    108000   309.18806      0.0036258033   2.0318657      767.1041      -12.721076      754.38302    
    109000   300.47439      0.0036258033   1.8357987      745.48524     -13.503337      731.9819     
    110000   298.98889      0.0036258033   1.6270278      741.79968     -10.380198      731.41949    
    111000   303.1821       0.0036258033   2.2372048      752.20316     -9.6285291      742.57463    
    112000   314.25584      0.0036258033   3.8969919      779.67741     -12.321466      767.35594    
    113000   292.59253      0.0036258033   2.5188529      725.93013     -11.618582      714.31155    
    114000   298.14692      0.0036258033   1.6758803      739.71074     -8.3301031      731.38063    
    115000   312.24954      0.0036258033   0.75854579     774.69972     -8.7037088      765.99601    
    116000   312.68847      0.0036258033   4.5877958      775.78872     -10.952475      764.83624    
    117000   295.77656      0.0036258033   4.3677054      733.82981     -12.527289      721.30252    
    118000   286.84776      0.0036258033   4.3298633      711.6772      -12.401973      699.27523    
    119000   306.52702      0.0036258033   0.96514695     760.502       -13.367442      747.13456    
    120000   308.34367      0.0036258033   2.560312       765.00915     -15.895377      749.11377    
    121000   288.44243      0.0036258033   2.9617559      715.63362     -15.12562       700.508      
    122000   305.09809      0.0036258033   0.0082953899   756.95676     -15.190778      741.76599    
    123000   307.37858      0.0036258033   3.0648966      762.61472     -14.449028      748.16569    
    124000   293.04865      0.0036258033   2.8077674      727.06177     -13.720904      713.34086    
    125000   304.89512      0.0036258033   1.8697554      756.45319     -13.317778      743.13542    
    126000   299.56701      0.0036258033   1.9400508      743.23402     -14.387695      728.84633    
    127000   293.94881      0.0036258033   2.0731716      729.2951      -15.054153      714.24095    
    128000   307.16589      0.0036258033   0.82819367     762.08703     -14.945763      747.14127    
    129000   305.85801      0.0036258033   1.8523905      758.84215     -16.731436      742.11071    
    130000   289.73177      0.0036258033   2.0517175      718.8325      -15.927472      702.90503    
    131000   311.33316      0.0036258033   3.3411086      772.42615     -14.857241      757.56891    
    132000   299.85567      0.0036258033   0.81251371     743.95018     -14.590293      729.35989    
    133000   298.41867      0.0036258033   3.7849026      740.38495     -18.502414      721.88253    
    134000   312.47721      0.0036258033   3.2293942      775.26456     -16.106993      759.15757    
    135000   311.5488       0.0036258033   2.2079886      772.96117     -14.563811      758.39736    
    136000   296.1324       0.0036258033   0.88917856     734.71264     -14.625154      720.08749    
    137000   301.98966      0.0036258033   2.3450829      749.24468     -16.804793      732.43988    
    138000   305.52774      0.0036258033   2.1757347      758.02275     -17.898326      740.12442    
    139000   291.20938      0.0036258033   4.6032671      722.49851     -13.573451      708.92506    
    140000   284.37338      0.0036258033   3.7558994      705.53819     -12.579263      692.95893    
    141000   301.14252      0.0036258033   1.2599801      747.1429      -7.4827037      739.66019    
    142000   310.48267      0.0036258033   1.7413205      770.31606     -13.523957      756.7921     
    143000   291.81169      0.0036258033   3.1150936      723.99284     -15.447546      708.54529    
    144000   286.13806      0.0036258033  -1.1441859      709.91641     -15.693167      694.22324    
    145000   300.50236      0.0036258033   1.0339067      745.55464     -15.328734      730.22591    
    146000   314.15813      0.0036258033  -0.018246471    779.43497     -15.459301      763.97567    
    147000   303.69307      0.0036258033  -0.20920729     753.47088     -13.036285      740.43459    
    148000   302.965        0.0036258033   4.0642062      751.66452     -13.157133      738.50739    
    149000   297.65897      0.0036258033   2.0992877      738.50012     -13.797186      724.70293    
    150000   310.52461      0.0036258033  -0.067826331    770.42012     -13.685289      756.73483    
    151000   309.39355      0.0036258033   3.0112955      767.61392     -12.887836      754.72608    
    152000   287.73235      0.0036258033   2.2877678      713.87188     -12.85384       701.01804    
    153000   296.56464      0.0036258033   1.2580716      735.78505     -10.36613       725.41892    
    154000   317.54179      0.0036258033   2.0217384      787.82994     -8.3026784      779.52726    
    155000   304.39853      0.0036258033   3.7773464      755.22115     -10.8793        744.34185    
    156000   291.68787      0.0036258033   2.2796336      723.68564     -11.448954      712.23669    
    157000   291.85615      0.0036258033   1.3894798      724.10315     -10.654153      713.44899    
    158000   307.09473      0.0036258033   1.6515567      761.91049     -13.995162      747.91533    
    159000   313.54109      0.0036258033   2.1238339      777.90409     -11.239496      766.66459    
    160000   300.71985      0.0036258033   1.2128903      746.09423     -12.338886      733.75534    
    161000   293.3438       0.0036258033   1.7577631      727.79404     -10.004747      717.7893     
    162000   299.86224      0.0036258033   1.3851255      743.96648     -10.465947      733.50054    
    163000   305.48096      0.0036258033   2.5329792      757.90669     -8.5123429      749.39435    
    164000   296.51603      0.0036258033   2.0666822      735.66444     -8.3260242      727.33841    
    165000   294.07504      0.0036258033   1.2747578      729.60829     -8.0087906      721.5995     
    166000   296.95826      0.0036258033   1.5867065      736.76162     -11.24664       725.51498    
    167000   303.59483      0.0036258033   2.0069043      753.22714     -12.181616      741.04552    
    168000   312.75679      0.0036258033   1.9533761      775.95822     -10.284059      765.67416    
    169000   295.20414      0.0036258033   1.3473877      732.40962     -12.499058      719.91056    
    170000   294.85889      0.0036258033   2.5306833      731.55304     -12.534598      719.01845    
    171000   309.42993      0.0036258033   1.0886959      767.70418     -10.959819      756.74436    
    172000   302.49059      0.0036258033   1.9597949      750.4875      -13.399943      737.08755    
    173000   292.85459      0.0036258033   2.4497357      726.58032     -11.737978      714.84234    
    174000   291.59954      0.0036258033   1.8019981      723.46649     -12.635206      710.83128    
    175000   300.48668      0.0036258033   2.5561472      745.51574     -15.572529      729.94321    
    176000   312.78869      0.0036258033   2.1555007      776.03735     -16.650421      759.38693    
    177000   300.65536      0.0036258033   0.12958519     745.93423     -14.650666      731.28357    
    178000   286.15582      0.0036258033   2.7084887      709.96047     -11.562725      698.39774    
    179000   315.19996      0.0036258033   2.99683        782.01978     -11.27731       770.74247    
    180000   308.63927      0.0036258033   0.79189159     765.74254     -11.413988      754.32855    
    181000   297.23597      0.0036258033   1.1343886      737.45064     -12.265237      725.1854     
    182000   295.83894      0.0036258033   5.2790665      733.98456     -14.446715      719.53785    
    183000   306.27617      0.0036258033   1.9337442      759.87963     -14.000281      745.87935    
    184000   323.15562      0.0036258033  -0.57874388     801.75801     -12.071342      789.68666    
    185000   298.95475      0.0036258033   1.8682838      741.71498     -14.8755        726.83948    
    186000   288.52987      0.0036258033   4.2371053      715.85056     -14.590015      701.26055    
    187000   308.77236      0.0036258033   0.087674846    766.07273     -12.049148      754.02359    
    188000   287.84588      0.0036258033  -0.15030041     714.15356     -11.004467      703.1491     
    189000   294.16904      0.0036258033   4.1761148      729.8415      -9.4807877      720.36071    
    190000   299.08696      0.0036258033   2.4053267      742.043       -9.2090974      732.8339     
    191000   287.15462      0.0036258033  -2.9654763      712.43852     -10.261957      702.17656    
    192000   295.47582      0.0036258033   3.483477       733.08365     -7.752259       725.33139    
    193000   295.97404      0.0036258033  -1.5110773      734.31976     -12.522083      721.79768    
    194000   319.83621      0.0036258033  -0.89123638     793.52246     -14.192612      779.32985    
    195000   296.83378      0.0036258033   3.0936346      736.45278     -15.563532      720.88925    
    196000   293.56661      0.0036258033   6.2440498      728.34685     -14.436044      713.9108     
    197000   293.00232      0.0036258033   0.89966083     726.94683     -12.988425      713.9584     
    198000   303.34414      0.0036258033  -1.5832067      752.60516     -14.290729      738.31443    
    199000   320.49844      0.0036258033   2.8551619      795.16546     -13.541639      781.62382    
    200000   288.29798      0.0036258033   5.0309343      715.27523     -10.276905      704.99832    
    201000   281.02835      0.0036258033   1.531963       697.23909     -13.328017      683.91107    
    202000   309.23374      0.0036258033   1.1543579      767.21742     -13.741358      753.47607    
    203000   314.39683      0.0036258033   2.0302563      780.02721     -14.574776      765.45244    
    204000   294.83508      0.0036258033   2.1728323      731.49395     -13.376712      718.11724    
    205000   289.17014      0.0036258033   1.204891       717.43909     -14.823927      702.61516    
    206000   312.68288      0.0036258033  -2.3585723      775.77483     -12.878588      762.89625    
    207000   314.52372      0.0036258033   1.9125006      780.34201     -10.112701      770.22931    
    208000   289.92077      0.0036258033   3.1147749      719.30141     -11.344493      707.95692    
    209000   291.86122      0.0036258033   1.0564862      724.11573     -11.708697      712.40703    
    210000   307.42394      0.0036258033   0.62742294     762.72727     -9.6280147      753.09926    
    211000   318.60651      0.0036258033   2.9912364      790.47152     -11.690724      778.7808     
    212000   287.54596      0.0036258033   2.6593459      713.40945     -10.900771      702.50868    
    213000   295.45942      0.0036258033   1.4128612      733.04296     -11.294737      721.74822    
    214000   301.68066      0.0036258033   0.25249017     748.47803     -12.643612      735.83441    
    215000   299.6989       0.0036258033   2.1947027      743.56123     -13.128385      730.43285    
    216000   298.55093      0.0036258033   3.0888878      740.71309     -14.021396      726.6917     
    217000   300.61009      0.0036258033   1.4634511      745.82191     -14.1155        731.70642    
    218000   308.7709       0.0036258033   1.8941285      766.0691      -15.528117      750.54099    
    219000   296.67648      0.0036258033   2.1422454      736.06253     -15.903959      720.15857    
    220000   298.3074       0.0036258033   1.9243852      740.10887     -13.428439      726.68043    
    221000   299.79788      0.0036258033   2.1377553      743.8068      -17.115266      726.69153    
    222000   318.15648      0.0036258033   1.8938388      789.35501     -14.743439      774.61157    
    223000   299.51731      0.0036258033   1.524096       743.11071     -12.024304      731.0864     
    224000   295.08469      0.0036258033   2.1354805      732.11325     -12.324515      719.78874    
    225000   306.59781      0.0036258033   2.8460695      760.67761     -13.949924      746.72768    
    226000   302.51253      0.0036258033  -0.01989195     750.54192     -11.477056      739.06487    
    227000   285.69989      0.0036258033   0.97514849     708.8293      -11.45432       697.37498    
    228000   296.96848      0.0036258033   1.7934858      736.787       -12.257756      724.52924    
    229000   321.85887      0.0036258033   4.7486021      798.54074     -13.064438      785.4763     
    230000   298.47921      0.0036258033   1.1676478      740.53514     -11.044839      729.4903     
    231000   285.5342       0.0036258033   0.84153987     708.41822     -11.263667      697.15455    
    232000   301.20666      0.0036258033   2.8934855      747.30203     -11.21641       736.08562    
    233000   302.53268      0.0036258033  -1.3353041      750.59191     -10.598728      739.99318    
    234000   294.12992      0.0036258033  -0.88576227     729.74445     -11.542052      718.2024     
    235000   301.77925      0.0036258033   4.058881       748.72264     -11.938906      736.78373    
    236000   293.96055      0.0036258033   6.4937825      729.32424     -13.510727      715.81351    
    237000   303.37634      0.0036258033  -1.433143       752.68506     -14.811313      737.87375    
    238000   292.28356      0.0036258033   0.049764504    725.16358     -15.266085      709.89749    
    239000   304.26299      0.0036258033   3.6900059      754.88487     -14.989287      739.89558    
    240000   293.25072      0.0036258033  -2.43833        727.56313     -11.043024      716.5201     
    241000   299.86038      0.0036258033   0.30617181     743.96187     -11.59007       732.3718     
    242000   290.88677      0.0036258033   4.33758        721.6981      -15.055045      706.64306    
    243000   293.01265      0.0036258033   2.6214247      726.97246     -13.966173      713.00629    
    244000   304.04272      0.0036258033   2.7143195      754.33836     -13.325744      741.01262    
    245000   311.34111      0.0036258033  -1.2130415      772.44588     -12.599008      759.84687    
    246000   293.56244      0.0036258033   0.73877623     728.3365      -14.499597      713.83691    
    247000   293.92081      0.0036258033   4.0139375      729.22563     -15.017163      714.20846    
    248000   308.72176      0.0036258033   2.6520371      765.94721     -14.543803      751.4034     
    249000   318.57931      0.0036258033   0.56129644     790.40404     -11.723759      778.68028    
    250000   291.11068      0.0036258033  -1.5143655      722.25363     -13.355571      708.89806    
    251000   289.1663       0.0036258033   0.93361148     717.42955     -12.398682      705.03087    
    252000   303.79662      0.0036258033   3.6679313      753.7278      -14.447362      739.28044    
    253000   316.80896      0.0036258033   0.72140439     786.01175     -14.733046      771.27871    
    254000   283.87642      0.0036258033   1.9105745      704.30522     -13.769009      690.53621    
    255000   294.52547      0.0036258033   1.6682397      730.7258      -15.821402      714.9044     
    256000   307.77718      0.0036258033   1.9971611      763.60366     -14.822431      748.78123    
    257000   282.71169      0.0036258033   1.7313822      701.4155      -17.247875      684.16762    
    258000   285.3763       0.0036258033   2.5376245      708.02646     -15.440909      692.58555    
    259000   307.74438      0.0036258033   2.5479359      763.52229     -17.641965      745.88033    
    260000   305.44259      0.0036258033   2.1822475      757.81148     -15.921251      741.89023    
    261000   298.92714      0.0036258033   1.633014       741.64648     -15.206623      726.43986    
    262000   294.03977      0.0036258033   1.2120315      729.52078     -13.522532      715.99825    
    263000   308.80295      0.0036258033   4.1777645      766.14864     -13.196368      752.95227    
    264000   312.67352      0.0036258033   1.7405176      775.75162     -15.427544      760.32407    
    265000   281.89868      0.0036258033   1.8203771      699.39841     -15.426252      683.97215    
    266000   292.82916      0.0036258033   1.7899684      726.51723     -18.785016      707.73221    
    267000   311.96246      0.0036258033   2.0066862      773.98746     -17.96195       756.02551    
    268000   302.31185      0.0036258033   2.110677       750.04403     -15.577936      734.46609    
    269000   295.24493      0.0036258033   2.1792443      732.51082     -16.730422      715.7804     
    270000   297.70092      0.0036258033   2.1404158      738.60419     -14.456429      724.14776    
    271000   295.81165      0.0036258033   0.15591505     733.91687     -13.972046      719.94482    
    272000   302.3555       0.0036258033  -0.40266969     750.15232     -13.418677      736.73364    
    273000   299.7082       0.0036258033   2.6747304      743.58431     -14.03086       729.55345    
    274000   315.22507      0.0036258033   2.5212936      782.08209     -14.065584      768.0165     
    275000   296.62507      0.0036258033   0.94777048     735.93498     -19.41814       716.51684    
    276000   292.74765      0.0036258033   0.80775644     726.31498     -19.852681      706.4623     
    277000   307.9283       0.0036258033   1.7945672      763.97861     -17.12517       746.85344    
    278000   310.57704      0.0036258033   2.6892227      770.55019     -19.636667      750.91352    
    279000   304.84042      0.0036258033   4.6913157      756.3175      -18.226923      738.09057    
    280000   286.47472      0.0036258033   2.4295544      710.75167     -17.655758      693.09592    
    281000   285.15724      0.0036258033   0.081286924    707.48298     -16.775757      690.70723    
    282000   308.79854      0.0036258033   2.0867678      766.1377      -16.573061      749.56464    
    283000   303.70844      0.0036258033   2.0808149      753.50902     -20.837331      732.67169    
    284000   296.4289       0.0036258033   2.0613622      735.44827     -18.722794      716.72548    
    285000   298.29129      0.0036258033   0.048317063    740.06892     -18.94804       721.12088    
    286000   291.76163      0.0036258033   2.6688006      723.86864     -24.461206      699.40744    
    287000   301.71214      0.0036258033   3.5800446      748.55614     -21.720378      726.83576    
    288000   301.16772      0.0036258033   0.65764889     747.20541     -19.765645      727.43976    
    289000   300.86055      0.0036258033   1.3541656      746.44332     -16.340253      730.10306    
    290000   301.99666      0.0036258033   3.6078433      749.26203     -15.984151      733.27788    
    291000   297.72821      0.0036258033   1.6831034      738.6719      -16.0846        722.5873     
    292000   302.13528      0.0036258033   1.3544112      749.60595     -17.623826      731.98213    
    293000   296.81379      0.0036258033  -0.23148686     736.40319     -18.528632      717.87456    
    294000   305.39879      0.0036258033   2.9193772      757.70281     -20.201695      737.50111    
    295000   300.39563      0.0036258033   2.8495141      745.28984     -19.687462      725.60238    
    296000   290.40042      0.0036258033   0.85561118     720.49144     -18.893727      701.59771    
    297000   306.16865      0.0036258033   1.459187       759.61285     -20.851199      738.76166    
    298000   297.1421       0.0036258033   2.3352918      737.21774     -19.002737      718.215      
    299000   302.2887       0.0036258033   1.9465126      749.98659     -16.208045      733.77855    
    300000   299.97419      0.0036258033   2.0279535      744.24424     -16.545631      727.69861    
    301000   298.59373      0.0036258033   1.6241829      740.81928     -16.311073      724.5082     
    302000   295.38093      0.0036258033   1.5573696      732.84822     -16.651363      716.19685    
    303000   304.33522      0.0036258033   2.2607932      755.06407     -16.515833      738.54824    
    304000   307.22978      0.0036258033   2.5094049      762.24556     -18.031088      744.21447    
    305000   289.24661      0.0036258033   1.8940398      717.62882     -16.997686      700.63113    
    306000   307.51946      0.0036258033   2.3778936      762.96426     -15.283966      747.68029    
    307000   312.1815       0.0036258033   0.52483231     774.53092     -16.203759      758.32716    
    308000   288.97607      0.0036258033   1.9483777      716.9576      -18.02735       698.93025    
    309000   300.3042       0.0036258033   2.4942363      745.06301     -17.971705      727.0913     
    310000   309.38279      0.0036258033   2.0340523      767.58722     -14.501744      753.08548    
    311000   301.25325      0.0036258033   0.30593114     747.41762     -15.976504      731.44112    
    312000   295.09656      0.0036258033   1.6948231      732.14271     -16.609579      715.53313    
    313000   288.87203      0.0036258033   3.1133802      716.69946     -16.15874       700.54072    
    314000   305.00288      0.0036258033  -0.087664759    756.72055     -17.270423      739.45013    
    315000   307.4826       0.0036258033   2.7805899      762.8728      -17.676972      745.19583    
    316000   316.18204      0.0036258033   1.0562914      784.45635     -16.460136      767.99621    
    317000   296.56356      0.0036258033   0.34951556     735.78237     -18.919652      716.86271    
    318000   296.52165      0.0036258033   2.2581968      735.67839     -15.543407      720.13499    
    319000   295.46728      0.0036258033   2.5603154      733.06248     -17.192158      715.87032    
    320000   297.27395      0.0036258033   7.2624081      737.54486     -20.0099        717.53497    
    321000   294.72724      0.0036258033   5.5150819      731.22642     -17.628561      713.59786    
    322000   307.98764      0.0036258033   0.86954862     764.12582     -17.365134      746.76069    
    323000   296.70998      0.0036258033  -0.98214408     736.14564     -16.101855      720.04379    
    324000   305.36642      0.0036258033   5.63201        757.6225      -15.172461      742.45004    
    325000   306.80355      0.0036258033  -0.89249127     761.18807     -16.544878      744.64319    
    326000   305.47186      0.0036258033   0.43129062     757.88411     -15.742053      742.14206    
    327000   299.13119      0.0036258033   2.5038394      742.15274     -15.412093      726.74065    
    328000   292.32126      0.0036258033   5.8676518      725.25711     -15.72147       709.53564    
    329000   318.80642      0.0036258033   0.79947598     790.96752     -18.476807      772.49071    
    330000   298.93393      0.0036258033   0.51443167     741.66332     -19.473996      722.18932    
    331000   289.62052      0.0036258033   5.7830964      718.55648     -21.67318       696.8833     
    332000   303.16692      0.0036258033   3.8289899      752.16548     -21.2563        730.90918    
    333000   311.81408      0.0036258033   1.5454978      773.61933     -19.085538      754.5338     
    334000   305.20579      0.0036258033   0.54317105     757.22398     -18.003715      739.22026    
    335000   298.99794      0.0036258033   2.162774       741.82213     -18.946385      722.87575    
    336000   291.55667      0.0036258033   1.8197667      723.36012     -20.017853      703.34227    
    337000   307.72113      0.0036258033   3.1300858      763.46462     -20.074741      743.38987    
    338000   304.42643      0.0036258033   2.3281673      755.29036     -16.745431      738.54493    
    339000   289.52835      0.0036258033   1.5591747      718.32782     -17.159598      701.16822    
    340000   293.68948      0.0036258033   1.1144487      728.65169     -17.860224      710.79147    
    341000   312.58696      0.0036258033   1.2729092      775.53686     -14.601629      760.93523    
    342000   299.79538      0.0036258033   2.0160788      743.80059     -16.475708      727.32488    
    343000   300.746        0.0036258033   2.6215251      746.15911     -20.937413      725.22169    
    344000   289.62019      0.0036258033   1.9876627      718.55568     -19.469794      699.08589    
    345000   296.3817       0.0036258033   2.0064758      735.33116     -21.012981      714.31818    
    346000   304.75303      0.0036258033   1.704527       756.10067     -22.549351      733.55132    
    347000   296.10007      0.0036258033   1.5767984      734.63244     -21.12569       713.50675    
    348000   308.59749      0.0036258033   2.2319986      765.63887     -23.72753       741.91134    
    349000   286.71701      0.0036258033   2.2648477      711.35279     -21.891087      689.46171    
    350000   304.80213      0.0036258033   1.8494962      756.22249     -20.015955      736.20653    
    351000   298.88029      0.0036258033   1.88552        741.53023     -20.418734      721.1115     
    352000   299.04002      0.0036258033   1.9036477      741.92652     -17.813897      724.11262    
    353000   305.84467      0.0036258033   2.1488448      758.80905     -20.047634      738.76141    
    354000   298.53708      0.0036258033   1.9844388      740.67872     -19.184351      721.49437    
    355000   298.15689      0.0036258033   2.4211752      739.73547     -17.858279      721.87719    
    356000   317.5055       0.0036258033   2.0578622      787.7399      -16.218483      771.52141    
    357000   298.2301       0.0036258033   2.7138832      739.91711     -16.684017      723.23309    
    358000   293.63444      0.0036258033   1.8241643      728.51514     -17.65367       710.86147    
    359000   314.02446      0.0036258033   2.1393021      779.10334     -17.4188        761.68454    
    360000   307.29381      0.0036258033   1.677126       762.40441     -16.80581       745.5986     
    361000   279.20169      0.0036258033   1.8959358      692.70709     -14.177189      678.5299     
    362000   291.84887      0.0036258033   2.4721506      724.0851      -14.056149      710.02895    
    363000   308.97092      0.0036258033   1.563442       766.56536     -15.012005      751.55336    
    364000   310.23019      0.0036258033   2.1244131      769.68966     -14.230123      755.45953    
    365000   291.69393      0.0036258033   2.5559305      723.70069     -10.69582       713.00487    
    366000   292.82063      0.0036258033   1.7614405      726.49604     -10.209882      716.28616    
    367000   310.79135      0.0036258033   2.0431816      771.0819      -12.947574      758.13432    
    368000   303.12809      0.0036258033   2.2112497      752.06916     -10.038612      742.03054    
    369000   283.56957      0.0036258033   2.0335619      703.54393     -14.584454      688.95947    
    370000   294.81613      0.0036258033   1.860302       731.44694     -15.943719      715.50322    
    371000   304.27102      0.0036258033   2.4123741      754.90478     -13.905907      740.99887    
    372000   307.31778      0.0036258033   1.7420841      762.46388     -11.19705       751.26683    
    373000   306.27898      0.0036258033   1.8507293      759.88658     -12.109005      747.77758    
    374000   291.97414      0.0036258033   2.3933831      724.39589     -13.424401      710.97149    
    375000   294.02065      0.0036258033   1.9841763      729.47333     -15.181396      714.29193    
    376000   301.50117      0.0036258033   2.0593563      748.03271     -13.213705      734.819      
    377000   304.93474      0.0036258033   1.9807505      756.55151     -15.595309      740.9562     
    378000   292.57138      0.0036258033   1.9586182      725.87766     -15.629295      710.24836    
    379000   302.79386      0.0036258033   2.9415007      751.2399      -13.047199      738.1927     
    380000   308.95279      0.0036258033   2.0270033      766.52038     -11.153378      755.367      
    381000   286.88159      0.0036258033   1.2615091      711.76114     -13.447396      698.31374    
    382000   293.67329      0.0036258033   1.6345477      728.61154     -15.11337       713.49817    
    383000   320.85441      0.0036258033   1.9512104      796.04862     -14.26692       781.7817     
    384000   303.47359      0.0036258033   2.4293202      752.92633     -13.012445      739.91389    
    385000   294.40488      0.0036258033   2.0456742      730.42661     -11.239872      719.18674    
    386000   306.34745      0.0036258033   1.4213396      760.05646     -13.620027      746.43644    
    387000   299.21605      0.0036258033   0.76681636     742.36327     -15.354936      727.00833    
    388000   305.58827      0.0036258033   2.7467867      758.17291     -15.150992      743.02192    
    389000   291.54205      0.0036258033   2.4792727      723.32386     -15.906622      707.41724    
    390000   287.41337      0.0036258033   1.927188       713.0805      -14.01782       699.06268    
    391000   305.47762      0.0036258033   2.0007101      757.8984      -12.361748      745.53665    
    392000   294.70317      0.0036258033   4.3553006      731.16669     -13.727776      717.43892    
    393000   298.40533      0.0036258033   2.0826896      740.35184     -16.920889      723.43095    
    394000   313.03009      0.0036258033   1.6675993      776.63628     -14.90076       761.73552    
    395000   303.49557      0.0036258033   1.6766874      752.98089     -14.355055      738.62583    
    396000   303.02578      0.0036258033   2.2218541      751.81532     -14.340554      737.47476    
    397000   287.04656      0.0036258033   1.7877095      712.17042     -13.146893      699.02353    
    398000   312.74471      0.0036258033   2.1988081      775.92826     -13.199694      762.72857    
    399000   304.23814      0.0036258033   0.93039184     754.82322     -13.693508      741.12971    
    400000   287.34339      0.0036258033   1.744082       712.90687     -14.397419      698.50946    
    401000   305.80171      0.0036258033   0.6777054      758.70247     -16.501117      742.20135    
    402000   303.72174      0.0036258033   2.7703776      753.542       -14.375179      739.16683    
    403000   284.89836      0.0036258033   1.8042229      706.84067     -12.555369      694.28531    
    404000   307.28569      0.0036258033  -0.46732084     762.38427     -12.945343      749.43893    
    405000   304.74428      0.0036258033   2.9609271      756.07897     -12.682755      743.39621    
    406000   297.3237       0.0036258033   0.97956397     737.66828     -11.56214       726.10615    
    407000   307.27856      0.0036258033   0.83904466     762.36659     -13.6231        748.74349    
    408000   304.14441      0.0036258033   2.2974604      754.59067     -14.319139      740.27153    
    409000   286.79589      0.0036258033   2.3455496      711.5485      -12.049837      699.49866    
    410000   293.96021      0.0036258033   1.7655956      729.32337     -13.327415      715.99596    
    411000   309.36717      0.0036258033   1.886118       767.54847     -15.815043      751.73343    
    412000   307.70096      0.0036258033   2.0946023      763.41456     -13.179682      750.23487    
    413000   293.65         0.0036258033   1.9075465      728.55374     -13.96213       714.59161    
    414000   294.65204      0.0036258033   1.8440875      731.03984     -12.82057       718.21927    
    415000   305.51004      0.0036258033   1.9118643      757.97883     -12.692933      745.2859     
    416000   309.28283      0.0036258033   2.1912924      767.33922     -12.52233       754.81689    
    417000   291.53061      0.0036258033   2.1984263      723.29549     -13.965272      709.33022    
    418000   305.66248      0.0036258033   2.2875114      758.35703     -14.016914      744.34012    
    419000   306.59776      0.0036258033   1.8262065      760.67749     -14.397438      746.28005    
    420000   303.6934       0.0036258033   4.0386505      753.4717      -15.329453      738.14225    
    421000   286.1074       0.0036258033   1.7610617      709.84034     -16.186879      693.65346    
    422000   293.08641      0.0036258033   2.2142432      727.15545     -13.253125      713.90233    
    423000   301.11718      0.0036258033   0.55361651     747.08002     -12.943864      734.13616    
    424000   303.62262      0.0036258033   3.8961694      753.2961      -14.703364      738.59274    
    425000   298.98136      0.0036258033   2.9153678      741.78101     -10.823332      730.95767    
    426000   277.5565       0.0036258033   0.13203408     688.62532     -11.619878      677.00544    
    427000   292.24684      0.0036258033   1.2043648      725.07248     -13.330201      711.74228    
    428000   318.56506      0.0036258033   2.6276905      790.36871     -9.988885       780.37982    
    429000   301.08575      0.0036258033   3.247819       747.00204     -11.5288        735.47324    
    430000   297.38208      0.0036258033   0.27083537     737.81314     -12.311754      725.50139    
    431000   305.23406      0.0036258033   6.0154783      757.29412     -12.167856      745.12626    
    432000   293.48955      0.0036258033   3.2591523      728.15566     -13.877297      714.27836    
    433000   304.01194      0.0036258033   0.92600908     754.26201     -14.834528      739.42748    
    434000   309.9693       0.0036258033   3.4308483      769.04238     -15.014918      754.02746    
    435000   292.43652      0.0036258033   4.1268974      725.54308     -13.147679      712.3954     
    436000   293.59797      0.0036258033   2.2588619      728.42465     -11.88692       716.53773    
    437000   314.66023      0.0036258033   0.56020996     780.68071     -12.948457      767.73226    
    438000   295.71901      0.0036258033   6.2031066      733.687       -15.318199      718.36881    
    439000   297.11076      0.0036258033   2.2364206      737.13999     -13.317904      723.82209    
    440000   302.05549      0.0036258033  -2.3885002      749.408       -14.117654      735.29035    
    441000   300.34076      0.0036258033  -3.8166449      745.1537      -11.793836      733.35986    
    442000   309.87091      0.0036258033   3.8943934      768.79828     -13.786401      755.01188    
    443000   309.09182      0.0036258033   6.779349       766.86532     -13.253202      753.61212    
    444000   303.79617      0.0036258033   1.8705865      753.72668     -13.606511      740.12017    
    445000   291.0521       0.0036258033   1.5096165      722.10829     -12.406871      709.70142    
    446000   297.85964      0.0036258033  -6.1781034      738.99797     -13.317376      725.6806     
    447000   311.64496      0.0036258033   0.52937554     773.19973     -14.182673      759.01705    
    448000   304.87141      0.0036258033   2.6030965      756.39437     -13.18499       743.20938    
    449000   287.70622      0.0036258033   6.1233375      713.80706     -13.429738      700.37732    
    450000   292.88988      0.0036258033   0.20323417     726.66786     -14.011334      712.65653    
    451000   300.38699      0.0036258033  -6.6770951      745.26839     -15.37604       729.89235    
    452000   302.34972      0.0036258033   0.84688197     750.138       -15.493833      734.64417    
    453000   299.72385      0.0036258033   5.917293       743.62314     -17.562915      726.06022    
    454000   304.38521      0.0036258033   2.7203276      755.1881      -17.46018       737.72792    
    455000   293.29696      0.0036258033   1.075984       727.67783     -14.920777      712.75705    
    456000   294.07053      0.0036258033   2.0283009      729.59709     -18.249553      711.34754    
    457000   305.40912      0.0036258033   2.805602       757.72844     -18.645362      739.08307    
    458000   308.3503       0.0036258033   2.0338573      765.02561     -14.270269      750.75534    
    459000   304.56289      0.0036258033  -0.1568126      755.62894     -15.347267      740.28167    
    460000   293.63588      0.0036258033   2.6665728      728.51872     -18.224709      710.29401    
    461000   296.38718      0.0036258033   1.9534803      735.34477     -16.360939      718.98383    
    462000   298.78419      0.0036258033   3.1895415      741.29182     -17.603438      723.68838    
    463000   306.06683      0.0036258033  -1.3006956      759.36025     -14.420167      744.94008    
    464000   303.90595      0.0036258033   1.4240661      753.99904     -13.710012      740.28903    
    465000   293.02452      0.0036258033   3.7324101      727.00191     -14.46741       712.5345     
    466000   298.2731       0.0036258033   0.3583549      740.02379     -15.448494      724.5753     
    467000   321.49437      0.0036258033   2.3555166      797.63639     -15.360617      782.27578    
    468000   294.65315      0.0036258033   3.1805009      731.04258     -17.207441      713.83514    
    469000   295.55922      0.0036258033   1.6406637      733.29057     -17.270925      716.01964    
    470000   309.01799      0.0036258033   1.9213816      766.68215     -14.92394       751.75821    
    471000   298.27944      0.0036258033   3.5360609      740.03952     -15.293152      724.74637    
    472000   285.37697      0.0036258033   3.0143097      708.02813     -17.352886      690.67524    
    473000   297.30378      0.0036258033   1.3010629      737.61888     -13.140867      724.47802    
    474000   314.58695      0.0036258033   1.9666347      780.49888     -14.894576      765.60431    
    475000   303.22088      0.0036258033   2.7415318      752.29935     -15.824864      736.47449    
    476000   284.38054      0.0036258033   1.8215657      705.55596     -13.346221      692.20974    
    477000   304.61438      0.0036258033   1.9494612      755.75667     -11.384328      744.37235    
    478000   305.59777      0.0036258033   2.1381748      758.1965      -12.93691       745.25959    
    479000   294.32268      0.0036258033   1.1727371      730.22269     -13.547631      716.67506    
    480000   293.91339      0.0036258033   1.238287       729.20722     -12.692915      716.51431    
    481000   303.51256      0.0036258033   2.5048267      753.02302     -13.553326      739.46969    
    482000   312.09151      0.0036258033   1.1516654      774.30765     -9.6507931      764.65685    
    483000   291.69566      0.0036258033   1.8944042      723.70497     -10.458192      713.24678    
    484000   298.79961      0.0036258033   2.0040522      741.33008     -11.17157       730.15851    
    485000   304.28369      0.0036258033   1.796765       754.93623     -12.614668      742.32156    
    486000   313.4039       0.0036258033   2.2590304      777.56372     -12.647631      764.91609    
    487000   299.27761      0.0036258033   2.2420426      742.516       -14.97276       727.54324    
    488000   298.83631      0.0036258033   1.2901566      741.42111     -14.12594       727.29517    
    489000   300.51216      0.0036258033   0.051960519    745.57895     -12.154702      733.42425    
    490000   299.07395      0.0036258033   1.7200335      742.01072     -12.877723      729.133      
    491000   296.91311      0.0036258033   2.547869       736.6496      -13.142389      723.50721    
    492000   302.00138      0.0036258033   0.54804679     749.27374     -10.261153      739.01259    
    493000   289.62773      0.0036258033   1.9249649      718.57439     -8.7450463      709.82935    
    494000   303.20576      0.0036258033   3.8371889      752.26186     -10.127953      742.1339     
    495000   289.02733      0.0036258033   2.3159656      717.08476     -11.761229      705.32353    
    496000   319.96037      0.0036258033   1.6928161      793.83051     -10.783361      783.04714    
    497000   311.29379      0.0036258033   1.8219328      772.32847     -13.396984      758.93149    
    498000   291.73367      0.0036258033   2.1562694      723.79927     -11.544347      712.25492    
    499000   293.95614      0.0036258033   1.9394529      729.31329     -9.3174312      719.99586    
    500000   309.83616      0.0036258033   2.6203969      768.71205     -9.6994918      759.01256    
    501000   300.04863      0.0036258033   0.65902434     744.42891     -11.807525      732.62139    
    502000   295.33492      0.0036258033   2.020473       732.73408     -10.695389      722.03869    
    503000   307.28999      0.0036258033   3.0700043      762.39494     -11.776733      750.6182     
    504000   310.19921      0.0036258033   2.1320577      769.6128      -14.322418      755.29038    
    505000   295.46804      0.0036258033   2.4926837      733.06436     -13.180747      719.88361    
    506000   292.29207      0.0036258033  -0.99040392     725.18468     -13.001042      712.18364    
    507000   300.75886      0.0036258033   2.0605823      746.19102     -13.028493      733.16253    
    508000   300.19035      0.0036258033   2.3092368      744.78052     -13.461446      731.31908    
    509000   289.41552      0.0036258033   2.19092        718.04788     -13.696068      704.35181    
    510000   300.67015      0.0036258033   1.8831523      745.97092     -11.736781      734.23414    
    511000   306.81232      0.0036258033   2.306092       761.20982     -12.621545      748.58827    
    512000   301.48202      0.0036258033   1.5561897      747.98519     -12.212752      735.77244    
    513000   307.79443      0.0036258033   2.1155663      763.64647     -11.969666      751.67681    
    514000   293.31925      0.0036258033   2.4629806      727.73314     -13.854624      713.87851    
    515000   297.45131      0.0036258033   1.9570723      737.98489     -10.744083      727.24081    
    516000   302.71269      0.0036258033   1.6514503      751.03853     -13.558428      737.4801     
    517000   300.85665      0.0036258033   2.0301487      746.43365     -12.804429      733.62922    
    518000   297.92367      0.0036258033   2.1392723      739.15684     -14.939946      724.21689    
    519000   302.85526      0.0036258033   2.0514228      751.39225     -14.302864      737.08938    
    520000   315.10962      0.0036258033   2.6889473      781.79566     -12.592373      769.20329    
    521000   302.45881      0.0036258033   2.1755567      750.40864     -13.52571       736.88293    
    522000   295.42059      0.0036258033   1.8632148      732.94663     -14.083354      718.86327    
    523000   300.95824      0.0036258033   2.5226771      746.68568     -15.314701      731.37098    
    524000   308.78184      0.0036258033   2.1082343      766.09626     -13.841566      752.25469    
    525000   307.62024      0.0036258033   1.3945407      763.21431     -12.753809      750.4605     
    526000   293.26475      0.0036258033   1.9070391      727.59792     -12.261234      715.33668    
    527000   295.23957      0.0036258033   2.6034314      732.49751     -11.162379      721.33514    
    528000   311.90612      0.0036258033   1.7055877      773.84769     -11.890326      761.95737    
    529000   304.92125      0.0036258033   1.5016461      756.51802     -10.819912      745.69811    
    530000   296.12431      0.0036258033   1.4924508      734.69257     -8.8569393      725.83564    
    531000   290.52442      0.0036258033   2.3365551      720.7991      -12.102073      708.69702    
    532000   310.62195      0.0036258033   2.5945112      770.66162     -12.993708      757.66792    
    533000   314.5484       0.0036258033   2.2328371      780.40325     -10.974044      769.42921    
    534000   302.64565      0.0036258033   1.2151574      750.8722      -14.092972      736.77923    
    535000   294.24531      0.0036258033   0.99405127     730.03072     -13.845391      716.18533    
    536000   297.25988      0.0036258033   2.1145715      737.50995     -14.138682      723.37127    
    537000   306.49652      0.0036258033   1.4800045      760.4263      -11.980335      748.44597    
    538000   296.9338       0.0036258033   2.0327939      736.70093     -12.938468      723.76246    
    539000   299.7524       0.0036258033   2.3390082      743.69397     -14.501082      729.19289    
    540000   293.16916      0.0036258033   1.957541       727.36076     -12.825326      714.53543    
    541000   316.92206      0.0036258033   2.4620428      786.29237     -15.847772      770.4446     
    542000   309.19823      0.0036258033   1.4238688      767.12932     -16.957296      750.17202    
    543000   283.73042      0.0036258033   1.4588478      703.94299     -14.382006      689.56098    
    544000   294.28821      0.0036258033   2.4627556      730.13715     -11.908897      718.22826    
    545000   307.97342      0.0036258033   2.4445557      764.09055     -12.881116      751.20943    
    546000   319.64716      0.0036258033   0.90689222     793.05341     -11.642535      781.41088    
    547000   290.58959      0.0036258033   1.7514652      720.96077     -10.361293      710.59948    
    548000   293.24828      0.0036258033   4.9418797      727.55707     -13.194828      714.36224    
    549000   306.08178      0.0036258033   1.4621744      759.39734     -11.40069       747.99665    
    550000   299.44672      0.0036258033   0.33331845     742.93557     -11.473666      731.46191    
    551000   313.84028      0.0036258033   2.4195849      778.64638     -10.354814      768.29157    
    552000   309.20651      0.0036258033   4.6733916      767.14987     -10.45942       756.69045    
    553000   294.65278      0.0036258033   2.1800767      731.04168     -12.91725       718.12443    
    554000   299.56421      0.0036258033   0.52805013     743.22705     -12.241372      730.98568    
    555000   301.97898      0.0036258033   2.2736727      749.21817     -11.555906      737.66226    
    556000   290.61233      0.0036258033   2.189136       721.0172      -10.128407      710.88879    
    557000   292.04841      0.0036258033   2.3742574      724.58014     -12.270037      712.31011    
    558000   312.00973      0.0036258033   1.225332       774.10475     -10.588888      763.51586    
    559000   294.95222      0.0036258033   1.7399854      731.78458     -12.181299      719.60328    
    560000   301.71135      0.0036258033   2.8567409      748.55417     -13.221745      735.33243    
    561000   314.08152      0.0036258033   2.5769927      779.24491     -14.409748      764.83516    
    562000   305.64702      0.0036258033   0.55251671     758.31869     -15.013813      743.30487    
    563000   297.21439      0.0036258033   2.2385037      737.3971      -13.536137      723.86096    
    564000   302.97852      0.0036258033   2.2145143      751.69806     -15.114208      736.58385    
    565000   301.81866      0.0036258033  -1.3125606      748.82042     -9.0719611      739.74846    
    566000   298.98116      0.0036258033   1.5716561      741.7805      -12.300498      729.48001    
    567000   300.89842      0.0036258033   4.7217369      746.53728     -12.49851       734.03877    
    568000   297.00153      0.0036258033   3.2221998      736.86899     -11.852731      725.01626    
    569000   306.9753       0.0036258033   2.1278386      761.61417     -12.173263      749.44091    
    570000   300.84297      0.0036258033  -0.59530618     746.3997      -13.132195      733.26751    
    571000   299.10866      0.0036258033   2.6667923      742.09682     -16.512411      725.58441    
    572000   298.71039      0.0036258033   1.9100331      741.10871     -16.22728       724.88143    
    573000   294.15864      0.0036258033   1.6775922      729.81569     -15.9468        713.86889    
    574000   282.2132       0.0036258033   2.199615       700.17874     -10.542902      689.63583    
    575000   307.92658      0.0036258033   0.34888677     763.97433     -11.91752       752.05681    
    576000   303.55681      0.0036258033   1.9996353      753.13281     -9.6992765      743.43353    
    577000   305.64925      0.0036258033   3.2028762      758.32421     -11.228024      747.09618    
    578000   294.29534      0.0036258033   2.3512919      730.15485     -12.639189      717.51566    
    579000   298.94838      0.0036258033   1.889933       741.69916     -11.449977      730.24919    
    580000   295.91114      0.0036258033   0.77970469     734.1637      -12.728482      721.43522    
    581000   304.91829      0.0036258033   2.269952       756.51069     -12.02149       744.48919    
    582000   288.36746      0.0036258033   3.3432474      715.44762     -11.162593      704.28502    
    583000   293.95259      0.0036258033   1.60149        729.30449     -11.477263      717.82723    
    584000   309.50948      0.0036258033   1.081604       767.90156     -11.100945      756.80061    
    585000   301.04475      0.0036258033   1.5120739      746.90032     -9.1012959      737.79903    
    586000   295.70814      0.0036258033   2.0028765      733.66004     -10.200448      723.4596     
    587000   307.62128      0.0036258033   2.2754431      763.21688     -11.820267      751.39661    
    588000   294.51677      0.0036258033   3.2640987      730.70421     -11.74491       718.95931    
    589000   295.67981      0.0036258033   0.66125722     733.58976     -9.9806501      723.60911    
    590000   300.48415      0.0036258033  -2.0826759      745.50947     -10.60899       734.90048    
    591000   310.62675      0.0036258033   2.4713891      770.67353     -12.220631      758.4529     
    592000   296.94092      0.0036258033   2.9316869      736.7186      -10.956304      725.76229    
    593000   287.47682      0.0036258033   2.5478482      713.23793     -10.667145      702.57078    
    594000   297.06643      0.0036258033   1.4504484      737.03        -11.825705      725.2043     
    595000   306.23543      0.0036258033   1.9063563      759.77855     -11.841512      747.93704    
    596000   318.15873      0.0036258033   2.002499       789.36057     -11.80941       777.55116    
    597000   298.35384      0.0036258033   1.85629        740.22409     -12.292916      727.93118    
    598000   288.82569      0.0036258033   1.7560542      716.58449     -11.63761       704.94688    
    599000   291.18228      0.0036258033   1.3426623      722.43126     -11.881018      710.55024    
    600000   307.96298      0.0036258033   1.7834299      764.06464     -12.25301       751.81163    
    601000   302.60871      0.0036258033   3.7006055      750.78056     -10.690272      740.09029    
    602000   297.97735      0.0036258033   2.1216889      739.29001     -12.239324      727.05069    
    603000   320.46122      0.0036258033   1.8750357      795.07311     -12.765247      782.30787    
    604000   314.49291      0.0036258033   2.3291468      780.26559     -12.535431      767.73015    
    605000   293.06197      0.0036258033   2.2348985      727.09482     -13.452821      713.642      
    606000   286.65609      0.0036258033   1.9207289      711.20167     -13.307419      697.89425    
    607000   304.51845      0.0036258033   2.1069088      755.51867     -11.438131      744.08054    
    608000   310.43468      0.0036258033   2.0132403      770.197       -11.434108      758.7629     
    609000   290.38913      0.0036258033   2.270681       720.46344     -9.1450427      711.3184     
    610000   299.07208      0.0036258033   2.0591982      742.00608     -10.223378      731.7827     
    611000   298.36795      0.0036258033   1.824248       740.25911     -10.5929        729.66621    
    612000   303.78678      0.0036258033   2.2928027      753.70338     -10.029468      743.67391    
    613000   303.4019       0.0036258033   2.2796218      752.74848     -11.455991      741.29249    
    614000   308.50719      0.0036258033   2.3978667      765.41485     -12.296494      753.11835    
    615000   288.54201      0.0036258033   1.4962722      715.88069     -13.853976      702.02671    
    616000   280.61513      0.0036258033   1.7752372      696.21388     -11.8715        684.34238    
    617000   304.69952      0.0036258033   2.4247663      755.96792     -12.944359      743.02356    
    618000   312.41483      0.0036258033   2.1832669      775.10982     -13.785941      761.32388    
    619000   297.74882      0.0036258033   0.62454709     738.72303     -14.198595      724.52443    
    620000   290.15676      0.0036258033   1.6602636      719.88693     -12.948617      706.93831    
    621000   300.99204      0.0036258033   2.8026888      746.76954     -12.903506      733.86604    
    622000   310.73277      0.0036258033   1.7519829      770.93657     -15.239943      755.69663    
    623000   295.22604      0.0036258033   1.962278       732.46395     -12.727151      719.7368     
    624000   292.21514      0.0036258033   2.149969       724.99382     -12.632359      712.36146    
    625000   300.65896      0.0036258033   3.2612355      745.94317     -10.889314      735.05386    
    626000   307.39386      0.0036258033   3.4070691      762.65263     -13.478236      749.17439    
    627000   301.19411      0.0036258033   1.3018087      747.27089     -12.908602      734.36229    
    628000   275.11911      0.0036258033  -1.7490933      682.5781      -17.233837      665.34426    
    629000   293.19844      0.0036258033   0.99997049     727.43341     -13.721743      713.71166    
    630000   301.83934      0.0036258033   2.0656371      748.87172     -16.135835      732.73588    
    631000   319.52349      0.0036258033   6.5011651      792.74659     -14.97817       777.76842    
    632000   310.21374      0.0036258033  -1.0501396      769.64883     -15.252352      754.39648    
    633000   290.57106      0.0036258033  -8.1761588      720.91482     -15.199792      705.71503    
    634000   298.6286       0.0036258033   2.9444937      740.9058      -13.322502      727.5833     
    635000   310.8224       0.0036258033   2.6980562      771.15895     -16.780231      754.37872    
    636000   297.14977      0.0036258033  -1.3214726      737.23678     -14.644853      722.59193    
    637000   281.20604      0.0036258033  -0.39037938     697.67993     -13.237593      684.44234    
    638000   293.26055      0.0036258033   2.761133       727.5875      -14.605673      712.98182    
    639000   304.12499      0.0036258033   2.8198402      754.54249     -12.785451      741.75704    
    640000   309.52264      0.0036258033   2.0221461      767.9342      -11.209233      756.72497    
    641000   291.00917      0.0036258033   0.53684737     722.00177     -9.4360266      712.56575    
    642000   293.0383       0.0036258033   2.943696       727.03611     -11.097291      715.93881    
    643000   319.31768      0.0036258033   2.1680419      792.23597     -12.952819      779.28315    
    644000   296.77829      0.0036258033   1.8361355      736.31512     -11.347221      724.9679     
    645000   289.69127      0.0036258033   2.2676079      718.73203     -9.83679        708.89524    
    646000   302.4327       0.0036258033   2.0644445      750.34386     -10.889163      739.45469    
    647000   300.11003      0.0036258033   1.8629549      744.58126     -10.052576      734.52868    
    648000   298.86285      0.0036258033   2.4845791      741.48696     -12.068725      729.41824    
    649000   287.53477      0.0036258033   1.8036764      713.3817      -11.282334      702.09937    
    650000   302.69599      0.0036258033   2.0026251      750.99709     -10.434832      740.56225    
    651000   312.61368      0.0036258033   1.734591       775.60317     -9.1354463      766.46772    
    652000   299.02117      0.0036258033   1.8445596      741.87978     -6.6921461      735.18763    
    653000   296.54276      0.0036258033   4.2934851      735.73077     -8.2609825      727.46979    
    654000   304.83002      0.0036258033   3.1543271      756.29169     -8.6456702      747.64602    
    655000   303.21384      0.0036258033   1.5650818      752.2819      -5.311313       746.97059    
    656000   288.58507      0.0036258033   2.2692524      715.9875      -8.8478371      707.13966    
    657000   295.54637      0.0036258033   2.3205269      733.25869     -8.7435953      724.5151     
    658000   300.5676       0.0036258033   2.0547295      745.71649     -8.4036967      737.31279    
    659000   298.76304      0.0036258033   2.5110827      741.23935     -7.708798       733.53055    
    660000   300.61926      0.0036258033   1.9277047      745.84468     -7.5934745      738.25121    
    661000   299.8812       0.0036258033   1.7940275      744.01352     -8.6401535      735.37336    
    662000   313.62467      0.0036258033   2.2435321      778.11145     -10.049061      768.06239    
    663000   311.2098       0.0036258033   1.9995481      772.12009     -10.857144      761.26295    
    664000   293.129        0.0036258033   1.184398       727.26114     -14.169973      713.09117    
    665000   291.72961      0.0036258033   1.7763046      723.7892      -14.369197      709.42       
    666000   298.35029      0.0036258033   0.3551127      740.21529     -12.935126      727.28017    
    667000   305.71058      0.0036258033   1.9969075      758.47637     -13.495145      744.98123    
    668000   298.12824      0.0036258033   3.2507104      739.66437     -11.005751      728.65862    
    669000   281.74164      0.0036258033   0.25246232     699.00878     -11.585072      687.42371    
    670000   295.04072      0.0036258033   0.9338567      732.00416     -9.7457513      722.25841    
    671000   316.62291      0.0036258033   0.28731399     785.55017     -10.968596      774.58157    
    672000   292.51368      0.0036258033   3.4205227      725.73451     -11.224733      714.50978    
    673000   294.29362      0.0036258033   2.7299954      730.15058     -11.732786      718.4178     
    674000   305.76491      0.0036258033   0.17653896     758.61117     -13.219818      745.39135    
    675000   319.35486      0.0036258033   0.53222591     792.32821     -11.62543       780.70278    
    676000   295.99989      0.0036258033   3.9373696      734.38388     -12.101584      722.2823     
    677000   284.50657      0.0036258033   0.77666927     705.86863     -14.297801      691.57083    
    678000   298.50952      0.0036258033  -0.8622515      740.61036     -15.472784      725.13757    
    679000   304.69759      0.0036258033   2.1227316      755.96311     -12.993213      742.96989    
    680000   301.9047       0.0036258033   3.6466255      749.03388     -11.599945      737.43394    
    681000   285.28694      0.0036258033   3.1604368      707.80477     -6.0741156      701.73065    
    682000   299.78468      0.0036258033   0.87819424     743.77405     -8.1106574      735.66339    
    683000   306.80481      0.0036258033   5.0625046      761.19119     -9.7489598      751.44223    
    684000   293.21823      0.0036258033   2.7203714      727.48252     -9.380022       718.10249    
    685000   281.68315      0.0036258033  -0.86038991     698.86366     -10.572119      688.29154    
    686000   310.53406      0.0036258033   1.6304137      770.44356     -11.723103      758.72045    
    687000   308.93475      0.0036258033   1.5722782      766.47564     -9.6378334      756.8378     
    688000   310.64825      0.0036258033   5.4700511      770.72687     -9.8845085      760.84236    
    689000   290.29022      0.0036258033   2.5404234      720.21805     -12.320613      707.89744    
    690000   303.78467      0.0036258033   1.4307886      753.69813     -9.9416326      743.7565     
    691000   303.52724      0.0036258033   0.015868833    753.05945     -8.5089377      744.55052    
    692000   306.07955      0.0036258033   2.4017052      759.39179     -9.6813117      749.71048    
    693000   293.00616      0.0036258033   5.3499787      726.95636     -9.3002803      717.65608    
    694000   296.63869      0.0036258033   1.0895062      735.96877     -9.8345798      726.13419    
    695000   299.20942      0.0036258033  -1.5417215      742.34681     -9.7431742      732.60363    
    696000   298.43639      0.0036258033  -0.053469265    740.4289      -12.014422      728.41448    
    697000   298.06429      0.0036258033   5.051862       739.50571     -10.376889      729.12883    
    698000   293.69341      0.0036258033   0.92627192     728.66144     -11.208706      717.45274    
    699000   305.38288      0.0036258033  -1.1497666      757.66335     -9.2618563      748.4015     
    700000   295.41873      0.0036258033   5.731923       732.94202     -7.2374263      725.7046     
    701000   298.10783      0.0036258033   1.9321059      739.61375     -8.964875       730.64887    
    702000   307.484        0.0036258033  -0.031884464    762.87629     -8.8798186      753.99647    
    703000   312.09144      0.0036258033   2.511719       774.30747     -9.4662758      764.8412     
    704000   292.5383       0.0036258033   4.2788921      725.79558     -12.747422      713.04816    
    705000   279.77039      0.0036258033   0.97942754     694.11806     -13.637216      680.48084    
    706000   304.90925      0.0036258033   0.80751316     756.48826     -13.355174      743.13308    
    707000   310.06222      0.0036258033   3.568164       769.27292     -14.857829      754.41509    
    708000   292.36178      0.0036258033   3.6367913      725.35764     -13.857862      711.49978    
    709000   292.06938      0.0036258033   1.1059504      724.63218     -11.499042      713.13314    
    710000   301.40771      0.0036258033   0.17046108     747.80083     -11.30084       736.49999    
    711000   305.24416      0.0036258033  -1.165823       757.31918     -11.017512      746.30167    
    712000   298.06956      0.0036258033   3.7470506      739.51878     -4.1728871      735.3459     
    713000   299.00461      0.0036258033   3.4149188      741.83867     -10.540755      731.29792    
    714000   297.22967      0.0036258033  -0.83608702     737.43501     -9.9913367      727.44367    
    715000   301.7142       0.0036258033   1.9764229      748.56124     -12.595486      735.96576    
    716000   296.39853      0.0036258033   4.3388687      735.37292     -11.822855      723.55007    
    717000   300.91451      0.0036258033   1.7617186      746.57719     -10.629892      735.94729    
    718000   302.13653      0.0036258033  -1.4420364      749.60907     -12.43914       737.16993    
    719000   294.82162      0.0036258033   2.7837822      731.46057     -11.251043      720.20953    
    720000   287.0174       0.0036258033   4.7568886      712.09809     -8.5329135      703.56518    
    721000   302.08727      0.0036258033  -1.8847789      749.48684     -9.8832069      739.60364    
    722000   309.62167      0.0036258033   1.570844       768.17989     -10.65756       757.52233    
    723000   285.72033      0.0036258033   3.1886772      708.88001     -9.9091102      698.9709     
    724000   293.04746      0.0036258033   1.6884133      727.05883     -11.9576        715.10123    
    725000   309.508        0.0036258033   0.93296306     767.89788     -12.252866      755.64502    
    726000   292.09181      0.0036258033   5.8206772      724.68783     -12.669613      712.01822    
    727000   289.99281      0.0036258033   0.44301758     719.48015     -11.973232      707.50692    
    728000   301.44233      0.0036258033  -2.8723675      747.88674     -7.3104235      740.57632    
    729000   303.6649       0.0036258033   1.9968255      753.401       -11.851187      741.54981    
    730000   300.5334       0.0036258033   6.7669621      745.63164     -13.767369      731.86428    
    731000   288.47705      0.0036258033   1.9588662      715.71951     -10.827297      704.89221    
    732000   303.13543      0.0036258033  -1.0033177      752.08736     -13.682471      738.40489    
    733000   305.09859      0.0036258033   2.307717       756.95801     -11.310968      745.64705    
    734000   305.17975      0.0036258033   3.3914705      757.15938     -11.84429       745.31509    
    735000   280.07609      0.0036258033   1.0874917      694.87649     -10.79601       684.08048    
    736000   313.86323      0.0036258033   1.7133241      778.70332     -10.753307      767.95001    
    737000   307.21137      0.0036258033   2.0155242      762.19987     -9.2456117      752.95426    
    738000   293.38731      0.0036258033   2.955289       727.90201     -8.9761336      718.92588    
    739000   299.09854      0.0036258033   2.1327228      742.07173     -6.868373       735.20335    
    740000   304.92004      0.0036258033   1.7401478      756.51503     -8.4589103      748.05612    
    741000   289.33151      0.0036258033  -0.73082379     717.83946     -8.7499494      709.08951    
    742000   321.02734      0.0036258033  -0.78925914     796.47769     -8.5566078      787.92108    
    743000   305.31949      0.0036258033   2.7789077      757.50607     -9.523953       747.98212    
    744000   287.89152      0.0036258033   2.6420247      714.2668      -11.925924      702.34087    
    745000   292.46329      0.0036258033   1.2669198      725.60948     -10.607877      715.0016     
    746000   309.47973      0.0036258033   2.0637333      767.82773     -9.7380013      758.08973    
    747000   305.87617      0.0036258033   2.0882455      758.8872      -9.1629443      749.72426    
    748000   297.5295       0.0036258033   2.4934835      738.17889     -9.8138027      728.36508    
    749000   294.75681      0.0036258033   1.5380556      731.29976     -11.384551      719.91521    
    750000   312.72459      0.0036258033   2.1449467      775.87833     -8.5480938      767.33023    
    751000   314.39077      0.0036258033   2.1181415      780.01216     -7.5656108      772.44655    
    752000   290.9222       0.0036258033   2.057244       721.786       -9.0634512      712.72255    
    753000   308.45528      0.0036258033   2.2166294      765.28606     -8.0998492      757.18621    
    754000   299.71346      0.0036258033   1.4781112      743.59736     -12.054141      731.54322    
    755000   299.33533      0.0036258033   1.8813926      742.6592      -7.4981102      735.16109    
    756000   295.82012      0.0036258033   1.8378816      733.93788     -6.9213579      727.01652    
    757000   293.40044      0.0036258033   2.0260919      727.93457     -10.117405      717.81716    
    758000   301.22223      0.0036258033   1.9190022      747.34065     -9.5575546      737.7831     
    759000   300.08314      0.0036258033   2.6455035      744.51455     -9.2388557      735.27569    
    760000   308.88166      0.0036258033   0.37814008     766.34392     -10.794139      755.54978    
    761000   312.03455      0.0036258033   1.9004659      774.16633     -9.8320468      764.33428    
    762000   295.73666      0.0036258033   2.9902908      733.7308      -7.2702345      726.46056    
    763000   286.0668       0.0036258033   2.6346881      709.73962     -8.7838343      700.95579    
    764000   303.50036      0.0036258033   0.33823394     752.99276     -8.9291845      744.06358    
    765000   302.81213      0.0036258033   2.6192563      751.28524     -11.329641      739.9556     
    766000   297.9098       0.0036258033   2.637008       739.12242     -11.985806      727.13661    
    767000   288.91286      0.0036258033   1.9699267      716.80078     -11.320473      705.48031    
    768000   308.03508      0.0036258033   1.6961427      764.24353     -13.200648      751.04288    
    769000   306.25434      0.0036258033   2.7543316      759.82545     -13.693742      746.13171    
    770000   283.43804      0.0036258033   2.2257064      703.21759     -10.99457       692.22302    
    771000   299.86315      0.0036258033   1.7998019      743.96873     -10.176549      733.79218    
    772000   306.3718       0.0036258033   2.000365       760.11688     -11.539713      748.57717    
    773000   311.23687      0.0036258033   2.2657196      772.18725     -10.130938      762.05631    
    774000   288.49215      0.0036258033   1.8625424      715.75697     -8.5064712      707.2505     
    775000   295.86365      0.0036258033   2.2469562      734.04586     -9.0884597      724.9574     
    776000   307.66418      0.0036258033   2.3027817      763.32332     -8.6451593      754.67816    
    777000   304.70856      0.0036258033   0.061681822    755.99033     -9.5706998      746.41963    
    778000   295.34254      0.0036258033   2.5865933      732.75297     -10.694311      722.05866    
    779000   294.59691      0.0036258033   2.7234156      730.90304     -10.480833      720.42221    
    780000   318.38491      0.0036258033   2.6648247      789.92175     -10.13656       779.78519    
    781000   298.89461      0.0036258033   1.2515927      741.56577     -9.4454681      732.12031    
    782000   273.08105      0.0036258033   1.6869874      677.5216      -9.3726711      668.14893    
    783000   305.70699      0.0036258033   3.1956311      758.46747     -9.7969821      748.67048    
    784000   314.2623       0.0036258033   2.1929182      779.69342     -8.5903756      771.10304    
    785000   293.60597      0.0036258033   1.2953136      728.44449     -8.7152782      719.72921    
    786000   280.83363      0.0036258033   2.1601864      696.75598     -9.2222056      687.53378    
    787000   305.10968      0.0036258033   3.6304969      756.98553     -11.34895       745.63658    
    788000   315.4229       0.0036258033   1.7743955      782.57291     -13.844663      768.72825    
    789000   279.08518      0.0036258033   1.6503066      692.41801     -9.3481981      683.06982    
    790000   295.83023      0.0036258033   2.2396193      733.96294     -9.2837842      724.67916    
    791000   313.61943      0.0036258033   1.4733598      778.09844     -8.3134198      769.78502    
    792000   313.42205      0.0036258033   1.5761774      777.60874     -8.2423327      769.36641    
    793000   288.54698      0.0036258033   1.8215151      715.89302     -9.9633739      705.92965    
    794000   291.98461      0.0036258033   2.5364303      724.42186     -9.9536697      714.46819    
    795000   312.18956      0.0036258033   2.1622584      774.5509      -11.06325       763.48765    
    796000   301.30165      0.0036258033   1.3196001      747.53769     -8.7213658      738.81632    
    797000   286.64254      0.0036258033   2.5589226      711.16805     -10.075104      701.09294    
    798000   300.23578      0.0036258033   3.1861015      744.89325     -10.369165      734.52408    
    799000   315.83823      0.0036258033   1.3514783      783.60334     -10.311802      773.29154    
    800000   296.12554      0.0036258033   1.4795693      734.69562     -13.683284      721.01234    
    801000   309.21338      0.0036258033   5.333497       767.16691     -11.8249        755.34201    
    802000   306.6047       0.0036258033   0.56095748     760.6947      -9.37412        751.32058    
    803000   300.61158      0.0036258033  -0.25642597     745.82562     -10.715103      735.11052    
    804000   304.75547      0.0036258033   2.2762549      756.10672     -10.185058      745.92166    
    805000   300.79053      0.0036258033   4.1206556      746.26959     -12.336196      733.9334     
    806000   296.70343      0.0036258033   2.1424865      736.1294      -11.313975      724.81542    
    807000   305.01264      0.0036258033   4.5569557      756.74478     -9.705219       747.03956    
    808000   300.73396      0.0036258033  -0.045481996    746.12925     -12.028092      734.10115    
    809000   302.32688      0.0036258033   1.6257097      750.08132     -10.970177      739.11115    
    810000   295.52188      0.0036258033   3.0534138      733.19792     -10.861237      722.33668    
    811000   302.54379      0.0036258033   2.7871706      750.61948     -9.3364473      741.28304    
    812000   302.36031      0.0036258033   5.5842642      750.16427     -7.7525274      742.41174    
    813000   307.56866      0.0036258033   0.64267014     763.08632     -9.3983772      753.68794    
    814000   307.51868      0.0036258033  -1.4170919      762.96233     -9.0981278      753.8642     
    815000   280.53554      0.0036258033   0.38103422     696.0164      -8.437058       687.57934    
    816000   295.53715      0.0036258033   3.0499004      733.23583     -6.6577297      726.5781     
    817000   296.74536      0.0036258033   7.2841641      736.23341     -8.0105981      728.22281    
    818000   310.37442      0.0036258033   5.3735582      770.0475      -8.8872853      761.16022    
    819000   306.38539      0.0036258033  -2.5979843      760.15061     -9.6942248      750.45638    
    820000   294.86014      0.0036258033   3.9919517      731.55614     -8.7083111      722.84783    
    821000   302.9199       0.0036258033   7.0520988      751.55261     -8.9084942      742.64412    
    822000   311.52197      0.0036258033  -2.4923809      772.89461     -10.657295      762.23731    
    823000   297.38024      0.0036258033   2.0881844      737.80858     -9.2737756      728.5348     
    824000   294.95551      0.0036258033   7.5323598      731.79275     -9.2977677      722.49498    
    825000   308.09416      0.0036258033   8.3111624      764.39011     -9.7150386      754.67507    
    826000   302.65641      0.0036258033   1.2424475      750.89888     -10.438968      740.45992    
    827000   304.39636      0.0036258033  -0.35196255     755.21575     -8.9382627      746.27749    
    828000   296.08762      0.0036258033   4.1605096      734.60155     -12.177444      722.4241     
    829000   296.50947      0.0036258033   2.9234146      735.64817     -8.5867978      727.06138    
    830000   296.73291      0.0036258033  -0.55314925     736.20253     -9.0564022      727.14612    
    831000   299.71864      0.0036258033   0.95347874     743.6102      -8.9574346      734.65277    
    832000   297.20977      0.0036258033   1.6694572      737.38562     -9.6402448      727.74538    
    833000   296.3567       0.0036258033   3.3484997      735.26914     -9.3921018      725.87704    
    834000   303.06681      0.0036258033   2.235465       751.91711     -10.002775      741.91433    
    835000   296.62288      0.0036258033  -0.78997211     735.92954     -9.2782384      726.6513     
    836000   302.49329      0.0036258033   3.5491287      750.4942      -7.259534       743.23467    
    837000   302.30137      0.0036258033   0.50580655     750.01803     -9.9170601      740.10097    
    838000   289.65156      0.0036258033   1.0392558      718.6335      -10.18957       708.44393    
    839000   305.31015      0.0036258033   5.1480328      757.48291     -9.1471844      748.33572    
    840000   313.38208      0.0036258033   1.6045649      777.50959     -10.237291      767.2723     
    841000   302.75648      0.0036258033   1.9165863      751.14717     -13.264431      737.88274    
    842000   285.79147      0.0036258033   0.44179465     709.05652     -9.2215886      699.83493    
    843000   300.87096      0.0036258033   3.6449332      746.46914     -7.2023518      739.26679    
    844000   324.04418      0.0036258033   3.1634388      803.96254     -9.3651055      794.59744    
    845000   299.52405      0.0036258033   0.38036683     743.12743     -9.1246279      734.00281    
    846000   284.00647      0.0036258033   2.5508846      704.62788     -9.0186995      695.60918    
    847000   306.04328      0.0036258033   3.8281374      759.30182     -9.9207945      749.38102    
    848000   303.56209      0.0036258033   3.9953345      753.1459      -8.5507287      744.59518    
    849000   305.0172       0.0036258033   3.0292965      756.75607     -10.3033        746.45277    
    850000   296.55851      0.0036258033   0.25859007     735.76983     -8.4664421      727.30339    
    851000   298.60347      0.0036258033   2.1267697      740.84344     -9.2018299      731.64161    
    852000   300.40436      0.0036258033   1.8307768      745.3115      -14.299591      731.01191    
    853000   301.61949      0.0036258033   2.3134551      748.32628     -11.479864      736.84642    
    854000   314.26201      0.0036258033   3.3175242      779.69271     -9.9208122      769.7719     
    855000   310.29123      0.0036258033   2.1985241      769.84109     -10.134231      759.70685    
    856000   289.814        0.0036258033   0.53381695     719.03652     -8.4175627      710.61895    
    857000   296.45065      0.0036258033   0.75857691     735.50223     -8.347889       727.15435    
    858000   313.50694      0.0036258033   1.7416978      777.81936     -8.7749609      769.0444     
    859000   304.85613      0.0036258033   2.5446394      756.35646     -8.5634397      747.79302    
    860000   290.50921      0.0036258033   2.094441       720.76136     -7.9009414      712.86042    
    861000   292.62694      0.0036258033  -0.4963115      726.0155      -9.4275866      716.58791    
    862000   312.44814      0.0036258033   1.1102498      775.19245     -9.1443085      766.04814    
    863000   301.24236      0.0036258033   4.1955448      747.39059     -10.619268      736.77132    
    864000   297.03801      0.0036258033   0.97617458     736.95949     -10.73553       726.22396    
    865000   304.25191      0.0036258033   0.20983417     754.85737     -10.011011      744.84636    
    866000   307.75672      0.0036258033   1.9811242      763.5529      -10.857515      752.69539    
    867000   302.84363      0.0036258033   2.8577378      751.3634      -9.4131103      741.95029    
    868000   303.9419       0.0036258033   1.1733409      754.08824     -7.1174487      746.97079    
    869000   303.90406      0.0036258033   0.80050548     753.99435     -8.2928848      745.70147    
    870000   295.77033      0.0036258033   2.3775484      733.81435     -9.1952027      724.61914    
    871000   290.7084       0.0036258033   2.5849928      721.25555     -10.804796      710.45075    
    872000   307.96145      0.0036258033   1.836554       764.06086     -9.5501639      754.51069    
    873000   300.85521      0.0036258033   1.7821631      746.43008     -11.216901      735.21318    
    874000   304.72646      0.0036258033   0.82110134     756.03475     -10.184983      745.84977    
    875000   294.30949      0.0036258033   2.8920481      730.18996     -9.8616398      720.32832    
    876000   309.39566      0.0036258033  -0.24728313     767.61915     -12.205181      755.41397    
    877000   298.59785      0.0036258033  -0.79287497     740.82951     -8.9943328      731.83517    
    878000   302.30569      0.0036258033   3.7308593      750.02876     -8.9807889      741.04797    
    879000   300.01325      0.0036258033   2.5032416      744.34114     -10.720704      733.62044    
    880000   298.61783      0.0036258033  -1.3875701      740.87907     -9.288503       731.59057    
    881000   282.32235      0.0036258033  -2.1636376      700.44954     -10.112986      690.33656    
    882000   305.1194       0.0036258033   2.9561367      757.00964     -9.6863696      747.32327    
    883000   302.84373      0.0036258033   1.5852529      751.36365     -8.4565429      742.90711    
    884000   310.70453      0.0036258033  -1.0141075      770.86651     -8.9980787      761.86844    
    885000   303.73722      0.0036258033   1.9158775      753.58042     -9.9514939      743.62892    
    886000   313.88197      0.0036258033   3.5338012      778.74983     -11.245105      767.50473    
    887000   302.30756      0.0036258033   3.7091818      750.03339     -10.229096      739.80429    
    888000   294.20488      0.0036258033   1.7384179      729.9304      -11.608891      718.32151    
    889000   299.90557      0.0036258033   0.20989076     744.07398     -10.765345      733.30864    
    890000   315.45113      0.0036258033   1.8425416      782.64294     -7.9817565      774.66118    
    891000   306.91254      0.0036258033   4.5929717      761.45847     -9.4576302      752.00084    
    892000   296.36427      0.0036258033   1.2575705      735.28793     -8.0997654      727.18817    
    893000   306.36291      0.0036258033   1.6282891      760.09483     -8.8977192      751.19711    
    894000   316.61102      0.0036258033   2.6791635      785.52066     -10.567337      774.95332    
    895000   300.84187      0.0036258033   2.0317745      746.39697     -7.6615991      738.73537    
    896000   298.98807      0.0036258033   1.7692439      741.79765     -10.479604      731.31804    
    897000   303.88668      0.0036258033   1.3668409      753.95123     -9.2340506      744.71718    
    898000   303.35296      0.0036258033   2.4262716      752.62706     -10.508488      742.11858    
    899000   301.96605      0.0036258033   1.9695895      749.1861      -8.916578       740.26952    
    900000   285.0766       0.0036258033   2.1829557      707.2829      -9.5669638      697.71593    
    901000   300.34634      0.0036258033   2.5796079      745.16754     -9.5169795      735.65056    
    902000   312.93024      0.0036258033   2.0598498      776.38854     -7.4763089      768.91223    
    903000   302.4527       0.0036258033   1.2674345      750.39348     -6.1130157      744.28047    
    904000   296.60029      0.0036258033   1.9545922      735.87351     -6.3229742      729.55053    
    905000   302.76941      0.0036258033   1.8760005      751.17924     -8.5824178      742.59683    
    906000   292.00765      0.0036258033   1.7076         724.47902     -5.5693789      718.90964    
    907000   307.72669      0.0036258033   1.946439       763.47841     -6.9626378      756.51577    
    908000   297.13504      0.0036258033   2.92989        737.20024     -7.6338974      729.56634    
    909000   293.42458      0.0036258033   2.1432943      727.99447     -7.1058161      720.88865    
    910000   308.00119      0.0036258033   1.8652375      764.15944     -6.9070959      757.25234    
    911000   301.98662      0.0036258033   0.53856981     749.23712     -8.2299422      741.00718    
    912000   294.13561      0.0036258033   2.2706002      729.75857     -9.0515179      720.70705    
    913000   308.04949      0.0036258033   1.9350951      764.27927     -6.1536387      758.12563    
    914000   309.98682      0.0036258033   1.3363185      769.08584     -6.4351145      762.65073    
    915000   288.18615      0.0036258033   1.2951284      714.99777     -5.6651461      709.33263    
    916000   298.59262      0.0036258033   4.4698394      740.81651     -6.5568668      734.25964    
    917000   311.90207      0.0036258033   1.6448225      773.83763     -8.1349669      765.70266    
    918000   302.45243      0.0036258033   1.143072       750.39282     -7.4233796      742.96944    
    919000   282.02883      0.0036258033   1.7240961      699.72129     -7.4487336      692.27256    
    920000   309.1867       0.0036258033   3.8634111      767.10072     -6.9026931      760.19803    
    921000   311.33477      0.0036258033   2.3971829      772.43015     -8.5235391      763.90661    
    922000   296.70557      0.0036258033   1.5715917      736.1347      -5.3260528      730.80865    
    923000   294.46869      0.0036258033   1.0676044      730.58494     -7.2384045      723.34653    
    924000   298.53891      0.0036258033   2.8710171      740.68327     -7.0739394      733.60933    
    925000   301.26322      0.0036258033   3.7892669      747.44236     -6.084721       741.35764    
    926000   303.41712      0.0036258033   0.34742769     752.78625     -8.6647544      744.12149    
    927000   305.70286      0.0036258033   1.2031017      758.45722     -8.6611676      749.79606    
    928000   288.89302      0.0036258033   3.592347       716.75155     -9.2949245      707.45663    
    929000   309.58605      0.0036258033   3.1166727      768.09153     -6.5085468      761.58298    
    930000   311.05568      0.0036258033   1.5990652      771.73771     -7.0723717      764.66534    
    931000   287.16954      0.0036258033   0.056613244    712.47554     -9.0601398      703.4154     
    932000   295.41549      0.0036258033   3.4539389      732.93396     -6.4122505      726.52171    
    933000   304.79431      0.0036258033   2.8536091      756.20308     -8.9249189      747.27816    
    934000   312.485        0.0036258033  -1.7399628      775.28391     -8.9281946      766.35571    
    935000   291.39261      0.0036258033  -2.1064209      722.95309     -7.9333258      715.01976    
    936000   296.94517      0.0036258033  -1.0457674      736.72916     -7.9426625      728.7865     
    937000   302.51596      0.0036258033   1.3955894      750.55043     -5.9648683      744.58556    
    938000   310.49273      0.0036258033   6.2651946      770.34101     -6.9836227      763.35739    
    939000   305.83735      0.0036258033   2.0582352      758.7909      -8.9152182      749.87568    
    940000   301.53669      0.0036258033  -2.6451482      748.12084     -7.3175545      740.80329    
    941000   303.84918      0.0036258033   0.69317629     753.85818     -7.4093272      746.44886    
    942000   287.7285       0.0036258033   6.7999907      713.86233     -8.0864166      705.77591    
    943000   311.66166      0.0036258033   5.4718279      773.24118     -7.2775248      765.96365    
    944000   304.27153      0.0036258033   0.74113256     754.90606     -8.0592898      746.84677    
    945000   290.02483      0.0036258033   5.8404086      719.55961     -9.0597204      710.49989    
    946000   299.28513      0.0036258033   2.7686574      742.53467     -10.008602      732.52607    
    947000   302.98007      0.0036258033   1.0407214      751.7019      -10.012397      741.6895     
    948000   296.75377      0.0036258033   0.15178401     736.25428     -8.0992242      728.15506    
    949000   310.64062      0.0036258033   9.8743056      770.70794     -7.8722133      762.83573    
    950000   315.02423      0.0036258033   4.5473829      781.5838      -7.9847697      773.59903    
    951000   292.45212      0.0036258033   0.12138485     725.58178     -6.0544761      719.5273     
    952000   292.92077      0.0036258033   1.1679374      726.7445      -6.0513544      720.69314    
    953000   302.88362      0.0036258033   2.0887493      751.4626      -7.9867687      743.47583    
    954000   300.07725      0.0036258033   4.2160451      744.49993     -6.7449522      737.75498    
    955000   307.03881      0.0036258033   1.2224923      761.77174     -8.7736322      752.99811    
    956000   293.81314      0.0036258033  -1.0247447      728.95849     -7.2578554      721.70063    
    957000   297.30817      0.0036258033   2.7392683      737.62977     -6.1939679      731.43581    
    958000   293.70359      0.0036258033   2.9075234      728.6867      -8.8349537      719.85174    
    959000   309.72286      0.0036258033   1.3576968      768.43096     -5.4374052      762.99355    
    960000   310.00621      0.0036258033   1.2493363      769.13396     -6.321734       762.81222    
    961000   291.55684      0.0036258033   2.4908522      723.36055     -1.9200488      721.4405     
    962000   292.69318      0.0036258033   3.9983016      726.17984     -5.0864959      721.09334    
    963000   310.44238      0.0036258033   3.4124294      770.2161      -6.2793185      763.93678    
    964000   300.51067      0.0036258033  -0.3251386      745.57525     -6.4832038      739.09204    
    965000   288.61031      0.0036258033   2.0492113      716.05014     -5.4700188      710.58012    
    966000   301.49756      0.0036258033   2.168802       748.02375     -8.6969287      739.32682    
    967000   311.60996      0.0036258033   2.2289568      773.11289     -8.6454058      764.46748    
    968000   298.44622      0.0036258033   2.6112194      740.4533      -7.3302826      733.12302    
    969000   293.08809      0.0036258033   2.2720748      727.15964     -7.0156978      720.14394    
    970000   292.82394      0.0036258033   2.4558232      726.50426     -8.542203       717.96206    
    971000   303.31225      0.0036258033   0.22787193     752.52607     -8.0069989      744.51907    
    972000   309.51761      0.0036258033   0.9746739      767.92172     -7.3151862      760.60653    
    973000   303.57695      0.0036258033   2.7025594      753.18277     -8.2278763      744.95489    
    974000   302.08943      0.0036258033   3.6026613      749.4922      -4.7236099      744.76859    
    975000   299.25624      0.0036258033   1.8833584      742.46299     -5.3465908      737.1164     
    976000   308.62457      0.0036258033   2.112281       765.70607     -5.9757692      759.7303     
    977000   295.68316      0.0036258033   2.1902816      733.59808     -8.9233855      724.67469    
    978000   286.95774      0.0036258033   1.5701428      711.95007     -6.9372811      705.01279    
    979000   280.73992      0.0036258033   2.5393507      696.52348     -10.272803      686.25067    
    980000   300.31307      0.0036258033   1.7525351      745.085       -5.2110362      739.87397    
    981000   321.23908      0.0036258033   1.8373755      797.003       -5.7257024      791.2773     
    982000   303.00668      0.0036258033   2.0635387      751.76793     -4.6823629      747.08556    
    983000   294.84548      0.0036258033   2.5646372      731.51976     -4.8960568      726.6237     
    984000   293.68718      0.0036258033   1.9165075      728.64599     -4.1479942      724.498      
    985000   303.18477      0.0036258033   1.1932622      752.20976     -5.4573436      746.75242    
    986000   307.68304      0.0036258033   1.7888019      763.37011     -4.5404419      758.82967    
    987000   305.06492      0.0036258033   2.9617495      756.87447     -4.8102898      752.06418    
    988000   291.4309       0.0036258033   2.9330653      723.04809     -4.8396826      718.20841    
    989000   301.8489       0.0036258033   1.4193187      748.89545     -4.2100149      744.68543    
    990000   298.14715      0.0036258033   0.65205547     739.7113      -4.7876372      734.92367    
    991000   297.65016      0.0036258033   2.5218582      738.47826     -6.0908872      732.38738    
    992000   306.20748      0.0036258033   2.515312       759.70919     -5.6609583      754.04823    
    993000   291.49021      0.0036258033   1.5715965      723.19525     -3.4721774      719.72307    
    994000   290.17025      0.0036258033   2.0306726      719.92038     -4.58694        715.33344    
    995000   304.16389      0.0036258033   2.0478328      754.63898     -4.0782374      750.56075    
    996000   317.56345      0.0036258033   2.1597681      787.88367     -4.3830909      783.50058    
    997000   284.32139      0.0036258033   2.0468142      705.4092      -4.9946069      700.4146     
    998000   285.79338      0.0036258033   1.9852644      709.06126     -5.509682       703.55158    
    999000   313.47704      0.0036258033   2.3093212      777.74517     -5.4736669      772.2715     
   1000000   298.63172      0.0036258033   0.072036084    740.91353     -5.8978173      735.01572    
   1001000   289.6493       0.0036258033   1.5501399      718.6279      -5.306524       713.32138    
   1002000   293.32147      0.0036258033   2.9167702      727.73866     -5.8970752      721.84158    
   1003000   315.24662      0.0036258033   3.9530827      782.13555     -7.5198093      774.61574    
   1004000   306.16664      0.0036258033   1.9092382      759.60788     -7.3120152      752.29587    
   1005000   283.11232      0.0036258033   1.6302298      702.40947     -5.9964736      696.41299    
   1006000   298.69537      0.0036258033   2.2721411      741.07145     -7.5076736      733.56377    
   1007000   308.86547      0.0036258033   2.1574418      766.30375     -6.8190104      759.48474    
   1008000   304.22172      0.0036258033   1.5305192      754.78247     -7.9463746      746.83609    
   1009000   277.35768      0.0036258033   2.0212301      688.13205     -7.3157041      680.81635    
   1010000   313.73609      0.0036258033   3.5347983      778.38788     -7.8145358      770.57334    
   1011000   310.72106      0.0036258033   2.1867068      770.90751     -9.8108649      761.09664    
   1012000   301.63337      0.0036258033   0.60058644     748.36071     -7.0542384      741.30648    
   1013000   287.61623      0.0036258033   2.0152049      713.58378     -8.2172424      705.36654    
   1014000   308.19576      0.0036258033   3.3051241      764.64217     -8.9595362      755.68263    
   1015000   302.59799      0.0036258033   0.030244541    750.75396     -6.9282099      743.82575    
   1016000   295.42525      0.0036258033   2.5879154      732.95818     -9.5611765      723.39701    
   1017000   296.89028      0.0036258033   6.9514989      736.59297     -9.215028       727.37794    
   1018000   305.94934      0.0036258033   4.1750974      759.06875     -8.6084891      750.46026    
   1019000   306.93559      0.0036258033  -0.75769341     761.51566     -7.0960719      754.41959    
   1020000   287.55694      0.0036258033  -2.3715163      713.43669     -7.966337       705.47035    
   1021000   287.3519       0.0036258033   4.9029297      712.92797     -6.8927666      706.03521    
   1022000   302.29897      0.0036258033   6.1893164      750.01209     -8.2326837      741.7794     
   1023000   307.85975      0.0036258033  -2.4601575      763.80852     -8.4455668      755.36296    
   1024000   288.4191       0.0036258033  -1.755956       715.57574     -7.140288       708.43546    
   1025000   291.03509      0.0036258033   2.2442976      722.06608     -7.692433       714.37364    
   1026000   311.82877      0.0036258033   3.8914404      773.65577     -7.7050202      765.95075    
   1027000   309.84021      0.0036258033   3.7696153      768.7221      -7.6269949      761.09511    
   1028000   289.55463      0.0036258033  -0.89592033     718.39302     -7.224583       711.16844    
   1029000   300.25319      0.0036258033   0.85004998     744.93644     -6.8102722      738.12616    
   1030000   288.79311      0.0036258033   3.5966923      716.50367     -6.9831147      709.52055    
   1031000   299.33591      0.0036258033   3.6021402      742.66065     -7.9361682      734.72448    
   1032000   307.80442      0.0036258033   0.46139979     763.67124     -6.5559443      757.11529    
   1033000   298.52106      0.0036258033   1.3849563      740.63897     -8.1250147      732.51396    
   1034000   301.83056      0.0036258033   2.5297825      748.84995     -11.288596      737.56136    
   1035000   300.51531      0.0036258033   2.0236985      745.58677     -10.161614      735.42515    
   1036000   294.4873       0.0036258033   0.96753793     730.6311      -10.340743      720.29036    
   1037000   283.82872      0.0036258033   2.1896963      704.18687     -9.1690595      695.01781    
   1038000   300.98491      0.0036258033   2.5103046      746.75185     -9.4369742      737.31488    
   1039000   308.91973      0.0036258033   2.4575418      766.43836     -10.240959      756.1974     
   1040000   300.61759      0.0036258033   2.2694708      745.84053     -8.2148957      737.62563    
   1041000   299.10202      0.0036258033  -2.1412062      742.08035     -10.532316      731.54803    
   1042000   299.59449      0.0036258033   3.2483448      743.3022      -8.8654855      734.43671    
   1043000   299.5516       0.0036258033   1.4518241      743.19578     -9.380614       733.81517    
   1044000   298.74755      0.0036258033  -1.0872906      741.2009      -9.8403701      731.36053    
   1045000   287.37296      0.0036258033   1.9321878      712.98024     -9.0317234      703.94852    
   1046000   302.70452      0.0036258033   3.1669651      751.01826     -7.8894968      743.12876    
   1047000   306.818        0.0036258033   2.6065776      761.22392     -6.7470614      754.47686    
   1048000   292.55327      0.0036258033  -1.2206406      725.83273     -7.4711602      718.36157    
   1049000   286.00946      0.0036258033   0.449705       709.59736     -7.247989       702.34937    
   1050000   301.81362      0.0036258033   2.9711679      748.80792     -9.7172266      739.09069    
   1051000   317.51399      0.0036258033   1.903514       787.76097     -7.7925974      779.96837    
   1052000   303.16827      0.0036258033   0.27253781     752.16883     -8.2215322      743.9473     
   1053000   295.37592      0.0036258033   2.7283756      732.8358      -6.28973        726.54607    
   1054000   308.55801      0.0036258033   3.1135606      765.54092     -6.2071784      759.33374    
   1055000   300.48135      0.0036258033   0.44195353     745.50251     -7.2460094      738.2565     
   1056000   301.18187      0.0036258033   4.1604156      747.24051     -7.5351146      739.70539    
   1057000   294.87794      0.0036258033   4.296143       731.6003      -7.5170011      724.0833     
   1058000   301.88905      0.0036258033   0.93683999     748.99506     -6.4522453      742.54281    
   1059000   301.18025      0.0036258033   1.9175482      747.23651     -8.9304575      738.30605    
   1060000   311.67541      0.0036258033   5.4363272      773.27528     -10.65395       762.62132    
   1061000   310.63317      0.0036258033   0.04383912     770.68945     -12.319402      758.37005    
   1062000   293.81225      0.0036258033   0.095051534    728.9563      -10.971092      717.9852     
   1063000   285.55501      0.0036258033   0.17065556     708.46985     -9.4457708      699.02407    
   1064000   300.11468      0.0036258033   4.4286615      744.59279     -10.336686      734.25611    
   1065000   308.04513      0.0036258033   3.7748142      764.26845     -10.549203      753.71925    
   1066000   302.50759      0.0036258033  -0.9196737      750.52968     -9.2405073      741.28917    
   1067000   297.50962      0.0036258033  -2.6734892      738.12958     -7.8934943      730.23608    
   1068000   292.98758      0.0036258033   0.66291428     726.91027     -5.8474904      721.06278    
   1069000   295.94892      0.0036258033   2.2710588      734.25742     -7.5244585      726.73296    
   1070000   303.87694      0.0036258033   4.1898758      753.92707     -7.5211291      746.40594    
   1071000   306.46772      0.0036258033   1.2593681      760.35486     -7.8988079      752.45605    
   1072000   303.21727      0.0036258033   1.1620117      752.29039     -7.5700299      744.72036    
   1073000   294.28236      0.0036258033   2.1763334      730.12265     -8.4160048      721.70664    
   1074000   299.23244      0.0036258033   2.1605581      742.40394     -8.3966137      734.00733    
   1075000   306.75737      0.0036258033   1.8995936      761.07348     -7.594381       753.4791     
   1076000   303.27904      0.0036258033   1.7490149      752.44365     -7.7580371      744.68562    
   1077000   295.80372      0.0036258033   2.1483706      733.89719     -7.8169878      726.0802     
   1078000   290.01722      0.0036258033   2.4817201      719.54073     -5.4529478      714.08778    
   1079000   292.30038      0.0036258033   2.2349926      725.2053      -5.7317545      719.47355    
   1080000   295.8827       0.0036258033   1.0404919      734.09314     -7.5742282      726.51891    
   1081000   304.71641      0.0036258033   2.4221616      756.00981     -6.8625063      749.1473     
   1082000   290.06484      0.0036258033   2.3532997      719.65886     -6.0645245      713.59434    
   1083000   299.03463      0.0036258033   1.3569226      741.91316     -8.9523764      732.96079    
   1084000   319.52886      0.0036258033   2.2225174      792.75992     -8.2354256      784.52449    
   1085000   296.71693      0.0036258033   1.9623193      736.16289     -7.8354974      728.32739    
   1086000   297.49918      0.0036258033   1.6965461      738.10368     -7.3893567      730.71432    
   1087000   294.04917      0.0036258033   1.8728622      729.5441      -7.3183352      722.22576    
   1088000   303.11222      0.0036258033   1.683873       752.02977     -8.2665169      743.76326    
   1089000   299.90315      0.0036258033   2.4350726      744.06799     -10.586289      733.4817     
   1090000   289.59028      0.0036258033   1.7392786      718.48146     -6.2169441      712.26451    
   1091000   295.9101       0.0036258033   1.1670624      734.16112     -7.1402185      727.0209     
   1092000   298.96452      0.0036258033   2.921866       741.73922     -6.144852       735.59437    
   1093000   301.50702      0.0036258033   3.1584389      748.04724     -5.8157732      742.23146    
   1094000   294.45247      0.0036258033  -3.6198091      730.5447      -5.2107654      725.33393    
   1095000   301.93395      0.0036258033   2.6767827      749.10646     -4.6522114      744.45424    
   1096000   302.90644      0.0036258033   1.6650269      751.51924     -5.6351866      745.88405    
   1097000   311.30673      0.0036258033   7.8165393      772.36057     -5.7211296      766.63944    
   1098000   300.18541      0.0036258033   0.84004024     744.76828     -7.1732682      737.59501    
   1099000   309.74245      0.0036258033   3.214485       768.47957     -7.9197619      760.5598     
   1100000   296.73064      0.0036258033   4.2558183      736.19691     -9.5342887      726.66262    
   1101000   302.63359      0.0036258033   2.4090477      750.84227     -9.0873916      741.75488    
   1102000   300.43539      0.0036258033   1.7355574      745.38848     -7.0701892      738.31829    
   1103000   288.00433      0.0036258033   1.5258097      714.54667     -8.0680046      706.47867    
   1104000   302.64704      0.0036258033  -0.8043667      750.87565     -5.8822249      744.99343    
   1105000   306.57163      0.0036258033   2.266546       760.61266     -7.2682642      753.3444     
   1106000   295.75997      0.0036258033   2.9947912      733.78865     -8.1085048      725.68014    
   1107000   282.5316       0.0036258033   1.9273796      700.96869     -9.6533085      691.31538    
   1108000   303.15799      0.0036258033   1.7886445      752.14334     -11.218948      740.92439    
   1109000   305.8589       0.0036258033   2.006815       758.84436     -9.6361613      749.2082     
   1110000   288.51435      0.0036258033   1.9749818      715.81205     -9.0779325      706.73412    
   1111000   279.04612      0.0036258033   1.8790764      692.32111     -10.233341      682.08777    
   1112000   300.41467      0.0036258033   1.9055178      745.33709     -9.2027448      736.13434    
   1113000   303.09947      0.0036258033   2.057201       751.99814     -6.4150202      745.58312    
   1114000   308.63683      0.0036258033   2.7455096      765.73648     -7.60132        758.13516    
   1115000   288.91168      0.0036258033   1.1934473      716.79784     -9.0025801      707.79526    
   1116000   297.57563      0.0036258033   0.49322893     738.29334     -6.4261919      731.86715    
   1117000   300.85483      0.0036258033   1.6822974      746.42913     -9.5926441      736.83649    
   1118000   312.88625      0.0036258033   2.1450342      776.27941     -8.758724       767.52069    
   1119000   304.40707      0.0036258033   3.700196       755.24232     -8.8518979      746.39043    
   1120000   289.77629      0.0036258033   3.4135531      718.94295     -11.035044      707.90791    
   1121000   298.7715       0.0036258033   0.065468557    741.26032     -12.165354      729.09496    
   1122000   300.51637      0.0036258033  -0.59873286     745.58941     -10.787968      734.80144    
   1123000   304.08331      0.0036258033   2.0553416      754.43908     -10.936618      743.50246    
   1124000   315.30757      0.0036258033   5.2595447      782.28678     -11.460127      770.82666    
   1125000   283.136        0.0036258033   2.9518741      702.46823     -13.547432      688.9208     
   1126000   295.11019      0.0036258033   0.28321464     732.17652     -8.5864785      723.59005    
   1127000   305.41178      0.0036258033   2.047386       757.73504     -10.013417      747.72162    
   1128000   295.36067      0.0036258033   4.5556644      732.79796     -10.366149      722.43181    
   1129000   303.41303      0.0036258033  -0.41223783     752.7761      -10.88935       741.88675    
   1130000   305.41367      0.0036258033   0.25045088     757.73973     -10.387387      747.35234    
   1131000   310.28228      0.0036258033   3.5680716      769.81889     -9.7528635      760.06603    
   1132000   295.27206      0.0036258033   1.0260595      732.57813     -9.0187781      723.55935    
   1133000   291.45762      0.0036258033  -0.13921526     723.11438     -8.3088924      714.80548    
   1134000   298.42979      0.0036258033   0.36957429     740.41252     -9.21606        731.19646    
   1135000   313.72014      0.0036258033   1.0777307      778.34831     -10.592131      767.75618    
   1136000   302.84022      0.0036258033   2.8258989      751.35494     -10.820031      740.53491    
   1137000   294.91835      0.0036258033   2.6953912      731.70055     -11.326082      720.37447    
   1138000   289.0025       0.0036258033   1.1440851      717.02317     -9.4662803      707.55689    
   1139000   304.81232      0.0036258033  -0.33240042     756.24776     -9.4159809      746.83178    
   1140000   308.33565      0.0036258033   1.4703484      764.98925     -8.9397377      756.04951    
   1141000   301.95004      0.0036258033   3.5833046      749.14636     -10.541694      738.60467    
   1142000   302.94074      0.0036258033   3.1528925      751.60433     -10.457291      741.14704    
   1143000   303.79184      0.0036258033   2.3751334      753.71594     -9.9032516      743.81269    
   1144000   285.49169      0.0036258033   0.8028342      708.31276     -9.6986062      698.61415    
   1145000   308.00603      0.0036258033   1.6287866      764.17145     -9.2595638      754.91189    
   1146000   299.94002      0.0036258033   2.6612057      744.15945     -6.8457416      737.31371    
   1147000   299.20499      0.0036258033   1.8645419      742.33582     -7.9198708      734.41595    
   1148000   316.26853      0.0036258033   1.7895822      784.67094     -8.2954436      776.37549    
   1149000   302.03232      0.0036258033   2.1955316      749.35052     -7.7536762      741.59685    
   1150000   298.33997      0.0036258033   2.1830763      740.18968     -8.9676344      731.22205    
   1151000   303.07339      0.0036258033   2.1026776      751.93343     -8.2090217      743.72441    
   1152000   298.29093      0.0036258033   2.0629131      740.06802     -7.169323       732.8987     
   1153000   311.98282      0.0036258033   2.5098017      774.03799     -8.6271576      765.41083    
   1154000   298.62511      0.0036258033   1.7256092      740.89713     -6.7306823      734.16645    
   1155000   300.7496       0.0036258033   1.9985747      746.16805     -7.5399006      738.62815    
   1156000   305.02962      0.0036258033   1.4063879      756.78689     -7.5639101      749.22298    
   1157000   307.6335       0.0036258033   2.2415744      763.2472      -5.6072833      757.63992    
   1158000   293.09662      0.0036258033   2.1001776      727.18078     -8.8921012      718.28868    
   1159000   291.13611      0.0036258033   1.3024728      722.31672     -8.9479648      713.36876    
   1160000   304.0401       0.0036258033   1.3139318      754.33187     -8.3410127      745.99085    
   1161000   312.69689      0.0036258033   3.8807347      775.80959     -8.5871981      767.22239    
   1162000   303.93323      0.0036258033   2.1566969      754.06673     -7.893307       746.17342    
   1163000   301.54657      0.0036258033   1.3899485      748.14535     -7.3452319      740.80012    
   1164000   293.36523      0.0036258033   2.337613       727.84721     -6.9590957      720.88812    
   1165000   293.10971      0.0036258033   2.1585559      727.21326     -4.1615949      723.05167    
   1166000   304.6065       0.0036258033   1.5426536      755.73712     -6.1407552      749.59637    
   1167000   305.44687      0.0036258033   1.9380687      757.82211     -6.4593128      751.3628     
   1168000   292.05706      0.0036258033   1.7048793      724.60161     -9.5198968      715.08171    
   1169000   284.19825      0.0036258033   2.0800201      705.10368     -9.2761064      695.82758    
   1170000   302.1204       0.0036258033   2.0830094      749.56905     -6.4493924      743.11966    
   1171000   308.52633      0.0036258033   2.0240903      765.46234     -7.0146534      758.44769    
   1172000   317.3902       0.0036258033   2.1927055      787.45384     -8.1669311      779.28691    
   1173000   295.82461      0.0036258033   2.1773518      733.94902     -8.2829088      725.66611    
   1174000   304.84981      0.0036258033   1.7935035      756.34077     -9.8300039      746.51077    
   1175000   308.98309      0.0036258033   1.9728027      766.59557     -11.250481      755.34509    
   1176000   294.09465      0.0036258033   2.2792469      729.65693     -10.875743      718.78118    
   1177000   299.62242      0.0036258033   1.9925318      743.37149     -10.940193      732.4313     
   1178000   297.1493       0.0036258033   1.4825273      737.2356      -8.5070828      728.72852    
   1179000   312.41396      0.0036258033   1.8853734      775.10765     -9.349324       765.75832    
   1180000   302.77921      0.0036258033   3.5099583      751.20356     -9.1518879      742.05167    
   1181000   298.76426      0.0036258033   3.4320438      741.24237     -7.7752692      733.4671     
   1182000   299.54676      0.0036258033   2.0398489      743.18376     -7.3765756      735.80719    
   1183000   290.04188      0.0036258033   1.9330735      719.6019      -6.3501877      713.25171    
   1184000   280.70205      0.0036258033   2.2789174      696.42953     -9.9778134      686.45172    
   1185000   304.18529      0.0036258033   2.3091719      754.69209     -6.7292143      747.96287    
   1186000   310.56322      0.0036258033   2.236146       770.5159      -6.8385708      763.67733    
   1187000   305.26336      0.0036258033   1.9713714      757.3668      -5.2126509      752.15415    
   1188000   293.94962      0.0036258033   2.1199941      729.29711     -7.4373664      721.85974    
   1189000   294.34628      0.0036258033   2.0227596      730.28122     -7.6356974      722.64553    
   1190000   307.81447      0.0036258033   1.5820298      763.69619     -7.8491948      755.847      
   1191000   302.06518      0.0036258033   2.2533515      749.43203     -7.3385475      742.09348    
   1192000   303.08516      0.0036258033   1.8423241      751.96263     -6.8900387      745.07259    
   1193000   299.78381      0.0036258033   1.3530966      743.7719      -6.7578045      737.0141     
   1194000   304.10047      0.0036258033   2.3275378      754.48165     -5.9520002      748.52965    
   1195000   291.84551      0.0036258033   2.8802473      724.07675     -6.6632203      717.41353    
   1196000   281.55687      0.0036258033   2.2804162      698.55035     -6.1352021      692.41514    
   1197000   307.08188      0.0036258033   1.7359768      761.87861     -5.3256456      756.55296    
   1198000   315.11351      0.0036258033   2.3597835      781.80532     -7.1653558      774.63996    
   1199000   309.16698      0.0036258033   4.2398034      767.05181     -7.3102535      759.74155    
   1200000   295.84933      0.0036258033   1.9861115      734.01035     -9.2115277      724.79882    
   1201000   289.51085      0.0036258033   1.6473704      718.28441     -8.11146        710.17295    
   1202000   312.46598      0.0036258033   2.5915711      775.23671     -5.9436407      769.29307    
   1203000   308.53018      0.0036258033   2.1870766      765.47189     -10.32313       755.14876    
   1204000   295.39377      0.0036258033   1.7408554      732.88009     -6.088134       726.79196    
   1205000   294.56691      0.0036258033   2.2680561      730.82863     -4.7249103      726.10372    
   1206000   305.153        0.0036258033   1.3584455      757.093       -7.7009848      749.39202    
   1207000   297.00851      0.0036258033   2.1481543      736.88629     -3.473368       733.41292    
   1208000   303.61312      0.0036258033   2.3037478      753.27252     -6.9143167      746.35821    
   1209000   311.59134      0.0036258033   1.9108803      773.06671     -6.6699283      766.39678    
   1210000   286.25429      0.0036258033   2.0515878      710.20479     -7.3500604      702.85473    
   1211000   303.81209      0.0036258033   2.1314172      753.76617     -8.0991131      745.66705    
   1212000   310.41781      0.0036258033   1.7932201      770.15514     -6.6430973      763.51204    
   1213000   288.10059      0.0036258033   0.847912       714.7855      -5.2685912      709.51691    
   1214000   302.63123      0.0036258033   1.2504308      750.83643     -5.4995407      745.33689    
   1215000   308.41117      0.0036258033   3.5208569      765.17661     -7.4589521      757.71766    
   1216000   315.74449      0.0036258033   2.2149286      783.37077     -9.0790364      774.29173    
   1217000   303.91796      0.0036258033   2.1622824      754.02884     -6.8856714      747.14316    
   1218000   299.60953      0.0036258033   1.9825485      743.33951     -8.542187       734.79732    
   1219000   297.77787      0.0036258033   2.2785989      738.79511     -8.4132952      730.38182    
   1220000   297.51322      0.0036258033   2.1332668      738.13851     -7.0717676      731.06674    
   1221000   289.05488      0.0036258033   1.6866337      717.15312     -7.8558288      709.29729    
   1222000   302.4125       0.0036258033   2.2278155      750.29374     -6.8158879      743.47785    
   1223000   309.37285      0.0036258033   2.339547       767.56257     -7.7916982      759.77087    
   1224000   303.56647      0.0036258033   2.2560382      753.15677     -6.5677781      746.58899    
   1225000   301.22627      0.0036258033   2.0778461      747.35067     -6.5962885      740.75438    
   1226000   294.80681      0.0036258033   2.0561184      731.42381     -6.4889924      724.93482    
   1227000   298.31412      0.0036258033   2.1234978      740.12556     -6.1224873      734.00307    
   1228000   305.73214      0.0036258033   2.090818       758.52988     -6.3918808      752.138      
   1229000   297.4594       0.0036258033   2.1955259      738.00497     -6.8873068      731.11767    
   1230000   291.83869      0.0036258033   1.8875004      724.05983     -6.3586968      717.70113    
   1231000   295.65444      0.0036258033   1.8980989      733.52682     -6.018369       727.50845    
   1232000   305.14386      0.0036258033   1.9262775      757.07033     -8.886599       748.18373    
   1233000   311.65946      0.0036258033   2.3976309      773.23572     -8.5393773      764.69634    
   1234000   307.2968       0.0036258033   2.0607978      762.41183     -8.4747301      753.9371     
   1235000   295.32761      0.0036258033   1.8171063      732.71595     -9.9307887      722.78516    
   1236000   304.5799       0.0036258033   0.98257966     755.67113     -11.513043      744.15808    
   1237000   307.24642      0.0036258033   2.2644963      762.28684     -10.379153      751.90769    
   1238000   296.32432      0.0036258033   1.6871819      735.1888      -10.263766      724.92503    
   1239000   305.84286      0.0036258033   1.0054052      758.80458     -7.3576473      751.44693    
   1240000   299.69862      0.0036258033   2.5534129      743.56054     -9.8975507      733.66299    
   1241000   297.45614      0.0036258033   2.7419803      737.99688     -9.6140075      728.38287    
   1242000   285.97595      0.0036258033   1.5341265      709.51423     -9.6855389      699.82869    
   1243000   307.4158       0.0036258033   1.741368       762.70707     -9.9157503      752.79132    
   1244000   304.45706      0.0036258033   2.0614333      755.36636     -8.6652634      746.7011     
   1245000   289.85117      0.0036258033   2.0693855      719.12873     -9.535227       709.5935     
   1246000   296.19374      0.0036258033   1.6184335      734.86483     -8.5075712      726.35726    
   1247000   312.30432      0.0036258033   1.9423446      774.83564     -10.462808      764.37283    
   1248000   295.89969      0.0036258033   1.9931909      734.13529     -10.707281      723.42801    
   1249000   290.88876      0.0036258033   1.6523948      721.70304     -12.827631      708.87541    
   1250000   307.50298      0.0036258033   2.7988346      762.92338     -11.207821      751.71556    
   1251000   308.32496      0.0036258033   2.0452481      764.96273     -6.8346477      758.12809    
   1252000   285.01486      0.0036258033   1.633109       707.12973     -7.8551838      699.27454    
   1253000   296.30054      0.0036258033   2.4848015      735.12981     -6.0170726      729.11273    
   1254000   318.46346      0.0036258033   2.9165772      790.11663     -8.6180067      781.49863    
   1255000   296.41725      0.0036258033   1.6454471      735.41936     -9.490021       725.92934    
   1256000   288.67576      0.0036258033   1.8584998      716.21253     -7.1648881      709.04764    
   1257000   308.10919      0.0036258033   1.8999076      764.4274      -9.9487367      754.47867    
   1258000   307.96824      0.0036258033   2.1830059      764.07769     -8.8964753      755.18121    
   1259000   297.84958      0.0036258033   1.9170382      738.97302     -7.4496747      731.52334    
   1260000   307.4341       0.0036258033   2.5874777      762.75248     -6.0593816      756.6931     
   1261000   305.55429      0.0036258033   1.8963414      758.08862     -6.7972746      751.29134    
   1262000   290.86644      0.0036258033   2.0810623      721.64765     -6.4024033      715.24524    
   1263000   304.27113      0.0036258033   2.0593252      754.90507     -6.6922615      748.21281    
   1264000   291.19251      0.0036258033   2.0889871      722.45664     -6.189313       716.26733    
   1265000   290.66606      0.0036258033   1.9125355      721.15051     -6.1883891      714.96212    
   1266000   312.66673      0.0036258033   1.2327037      775.73477     -7.1461813      768.58859    
   1267000   303.39915      0.0036258033   4.1648576      752.74165     -11.134327      741.60732    
   1268000   280.53419      0.0036258033   2.8736876      696.01306     -8.7987765      687.21428    
   1269000   302.96629      0.0036258033   0.96878951     751.66772     -9.1575148      742.51021    
   1270000   309.9997       0.0036258033   1.9976614      769.11781     -7.1492245      761.96859    
   1271000   294.63535      0.0036258033   3.7276576      730.99842     -6.6355829      724.36284    
   1272000   290.30387      0.0036258033   1.3525287      720.25191     -6.6408329      713.61108    
   1273000   308.90517      0.0036258033   1.3710061      766.40224     -8.1076245      758.29462    
   1274000   309.26888      0.0036258033   2.6602471      767.30462     -7.8299793      759.47465    
   1275000   296.1522       0.0036258033   2.0229963      734.76176     -8.0895654      726.6722     
   1276000   289.22048      0.0036258033   1.4192258      717.564       -8.4674877      709.09651    
   1277000   306.98297      0.0036258033   1.7431862      761.63322     -8.8131372      752.82008    
   1278000   313.27188      0.0036258033   5.635594       777.23618     -8.3427412      768.89344    
   1279000   291.12985      0.0036258033   3.2683087      722.30119     -8.2691744      714.03201    
   1280000   288.68965      0.0036258033   1.0954091      716.24697     -7.8283584      708.41861    
   1281000   308.73579      0.0036258033   3.0039124      765.98202     -7.1739741      758.80804    
   1282000   305.76542      0.0036258033   3.4547828      758.61243     -6.4379668      752.17447    
   1283000   299.03497      0.0036258033   3.4420107      741.914       -9.3756176      732.53839    
   1284000   296.48482      0.0036258033   0.62166049     735.58701     -10.36944       725.21757    
   1285000   321.47559      0.0036258033  -0.46073561     797.5898      -9.013103       788.5767     
   1286000   308.54363      0.0036258033   3.1954911      765.50526     -9.447862       756.0574     
   1287000   302.7933       0.0036258033   3.9434432      751.23853     -8.9576088      742.28093    
   1288000   293.84469      0.0036258033   2.1354994      729.03678     -10.497307      718.53947    
   1289000   301.60015      0.0036258033  -4.2345054      748.27828     -9.8957424      738.38254    
   1290000   309.42249      0.0036258033   3.4815815      767.68573     -9.2428128      758.44292    
   1291000   316.71365      0.0036258033   6.0257744      785.77531     -8.695707       777.0796     
   1292000   300.96872      0.0036258033   1.3926972      746.71169     -7.907108       738.80459    
   1293000   299.37938      0.0036258033  -1.7898973      742.76849     -5.9035528      736.86494    
   1294000   295.34469      0.0036258033   2.8886123      732.75833     -8.0959619      724.66236    
   1295000   300.68908      0.0036258033   3.7045866      746.0179      -8.3333994      737.6845     
   1296000   302.53208      0.0036258033  -3.0664411      750.59044     -8.0518513      742.53859    
   1297000   301.77726      0.0036258033   3.1526375      748.71771     -6.7418995      741.97581    
   1298000   298.38058      0.0036258033   2.9699379      740.29046     -8.4471115      731.84334    
   1299000   300.45924      0.0036258033  -3.0690907      745.44765     -10.847384      734.60027    
   1300000   299.07688      0.0036258033   2.9860824      742.01799     -11.209559      730.80843    
   1301000   288.48543      0.0036258033   2.6625739      715.7403      -9.6531947      706.08711    
   1302000   304.55252      0.0036258033  -0.042708195    755.6032      -9.1706845      746.43252    
   1303000   317.10394      0.0036258033   0.69352885     786.74361     -9.4574974      777.28612    
   1304000   305.78116      0.0036258033   5.9574915      758.65148     -6.8982291      751.75325    
   1305000   290.89539      0.0036258033   2.2968074      721.71949     -8.4524525      713.26704    
   1306000   312.87652      0.0036258033   0.16808233     776.25526     -8.822915       767.43235    
   1307000   307.59962      0.0036258033   2.348836       763.16313     -8.4169407      754.74619    
   1308000   282.66277      0.0036258033   1.7611968      701.29412     -8.8702586      692.42386    
   1309000   289.57076      0.0036258033   1.4217962      718.43305     -7.9250812      710.50797    
   1310000   318.56615      0.0036258033   1.1345246      790.37141     -9.2868146      781.0846     
   1311000   301.2704       0.0036258033   2.1757238      747.46016     -8.0893442      739.37082    
   1312000   295.48367      0.0036258033   2.0910613      733.10312     -7.365543       725.73758    
   1313000   291.67606      0.0036258033   1.9871999      723.65634     -9.87185        713.78449    
   1314000   313.50273      0.0036258033   1.7021258      777.80893     -9.0265061      768.78242    
   1315000   305.29845      0.0036258033   2.0190413      757.45386     -11.091919      746.36194    
   1316000   298.91578      0.0036258033   2.14469        741.61829     -11.016364      730.60192    
   1317000   286.05502      0.0036258033   2.3929917      709.71039     -11.643599      698.06679    
   1318000   310.90377      0.0036258033   1.3180823      771.36082     -10.476305      760.88451    
   1319000   297.84905      0.0036258033   2.0896575      738.97169     -10.762162      728.20953    
   1320000   296.02342      0.0036258033   3.052823       734.44226     -11.954814      722.48745    
   1321000   297.31599      0.0036258033   1.7999581      737.64917     -11.800143      725.84903    
   1322000   298.38052      0.0036258033   2.0582887      740.29029     -9.972505       730.31779    
   1323000   306.49959      0.0036258033   1.6156334      760.43394     -11.233452      749.20049    
   1324000   303.65625      0.0036258033   1.605401       753.37952     -10.675439      742.70408    
   1325000   290.77631      0.0036258033   2.2471513      721.42404     -10.788107      710.63594    
   1326000   300.95885      0.0036258033   2.493088       746.6872      -13.324281      733.36292    
   1327000   306.31278      0.0036258033   1.8069051      759.97045     -11.024091      748.94636    
   1328000   306.57012      0.0036258033   1.3985585      760.60891     -11.107363      749.50155    
   1329000   290.18498      0.0036258033   1.4430223      719.95693     -11.039017      708.91791    
   1330000   288.53299      0.0036258033   2.1280942      715.8583      -11.867184      703.99111    
   1331000   301.03166      0.0036258033   2.3738007      746.86786     -8.5307483      738.33711    
   1332000   321.94885      0.0036258033   1.4413945      798.76397     -8.4551765      790.30879    
   1333000   295.21117      0.0036258033   0.79701613     732.42704     -10.805098      721.62194    
   1334000   288.88845      0.0036258033   2.2239446      716.7402      -8.5348894      708.20531    
   1335000   294.66401      0.0036258033   2.5172818      731.06952     -7.1123364      723.95719    
   1336000   314.18363      0.0036258033   1.1831559      779.49825     -8.5939773      770.90427    
   1337000   295.8836       0.0036258033  -1.056394       734.09536     -10.46506       723.6303     
   1338000   292.0385       0.0036258033   2.0554677      724.55557     -8.9948038      715.56076    
   1339000   302.02342      0.0036258033   2.3375006      749.32843     -9.3743543      739.95408    
   1340000   314.95212      0.0036258033   2.0809731      781.4049      -9.7732758      771.63162    
   1341000   295.45302      0.0036258033   1.6144641      733.02709     -9.9337543      723.09333    
   1342000   289.55772      0.0036258033   1.763454       718.40069     -9.4839413      708.91675    
   1343000   303.39514      0.0036258033   1.9317862      752.7317      -6.5958598      746.13584    
   1344000   312.39257      0.0036258033   1.9312323      775.05458     -8.3299078      766.72467    
   1345000   287.77187      0.0036258033   1.9205113      713.96993     -8.0420914      705.92784    
   1346000   282.23173      0.0036258033   1.1259296      700.22469     -8.508422       691.71627    
   1347000   301.35855      0.0036258033   1.5083273      747.67887     -9.9352095      737.74366    
   1348000   313.90671      0.0036258033  -0.31071861     778.8112      -7.085105       771.7261     
   1349000   297.79708      0.0036258033   2.6661976      738.84277     -7.3754899      731.46728    
   1350000   290.03409      0.0036258033   2.8704255      719.58258     -6.8215857      712.76099    
   1351000   301.3508       0.0036258033   1.4939509      747.65965     -8.5298923      739.12976    
   1352000   303.89365      0.0036258033   1.5652028      753.96853     -8.1245335      745.844      
   1353000   300.48545      0.0036258033   2.4109974      745.51268     -9.3514279      736.16125    
   1354000   301.05927      0.0036258033   2.0743965      746.93636     -7.8174001      739.11896    
   1355000   304.81854      0.0036258033   1.9643972      756.26321     -5.5514716      750.71174    
   1356000   304.27515      0.0036258033   2.1159051      754.91503     -7.9279762      746.98705    
   1357000   296.85099      0.0036258033   2.0714206      736.4955      -4.6650885      731.83041    
   1358000   298.14359      0.0036258033   1.95444        739.70247     -6.9667426      732.73573    
   1359000   310.33066      0.0036258033   2.1295968      769.93893     -5.5461845      764.39274    
   1360000   324.05539      0.0036258033   2.2417845      803.99036     -5.145714       798.84464    
   1361000   294.20843      0.0036258033   2.2341732      729.93923     -5.914033       724.0252     
   1362000   287.87297      0.0036258033   1.7355836      714.22076     -6.9109633      707.3098     
   1363000   305.36712      0.0036258033   2.0801195      757.62425     -6.7648009      750.85944    
   1364000   307.69051      0.0036258033   2.2213043      763.38864     -5.9883633      757.40027    
   1365000   294.43035      0.0036258033   1.9260145      730.4898      -6.832525       723.65728    
   1366000   289.58008      0.0036258033   2.0412657      718.45616     -6.2624454      712.19372    
   1367000   295.93109      0.0036258033   1.6050212      734.21318     -5.653178       728.56001    
   1368000   300.67341      0.0036258033   2.0732957      745.97901     -5.7547594      740.22425    
   1369000   309.62706      0.0036258033   2.0069229      768.19328     -6.4285328      761.76475    
   1370000   301.5423       0.0036258033   1.9939304      748.13477     -6.8027025      741.33206    
   1371000   292.13304      0.0036258033   0.94976045     724.79012     -5.7697072      719.02041    
   1372000   299.61596      0.0036258033   1.6367309      743.35545     -5.6637006      737.69175    
   1373000   311.17802      0.0036258033   1.6176637      772.04124     -7.4286408      764.6126     
   1374000   301.3422       0.0036258033   2.4725602      747.6383      -7.0019178      740.63638    
   1375000   283.38104      0.0036258033   1.8163183      703.07617     -6.3543998      696.72177    
   1376000   300.22341      0.0036258033   1.7875127      744.86256     -4.7442183      740.11835    
   1377000   303.76146      0.0036258033   2.0368619      753.64055     -6.4047399      747.23581    
   1378000   304.96753      0.0036258033   2.0039106      756.63285     -8.0096578      748.62319    
   1379000   298.43358      0.0036258033   3.1787755      740.42195     -9.4483342      730.97361    
   1380000   287.32792      0.0036258033   1.9729855      712.8685      -8.4517616      704.41673    
   1381000   299.22659      0.0036258033   1.1459523      742.38942     -7.2715506      735.11787    
   1382000   314.87911      0.0036258033   2.1357156      781.22375     -7.3345099      773.88924    
   1383000   305.00544      0.0036258033   3.0090875      756.7269      -6.3346945      750.39221    
   1384000   290.51604      0.0036258033   2.3373526      720.7783      -7.5875573      713.19074    
   1385000   287.7575       0.0036258033   0.2917819      713.93428     -6.4413219      707.49296    
   1386000   313.67024      0.0036258033   1.6884841      778.22452     -10.218989      768.00553    
   1387000   306.87354      0.0036258033   2.6989503      761.36171     -8.8855953      752.47611    
   1388000   293.38709      0.0036258033   2.0491202      727.90146     -7.1485633      720.75289    
   1389000   299.53974      0.0036258033   0.83222964     743.16635     -7.3057042      735.86064    
   1390000   307.95361      0.0036258033   2.381873       764.04139     -7.2681246      756.77326    
   1391000   299.20916      0.0036258033   2.2048383      742.34618     -8.5735651      733.77262    
   1392000   283.63347      0.0036258033   1.5217262      703.70247     -8.9496743      694.75279    
   1393000   304.90752      0.0036258033   1.7112982      756.48395     -7.3675603      749.11639    
   1394000   307.75818      0.0036258033   2.077958       763.55652     -6.4572386      757.09928    
   1395000   306.80885      0.0036258033   2.063945       761.20121     -8.6834523      752.51775    
   1396000   297.32035      0.0036258033   1.2493805      737.65999     -8.6446379      729.01535    
   1397000   290.32048      0.0036258033   2.7389947      720.29312     -7.1694895      713.12363    
   1398000   298.57173      0.0036258033   2.0259672      740.76469     -6.89448        733.87021    
   1399000   308.21096      0.0036258033   1.7911603      764.67989     -6.3954029      758.28449    
   1400000   299.41434      0.0036258033   2.036636       742.85522     -9.3979638      733.45726    
   1401000   284.30824      0.0036258033   1.8797365      705.37658     -9.2127286      696.16385    
   1402000   294.77026      0.0036258033   1.5708814      731.33314     -6.5880268      724.74511    
   1403000   311.40534      0.0036258033   2.5210368      772.60522     -9.9120842      762.69314    
   1404000   308.95993      0.0036258033   6.0201376      766.53811     -11.366802      755.1713     
   1405000   295.78641      0.0036258033   2.7268316      733.85422     -9.624921       724.2293     
   1406000   288.30195      0.0036258033   0.8706541      715.28509     -10.526364      704.75873    
   1407000   310.24502      0.0036258033   2.2229145      769.72644     -10.091465      759.63497    
   1408000   300.69781      0.0036258033   2.9566095      746.03954     -12.151162      733.88838    
   1409000   285.78321      0.0036258033   2.0026175      709.03601     -8.8139271      700.22208    
   1410000   298.7861       0.0036258033   1.694139       741.29655     -7.6634823      733.63306    
   1411000   303.03221      0.0036258033   2.044883       751.83127     -8.3092604      743.522      
   1412000   296.08736      0.0036258033   1.9166934      734.6009      -8.5721341      726.02876    
   1413000   302.81486      0.0036258033   2.9894002      751.29201     -11.623422      739.66859    
   1414000   300.61381      0.0036258033   1.8673165      745.83114     -10.571         735.26014    
   1415000   288.13375      0.0036258033   1.8690393      714.86778     -10.642419      704.22536    
   1416000   301.27463      0.0036258033   2.4095536      747.47066     -8.6336509      738.83701    
   1417000   303.6107       0.0036258033   1.6687439      753.26651     -5.5114957      747.75502    
   1418000   298.14682      0.0036258033   1.1002329      739.71047     -6.7696428      732.94083    
   1419000   304.23579      0.0036258033   2.1104318      754.81738     -7.0989722      747.71841    
   1420000   310.37928      0.0036258033   3.1087277      770.05956     -10.056495      760.00306    
   1421000   292.94045      0.0036258033   0.94878952     726.79334     -10.006495      716.78685    
   1422000   308.85213      0.0036258033   1.9055052      766.27064     -11.887153      754.38349    
   1423000   293.98382      0.0036258033   2.3377523      729.38196     -10.302859      719.0791     
   1424000   301.33957      0.0036258033   2.5968387      747.63178     -9.1994209      738.43236    
   1425000   304.59515      0.0036258033   0.62927878     755.70897     -10.287133      745.42184    
   1426000   293.97466      0.0036258033   2.5129135      729.35922     -10.694156      718.66507    
   1427000   302.87483      0.0036258033   2.5795094      751.44081     -9.0961391      742.34467    
   1428000   302.77064      0.0036258033   1.9421315      751.1823      -7.5281096      743.65419    
   1429000   301.43956      0.0036258033   0.73698955     747.87985     -9.5703164      738.30954    
   1430000   293.07303      0.0036258033   1.9721541      727.12227     -9.9327309      717.18954    
   1431000   292.43526      0.0036258033   4.6939686      725.53995     -9.0048525      716.5351     
   1432000   312.82395      0.0036258033   2.5267275      776.12484     -10.972269      765.15257    
   1433000   309.82472      0.0036258033   1.4936464      768.68366     -10.887892      757.79577    
   1434000   292.6737       0.0036258033   2.4144687      726.13151     -10.24161       715.8899     
   1435000   314.96571      0.0036258033   4.0202256      781.4386      -8.6403493      772.79826    
   1436000   307.3768       0.0036258033   0.74429277     762.6103      -12.393856      750.21645    
   1437000   304.68131      0.0036258033   0.48225007     755.92274     -11.033781      744.88896    
   1438000   288.34749      0.0036258033   4.0184273      715.39807     -7.2216007      708.17647    
   1439000   305.58406      0.0036258033   2.672599       758.16248     -8.2039948      749.95848    
   1440000   305.31065      0.0036258033   1.0679069      757.48413     -10.158308      747.32582    
   1441000   295.73409      0.0036258033   2.0445826      733.72443     -11.529249      722.19518    
   1442000   290.38972      0.0036258033   2.948252       720.46491     -12.122004      708.3429     
   1443000   313.60915      0.0036258033  -1.2439663      778.07295     -11.424874      766.64808    
   1444000   311.76112      0.0036258033   1.3149827      773.48794     -8.870008       764.61793    
   1445000   298.1075       0.0036258033   3.1388169      739.61293     -5.6935429      733.91938    
   1446000   311.6433       0.0036258033   2.2300244      773.19562     -8.9737075      764.22191    
   1447000   294.70278      0.0036258033   1.4989633      731.16573     -8.681301       722.48443    
   1448000   296.02329      0.0036258033   1.9417522      734.44194     -9.3979661      725.04398    
   1449000   301.97336      0.0036258033   2.1878999      749.20423     -10.227593      738.97664    
   1450000   300.98934      0.0036258033   1.6167502      746.76285     -8.8100916      737.95276    
   1451000   308.8392       0.0036258033   2.9011277      766.23856     -8.9623675      757.2762     
   1452000   297.91723      0.0036258033   2.0540167      739.14085     -9.615085       729.52577    
   1453000   298.52948      0.0036258033   1.9261443      740.65987     -8.7148155      731.94506    
   1454000   301.68971      0.0036258033   1.7612352      748.50048     -8.8010149      739.69946    
   1455000   311.78966      0.0036258033   2.1086728      773.55874     -7.7463959      765.81234    
   1456000   297.24203      0.0036258033   2.3435697      737.46567     -10.003126      727.46255    
   1457000   303.42227      0.0036258033   1.2369135      752.79901     -9.3981377      743.40087    
   1458000   301.6399       0.0036258033   2.60454        748.37692     -10.745939      737.63098    
   1459000   291.51225      0.0036258033   2.1515121      723.24992     -10.923808      712.32611    
   1460000   292.46638      0.0036258033   1.4910508      725.61714     -8.7837553      716.83339    
   1461000   300.45781      0.0036258033   1.5913016      745.44412     -7.3354996      738.10862    
   1462000   305.80547      0.0036258033   2.3283124      758.71179     -9.0293736      749.68242    
   1463000   296.79025      0.0036258033   2.7883167      736.34479     -9.6034251      726.74136    
   1464000   304.83853      0.0036258033   1.2807076      756.3128      -9.4587735      746.85402    
   1465000   314.60036      0.0036258033   1.8633875      780.53216     -6.8307578      773.7014     
   1466000   297.83343      0.0036258033   3.1567403      738.93296     -7.9576249      730.97533    
   1467000   296.64406      0.0036258033   1.8855846      735.98208     -10.124548      725.85754    
   1468000   313.56028      0.0036258033   0.36290268     777.95169     -10.528946      767.42274    
   1469000   297.69872      0.0036258033   2.0364003      738.59874     -9.3521348      729.2466     
   1470000   298.74058      0.0036258033   2.1429649      741.18361     -7.9311441      733.25247    
   1471000   305.83518      0.0036258033   1.8433631      758.78551     -8.1044224      750.68109    
   1472000   302.6624       0.0036258033   1.8592941      750.91375     -6.6982922      744.21545    
   1473000   300.45524      0.0036258033   1.3221871      745.43774     -7.1888663      738.24887    
   1474000   297.02412      0.0036258033   2.5491751      736.92502     -7.0788228      729.8462     
   1475000   290.98722      0.0036258033   1.9449357      721.94732     -7.2015893      714.74573    
   1476000   310.64875      0.0036258033   1.5527428      770.72812     -9.129048       761.59907    
   1477000   312.48988      0.0036258033   1.2490435      775.29602     -8.2815027      767.01451    
   1478000   298.51987      0.0036258033   2.5360106      740.63603     -9.4973665      731.13866    
   1479000   293.85646      0.0036258033   2.504442       729.06599     -9.2311937      719.83479    
   1480000   290.75116      0.0036258033   1.8536337      721.36164     -8.2020466      713.1596     
   1481000   292.9488       0.0036258033   1.1875767      726.81405     -9.1255566      717.68849    
   1482000   306.4233       0.0036258033   1.5214314      760.24465     -7.9740799      752.27057    
   1483000   308.77128      0.0036258033   3.0132213      766.07005     -8.4381292      757.63192    
   1484000   304.11693      0.0036258033   3.0284432      754.52248     -9.0243435      745.49813    
   1485000   285.65597      0.0036258033   1.1118584      708.72034     -9.8791923      698.84115    
   1486000   311.63276      0.0036258033   2.1190125      773.16946     -11.082553      762.08691    
   1487000   315.62883      0.0036258033   3.0284517      783.08382     -8.9594794      774.12434    
   1488000   301.91373      0.0036258033   2.1078267      749.05628     -7.8752388      741.18104    
   1489000   292.06087      0.0036258033   2.4942086      724.61106     -7.8561326      716.75493    
   1490000   285.99934      0.0036258033   1.9614177      709.57223     -9.2334066      700.33883    
   1491000   303.14685      0.0036258033   1.6627732      752.11569     -9.5557149      742.55998    
   1492000   304.96248      0.0036258033   2.2693229      756.62032     -5.821716       750.7986     
   1493000   288.26798      0.0036258033   2.7846611      715.2008      -8.159801       707.04099    
   1494000   298.01029      0.0036258033   1.6989342      739.37175     -10.939909      728.43184    
   1495000   304.67741      0.0036258033   1.7323652      755.91305     -8.1764019      747.73665    
   1496000   305.24851      0.0036258033   1.7561142      757.32996     -8.8146274      748.51533    
   1497000   311.94882      0.0036258033   3.8160977      773.95363     -8.1842676      765.76936    
   1498000   292.8579       0.0036258033   2.1826969      726.58852     -7.0400964      719.54843    
   1499000   296.63722      0.0036258033   1.1783654      735.96513     -7.7120516      728.25308    
   1500000   303.56377      0.0036258033   2.4046941      753.15009     -8.3534488      744.79664    
   1501000   302.41787      0.0036258033   2.7554484      750.30707     -8.8699851      741.43708    
   1502000   298.90522      0.0036258033   3.4955226      741.5921      -8.4028692      733.18923    
   1503000   288.51934      0.0036258033   1.2355599      715.82444     -7.5590663      708.26537    
   1504000   292.35897      0.0036258033   0.34581674     725.35067     -7.4276527      717.92302    
   1505000   300.1387       0.0036258033   1.8640895      744.65238     -5.3582558      739.29412    
   1506000   304.97043      0.0036258033   2.1315347      756.64005     -10.115513      746.52454    
   1507000   293.4529       0.0036258033   2.3528863      728.06473     -8.2697971      719.79493    
   1508000   300.58267      0.0036258033   1.5654389      745.75388     -6.7070693      739.04681    
   1509000   296.00441      0.0036258033   2.7584042      734.3951      -9.4971332      724.89797    
   1510000   290.1488       0.0036258033   1.905159       719.86717     -8.811394       711.05578    
   1511000   305.63456      0.0036258033   1.8644507      758.28778     -10.32448       747.9633     
   1512000   302.15074      0.0036258033   2.7421161      749.64432     -6.8052715      742.83905    
   1513000   284.08527      0.0036258033   1.9885628      704.82337     -6.784222       698.03915    
   1514000   285.91969      0.0036258033   2.0858307      709.37463     -7.1448403      702.22979    
   1515000   308.42518      0.0036258033   2.149126       765.21138     -6.6704905      758.54089    
   1516000   306.88456      0.0036258033   1.8632987      761.38905     -10.966485      750.42256    
   1517000   294.3574       0.0036258033   1.7518707      730.30882     -11.218997      719.08983    
   1518000   289.81449      0.0036258033   2.1530049      719.03774     -8.2604632      710.77728    
   1519000   301.52473      0.0036258033   3.8455164      748.09116     -8.6289685      739.46219    
   1520000   327.01241      0.0036258033   2.3240658      811.32681     -8.2203634      803.10644    
   1521000   292.15726      0.0036258033   1.970233       724.85023     -9.6435995      715.20663    
   1522000   289.33733      0.0036258033   2.0035905      717.85388     -7.1729411      710.68094    
   1523000   299.54859      0.0036258033   2.6838915      743.1883      -8.5835236      734.60478    
   1524000   307.38114      0.0036258033   2.2668514      762.62109     -7.4691021      755.15199    
   1525000   295.93793      0.0036258033   2.2657891      734.23017     -5.8974781      728.33269    
   1526000   293.81302      0.0036258033   1.7710255      728.95821     -8.9605502      719.99766    
   1527000   301.79112      0.0036258033   1.2840283      748.75209     -8.0562627      740.69582    
   1528000   316.63671      0.0036258033   2.7246287      785.58441     -8.72495        776.85946    
   1529000   282.91649      0.0036258033   2.460094       701.92362     -7.2140479      694.70957    
   1530000   308.50981      0.0036258033   1.4088704      765.42135     -6.8497338      758.57161    
   1531000   304.37985      0.0036258033   2.5427105      755.1748      -5.6313432      749.54345    
   1532000   296.82042      0.0036258033   1.980397       736.41964     -6.3772732      730.04237    
   1533000   301.70013      0.0036258033   2.5072057      748.52635     -7.8839729      740.64237    
   1534000   303.347        0.0036258033   1.5374316      752.61226     -11.035171      741.57709    
   1535000   300.07212      0.0036258033   1.3584138      744.4872      -11.064807      733.42239    
   1536000   300.26909      0.0036258033   2.841788       744.97589     -6.46613        738.50976    
   1537000   306.78671      0.0036258033   1.9945454      761.14629     -9.3522925      751.794      
   1538000   298.01028      0.0036258033   3.6545138      739.37173     -9.2761019      730.09562    
   1539000   297.99239      0.0036258033   1.7480249      739.32733     -9.0724901      730.25484    
   1540000   311.41016      0.0036258033   2.0661227      772.61718     -8.6746552      763.94252    
   1541000   295.4016       0.0036258033   5.5193134      732.89951     -9.8338543      723.06566    
   1542000   283.58992      0.0036258033   1.5507521      703.59441     -9.106873       694.48754    
   1543000   301.0324       0.0036258033   1.2692831      746.86968     -9.6529558      737.21673    
   1544000   314.74409      0.0036258033   3.0950738      780.88876     -10.383509      770.50525    
   1545000   302.72212      0.0036258033   3.1122432      751.06191     -10.934922      740.12699    
   1546000   287.33731      0.0036258033   1.2065887      712.89178     -6.8960352      705.99575    
   1547000   283.3885       0.0036258033   0.99483005     703.09469     -8.8616226      694.23307    
   1548000   309.099        0.0036258033   1.3694131      766.88314     -5.4674209      761.41572    
   1549000   300.44628      0.0036258033   4.4012393      745.41551     -5.3589507      740.05656    
   1550000   282.99152      0.0036258033   1.6231305      702.10975     -7.0302369      695.07952    
   1551000   300.68735      0.0036258033   1.1263096      746.01361     -10.28861       735.725      
   1552000   308.54413      0.0036258033   0.94308269     765.50649     -6.5631811      758.94331    
   1553000   302.57653      0.0036258033   5.916848       750.70071     -8.1272849      742.57342    
   1554000   288.38684      0.0036258033   4.7451468      715.4957      -8.652366       706.84334    
   1555000   306.98639      0.0036258033   0.49287038     761.6417      -5.5991201      756.04258    
   1556000   296.74545      0.0036258033   1.5388946      736.23363     -5.6376988      730.59593    
   1557000   303.18502      0.0036258033   3.1178901      752.2104      -6.7993628      745.41104    
   1558000   306.61131      0.0036258033   2.0689172      760.7111      -7.1422453      753.56886    
   1559000   307.97061      0.0036258033  -0.24031132     764.08358     -6.9186841      757.16489    
   1560000   294.79587      0.0036258033   3.1378988      731.39668     -9.1523624      722.24432    
   1561000   294.89218      0.0036258033   3.8680575      731.63564     -8.2219396      723.4137     
   1562000   303.94404      0.0036258033   2.109805       754.09355     -8.7966234      745.29692    
   1563000   303.86341      0.0036258033   1.7605479      753.8935      -9.134902       744.7586     
   1564000   302.27035      0.0036258033   1.4688974      749.94107     -9.2072796      740.73379    
   1565000   301.39199      0.0036258033   3.3957309      747.76183     -5.9785727      741.78326    
   1566000   318.01166      0.0036258033   4.6847739      788.9957      -6.4056032      782.5901     
   1567000   295.86534      0.0036258033   1.4343114      734.05007     -6.5214504      727.52862    
   1568000   287.15151      0.0036258033  -0.29290667     712.43082     -7.0737158      705.35711    
   1569000   311.12678      0.0036258033   2.1785645      771.91411     -6.5779713      765.33613    
   1570000   305.15608      0.0036258033   3.071305       757.10066     -5.1544558      751.9462     
   1571000   290.41303      0.0036258033   1.9009214      720.52273     -6.1417387      714.38099    
   1572000   305.47427      0.0036258033   1.8769378      757.89008     -6.8135062      751.07658    
   1573000   311.66295      0.0036258033   2.4490887      773.24437     -10.12517       763.1192     
   1574000   302.34072      0.0036258033   2.0086419      750.11565     -9.4194735      740.69618    
   1575000   289.79178      0.0036258033   1.8566683      718.98139     -11.435916      707.54547    
   1576000   295.14802      0.0036258033   2.299196       732.27037     -9.7757418      722.49463    
   1577000   296.98636      0.0036258033   1.8447169      736.83134     -9.9130423      726.9183     
   1578000   298.58818      0.0036258033   1.3536789      740.80551     -7.5293549      733.27616    
   1579000   299.72355      0.0036258033   2.5655406      743.62239     -8.5092444      735.11315    
   1580000   307.42625      0.0036258033   2.1301555      762.733       -6.7758149      755.95719    
   1581000   287.27505      0.0036258033   2.2011422      712.73732     -8.5474732      704.18984    
   1582000   297.3914       0.0036258033   1.9479107      737.83626     -6.157778       731.67848    
   1583000   316.34292      0.0036258033   2.0305073      784.85551     -5.4461287      779.40938    
   1584000   305.3601       0.0036258033   2.1839378      757.60683     -7.4656181      750.14121    
   1585000   297.15745      0.0036258033   2.83454        737.25581     -6.3801229      730.87569    
   1586000   293.87274      0.0036258033   1.5711869      729.10637     -7.6441501      721.46222    
   1587000   306.0816       0.0036258033   1.3220403      759.39688     -9.1488035      750.24808    
   1588000   316.45577      0.0036258033   1.9147598      785.13549     -7.9983871      777.13711    
   1589000   297.87969      0.0036258033   2.8807267      739.04772     -8.1714781      730.87625    
   1590000   283.15178      0.0036258033   1.3953078      702.50737     -7.4371268      695.07024    
   1591000   303.29901      0.0036258033   1.7915159      752.4932      -8.4303532      744.06285    
   1592000   308.57343      0.0036258033   1.9663011      765.57918     -9.2014001      756.37778    
   1593000   299.48708      0.0036258033   2.221894       743.03571     -8.2394706      734.79624    
   1594000   291.11593      0.0036258033   1.8970033      722.26665     -8.6067268      713.65992    
   1595000   311.05438      0.0036258033   1.5344568      771.7345      -8.1533561      763.58114    
   1596000   317.66123      0.0036258033   2.1211061      788.12627     -8.5584718      779.5678     
   1597000   283.03535      0.0036258033   2.0074008      702.2185      -6.8694436      695.34906    
   1598000   293.44135      0.0036258033   1.559153       728.03607     -6.9969718      721.0391     
   1599000   312.88534      0.0036258033   2.0951073      776.27715     -7.1079635      769.16919    
   1600000   299.53808      0.0036258033   1.856414       743.16224     -6.5504536      736.61179    
   1601000   286.4594       0.0036258033   2.2242118      710.71367     -6.2736474      704.44002    
   1602000   298.19077      0.0036258033   1.4553206      739.81952     -7.3991348      732.42038    
   1603000   305.67186      0.0036258033   1.9997658      758.3803      -6.1005883      752.27971    
   1604000   296.61866      0.0036258033   1.9724212      735.91907     -7.2645533      728.65452    
   1605000   297.03268      0.0036258033   1.9458719      736.94625     -5.9653129      730.98094    
   1606000   303.13846      0.0036258033   1.6211614      752.09486     -8.4308325      743.66403    
   1607000   306.72986      0.0036258033   1.7528263      761.00523     -9.5265415      751.47869    
   1608000   296.27665      0.0036258033   2.6912979      735.07053     -9.6264647      725.44406    
   1609000   296.63901      0.0036258033   1.05527        735.96956     -11.38955       724.58001    
   1610000   300.11251      0.0036258033  -0.1576402      744.58741     -12.536664      732.05075    
   1611000   299.78948      0.0036258033   1.1665532      743.78596     -7.9925707      735.79339    
   1612000   313.06069      0.0036258033   4.4295008      776.71219     -9.6040814      767.10811    
   1613000   291.03598      0.0036258033   2.6808483      722.0683      -7.2456487      714.82265    
   1614000   299.31905      0.0036258033  -0.21194052     742.61882     -9.1544656      733.46436    
   1615000   314.73122      0.0036258033   1.3420428      780.85683     -7.585647       773.27118    
   1616000   304.21427      0.0036258033   2.5393688      754.76399     -8.7510055      746.01299    
   1617000   287.78685      0.0036258033   3.2735347      714.0071      -9.9264355      704.08067    
   1618000   280.56596      0.0036258033   2.4850557      696.09187     -8.4808202      687.61105    
   1619000   301.46245      0.0036258033  -0.62768588     747.93666     -4.2225821      743.71408    
   1620000   318.27101      0.0036258033   4.0471214      789.63914     -5.7683242      783.87082    
   1621000   294.88363      0.0036258033   2.377379       731.6144      -5.628431       725.98597    
   1622000   291.27498      0.0036258033  -0.30651057     722.66126     -5.31692        717.34434    
   1623000   322.42172      0.0036258033   0.43072744     799.93717     -5.5229047      794.41427    
   1624000   306.67733      0.0036258033   4.4455555      760.8749      -4.5348539      756.34005    
   1625000   280.84789      0.0036258033   3.1587127      696.79135     -5.5482487      691.2431     
   1626000   282.74456      0.0036258033   0.98217296     701.49705     -6.3227902      695.17426    
   1627000   302.84926      0.0036258033   1.4274241      751.37737     -6.8348131      744.54256    
   1628000   318.50037      0.0036258033   6.1161366      790.20819     -4.4676169      785.74057    
   1629000   303.58951      0.0036258033   2.8576415      753.21394     -6.2845614      746.92937    
   1630000   299.5725       0.0036258033  -0.52243313     743.24763     -5.2817574      737.96588    
   1631000   302.47675      0.0036258033   1.6177016      750.45316     -5.3395953      745.11356    
   1632000   309.29065      0.0036258033   1.8362263      767.35863     -6.3911602      760.96747    
   1633000   301.88882      0.0036258033   3.4246249      748.99449     -6.4430695      742.55142    
   1634000   290.46174      0.0036258033   2.073528       720.64357     -5.9917556      714.65182    
   1635000   289.82942      0.0036258033  -0.49162089     719.07478     -7.0448016      712.02998    
   1636000   315.43856      0.0036258033   0.51930239     782.61176     -4.0006482      778.61111    
   1637000   309.57964      0.0036258033   3.0853645      768.07561     -4.8732983      763.20231    
   1638000   286.81632      0.0036258033   2.7956694      711.59919     -5.5427261      706.05646    
   1639000   302.97897      0.0036258033   0.70692463     751.69918     -5.1113562      746.58782    
   1640000   308.39667      0.0036258033   1.8257378      765.14065     -4.742624       760.39802    
   1641000   303.37761      0.0036258033   2.6006944      752.68822     -4.2687666      748.41945    
   1642000   282.09505      0.0036258033   2.2774369      699.8856      -5.904708       693.9809     
   1643000   294.03548      0.0036258033   2.3470623      729.51014     -5.0437465      724.4664     
   1644000   313.00036      0.0036258033   1.4052406      776.56253     -5.1042791      771.45825    
   1645000   295.44134      0.0036258033   4.3783566      732.99812     -6.2426306      726.75549    
   1646000   290.41712      0.0036258033   1.2818471      720.53288     -4.9302327      715.60265    
   1647000   303.28218      0.0036258033   1.8146831      752.45144     -6.4961717      745.95527    
   1648000   319.20737      0.0036258033   2.5603189      791.96228     -8.1682792      783.794      
   1649000   315.11029      0.0036258033   3.7760768      781.79731     -5.291568       776.50575    
   1650000   292.17732      0.0036258033   2.4612473      724.89997     -5.4120044      719.48797    
   1651000   296.47434      0.0036258033   0.37812807     735.56101     -5.3654702      730.19554    
   1652000   310.10201      0.0036258033   2.6603517      769.37164     -7.4212948      761.95034    
   1653000   288.15098      0.0036258033   3.8840627      714.91053     -4.8739491      710.03658    
   1654000   289.80884      0.0036258033   2.4343077      719.02371     -8.1897643      710.83395    
   1655000   304.87402      0.0036258033   0.48593147     756.40085     -7.9600359      748.44081    
   1656000   300.99596      0.0036258033   2.5201437      746.77927     -6.6757646      740.10351    
   1657000   291.66394      0.0036258033   2.095145       723.62629     -7.9304217      715.69586    
   1658000   281.2046       0.0036258033   0.60401344     697.67636     -7.0047282      690.67163    
   1659000   304.48688      0.0036258033   1.6489582      755.44035     -7.3118314      748.12852    
   1660000   304.59156      0.0036258033   1.8245983      755.70006     -6.2452642      749.45479    
   1661000   294.84174      0.0036258033   2.1605502      731.51048     -4.8501271      726.66035    
   1662000   297.48672      0.0036258033   2.4510874      738.07276     -7.7972293      730.27553    
   1663000   297.11758      0.0036258033   2.0074435      737.1569      -7.0139176      730.14298    
   1664000   291.7477       0.0036258033   1.4935693      723.83409     -8.7512409      715.08285    
   1665000   300.94902      0.0036258033   1.794909       746.66281     -7.8609945      738.80182    
   1666000   298.23619      0.0036258033   2.2324776      739.93221     -10.234846      729.69737    
   1667000   301.6808       0.0036258033   2.6028678      748.47837     -11.072177      737.40619    
   1668000   306.04623      0.0036258033   1.5608597      759.30914     -9.3684402      749.9407     
   1669000   298.1685       0.0036258033   1.7876929      739.76427     -7.245902       732.51837    
   1670000   302.08128      0.0036258033   2.6331993      749.47198     -7.8633252      741.60866    
   1671000   294.35258      0.0036258033   1.9388229      730.29685     -8.6182838      721.67857    
   1672000   303.40879      0.0036258033   1.7973782      752.76557     -6.914503       745.85107    
   1673000   308.1068       0.0036258033   1.7154706      764.42146     -7.5408291      756.88063    
   1674000   308.06324      0.0036258033   2.8146087      764.3134      -6.877022       757.43638    
   1675000   289.71708      0.0036258033   1.9010483      718.79606     -7.7411156      711.05495    
   1676000   289.79322      0.0036258033   2.1481835      718.98498     -5.9623744      713.0226     
   1677000   301.55957      0.0036258033   2.4908086      748.1776      -7.9417791      740.23582    
   1678000   313.36296      0.0036258033   1.3535095      777.46215     -6.3368745      771.12528    
   1679000   301.52184      0.0036258033   1.4767944      748.08399     -7.2635154      740.82047    
   1680000   284.10059      0.0036258033   2.7656199      704.86141     -7.5068095      697.3546     
   1681000   305.56123      0.0036258033   4.045442       758.10584     -8.3241723      749.78167    
   1682000   315.25935      0.0036258033   1.541212       782.16714     -4.2330428      777.9341     
   1683000   290.41371      0.0036258033  -1.0109589      720.52443     -4.1456513      716.37878    
   1684000   300.37591      0.0036258033   3.0648638      745.24091     -6.4910278      738.74988    
   1685000   303.4686       0.0036258033   2.4301453      752.91396     -9.4632499      743.45071    
   1686000   306.21579      0.0036258033  -1.691886       759.72982     -9.2064043      750.52341    
   1687000   286.19297      0.0036258033   0.98430028     710.05265     -9.2033976      700.84925    
   1688000   294.95876      0.0036258033   4.7834182      731.80081     -8.3037332      723.49708    
   1689000   309.57789      0.0036258033   2.4778121      768.07129     -5.4526523      762.61864    
   1690000   309.29585      0.0036258033  -0.74253694     767.37153     -5.7310629      761.64047    
   1691000   275.77842      0.0036258033  -0.02978595     684.21387     -6.3585649      677.85531    
   1692000   296.15254      0.0036258033   1.9353776      734.7626      -10.196558      724.56605    
   1693000   306.83727      0.0036258033   4.563484       761.27173     -10.213864      751.05787    
   1694000   301.44635      0.0036258033   2.3449945      747.89669     -9.4519695      738.44473    
   1695000   298.87963      0.0036258033  -1.3695503      741.52861     -8.0514018      733.47721    
   1696000   298.2482       0.0036258033   1.0151072      739.96201     -8.2369595      731.72505    
   1697000   316.92282      0.0036258033   1.2577236      786.29425     -8.8562053      777.43804    
   1698000   298.2431       0.0036258033   4.9087718      739.94935     -7.0458165      732.90354    
   1699000   296.05419      0.0036258033   3.6462544      734.51861     -6.9134548      727.60515    
   1700000   310.19644      0.0036258033   1.141393       769.60593     -7.104257       762.50167    
   1701000   303.7569       0.0036258033   0.52577079     753.62925     -6.5308941      747.09836    
   1702000   299.66203      0.0036258033   6.5502671      743.46976     -4.8795459      738.59021    
   1703000   305.23818      0.0036258033   4.1177133      757.30433     -4.5364076      752.76793    
   1704000   310.77033      0.0036258033   0.0030018117   771.02975     -5.7784241      765.25133    
   1705000   276.42166      0.0036258033   2.5706066      685.80977     -7.2895904      678.52018    
   1706000   291.83298      0.0036258033   4.087324       724.04566     -6.3754872      717.67017    
   1707000   321.65521      0.0036258033   1.9847065      798.03545     -3.8593096      794.17614    
   1708000   307.45256      0.0036258033   1.2738727      762.79828     -7.89597        754.90231    
   1709000   286.99386      0.0036258033   1.6631912      712.03968     -8.9739538      703.06573    
   1710000   301.07944      0.0036258033   2.7330645      746.9864      -7.3499142      739.63649    
   1711000   311.48498      0.0036258033  -0.94042793     772.80282     -8.0587171      764.74411    
   1712000   296.01036      0.0036258033   3.0160093      734.40986     -7.2620633      727.1478     
   1713000   297.43505      0.0036258033   4.1170221      737.94456     -6.0411691      731.9034     
   1714000   303.26554      0.0036258033   0.17029893     752.41017     -7.6957103      744.71446    
   1715000   304.20074      0.0036258033  -1.0946603      754.73041     -8.3505168      746.37989    
   1716000   297.25537      0.0036258033   1.9498272      737.49877     -9.138457       728.36031    
   1717000   300.7381       0.0036258033   2.046974       746.13951     -5.4978892      740.64162    
   1718000   293.7424       0.0036258033   2.679844       728.78299     -5.4172307      723.36575    
   1719000   304.15643      0.0036258033   2.1248489      754.62048     -5.2332595      749.38722    
   1720000   307.23607      0.0036258033   2.0226214      762.26116     -5.5229569      756.7382     
   1721000   294.37369      0.0036258033   2.6698798      730.34925     -7.0635357      723.28571    
   1722000   301.16258      0.0036258033   2.2078933      747.19266     -6.0042518      741.1884     
   1723000   301.71444      0.0036258033   1.8277343      748.56184     -4.7729383      743.7889     
   1724000   301.85579      0.0036258033   1.8904625      748.91254     -5.2402324      743.67231    
   1725000   300.04341      0.0036258033   4.6462904      744.41598     -5.1370683      739.27891    
   1726000   295.30095      0.0036258033   2.6607459      732.6498      -5.7543517      726.89544    
   1727000   303.05638      0.0036258033   0.35301815     751.89124     -6.2633022      745.62794    
   1728000   294.67572      0.0036258033   2.4732631      731.09858     -6.2226651      724.87592    
   1729000   284.45574      0.0036258033   2.2868814      705.74253     -5.0269905      700.71554    
   1730000   302.63518      0.0036258033   0.35429589     750.84621     -7.4908983      743.35532    
   1731000   299.13724      0.0036258033   0.97050809     742.16774     -7.2151301      734.95261    
   1732000   295.80952      0.0036258033   2.0646904      733.91158     -6.9783129      726.93327    
   1733000   301.44291      0.0036258033   1.1649861      747.88816     -7.1793684      740.70879    
   1734000   309.37141      0.0036258033   1.5180463      767.55901     -7.6328494      759.92616    
   1735000   298.2051       0.0036258033   2.648233       739.85506     -4.2752754      735.57979    
   1736000   302.65913      0.0036258033   2.4768863      750.90565     -5.9252381      744.98042    
   1737000   287.42896      0.0036258033   1.3998422      713.11918     -6.5140233      706.60516    
   1738000   298.99463      0.0036258033   0.69975563     741.81391     -5.5714918      736.24242    
   1739000   312.51349      0.0036258033   3.2894301      775.35459     -4.8137117      770.54088    
   1740000   298.11691      0.0036258033   2.3746348      739.63627     -6.7296008      732.90667    
   1741000   301.05893      0.0036258033   2.0962046      746.93551     -8.3198464      738.61567    
   1742000   299.80751      0.0036258033   1.9914547      743.83069     -8.3422517      735.48844    
   1743000   314.63002      0.0036258033   2.0458563      780.60574     -10.474297      770.13145    
   1744000   306.68436      0.0036258033   1.7649629      760.89235     -11.476706      749.41564    
   1745000   305.09894      0.0036258033   2.0983116      756.95888     -11.608101      745.35078    
   1746000   304.19657      0.0036258033   3.1852105      754.72008     -13.696883      741.02319    
   1747000   295.4989       0.0036258033   1.6064413      733.14092     -8.333821       724.8071     
   1748000   285.58946      0.0036258033   2.0311146      708.55531     -10.153946      698.40137    
   1749000   306.58824      0.0036258033   2.4637389      760.65387     -9.2261294      751.42774    
   1750000   310.39774      0.0036258033   2.0555185      770.10534     -7.5155014      762.58984    
   1751000   299.99022      0.0036258033   1.4128738      744.284       -7.5636422      736.72036    
   1752000   277.17995      0.0036258033   2.004364       687.6911      -8.211962       679.47914    
   1753000   292.36029      0.0036258033   1.6642014      725.35394     -9.3305423      716.0234     
   1754000   293.49233      0.0036258033   2.7679963      728.16255     -8.7815531      719.381      
   1755000   306.26592      0.0036258033   2.3752633      759.8542      -6.1931557      753.66104    
   1756000   305.73914      0.0036258033   0.58232765     758.54723     -4.2600842      754.28714    
   1757000   288.31207      0.0036258033   1.0098911      715.31019     -3.7963115      711.51388    
   1758000   289.9323       0.0036258033   2.3426263      719.33003     -6.1387106      713.19131    
   1759000   306.01419      0.0036258033   2.1219378      759.22964     -6.4023213      752.82732    
   1760000   304.99443      0.0036258033   1.5664828      756.69959     -7.5497245      749.14987    
   1761000   296.64966      0.0036258033   1.7528597      735.99598     -8.3442528      727.65173    
   1762000   296.59778      0.0036258033   2.5056137      735.86728     -6.1541988      729.71308    
   1763000   308.42966      0.0036258033   5.5567649      765.22249     -3.7910419      761.43145    
   1764000   316.52842      0.0036258033  -0.17706383     785.31572     -5.2977784      780.01795    
   1765000   296.74964      0.0036258033  -1.480516       736.24404     -6.0596899      730.18435    
   1766000   292.2237       0.0036258033   1.4313303      725.01506     -6.8239283      718.19113    
   1767000   294.86601      0.0036258033   3.3237577      731.5707      -5.4000189      726.17068    
   1768000   314.2922       0.0036258033   5.5292325      779.76762     -8.113506       771.65412    
   1769000   314.58286      0.0036258033   1.4516251      780.48876     -6.6983599      773.7904     
   1770000   302.69233      0.0036258033  -0.80333803     750.988       -6.6091252      744.37888    
   1771000   286.75934      0.0036258033   1.9475927      711.45784     -7.3912699      704.06657    
   1772000   306.33115      0.0036258033   2.6593728      760.01602     -7.2374077      752.77861    
   1773000   305.95855      0.0036258033   1.463177       759.0916      -11.400867      747.69073    
   1774000   293.49326      0.0036258033   1.9403369      728.16486     -10.104387      718.06047    
   1775000   300.06004      0.0036258033   2.615154       744.45723     -10.305505      734.15173    
   1776000   307.16661      0.0036258033   1.8742184      762.08882     -7.8037374      754.28508    
   1777000   296.13986      0.0036258033   2.5303135      734.73116     -8.4805756      726.25059    
   1778000   295.61346      0.0036258033   1.6486244      733.42514     -6.2536973      727.17144    
   1779000   321.27203      0.0036258033   1.8939353      797.08475     -5.188009       791.89674    
   1780000   297.17438      0.0036258033   2.3548523      737.29783     -7.3684371      729.9294     
   1781000   294.93621      0.0036258033   1.9873142      731.74488     -7.3736415      724.37124    
   1782000   317.14692      0.0036258033   0.8241505      786.85025     -6.1853671      780.66489    
   1783000   309.80124      0.0036258033   2.2130776      768.62542     -5.9754612      762.64996    
   1784000   288.11695      0.0036258033   2.6781091      714.8261      -5.4108751      709.41523    
   1785000   299.41841      0.0036258033   1.5304889      742.86533     -6.510684       736.35465    
   1786000   307.73705      0.0036258033   1.9475796      763.50411     -7.7681259      755.73599    
   1787000   299.63942      0.0036258033   2.1846908      743.41365     -6.4799561      736.9337     
   1788000   292.94298      0.0036258033   1.989634       726.7996      -5.2102022      721.58939    
   1789000   295.57809      0.0036258033   1.8250065      733.33739     -8.2277018      725.10969    
   1790000   294.92538      0.0036258033   2.4077487      731.71799     -7.7178266      724.00017    
   1791000   306.83448      0.0036258033   2.9093199      761.2648      -7.5652893      753.69951    
   1792000   299.9325       0.0036258033  -1.1547674      744.14079     -7.4312022      736.70959    
   1793000   305.7713       0.0036258033   3.2923493      758.62702     -6.6182607      752.00876    
   1794000   302.43804      0.0036258033   2.5037587      750.35711     -5.6093505      744.74776    
   1795000   307.33266      0.0036258033   1.2040353      762.5008      -4.1855364      758.31526    
   1796000   296.39687      0.0036258033   0.91129149     735.36881     -4.7459218      730.62289    
   1797000   295.60006      0.0036258033   2.2392564      733.39191     -3.8558105      729.53609    
   1798000   301.36973      0.0036258033   2.2647717      747.7066      -4.6212382      743.08536    
   1799000   298.75482      0.0036258033   0.965704       741.21894     -5.751316       735.46762    
   1800000   294.04305      0.0036258033   2.2220465      729.52892     -5.192165       724.33675    
   1801000   281.43912      0.0036258033   4.2042686      698.25823     -5.5448274      692.7134     
   1802000   295.43352      0.0036258033   2.6937429      732.9787      -5.2227323      727.75597    
   1803000   326.52116      0.0036258033   1.8637446      810.10801     -3.9960401      806.11197    
   1804000   297.79954      0.0036258033   1.0095086      738.84886     -5.6410775      733.20778    
   1805000   293.76014      0.0036258033   2.1490378      728.827       -5.0964143      723.73058    
   1806000   295.51273      0.0036258033   2.9913407      733.17522     -6.4841562      726.69107    
   1807000   311.24809      0.0036258033   2.1145132      772.2151      -5.948185       766.26691    
   1808000   290.3011       0.0036258033   1.7431509      720.24503     -5.8294413      714.41559    
   1809000   293.20074      0.0036258033   2.5575582      727.43912     -5.6995101      721.73961    
   1810000   320.30757      0.0036258033   2.6897621      794.69191     -3.6144409      791.07747    
   1811000   306.78741      0.0036258033   1.772124       761.14802     -5.8396495      755.30837    
   1812000   291.66672      0.0036258033   2.7689187      723.63318     -2.9299371      720.70324    
   1813000   292.30484      0.0036258033   2.4549197      725.21637     -3.0353687      722.181      
   1814000   297.7602       0.0036258033  -0.43234767     738.75126     -3.6576549      735.0936     
   1815000   299.44748      0.0036258033   2.2604533      742.93745     -4.9195471      738.0179     
   1816000   306.56103      0.0036258033   2.1507431      760.58637     -5.36644        755.21993    
   1817000   286.01117      0.0036258033  -0.56996359     709.60161     -7.5470588      702.05455    
   1818000   298.21338      0.0036258033   1.9094207      739.87563     -6.4575311      733.4181     
   1819000   303.69762      0.0036258033   3.0923628      753.48216     -7.4758788      746.00628    
   1820000   309.66037      0.0036258033   3.8399387      768.27592     -7.6088823      760.66704    
   1821000   308.9063       0.0036258033   2.2925965      766.40504     -7.9604181      758.44462    
   1822000   289.61571      0.0036258033   0.276384       718.54456     -8.1232237      710.42134    
   1823000   291.94349      0.0036258033   6.2337564      724.31984     -5.9061788      718.41366    
   1824000   313.11383      0.0036258033   2.7302689      776.84405     -7.6071488      769.2369     
   1825000   294.71801      0.0036258033  -2.1322073      731.20351     -8.2786221      722.92489    
   1826000   287.76366      0.0036258033   2.9117635      713.94958     -10.042452      703.90713    
   1827000   307.75884      0.0036258033   2.1771337      763.55818     -8.1119446      755.44623    
   1828000   311.31032      0.0036258033  -1.101356       772.36948     -7.135496       765.23398    
   1829000   292.40909      0.0036258033   3.1368223      725.47501     -7.8657629      717.60925    
   1830000   296.44888      0.0036258033   6.6833702      735.49784     -6.6961354      728.80171    
   1831000   300.16113      0.0036258033   2.2486168      744.70804     -7.7660799      736.94196    
   1832000   304.67524      0.0036258033  -0.88745042     755.90767     -7.7372449      748.17043    
   1833000   301.67949      0.0036258033   1.3946132      748.47513     -8.3667185      740.10841    
   1834000   297.57017      0.0036258033   5.3415107      738.27978     -7.6246685      730.65512    
   1835000   297.91579      0.0036258033   1.4687844      739.1373      -6.9684354      732.16886    
   1836000   301.96095      0.0036258033   0.63534696     749.17343     -6.1131198      743.06031    
   1837000   302.71771      0.0036258033   2.0328617      751.05099     -5.8289861      745.222      
   1838000   304.76787      0.0036258033   9.2031824      756.1375      -7.824724       748.31277    
   1839000   303.85874      0.0036258033   0.9329226      753.8819      -6.5914053      747.29049    
   1840000   309.78645      0.0036258033  -0.27671928     768.58871     -7.132482       761.45623    
   1841000   292.46665      0.0036258033   1.8270839      725.61782     -6.4950898      719.12273    
   1842000   294.97852      0.0036258033   2.4672766      731.84985     -7.6816697      724.16818    
   1843000   324.68148      0.0036258033   4.1965356      805.54371     -8.5823964      796.96131    
   1844000   306.93445      0.0036258033   0.7765173      761.51284     -7.5061608      754.00667    
   1845000   295.092        0.0036258033   3.2234107      732.1314      -5.3767943      726.7546     
   1846000   297.25634      0.0036258033   2.2227697      737.50116     -6.2041306      731.29703    
   1847000   294.76564      0.0036258033  -1.2903083      731.32167     -7.6663873      723.65528    
   1848000   292.98485      0.0036258033   2.0114931      726.90348     -6.8114777      720.09201    
   1849000   302.0407       0.0036258033   4.8737039      749.37129     -7.2727382      742.09855    
   1850000   308.51532      0.0036258033   1.5358163      765.435       -7.426793       758.00821    
   1851000   298.48408      0.0036258033  -0.50950274     740.54724     -10.403403      730.14384    
   1852000   289.89444      0.0036258033   3.2749522      719.23609     -6.6719926      712.5641     
   1853000   302.18895      0.0036258033   2.594936       749.73912     -6.4576213      743.28149    
   1854000   316.52252      0.0036258033   1.1007651      785.30111     -8.3111751      776.98993    
   1855000   303.34344      0.0036258033  -0.48859957     752.60343     -9.7961261      742.80731    
   1856000   290.13379      0.0036258033   2.1840625      719.82992     -7.8718666      711.95806    
   1857000   303.21266      0.0036258033   3.3591957      752.27896     -8.0620235      744.21694    
   1858000   308.57249      0.0036258033   2.5165851      765.57685     -6.8464692      758.73038    
   1859000   297.62052      0.0036258033   0.25108651     738.40471     -4.4306189      733.97409    
   1860000   305.48404      0.0036258033   2.3837437      757.91433     -2.7872629      755.12707    
   1861000   299.74115      0.0036258033   2.5014424      743.66607     -3.8169283      739.84914    
   1862000   304.01405      0.0036258033   0.19072529     754.26723     -4.4382507      749.82898    
   1863000   301.09673      0.0036258033   1.9891509      747.02927     -4.6495311      742.37974    
   1864000   298.24142      0.0036258033   2.1479321      739.94519     -5.6172783      734.32791    
   1865000   303.61402      0.0036258033   2.3596067      753.27476     -6.0191944      747.25557    
   1866000   310.24097      0.0036258033   2.0960464      769.7164      -6.4008612      763.31554    
   1867000   306.2027       0.0036258033   1.4173348      759.69734     -6.7000372      752.9973     
   1868000   291.4971       0.0036258033   2.4937533      723.21234     -4.8637038      718.34863    
   1869000   308.31302      0.0036258033   2.1969782      764.93311     -5.237566       759.69555    
   1870000   310.62831      0.0036258033   1.6069579      770.6774      -6.3243908      764.35301    
   1871000   302.48529      0.0036258033   0.89051062     750.47434     -5.4873251      744.98701    
   1872000   298.27898      0.0036258033   1.9284303      740.03838     -5.8332916      734.20508    
   1873000   301.73051      0.0036258033   2.6827043      748.60171     -6.232004       742.36971    
   1874000   291.11783      0.0036258033   0.92453151     722.27137     -5.6606459      716.61072    
   1875000   290.89666      0.0036258033   2.1715098      721.72263     -5.2052856      716.51734    
   1876000   298.18768      0.0036258033   1.520813       739.81185     -4.9628379      734.84901    
   1877000   305.45556      0.0036258033   1.9830912      757.84367     -4.6983861      753.14529    
   1878000   291.32641      0.0036258033   2.0477785      722.78887     -6.998777       715.79009    
   1879000   297.28423      0.0036258033   1.9048296      737.57038     -6.3293295      731.24105    
   1880000   308.65086      0.0036258033   2.0568437      765.77129     -3.6086875      762.16261    
   1881000   312.15025      0.0036258033   1.9576927      774.45338     -3.9495918      770.50379    
   1882000   302.59852      0.0036258033   2.3785091      750.75526     -4.7743318      745.98093    
   1883000   292.53419      0.0036258033   2.6763239      725.78539     -4.8009599      720.98443    
   1884000   303.07567      0.0036258033   1.8887073      751.9391      -6.8549172      745.08418    
   1885000   304.12859      0.0036258033   2.0259127      754.55141     -3.3603157      751.1911     
   1886000   293.45625      0.0036258033   2.2387508      728.07306     -5.1749837      722.89807    
   1887000   294.30131      0.0036258033   1.1193595      730.16966     -6.8552442      723.31442    
   1888000   310.04697      0.0036258033   1.1441824      769.23507     -7.7146692      761.5204     
   1889000   295.16652      0.0036258033   2.2612628      732.31627     -8.2668029      724.04947    
   1890000   279.71721      0.0036258033   2.1338912      693.9861      -7.0557564      686.93034    
   1891000   289.0418       0.0036258033   2.1116068      717.12068     -7.1780312      709.94265    
   1892000   310.3031       0.0036258033   2.161082       769.87054     -7.3721321      762.49841    
   1893000   300.52507      0.0036258033   2.1149233      745.61099     -6.5565747      739.05442    
   1894000   280.89826      0.0036258033   1.1926352      696.91632     -5.8218264      691.0945     
   1895000   292.31009      0.0036258033   1.4086674      725.22938     -6.0651207      719.16426    
   1896000   310.29551      0.0036258033   1.666427       769.85172     -6.239485       763.61224    
   1897000   307.8941       0.0036258033   2.4849153      763.89374     -5.4024933      758.49125    
   1898000   299.65816      0.0036258033   2.4807358      743.46016     -6.4140004      737.04616    
   1899000   291.35593      0.0036258033   1.7002884      722.8621      -5.5367645      717.32533    
   1900000   316.98564      0.0036258033   1.2772145      786.45012     -6.5051306      779.94499    
   1901000   299.39919      0.0036258033   2.246063       742.81764     -6.4348148      736.38283    
   1902000   288.83896      0.0036258033   1.8505037      716.61743     -7.3665536      709.25088    
   1903000   301.98878      0.0036258033   2.0299308      749.24249     -6.5840354      742.65845    
   1904000   308.05298      0.0036258033   2.1571         764.28793     -8.0946477      756.19328    
   1905000   296.90538      0.0036258033   0.69455366     736.63043     -8.8069301      727.8235     
   1906000   287.51937      0.0036258033   1.964798       713.34347     -9.2236809      704.11979    
   1907000   303.29416      0.0036258033   1.7709724      752.48118     -8.9538092      743.52737    
   1908000   321.35338      0.0036258033   2.1126477      797.28658     -9.4208549      787.86573    
   1909000   293.83548      0.0036258033   3.4788054      729.01392     -9.8839556      719.12997    
   1910000   290.53894      0.0036258033   2.5434562      720.83513     -7.6401761      713.19495    
   1911000   310.06189      0.0036258033   1.4616648      769.2721      -6.9403491      762.33175    
   1912000   306.60666      0.0036258033   1.9886301      760.69956     -8.9257861      751.77378    
   1913000   300.47031      0.0036258033   4.184975       745.47513     -9.0811558      736.39398    
   1914000   300.5607       0.0036258033   3.0690296      745.69937     -7.0030848      738.69629    
   1915000   298.46839      0.0036258033   1.7482408      740.5083      -9.1800072      731.32829    
   1916000   303.18573      0.0036258033   0.7937415      752.21214     -5.6819497      746.53019    
   1917000   300.33854      0.0036258033   4.430302       745.14821     -7.501082       737.64713    
   1918000   302.18587      0.0036258033   0.61465152     749.73148     -8.3004676      741.43101    
   1919000   294.2824       0.0036258033   0.5546403      730.12275     -7.0629394      723.05981    
   1920000   324.30782      0.0036258033   2.8668974      804.61664     -7.9446935      796.67195    
   1921000   315.3044       0.0036258033   4.0350573      782.27891     -7.2245636      775.05435    
   1922000   291.34537      0.0036258033   2.2143481      722.83588     -6.7063724      716.12951    
   1923000   285.15265      0.0036258033  -0.10139412     707.47158     -5.7871344      701.68444    
   1924000   304.11945      0.0036258033  -1.2207476      754.52874     -7.1688111      747.35993    
   1925000   303.98296      0.0036258033   2.7611662      754.1901      -5.4344042      748.7557     
   1926000   289.56424      0.0036258033   3.5441119      718.41687     -7.0934265      711.32344    
   1927000   290.08582      0.0036258033   4.736117       719.71092     -4.3383509      715.37256    
   1928000   307.49         0.0036258033   0.79759833     762.89117     -5.3835117      757.50766    
   1929000   315.15614      0.0036258033  -0.037476484    781.91108     -4.4006592      777.51042    
   1930000   300.12826      0.0036258033   3.188128       744.62649     -5.8410588      738.78543    
   1931000   297.85007      0.0036258033   2.679545       738.97424     -8.1383874      730.83586    
   1932000   292.30857      0.0036258033   2.0272909      725.22561     -9.5129546      715.71266    
   1933000   297.8827       0.0036258033   0.23957769     739.0552      -7.3795033      731.67569    
   1934000   306.93746      0.0036258033   1.8555656      761.5203      -8.7903751      752.72993    
   1935000   315.71342      0.0036258033   3.3621895      783.29371     -5.5198758      777.77383    
   1936000   291.99857      0.0036258033   1.3258021      724.45651     -6.8908383      717.56567    
   1937000   298.31576      0.0036258033   0.57093696     740.12963     -5.3156416      734.81399    
   1938000   301.55333      0.0036258033   1.6816832      748.16213     -6.5092623      741.65287    
   1939000   298.5977       0.0036258033   1.9831185      740.82913     -6.0261889      734.80294    
   1940000   296.45502      0.0036258033   3.3640017      735.51306     -6.2261864      729.28688    
   1941000   304.4439       0.0036258033   1.9510856      755.3337      -6.8687999      748.4649     
   1942000   293.86447      0.0036258033   1.9397124      729.08584     -8.9328986      720.15294    
   1943000   308.38103      0.0036258033   2.357432       765.10183     -8.201893       756.89994    
   1944000   307.02379      0.0036258033   2.0338174      761.73449     -8.5616282      753.17286    
   1945000   292.33722      0.0036258033   1.9910914      725.29669     -9.4752428      715.82145    
   1946000   291.36027      0.0036258033   1.8763091      722.87286     -7.533823       715.33903    
   1947000   302.63913      0.0036258033   1.4660681      750.85601     -10.044749      740.81126    
   1948000   311.1084       0.0036258033   2.1743952      771.86851     -7.4434769      764.42503    
   1949000   292.68932      0.0036258033   2.0498363      726.17027     -8.3446355      717.82563    
   1950000   284.91922      0.0036258033  -0.65985685     706.89244     -6.0254967      700.86695    
   1951000   303.25269      0.0036258033   0.49375791     752.37828     -8.4912624      743.88702    
   1952000   308.52914      0.0036258033   5.2918131      765.46931     -9.8859173      755.58339    
   1953000   291.45509      0.0036258033   2.3653999      723.10811     -8.2257862      714.88233    
   1954000   291.61306      0.0036258033   0.56389345     723.50004     -6.8595257      716.64051    
   1955000   303.6154       0.0036258033   2.4165263      753.27817     -6.8270093      746.45116    
   1956000   300.30413      0.0036258033   2.6216647      745.06283     -6.6966636      738.36617    
   1957000   300.295        0.0036258033   2.2521813      745.04018     -7.8209376      737.21924    
   1958000   290.09843      0.0036258033   0.9986357      719.7422      -6.8584022      712.88379    
   1959000   291.61678      0.0036258033   1.7456176      723.50927     -8.6109222      714.89835    
   1960000   303.60117      0.0036258033   2.6641484      753.24288     -6.6465281      746.59635    
   1961000   285.78126      0.0036258033   2.360228       709.03118     -5.7555144      703.27567    
   1962000   310.34874      0.0036258033   1.6494286      769.98378     -6.204092       763.77969    
   1963000   298.64841      0.0036258033   1.933348       740.95495     -6.938426       734.01652    
   1964000   294.53664      0.0036258033   2.3254607      730.75352     -5.4433717      725.31014    
   1965000   307.35097      0.0036258033   2.1519466      762.54622     -8.1143079      754.43191    
   1966000   299.46967      0.0036258033   1.9386938      742.99251     -8.940759       734.05175    
   1967000   295.01477      0.0036258033   2.1463059      731.93977     -4.9958616      726.94391    
   1968000   301.28152      0.0036258033   1.7304244      747.48775     -3.8717996      743.61595    
   1969000   302.04177      0.0036258033   1.1350579      749.37396     -3.7283836      745.64557    
   1970000   300.00481      0.0036258033   0.88201584     744.3202      -5.6208037      738.69939    
   1971000   300.89759      0.0036258033   3.0408639      746.53522     -4.4866384      742.04858    
   1972000   312.82812      0.0036258033   2.6322857      776.1352      -3.3588798      772.77632    
   1973000   299.78241      0.0036258033   2.1110084      743.76842     -3.5550987      740.21332    
   1974000   295.57018      0.0036258033   1.5781368      733.31777     -6.1655317      727.15224    
   1975000   299.09188      0.0036258033   2.9570417      742.05521     -5.5215879      736.53362    
   1976000   308.40398      0.0036258033   2.0694047      765.15877     -5.4526932      759.70608    
   1977000   294.8181       0.0036258033   2.0391927      731.45183     -6.8929317      724.5589     
   1978000   293.97315      0.0036258033   1.7745384      729.35549     -5.5721354      723.78336    
   1979000   300.41848      0.0036258033   2.2568972      745.34653     -5.4218393      739.92469    
   1980000   306.47181      0.0036258033   0.75977626     760.365       -6.6209627      753.74404    
   1981000   293.24583      0.0036258033   2.196306       727.55099     -5.7928317      721.75815    
   1982000   298.46134      0.0036258033   2.7263803      740.49081     -5.4872601      735.00355    
   1983000   301.72116      0.0036258033   2.4914571      748.57852     -7.1462805      741.43224    
   1984000   296.98839      0.0036258033   0.60280851     736.83637     -7.1262726      729.7101     
   1985000   297.67307      0.0036258033   2.9760073      738.53508     -7.5946873      730.9404     
   1986000   312.47129      0.0036258033   2.6037358      775.24988     -6.6065437      768.64333    
   1987000   312.12434      0.0036258033   2.1877852      774.3891      -7.0488099      767.34029    
   1988000   293.95727      0.0036258033   2.1238169      729.31608     -5.7358602      723.58022    
   1989000   291.05332      0.0036258033   1.9630235      722.11131     -6.5957836      715.51552    
   1990000   297.49025      0.0036258033   2.1183924      738.08152     -5.5774643      732.50405    
   1991000   291.62129      0.0036258033   3.0687314      723.52045     -8.9259042      714.59454    
   1992000   297.93168      0.0036258033   2.0344477      739.1767      -9.0581019      730.1186     
   1993000   298.13766      0.0036258033   2.0878106      739.68776     -9.3636125      730.32415    
   1994000   307.8941       0.0036258033   1.8123895      763.89375     -10.231434      753.66232    
   1995000   304.01418      0.0036258033   1.6225098      754.26755     -10.894666      743.37289    
   1996000   297.40138      0.0036258033   2.7169462      737.86103     -12.356054      725.50497    
   1997000   308.61565      0.0036258033   2.8085862      765.68394     -10.727177      754.95677    
   1998000   295.78176      0.0036258033   1.9638863      733.84269     -7.1465937      726.6961     
   1999000   306.76928      0.0036258033   2.3419474      761.10303     -6.5017277      754.6013     
   2000000   287.03297      0.0036258033   0.52565242     712.13671     -6.9240355      705.21268    
   2001000   292.98589      0.0036258033   1.9303161      726.90606     -8.2820611      718.624      
   2002000   296.62937      0.0036258033   2.7371817      735.94565     -7.3940474      728.55161    
   2003000   299.39107      0.0036258033   2.458893       742.7975      -6.5360933      736.26141    
   2004000   308.56745      0.0036258033   0.79385715     765.56434     -5.6927613      759.87158    
   2005000   298.22816      0.0036258033   0.40231376     739.91229     -5.7931214      734.11917    
   2006000   289.30476      0.0036258033   1.7088858      717.77307     -6.4637433      711.30933    
   2007000   287.75201      0.0036258033   1.234912       713.92066     -7.4139367      706.50673    
   2008000   288.99543      0.0036258033   3.0986369      717.00563     -7.2262198      709.77941    
   2009000   315.32951      0.0036258033   3.2489836      782.34122     -5.753412       776.5878     
   2010000   306.42405      0.0036258033   0.83290725     760.24652     -10.187235      750.05929    
   2011000   286.2093       0.0036258033   1.4341715      710.09316     -9.5240347      700.56913    
   2012000   290.6617       0.0036258033   2.3615007      721.13969     -7.7984385      713.34125    
   2013000   318.0353       0.0036258033   3.1677485      789.05435     -6.87753        782.17682    
   2014000   296.52405      0.0036258033   0.095879318    735.68435     -8.5005401      727.18381    
   2015000   305.13515      0.0036258033   2.8694023      757.04872     -6.5598773      750.48884    
   2016000   296.52706      0.0036258033   3.4777648      735.69181     -6.2904182      729.4014     
   2017000   300.44914      0.0036258033   1.6470915      745.42259     -7.5450119      737.87758    
   2018000   301.79113      0.0036258033  -2.0204848      748.75211     -6.3128437      742.43926    
   2019000   294.52122      0.0036258033   2.2008086      730.71526     -8.6310647      722.08419    
   2020000   303.48511      0.0036258033   6.3752723      752.95492     -7.3661465      745.58877    
   2021000   309.32677      0.0036258033   0.51587277     767.44824     -9.4042102      758.04403    
   2022000   298.71539      0.0036258033  -1.6793608      741.12113     -5.2585151      735.86261    
   2023000   299.30641      0.0036258033   5.0083384      742.58746     -5.4325858      737.15487    
   2024000   301.15448      0.0036258033   4.6002188      747.17256     -3.6529715      743.51959    
   2025000   295.43523      0.0036258033   0.83325076     732.98296     -5.1428337      727.84013    
   2026000   291.53793      0.0036258033   1.2316697      723.31365     -4.1745403      719.13911    
   2027000   306.82953      0.0036258033   2.7389931      761.25251     -4.4345808      756.81793    
   2028000   303.81672      0.0036258033   0.48131001     753.77766     -5.8731909      747.90447    
   2029000   289.06675      0.0036258033   1.6615754      717.18257     -7.3866674      709.7959     
   2030000   312.40838      0.0036258033   3.7739029      775.09381     -4.93651        770.1573     
   2031000   307.66544      0.0036258033   1.7846621      763.32644     -5.3187397      758.0077     
   2032000   287.41937      0.0036258033  -0.90380707     713.09537     -4.3225893      708.77278    
   2033000   301.03306      0.0036258033   4.1497471      746.87133     -6.6387265      740.2326     
   2034000   303.30558      0.0036258033   3.8591031      752.50951     -6.9780799      745.53143    
   2035000   306.31974      0.0036258033  -3.8758543      759.98772     -6.8135085      753.17421    
   2036000   292.04695      0.0036258033   2.9998346      724.57654     -7.9687397      716.6078     
   2037000   296.4851       0.0036258033   7.7926919      735.58772     -7.0723602      728.51536    
   2038000   317.69097      0.0036258033   1.9661676      788.20006     -7.833677       780.36638    
   2039000   301.17565      0.0036258033  -0.05580904     747.22508     -9.0913991      738.13368    
   2040000   293.55408      0.0036258033   6.39208        728.31577     -9.6098962      718.70588    
   2041000   307.08689      0.0036258033   1.2687507      761.89103     -7.8180365      754.073      
   2042000   304.07526      0.0036258033  -0.82162456     754.41909     -9.2421026      745.17699    
   2043000   301.78405      0.0036258033   1.9900484      748.73456     -9.7257996      739.00876    
   2044000   304.61892      0.0036258033   2.5855452      755.76794     -6.7629711      749.00497    
   2045000   290.79733      0.0036258033  -0.82877503     721.47619     -6.4810461      714.99515    
   2046000   288.56679      0.0036258033   3.1467866      715.94216     -10.125077      705.81708    
   2047000   317.44819      0.0036258033   5.7793248      787.59772     -10.382502      777.21522    
   2048000   310.65935      0.0036258033   1.9947109      770.75441     -10.076016      760.6784     
   2049000   282.72741      0.0036258033   1.5218244      701.45451     -10.065946      691.38856    
   2050000   296.57565      0.0036258033   4.6961701      735.81237     -12.007687      723.80468    
   2051000   309.55023      0.0036258033   1.692493       768.00265     -8.1617746      759.84087    
   2052000   299.23071      0.0036258033   1.5011203      742.39963     -7.3416157      735.05802    
   2053000   294.02013      0.0036258033   2.202906       729.47205     -6.3593032      723.11274    
   2054000   300.34816      0.0036258033   2.9109106      745.17206     -6.2341239      738.93793    
   2055000   312.3718       0.0036258033   3.0804578      775.00304     -5.9588487      769.0442     
   2056000   302.95963      0.0036258033   1.3372221      751.65118     -8.4777277      743.17346    
   2057000   290.87223      0.0036258033   1.7634568      721.66201     -8.1396016      713.52241    
   2058000   284.11121      0.0036258033   4.2575912      704.88774     -8.1992262      696.68851    
   2059000   316.1424       0.0036258033   3.6685678      784.35801     -8.4487487      775.90926    
   2060000   294.9202       0.0036258033   1.5979297      731.70515     -6.6174209      725.08773    
   2061000   286.97241      0.0036258033   1.8139093      711.98647     -7.0874349      704.89904    
   2062000   294.74727      0.0036258033   1.6670894      731.2761      -7.3685437      723.90756    
   2063000   302.27004      0.0036258033   2.9929508      749.9403      -7.6824462      742.25785    
   2064000   305.41012      0.0036258033   1.7755132      757.73093     -9.6344824      748.09645    
   2065000   300.86204      0.0036258033   0.60047119     746.44702     -6.6500263      739.797      
   2066000   290.84381      0.0036258033   1.9334846      721.5915      -7.9645762      713.62692    
   2067000   300.9763       0.0036258033   1.4683171      746.7305      -6.6770137      740.05349    
   2068000   301.33538      0.0036258033   2.7725804      747.62139     -6.1941466      741.42725    
   2069000   299.58971      0.0036258033   3.2934849      743.29032     -6.3724842      736.91784    
   2070000   293.65159      0.0036258033   1.6543692      728.5577      -7.7116129      720.84608    
   2071000   304.68344      0.0036258033   1.2457856      755.928       -10.097003      745.831      
   2072000   309.17394      0.0036258033   2.6484505      767.06908     -9.817981       757.25109    
   2073000   295.12786      0.0036258033   2.2986234      732.22035     -7.8111295      724.40922    
   2074000   293.99484      0.0036258033   1.7905582      729.40931     -8.1961898      721.21312    
   2075000   312.89048      0.0036258033   1.5267487      776.28989     -9.9823794      766.30751    
   2076000   301.04338      0.0036258033   2.1238156      746.89692     -10.571526      736.3254     
   2077000   288.16093      0.0036258033   2.2314707      714.9352      -7.7169461      707.21825    
   2078000   291.97714      0.0036258033   2.1547035      724.40334     -6.2310202      718.17232    
   2079000   311.94154      0.0036258033   1.5070553      773.93556     -7.0010324      766.93452    
   2080000   298.8372       0.0036258033   2.1321272      741.42334     -6.8050719      734.61826    
   2081000   291.64406      0.0036258033   2.2160808      723.57694     -6.7285922      716.84835    
   2082000   296.83809      0.0036258033   2.873364       736.46349     -7.2457006      729.21779    
   2083000   307.03581      0.0036258033   1.6934106      761.76431     -7.1853744      754.57893    
   2084000   305.68205      0.0036258033   1.9333669      758.40559     -7.9000125      750.50558    
   2085000   295.18087      0.0036258033   1.9717785      732.35188     -8.3979207      723.95396    
   2086000   289.34114      0.0036258033   1.102733       717.86333     -7.3641587      710.49918    
   2087000   298.54534      0.0036258033   2.0819898      740.69922     -6.8785778      733.82065    
   2088000   304.29011      0.0036258033   2.9179885      754.95214     -5.7759369      749.17621    
   2089000   309.94278      0.0036258033   0.48650465     768.97659     -6.9293086      762.04728    
   2090000   297.83116      0.0036258033   1.4525369      738.92733     -7.5124159      731.41491    
   2091000   306.75103      0.0036258033   2.3404427      761.05776     -6.8084214      754.24934    
   2092000   319.172        0.0036258033   2.3361179      791.87453     -6.3077443      785.56678    
   2093000   304.5301       0.0036258033   0.43816476     755.54756     -7.1349188      748.41264    
   2094000   305.30747      0.0036258033   0.5882663      757.47624     -5.7834371      751.69281    
   2095000   295.40611      0.0036258033   1.8798431      732.91071     -5.9271585      726.98355    
   2096000   297.18906      0.0036258033   3.3941938      737.33424     -7.1319487      730.20229    
   2097000   310.47889      0.0036258033   3.3819203      770.30667     -7.7469413      762.55973    
   2098000   314.65878      0.0036258033   2.3880798      780.67712     -4.9509302      775.72619    
   2099000   295.20359      0.0036258033   0.45555083     732.40824     -6.2273341      726.18091    
   2100000   294.70436      0.0036258033   2.900467       731.16964     -5.5580117      725.61162    
   2101000   308.5594       0.0036258033   2.5295232      765.54437     -5.163307       760.38106    
   2102000   299.19148      0.0036258033   1.4646666      742.3023      -5.0503642      737.25193    
   2103000   294.40975      0.0036258033   2.1794562      730.43871     -7.1909894      723.24772    
   2104000   310.3705       0.0036258033   2.1619189      770.03776     -4.0496255      765.98814    
   2105000   311.60778      0.0036258033   1.2525528      773.10749     -4.9050064      768.20249    
   2106000   292.01504      0.0036258033   1.8145884      724.49736     -5.9516277      718.54573    
   2107000   288.06969      0.0036258033   2.6376309      714.70883     -7.6087723      707.10006    
   2108000   315.57746      0.0036258033   2.148354       782.95637     -8.2316442      774.72473    
   2109000   304.43556      0.0036258033   1.9947993      755.31302     -7.8907322      747.42228    
   2110000   302.53126      0.0036258033   2.0602635      750.58838     -9.6501427      740.93824    
   2111000   303.86439      0.0036258033   1.7177497      753.89594     -6.78834        747.1076     
   2112000   282.87347      0.0036258033   0.62357157     701.81689     -6.1187388      695.69815    
   2113000   307.32575      0.0036258033   2.868203       762.48366     -5.2128917      757.27077    
   2114000   310.04037      0.0036258033   3.3425171      769.21871     -4.4463694      764.77235    
   2115000   298.16407      0.0036258033   1.1592219      739.75327     -4.5753219      735.17795    
   2116000   289.74795      0.0036258033   1.9013917      718.87265     -5.725469       713.14718    
   2117000   293.65943      0.0036258033   4.2319627      728.57714     -5.2937675      723.28337    
   2118000   315.47095      0.0036258033   3.4566233      782.69212     -5.6714863      777.02063    
   2119000   311.364        0.0036258033  -0.027919992    772.50267     -7.2784999      765.22417    
   2120000   296.83606      0.0036258033   1.1412723      736.45846     -4.1687927      732.28966    
   2121000   290.21728      0.0036258033   0.90741481     720.03706     -6.0304318      714.00663    
   2122000   320.78616      0.0036258033   4.6734564      795.87931     -7.4840344      788.39527    
   2123000   305.56821      0.0036258033   2.5936233      758.12316     -7.0548011      751.06836    
   2124000   300.11539      0.0036258033   1.6306831      744.59457     -4.714653       739.87991    
   2125000   282.97385      0.0036258033   1.7968274      702.06593     -6.5949191      695.47101    
   2126000   299.16712      0.0036258033   2.2945896      742.24187     -7.484254       734.75761    
   2127000   308.41547      0.0036258033   2.3941617      765.18729     -5.4158756      759.77141    
   2128000   292.14042      0.0036258033   2.0474627      724.80843     -6.9852873      717.82315    
   2129000   304.12586      0.0036258033   2.4207101      754.54465     -6.1198372      748.42482    
   2130000   294.88954      0.0036258033   1.3954511      731.62909     -5.2806301      726.34846    
   2131000   288.09128      0.0036258033   0.95822236     714.7624      -4.6690591      710.09334    
   2132000   299.87954      0.0036258033   1.6814517      744.00941     -5.0888723      738.92054    
   2133000   308.89972      0.0036258033   2.7918462      766.38873     -7.2513108      759.13742    
   2134000   299.87646      0.0036258033   2.7321866      744.00175     -5.2228214      738.77893    
   2135000   295.36327      0.0036258033   1.8532662      732.80441     -3.5155495      729.28886    
   2136000   297.26032      0.0036258033   1.73317        737.51104     -6.3657386      731.1453     
   2137000   300.19357      0.0036258033   1.7716144      744.78852     -7.0698453      737.71867    
   2138000   309.97404      0.0036258033   1.9856436      769.05413     -7.3949071      761.65922    
   2139000   286.61334      0.0036258033   4.6145692      711.09559     -7.1195044      703.97608    
   2140000   295.55741      0.0036258033   1.8467411      733.28609     -9.4752758      723.81082    
   2141000   304.66162      0.0036258033   1.9792045      755.87388     -9.8040488      746.06984    
   2142000   295.03982      0.0036258033   2.0533612      732.00192     -9.1489121      722.85301    
   2143000   290.71107      0.0036258033   2.2098537      721.26219     -8.4911391      712.77105    
   2144000   293.23138      0.0036258033   1.3378247      727.51513     -6.645139       720.86999    
   2145000   307.5386       0.0036258033   1.3294498      763.01175     -7.9705225      755.04123    
   2146000   306.27537      0.0036258033   2.6391067      759.87764     -9.1726464      750.705      
   2147000   286.93767      0.0036258033   1.7648448      711.90028     -9.9568413      701.94344    
   2148000   293.48079      0.0036258033   0.39391509     728.13393     -9.1070803      719.02685    
   2149000   303.6649       0.0036258033   3.5734773      753.401       -10.334276      743.06672    
   2150000   298.45992      0.0036258033   1.5242737      740.48728     -8.8725304      731.61475    
   2151000   311.03798      0.0036258033   0.77362109     771.69381     -7.9447985      763.74901    
   2152000   302.08801      0.0036258033   2.6309557      749.48867     -6.1179803      743.37069    
   2153000   300.69754      0.0036258033   2.5341393      746.03888     -5.9017701      740.13711    
   2154000   298.25959      0.0036258033  -1.1560908      739.99025     -8.2508143      731.73944    
   2155000   302.6224       0.0036258033   1.4720537      750.81451     -5.7394045      745.0751     
   2156000   302.15067      0.0036258033   2.6071529      749.64414     -9.438174       740.20596    
   2157000   301.67831      0.0036258033   3.0804369      748.47222     -9.7446825      738.72753    
   2158000   290.67462      0.0036258033   1.9204523      721.17174     -8.3502189      712.82153    
   2159000   285.23939      0.0036258033   1.4787251      707.68679     -9.2318362      698.45496    
   2160000   313.15211      0.0036258033   1.5883842      776.93901     -6.8113441      770.12766    
   2161000   302.62134      0.0036258033   3.1639317      750.81189     -7.1519942      743.6599     
   2162000   285.902        0.0036258033   2.0726399      709.33075     -6.4276268      702.90313    
   2163000   293.27746      0.0036258033   0.67597476     727.62945     -6.7524483      720.877      
   2164000   305.86325      0.0036258033   1.936489       758.85514     -3.4576335      755.39751    
   2165000   308.03754      0.0036258033   4.3052705      764.24962     -6.337013       757.91261    
   2166000   297.1854       0.0036258033   1.8013521      737.32517     -7.9911012      729.33407    
   2167000   295.55015      0.0036258033   1.8387664      733.26808     -6.4177773      726.8503     
   2168000   294.9827       0.0036258033   1.9869758      731.86022     -9.3807256      722.47949    
   2169000   313.1713       0.0036258033   2.3074561      776.98664     -5.9766599      771.00998    
   2170000   295.72176      0.0036258033   2.1930171      733.69383     -5.6568911      728.03694    
   2171000   290.43917      0.0036258033   1.1412208      720.58759     -6.2749437      714.31265    
   2172000   310.94733      0.0036258033   1.6221991      771.46889     -7.8807797      763.58811    
   2173000   313.46672      0.0036258033   3.7906374      777.71958     -7.1183616      770.60122    
   2174000   301.43816      0.0036258033   2.2583745      747.8764      -8.8936505      738.98275    
   2175000   286.4607       0.0036258033   1.9826948      710.71688     -9.8424779      700.87441    
   2176000   297.06397      0.0036258033   1.4981327      737.0239      -8.8750264      728.14887    
   2177000   322.05236      0.0036258033   2.5797877      799.02079     -8.4421632      790.57862    
   2178000   307.83306      0.0036258033   2.6239251      763.74232     -6.1815725      757.56075    
   2179000   286.74672      0.0036258033   2.1154548      711.42651     -4.2563672      707.17014    
   2180000   290.58599      0.0036258033   1.7890511      720.95186     -4.4022912      716.54957    
   2181000   313.56591      0.0036258033   1.9414371      777.96567     -6.4136096      771.55206    
   2182000   306.69592      0.0036258033   2.0283506      760.92104     -5.0714602      755.84958    
   2183000   290.62671      0.0036258033   2.2378594      721.05287     -6.2043201      714.84855    
   2184000   293.03167      0.0036258033   1.8651602      727.01966     -6.7776971      720.24196    
   2185000   309.63583      0.0036258033   1.2892648      768.21502     -5.8607666      762.35425    
   2186000   309.60224      0.0036258033   2.1507441      768.13169     -5.8489678      762.28273    
   2187000   288.01919      0.0036258033   1.9299594      714.58355     -8.5140339      706.06952    
   2188000   297.70362      0.0036258033   4.4439488      738.61089     -4.4323888      734.17851    
   2189000   313.85707      0.0036258033   1.9109848      778.68804     -5.3213408      773.3667     
   2190000   308.45365      0.0036258033   1.989935       765.28201     -6.5961648      758.68585    
   2191000   297.56819      0.0036258033   1.881452       738.27488     -4.3263138      733.94857    
   2192000   288.16083      0.0036258033   1.6996959      714.93496     -3.6164588      711.3185     
   2193000   304.74068      0.0036258033   2.3341381      756.07002     -4.4238369      751.64618    
   2194000   294.57187      0.0036258033   2.6281003      730.84093     -5.3669777      725.47395    
   2195000   301.67522      0.0036258033   1.6473449      748.46453     -4.2005587      744.26397    
   2196000   299.34859      0.0036258033   2.2694809      742.69211     -4.7245457      737.96756    
   2197000   298.35984      0.0036258033   2.3919098      740.23898     -4.5875492      735.65143    
   2198000   298.62423      0.0036258033   1.8705504      740.89494     -6.5641018      734.33084    
   2199000   298.48567      0.0036258033   2.0567258      740.55118     -5.790666       734.76051    
   2200000   303.47604      0.0036258033   1.3842094      752.93243     -5.8182244      747.1142     
   2201000   299.20027      0.0036258033   1.980165       742.32412     -6.3402922      735.98382    
   2202000   295.58679      0.0036258033   2.1323322      733.35898     -4.9908529      728.36813    
   2203000   306.71889      0.0036258033   2.5048577      760.97802     -7.1496245      753.8284     
   2204000   298.97888      0.0036258033   2.2632807      741.77483     -9.4629316      732.3119     
   2205000   292.47536      0.0036258033   2.9611439      725.63942     -9.4125975      716.22682    
   2206000   297.36152      0.0036258033   1.243914       737.76212     -7.8593631      729.90275    
   2207000   298.82081      0.0036258033   1.8145534      741.38266     -4.5701084      736.81255    
   2208000   308.44622      0.0036258033   1.9965927      765.26357     -5.4011055      759.86246    
   2209000   308.17571      0.0036258033   1.8853398      764.59244     -6.2948485      758.29759    
   2210000   294.20977      0.0036258033   1.8641708      729.94256     -4.8369571      725.1056     
   2211000   310.11347      0.0036258033   1.8926359      769.40006     -6.6969216      762.70314    
   2212000   311.85376      0.0036258033   2.9477132      773.71779     -4.3882662      769.32952    
   2213000   291.88015      0.0036258033   2.8787862      724.16269     -5.5758195      718.58687    
   2214000   302.2638       0.0036258033   1.7028655      749.92483     -6.0404232      743.88441    
   2215000   296.54044      0.0036258033   1.2476522      735.72502     -8.3664781      727.35854    
   2216000   299.28759      0.0036258033   2.4846174      742.54076     -9.1298683      733.41089    
   2217000   292.93467      0.0036258033   2.517872       726.779       -8.1743647      718.60463    
   2218000   293.45754      0.0036258033   0.91336888     728.07624     -7.8717935      720.20445    
   2219000   306.97927      0.0036258033   1.8278403      761.62403     -7.3502699      754.27376    
   2220000   307.67508      0.0036258033   3.7761833      763.35037     -6.4789301      756.87144    
   2221000   288.80703      0.0036258033   2.2584118      716.53821     -5.1823369      711.35587    
   2222000   303.231        0.0036258033   0.96870493     752.32447     -4.1694467      748.15502    
   2223000   317.44335      0.0036258033   2.7226958      787.5857      -6.0420414      781.54366    
   2224000   298.13096      0.0036258033   2.0580908      739.67114     -3.3963243      736.27482    
   2225000   290.01196      0.0036258033   1.4566954      719.52767     -6.8484927      712.67918    
   2226000   297.34764      0.0036258033   2.1191285      737.72768     -6.0897         731.63798    
   2227000   310.14548      0.0036258033   2.2169224      769.47949     -6.6818749      762.79762    
   2228000   301.79318      0.0036258033   2.2219301      748.75719     -7.2580247      741.49917    
   2229000   299.02556      0.0036258033   1.8968659      741.89065     -6.5296439      735.361      
   2230000   301.52568      0.0036258033   1.732373       748.09353     -7.861466       740.23207    
   2231000   307.43664      0.0036258033   2.5874339      762.75878     -7.3437234      755.41506    
   2232000   311.0367       0.0036258033   1.8986152      771.69063     -6.7710452      764.91959    
   2233000   300.71972      0.0036258033   3.4068642      746.09391     -7.9419895      738.15192    
   2234000   289.38999      0.0036258033   1.9753288      717.98455     -10.76526       707.21929    
   2235000   292.4475       0.0036258033   1.7188545      725.57031     -7.0596163      718.51069    
   2236000   301.71728      0.0036258033   1.9019683      748.5689      -9.6302481      738.93865    
   2237000   312.00235      0.0036258033   2.8884221      774.08643     -8.5469461      765.53948    
   2238000   292.93201      0.0036258033   1.7524485      726.77239     -6.1002604      720.67213    
   2239000   292.80861      0.0036258033   1.2663913      726.46623     -8.893422       717.57281    
   2240000   305.7074       0.0036258033   0.4622264      758.4685      -6.3885875      752.07991    
   2241000   318.1473       0.0036258033   1.462155       789.33223     -5.6668159      783.66541    
   2242000   295.57459      0.0036258033   2.2691632      733.3287      -5.8717208      727.45697    
   2243000   282.44086      0.0036258033   1.9558385      700.74357     -5.7966918      694.94688    
   2244000   298.25694      0.0036258033   0.94149272     739.98368     -5.6041258      734.37955    
   2245000   321.5357       0.0036258033   1.8994889      797.73894     -5.7427835      791.99616    
   2246000   302.7532       0.0036258033   3.503286       751.13904     -8.7815623      742.35747    
   2247000   290.26066      0.0036258033   2.2078966      720.14471     -7.0034069      713.1413     
   2248000   304.33146      0.0036258033   1.196769       755.05475     -12.418631      742.63611    
   2249000   306.5162       0.0036258033   2.2150026      760.47514     -7.860166       752.61497    
   2250000   315.80959      0.0036258033   3.3708157      783.53229     -9.0265877      774.5057     
   2251000   285.65781      0.0036258033   1.5561387      708.7249      -6.2358195      702.48908    
   2252000   295.41554      0.0036258033   1.537629       732.93409     -6.9613963      725.9727     
   2253000   301.60416      0.0036258033   2.0766482      748.28824     -4.482034       743.8062     
   2254000   285.08434      0.0036258033   1.8713012      707.3021      -6.171575       701.13053    
   2255000   291.64996      0.0036258033   2.3352541      723.59158     -4.7395572      718.85202    
   2256000   296.79389      0.0036258033   0.20503547     736.35383     -5.142207       731.21162    
   2257000   305.40779      0.0036258033   2.934545       757.72514     -4.7841247      752.94101    
   2258000   295.86776      0.0036258033   2.2156792      734.05607     -5.9799273      728.07615    
   2259000   293.22217      0.0036258033   1.788371       727.49229     -4.4592606      723.03303    
   2260000   294.51511      0.0036258033  -0.35947163     730.7001      -5.4875168      725.21258    
   2261000   311.0839       0.0036258033   2.7643374      771.80772     -7.0799755      764.72775    
   2262000   296.91688      0.0036258033   2.5084103      736.65897     -7.8380498      728.82092    
   2263000   305.0764       0.0036258033   2.115958       756.90297     -7.4111189      749.49185    
   2264000   307.85173      0.0036258033   1.2514978      763.78862     -7.3463872      756.44223    
   2265000   293.58252      0.0036258033   7.4757106      728.38632     -7.4125785      720.97374    
   2266000   294.25234      0.0036258033   2.5456512      730.04816     -6.660727       723.38743    
   2267000   304.55587      0.0036258033   1.7236145      755.61151     -6.5479511      749.06356    
   2268000   300.48924      0.0036258033   1.7618899      745.52208     -6.8038441      738.71824    
   2269000   299.11149      0.0036258033   2.1717906      742.10385     -5.8223643      736.28149    
   2270000   283.92525      0.0036258033   2.4790227      704.42636     -8.8163497      695.61001    
   2271000   291.22956      0.0036258033   2.2832327      722.54856     -9.4217218      713.12684    
   2272000   301.18534      0.0036258033   1.7071546      747.24913     -11.748886      735.50024    
   2273000   294.8908       0.0036258033   1.3920537      731.6322      -8.7552022      722.87699    
   2274000   305.20519      0.0036258033   2.4198121      757.22248     -6.895578       750.3269     
   2275000   292.40829      0.0036258033   1.8749114      725.47304     -7.0589656      718.41407    
   2276000   298.20085      0.0036258033   2.0754889      739.84454     -6.9860226      732.85851    
   2277000   297.95157      0.0036258033   1.9947749      739.22605     -9.2235834      730.00247    
   2278000   305.0758       0.0036258033   2.0833748      756.90146     -6.0964027      750.80506    
   2279000   295.78522      0.0036258033   2.0462365      733.85129     -7.2345525      726.61673    
   2280000   284.9569       0.0036258033   1.9779352      706.98593     -7.4035985      699.58233    
   2281000   307.73983      0.0036258033   2.0894925      763.511       -6.0290153      757.48198    
   2282000   309.84046      0.0036258033   2.2214699      768.72273     -5.5702718      763.15246    
   2283000   299.21152      0.0036258033   1.8265176      742.35203     -5.242318       737.10971    
   2284000   292.7464       0.0036258033   1.332778       726.3119      -5.7657356      720.54616    
   2285000   299.23617      0.0036258033   2.4592987      742.41318     -5.9911826      736.422      
   2286000   303.98324      0.0036258033   2.2285457      754.19079     -8.1164646      746.07433    
   2287000   295.84725      0.0036258033   1.8768507      734.00518     -7.3625616      726.64262    
   2288000   291.42333      0.0036258033   1.7294096      723.02932     -6.4239433      716.60538    
   2289000   296.88838      0.0036258033   3.4344123      736.58826     -7.7743781      728.81388    
   2290000   298.76882      0.0036258033   1.8638861      741.25368     -7.1273561      734.12633    
   2291000   278.24547      0.0036258033   1.4733352      690.33468     -6.7835093      683.55117    
   2292000   292.32883      0.0036258033   1.6926848      725.27589     -6.7914845      718.48441    
   2293000   303.63577      0.0036258033   1.9643687      753.32871     -7.8617054      745.46701    
   2294000   310.87794      0.0036258033   2.967155       771.29674     -4.8085276      766.48821    
   2295000   299.97667      0.0036258033   2.4974269      744.25039     -5.9204641      738.32993    
   2296000   287.15559      0.0036258033   1.8016697      712.44092     -8.9583074      703.48262    
   2297000   297.31742      0.0036258033   1.7663452      737.65271     -9.6435489      728.00916    
   2298000   292.37995      0.0036258033   2.8446013      725.40272     -8.7541822      716.64854    
   2299000   307.29462      0.0036258033   2.917157       762.40643     -6.5003382      755.90609    
   2300000   295.82758      0.0036258033   1.6872288      733.95637     -6.729707       727.22667    
   2301000   294.54152      0.0036258033   1.8959207      730.76562     -4.3340306      726.43159    
   2302000   315.13594      0.0036258033   2.913512       781.86094     -5.9660784      775.89486    
   2303000   300.13005      0.0036258033   2.2489077      744.63093     -4.9701512      739.66078    
   2304000   301.13994      0.0036258033   3.8902619      747.1365      -6.7442091      740.39229    
   2305000   295.05685      0.0036258033   2.4427589      732.04419     -7.0866012      724.95759    
   2306000   291.24594      0.0036258033   1.800594       722.5892      -7.2621709      715.32703    
   2307000   296.38986      0.0036258033   3.1230076      735.35142     -9.9591475      725.39227    
   2308000   302.65378      0.0036258033   1.9929231      750.89237     -9.3050154      741.58735    
   2309000   307.37857      0.0036258033   1.1586862      762.6147      -8.3638424      754.25086    
   2310000   294.92307      0.0036258033   2.3602643      731.71227     -8.0276389      723.68463    
   2311000   308.98601      0.0036258033   2.113552       766.60282     -8.556973       758.04584    
   2312000   301.38114      0.0036258033   1.9675993      747.73491     -11.511405      736.22351    
   2313000   287.8093       0.0036258033   1.1500437      714.06281     -9.989829       704.07298    
   2314000   301.6564       0.0036258033  -0.035995402    748.41784     -5.5827954      742.83504    
   2315000   311.85916      0.0036258033   3.2618476      773.73117     -5.4030201      768.32815    
   2316000   298.35075      0.0036258033   2.247555       740.21643     -7.6012113      732.61521    
   2317000   290.54402      0.0036258033   2.0645448      720.84773     -8.8100248      712.0377     
   2318000   303.7351       0.0036258033   0.47822412     753.57515     -10.091073      743.48408    
   2319000   295.79393      0.0036258033   1.3287823      733.87289     -6.4678066      727.40509    
   2320000   305.33092      0.0036258033   2.3077559      757.53442     -8.866556       748.66786    
   2321000   309.69683      0.0036258033   2.9201939      768.36637     -10.514324      757.85204    
   2322000   292.03482      0.0036258033   2.4574269      724.54643     -8.3913789      716.15505    
   2323000   285.85691      0.0036258033   1.9830887      709.21888     -7.7802599      701.43862    
   2324000   301.29065      0.0036258033   1.8536991      747.51042     -6.2394576      741.27096    
   2325000   304.24355      0.0036258033   2.0530671      754.83663     -7.0750925      747.76154    
   2326000   300.91149      0.0036258033   2.0500674      746.5697      -6.7789347      739.79077    
   2327000   294.54513      0.0036258033   2.0435634      730.7746      -6.060508       724.71409    
   2328000   292.9127       0.0036258033   1.9034305      726.72447     -5.4134852      721.31099    
   2329000   313.19518      0.0036258033   2.2065768      777.04587     -6.5091515      770.53672    
   2330000   299.10358      0.0036258033   1.8954777      742.08424     -8.6491338      733.4351     
   2331000   280.28013      0.0036258033   2.2830947      695.38274     -7.068439       688.3143     
   2332000   306.34106      0.0036258033   2.1415692      760.0406      -7.690594       752.35001    
   2333000   303.3041       0.0036258033   2.2888591      752.50583     -7.1075399      745.39829    
   2334000   291.31102      0.0036258033   2.0724526      722.75068     -6.9529015      715.79778    
   2335000   310.55705      0.0036258033   1.3827322      770.5006      -8.4750768      762.02552    
   2336000   307.53503      0.0036258033   2.0515126      763.00289     -9.7967563      753.20614    
   2337000   288.80686      0.0036258033   1.6669145      716.53777     -9.0927731      707.445      
   2338000   301.60909      0.0036258033   2.1970086      748.30046     -7.9008603      740.3996     
   2339000   310.05433      0.0036258033   2.8583207      769.25333     -7.2478201      762.00551    
   2340000   298.91546      0.0036258033   2.0646779      741.61749     -7.2528569      734.36463    
   2341000   295.35105      0.0036258033   1.7684986      732.77409     -7.6150184      725.15907    
   2342000   307.63165      0.0036258033   2.1489688      763.2426      -8.0353431      755.20726    
   2343000   299.48735      0.0036258033   1.8436293      743.03636     -9.6399118      733.39645    
   2344000   299.62047      0.0036258033   2.5219783      743.36663     -7.9404516      735.42618    
   2345000   305.13623      0.0036258033   3.1459622      757.05141     -8.4866482      748.56476    
   2346000   295.90199      0.0036258033   1.8185362      734.14099     -8.4938799      725.64711    
   2347000   310.63144      0.0036258033   2.2609872      770.68517     -7.0478314      763.63734    
   2348000   291.21686      0.0036258033   1.9105703      722.51706     -9.7619565      712.75511    
   2349000   297.32263      0.0036258033   2.514326       737.66564     -5.8644749      731.80117    
   2350000   301.92747      0.0036258033   1.8885212      749.09038     -9.8342553      739.25613    
   2351000   308.731        0.0036258033   0.64946543     765.97012     -8.1629948      757.80713    
   2352000   282.44652      0.0036258033   1.9639362      700.75759     -10.0687        690.68889    
   2353000   292.51144      0.0036258033   3.3649527      725.72894     -9.7045901      716.02435    
   2354000   318.76889      0.0036258033   1.1307888      790.8744      -9.4613926      781.41301    
   2355000   304.26666      0.0036258033  -0.65900374     754.89398     -8.8614713      746.03251    
   2356000   289.21392      0.0036258033   2.171167       717.54771     -6.4709934      711.07671    
   2357000   299.68806      0.0036258033   3.0279728      743.53434     -10.639589      732.89475    
   2358000   317.96106      0.0036258033   0.40815788     788.87015     -10.501261      778.36889    
   2359000   292.65657      0.0036258033   2.8619387      726.08901     -10.038826      716.05019    
   2360000   295.92204      0.0036258033   4.1052886      734.19075     -14.402535      719.78821    
   2361000   310.04728      0.0036258033   3.841134       769.23585     -9.766176       759.46967    
   2362000   303.49116      0.0036258033   0.69411968     752.96992     -8.810922       744.159      
   2363000   291.71034      0.0036258033  -0.049889062    723.74139     -9.5711304      714.17026    
   2364000   298.00161      0.0036258033   3.7866972      739.35021     -10.57951       728.7707     
   2365000   295.74174      0.0036258033   4.7856855      733.74342     -9.1798413      724.56358    
   2366000   312.38675      0.0036258033   4.4381101      775.04014     -7.0269992      768.01314    
   2367000   307.09809      0.0036258033   0.80247085     761.91882     -6.9504354      754.96838    
   2368000   284.32889      0.0036258033   2.9433468      705.42781     -7.6490609      697.77875    
   2369000   304.0606       0.0036258033   2.3601292      754.38274     -8.3662092      746.01653    
   2370000   316.76556      0.0036258033   1.2189112      785.9041      -7.1879987      778.7161     
   2371000   284.7716       0.0036258033   1.5470585      706.52619     -6.2899478      700.23624    
   2372000   292.76502      0.0036258033   2.1094475      726.35808     -7.5871572      718.77092    
   2373000   309.57814      0.0036258033   2.4058601      768.07191     -8.8826399      759.18927    
   2374000   308.48562      0.0036258033   3.080445       765.36134     -5.6926643      759.66867    
   2375000   305.62827      0.0036258033   1.373556       758.27217     -6.9398199      751.33235    
   2376000   308.28613      0.0036258033   0.197481       764.86639     -7.3225723      757.54381    
   2377000   301.421        0.0036258033   2.3047921      747.83381     -5.8306401      742.00317    
   2378000   299.4076       0.0036258033   2.4709055      742.83851     -7.5362272      735.30228    
   2379000   307.77988      0.0036258033   0.43047294     763.61037     -5.575853       758.03452    
   2380000   293.71297      0.0036258033  -1.8195074      728.70998     -6.3177217      722.39226    
   2381000   301.08282      0.0036258033  -0.52609394     746.99479     -5.3126143      741.68217    
   2382000   283.46225      0.0036258033   2.5432029      703.27766     -5.2019436      698.07572    
   2383000   294.17062      0.0036258033   2.3183782      729.84543     -3.6880963      726.15733    
   2384000   306.85489      0.0036258033   3.007277       761.31543     -6.9279484      754.38748    
   2385000   306.73754      0.0036258033  -0.35069694     761.0243      -5.6379997      755.3863     
   2386000   301.28231      0.0036258033   1.1004618      747.48973     -6.2756898      741.21404    
   2387000   270.4176       0.0036258033   0.63833294     670.91352     -4.6038275      666.3097     
   2388000   309.31966      0.0036258033   4.4551244      767.43061     -4.1509425      763.27966    
   2389000   315.54545      0.0036258033   1.9268988      782.87696     -7.6476309      775.22933    
   2390000   294.9222       0.0036258033   0.70621945     731.7101      -5.340555       726.36955    
   2391000   290.39347      0.0036258033   1.989389       720.47421     -5.8034901      714.67072    
   2392000   301.11599      0.0036258033   5.8818072      747.07706     -5.8371904      741.23987    
   2393000   324.91612      0.0036258033  -1.1886394      806.12586     -6.9074225      799.21844    
   2394000   294.43107      0.0036258033  -1.6455414      730.49161     -9.0088879      721.48272    
   2395000   299.28565      0.0036258033   3.8256462      742.53594     -8.8230263      733.71291    
   2396000   322.57798      0.0036258033   3.518261       800.32487     -6.9668494      793.35802    
   2397000   302.60844      0.0036258033   0.98190758     750.77987     -7.1602283      743.61964    
   2398000   280.52169      0.0036258033   1.9123888      695.98205     -6.0154504      689.9666     
   2399000   297.64559      0.0036258033   2.7594708      738.46692     -8.1160143      730.35091    
   2400000   315.35038      0.0036258033   3.6774468      782.39299     -6.8166771      775.57631    
   2401000   307.80429      0.0036258033   0.33479093     763.67093     -6.2493205      757.42161    
   2402000   290.35618      0.0036258033   1.1487987      720.38168     -8.398172       711.98351    
   2403000   311.56393      0.0036258033   2.1957018      772.99869     -5.0145698      767.98412    
   2404000   315.52273      0.0036258033   1.9511383      782.82059     -6.4113792      776.40922    
   2405000   296.77304      0.0036258033   1.8994838      736.3021      -6.4349171      729.86718    
   2406000   292.624        0.0036258033   2.2772459      726.0082      -6.5665427      719.44166    
   2407000   309.35094      0.0036258033   1.3003568      767.50821     -7.9415799      759.56663    
   2408000   302.78089      0.0036258033   1.9674727      751.20774     -6.3890659      744.81867    
   2409000   300.4018       0.0036258033   2.2383656      745.30514     -7.3136794      737.99146    
   2410000   283.41531      0.0036258033   0.93582062     703.1612      -9.1997052      693.96149    
   2411000   306.89879      0.0036258033  -0.690647       761.42435     -6.5241856      754.90016    
   2412000   307.4446       0.0036258033   1.9213155      762.77854     -8.2057709      754.57277    
   2413000   294.61671      0.0036258033   3.0017071      730.95218     -7.3071527      723.64503    
   2414000   287.9925       0.0036258033   2.0149235      714.51732     -8.6825397      705.83478    
   2415000   304.16166      0.0036258033   1.7379052      754.63347     -6.7322552      747.90121    
   2416000   312.60947      0.0036258033   1.7863273      775.5927      -6.2686378      769.32407    
   2417000   285.17682      0.0036258033   3.0760615      707.53155     -8.1798007      699.35175    
   2418000   291.54933      0.0036258033   2.0010882      723.34192     -6.7248867      716.61703    
   2419000   300.21358      0.0036258033   1.7058123      744.83816     -8.981505       735.85665    
   2420000   315.81488      0.0036258033   2.0918774      783.54542     -8.8187388      774.72668    
   2421000   305.89038      0.0036258033   3.5794948      758.92246     -7.9714038      750.95106    
   2422000   291.38931      0.0036258033   1.911518       722.94492     -7.1356053      715.80932    
   2423000   293.35008      0.0036258033   1.8380784      727.80963     -8.6277317      719.1819     
   2424000   305.78369      0.0036258033   1.810866       758.65777     -6.5625002      752.09527    
   2425000   306.39894      0.0036258033   1.9765309      760.18423     -8.4451377      751.73909    
   2426000   298.83125      0.0036258033   1.7737611      741.40857     -7.2777095      734.13086    
   2427000   283.66769      0.0036258033   3.4838508      703.78735     -5.3517288      698.43562    
   2428000   302.31775      0.0036258033   1.9080821      750.05867     -8.2036842      741.85498    
   2429000   310.81303      0.0036258033   3.396861       771.1357      -9.0559444      762.07976    
   2430000   302.86581      0.0036258033   1.9011276      751.41842     -7.6483856      743.77004    
   2431000   301.46271      0.0036258033   1.9125908      747.93729     -6.5412079      741.39608    
   2432000   305.91315      0.0036258033   2.1337255      758.97895     -5.6378678      753.34109    
   2433000   294.38309      0.0036258033   2.3816542      730.37256     -5.9454797      724.42708    
   2434000   286.43133      0.0036258033   1.8089667      710.64402     -8.884188       701.75983    
   2435000   300.13093      0.0036258033   2.0124517      744.63311     -8.3567416      736.27636    
   2436000   311.01671      0.0036258033   2.0144922      771.64102     -6.6116064      765.02942    
   2437000   293.08702      0.0036258033   1.0584568      727.15699     -9.5110243      717.64596    
   2438000   303.51553      0.0036258033   2.01106        753.03041     -12.435092      740.59531    
   2439000   294.80317      0.0036258033   2.7256386      731.4148      -10.666998      720.7478     
   2440000   297.86291      0.0036258033   2.0171297      739.0061      -9.3660675      729.64003    
   2441000   312.95006      0.0036258033   1.6731235      776.43774     -10.595922      765.84181    
   2442000   303.8442       0.0036258033   0.45886382     753.84585     -7.7528587      746.09299    
   2443000   289.92349      0.0036258033   1.9686654      719.30816     -8.5731642      710.735      
   2444000   298.53718      0.0036258033   1.78284        740.67898     -8.2017331      732.47725    
   2445000   306.39596      0.0036258033   2.1060173      760.17682     -5.6122645      754.56455    
   2446000   306.49358      0.0036258033   2.3958483      760.41902     -7.1440938      753.27492    
   2447000   298.17694      0.0036258033   2.0168458      739.78521     -6.5680285      733.21718    
   2448000   308.68875      0.0036258033   2.467087       765.86531     -8.757576       757.10773    
   2449000   304.71389      0.0036258033   2.2805983      756.00356     -7.9662184      748.03734    
   2450000   298.21127      0.0036258033   1.9133734      739.87039     -7.6288096      732.24158    
   2451000   303.55651      0.0036258033   1.965156       753.13207     -10.745537      742.38653    
   2452000   305.15094      0.0036258033   2.5376648      757.08789     -9.137861       747.95003    
   2453000   296.28189      0.0036258033   2.446429       735.08354     -8.3510969      726.73244    
   2454000   310.74626      0.0036258033   1.9569536      770.97003     -5.9004164      765.06961    
   2455000   298.57652      0.0036258033   1.9006143      740.77658     -4.5400722      736.2365     
   2456000   292.41999      0.0036258033   1.9812628      725.50207     -4.8489479      720.65312    
   2457000   303.1053       0.0036258033   1.8794907      752.01262     -4.6482657      747.36435    
   2458000   310.92939      0.0036258033   2.0548747      771.42438     -8.8052081      762.61918    
   2459000   299.89273      0.0036258033   3.6555855      744.04212     -5.9337121      738.10841    
   2460000   291.19193      0.0036258033   2.0208747      722.45521     -4.8389055      717.61631    
   2461000   295.48579      0.0036258033   1.2381557      733.10839     -4.7097505      728.39864    
   2462000   325.6138       0.0036258033   2.0812439      807.85681     -5.4189155      802.43789    
   2463000   288.1785       0.0036258033   2.0809445      714.97881     -4.7404657      710.23835    
   2464000   301.61514      0.0036258033   1.3606809      748.31547     -3.2007155      745.11475    
   2465000   324.24252      0.0036258033   1.0230066      804.45463     -5.8501045      798.60453    
   2466000   302.9744       0.0036258033   2.8452879      751.68784     -6.8577112      744.83013    
   2467000   289.79092      0.0036258033   1.9737636      718.97927     -6.9020421      712.07723    
   2468000   294.87898      0.0036258033   0.87881694     731.60289     -8.0892448      723.51364    
   2469000   312.90301      0.0036258033   1.955877       776.32099     -8.0629128      768.25808    
   2470000   301.88233      0.0036258033   2.563568       748.97837     -6.8225031      742.15587    
   2471000   295.00382      0.0036258033   2.0165671      731.91262     -9.1400232      722.77259    
   2472000   298.01834      0.0036258033   0.82840903     739.39171     -8.689199       730.70251    
   2473000   306.10095      0.0036258033   1.9509409      759.4449      -9.1067354      750.33816    
   2474000   307.24044      0.0036258033   3.7927975      762.272       -7.7691534      754.50285    
   2475000   285.7728       0.0036258033   2.1226887      709.0102      -7.5426854      701.46752    
   2476000   306.72424      0.0036258033   1.9667407      760.99129     -7.9393573      753.05193    
   2477000   310.10503      0.0036258033   1.9591212      769.37912     -8.0868766      761.29224    
   2478000   293.70967      0.0036258033   1.8937681      728.7018      -6.471715       722.23008    
   2479000   295.37338      0.0036258033   3.176584       732.8295      -5.407574       727.42192    
   2480000   307.77076      0.0036258033   1.5645429      763.58775     -6.5042287      757.08352    
   2481000   289.01729      0.0036258033  -0.061873668    717.05987     -6.9918092      710.06806    
   2482000   296.68895      0.0036258033   3.2918265      736.09347     -7.5945637      728.4989     
   2483000   304.3517       0.0036258033   2.3542647      755.10495     -3.7124153      751.39254    
   2484000   304.13983      0.0036258033   1.344262       754.57931     -5.8019347      748.77738    
   2485000   287.62699      0.0036258033   1.6558682      713.6105      -5.7546564      707.85584    
   2486000   292.75157      0.0036258033   3.5280823      726.3247      -3.7464271      722.57828    
   2487000   319.21381      0.0036258033   0.76867021     791.97827     -5.8136958      786.16457    
   2488000   304.12152      0.0036258033   0.14026082     754.53387     -5.6171236      748.91675    
   2489000   291.84414      0.0036258033   3.560756       724.07335     -5.5791236      718.49422    
   2490000   312.00484      0.0036258033   2.0722473      774.09262     -4.6511737      769.44144    
   2491000   290.51293      0.0036258033   1.3198523      720.77059     -7.9755076      712.79508    
   2492000   291.4933       0.0036258033   3.9453247      723.20291     -7.4722614      715.73065    
   2493000   299.74798      0.0036258033   2.2551795      743.68299     -6.8750533      736.80794    
   2494000   302.07464      0.0036258033   1.8681967      749.45552     -5.1923922      744.26313    
   2495000   290.9625       0.0036258033   1.8781586      721.88598     -8.8322652      713.05371    
   2496000   306.61438      0.0036258033   1.7669541      760.71874     -10.059934      750.65881    
   2497000   313.40735      0.0036258033   1.9993194      777.57228     -9.688105       767.88418    
   2498000   303.00284      0.0036258033   1.9002564      751.75839     -8.6791821      743.07921    
   2499000   282.09239      0.0036258033  -0.35662517     699.879       -7.5832111      692.29579    
   2500000   291.15518      0.0036258033   1.8819904      722.36402     -11.89737       710.46665    
   2501000   306.27963      0.0036258033   3.499562       759.88819     -12.268017      747.62018    
   2502000   312.20844      0.0036258033   1.62317        774.59774     -8.2691027      766.32864    
   2503000   292.21479      0.0036258033   1.6226175      724.99295     -8.8018326      716.19112    
   2504000   299.44826      0.0036258033   2.4650498      742.93937     -9.261912       733.67746    
   2505000   292.75533      0.0036258033   2.3488119      726.33405     -11.987214      714.34684    
   2506000   303.08781      0.0036258033   1.8482659      751.9692      -11.526047      740.44315    
   2507000   293.57525      0.0036258033   1.0087798      728.36829     -9.4910172      718.87727    
   2508000   293.27418      0.0036258033   1.8092007      727.62132     -12.526599      715.09472    
   2509000   296.07893      0.0036258033   3.2626231      734.57999     -11.148464      723.43153    
   2510000   300.83332      0.0036258033   1.9889631      746.37575     -11.368562      735.00719    
   2511000   305.16868      0.0036258033   1.4895081      757.13191     -7.6452103      749.4867     
   2512000   303.55669      0.0036258033   3.2832017      753.13253     -8.384852       744.74767    
   2513000   297.46418      0.0036258033   1.3553026      738.01682     -7.6356565      730.38117    
   2514000   305.36179      0.0036258033   1.7269857      757.61103     -6.0449835      751.56604    
   2515000   301.29602      0.0036258033   2.0632053      747.52372     -5.8138631      741.70986    
   2516000   298.33684      0.0036258033   2.7046557      740.18193     -7.3106862      732.87125    
   2517000   303.82662      0.0036258033   2.2264234      753.80223     -4.3349593      749.46727    
   2518000   295.13862      0.0036258033   0.90141061     732.24704     -8.1941399      724.0529     
   2519000   304.38048      0.0036258033   2.8088958      755.17636     -12.008272      743.16809    
   2520000   304.10495      0.0036258033   2.5437563      754.49276     -9.422999       745.06976    
   2521000   303.01011      0.0036258033  -0.41907323     751.77643     -8.3458191      743.43061    
   2522000   299.65412      0.0036258033   0.78385594     743.45012     -6.8654718      736.58465    
   2523000   301.74754      0.0036258033   1.8245808      748.64396     -7.0386756      741.60528    
   2524000   295.17651      0.0036258033   2.2482378      732.34105     -7.707324       724.63373    
   2525000   295.44896      0.0036258033   3.3863138      733.01703     -8.7406994      724.27633    
   2526000   311.5892       0.0036258033   1.3271838      773.0614      -5.6947126      767.36669    
   2527000   300.87259      0.0036258033   1.1238068      746.47319     -4.702798       741.77039    
   2528000   286.02031      0.0036258033   4.2367595      709.62428     -3.9708506      705.65343    
   2529000   303.59311      0.0036258033   2.669332       753.22288     -4.6764236      748.54646    
   2530000   308.50948      0.0036258033   1.5979286      765.42052     -6.3606808      759.05984    
   2531000   291.8747       0.0036258033   1.8444774      724.14918     -8.8661534      715.28302    
   2532000   299.03847      0.0036258033   3.0264891      741.92269     -8.0488984      733.87379    
   2533000   306.51277      0.0036258033   2.0662717      760.46664     -6.2522555      754.21438    
   2534000   305.11765      0.0036258033   1.6223993      757.0053      -4.9222822      752.08301    
   2535000   306.63172      0.0036258033   1.6745639      760.76174     -6.228535       754.5332     
   2536000   295.76064      0.0036258033   2.0616144      733.79031     -5.4004138      728.3899     
   2537000   298.15584      0.0036258033   2.6362923      739.73285     -6.286243       733.44661    
   2538000   299.15858      0.0036258033   2.0065952      742.22068     -6.6004912      735.62019    
   2539000   294.24163      0.0036258033   1.9493914      730.02161     -4.8633437      725.15826    
   2540000   300.05244      0.0036258033   1.1513648      744.43838     -6.6153207      737.82306    
   2541000   306.52426      0.0036258033   2.0147604      760.49513     -9.2054331      751.28969    
   2542000   304.73294      0.0036258033   2.3427192      756.05083     -8.1118058      747.93903    
   2543000   290.28857      0.0036258033   2.46944        720.21395     -8.3474173      711.86654    
   2544000   296.87251      0.0036258033   1.9147085      736.54889     -6.8038572      729.74503    
   2545000   299.99075      0.0036258033   1.9986765      744.28531     -6.8086448      737.47666    
   2546000   288.7372       0.0036258033   1.6062202      716.36495     -6.7880083      709.57695    
   2547000   295.87094      0.0036258033   1.8367849      734.06396     -7.2056407      726.85832    
   2548000   302.01393      0.0036258033   2.6907424      749.30489     -8.4194356      740.88545    
   2549000   295.9929       0.0036258033   2.0805861      734.36656     -7.6609515      726.7056     
   2550000   292.31033      0.0036258033   1.4766405      725.22999     -7.6176125      717.61238    
   2551000   306.34683      0.0036258033   3.4831778      760.05493     -6.2946274      753.7603     
   2552000   301.24625      0.0036258033   0.29385861     747.40025     -6.3235778      741.07667    
   2553000   292.48545      0.0036258033   0.89470339     725.66446     -4.824228       720.84023    
   2554000   304.08653      0.0036258033   2.9192852      754.44705     -6.803202       747.64385    
   2555000   306.74732      0.0036258033   2.0153672      761.04856     -8.8422924      752.20627    
   2556000   297.93683      0.0036258033   0.68700225     739.1895      -7.9339801      731.25552    
   2557000   293.24642      0.0036258033   2.8652524      727.55245     -10.192091      717.36036    
   2558000   305.24983      0.0036258033   2.7266011      757.33325     -10.267452      747.06579    
   2559000   314.08353      0.0036258033   0.24292498     779.24988     -8.5989587      770.65093    
   2560000   293.28102      0.0036258033   1.2582465      727.63829     -6.104895       721.5334     
   2561000   298.35138      0.0036258033   4.8651554      740.21801     -6.8272562      733.39075    
   2562000   315.98695      0.0036258033   2.6888104      783.97233     -6.7490052      777.22333    
   2563000   292.87965      0.0036258033  -0.41510721     726.64247     -6.1761758      720.4663     
   2564000   295.22926      0.0036258033   2.9525789      732.47193     -9.9099402      722.56199    
   2565000   316.05365      0.0036258033   2.4976563      784.13781     -7.5347263      776.60309    
   2566000   317.62672      0.0036258033  -0.37609991     788.04064     -8.4026597      779.63798    
   2567000   291.54233      0.0036258033   0.69228262     723.32455     -7.1307504      716.1938     
   2568000   290.4988       0.0036258033   2.941271       720.73553     -6.8442354      713.89129    
   2569000   306.65722      0.0036258033   1.8333687      760.82501     -5.4568958      755.36811    
   2570000   312.55257      0.0036258033   1.0928801      775.45154     -5.9657963      769.48574    
   2571000   305.11144      0.0036258033   1.3637367      756.98989     -7.9884231      749.00147    
   2572000   283.26347      0.0036258033   1.3261965      702.78447     -8.8189778      693.96549    
   2573000   306.90903      0.0036258033   4.9221103      761.44977     -9.2485548      752.20121    
   2574000   312.62935      0.0036258033   1.8107307      775.64203     -8.460026       767.182      
   2575000   298.76879      0.0036258033   1.7959592      741.2536      -8.8785303      732.37507    
   2576000   291.64518      0.0036258033   1.832912       723.57973     -8.504408       715.07532    
   2577000   304.76575      0.0036258033   2.0323368      756.13224     -7.0383088      749.09393    
   2578000   303.22583      0.0036258033   1.9236547      752.31163     -7.9412042      744.37043    
   2579000   300.36836      0.0036258033   3.194794       745.22219     -6.2095141      739.01267    
   2580000   295.77332      0.0036258033   1.9349462      733.82175     -4.1188694      729.70288    
   2581000   310.45469      0.0036258033   2.6055814      770.24663     -4.304663       765.94197    
   2582000   307.22435      0.0036258033   1.9470224      762.23208     -5.3116051      756.92047    
   2583000   288.46562      0.0036258033   1.5030797      715.69115     -5.6090509      710.0821     
   2584000   291.0048       0.0036258033   2.9704477      721.99094     -6.3060628      715.68487    
   2585000   307.45812      0.0036258033   1.8704337      762.81207     -6.7133202      756.09875    
   2586000   295.43719      0.0036258033   1.6300363      732.9878      -5.1441209      727.84368    
   2587000   297.20953      0.0036258033   2.4292613      737.38505     -4.6605718      732.72448    
   2588000   301.854        0.0036258033   2.6019902      748.90809     -3.8726361      745.03545    
   2589000   303.11033      0.0036258033   1.4963281      752.02509     -4.268856       747.75624    
   2590000   306.54671      0.0036258033   1.8837896      760.55085     -6.1090867      754.44176    
   2591000   294.04892      0.0036258033   2.4649792      729.54348     -5.3945434      724.14894    
   2592000   302.45197      0.0036258033   2.9887669      750.39168     -7.7394077      742.65227    
   2593000   304.89042      0.0036258033   1.6766715      756.44154     -6.1399538      750.30158    
   2594000   307.90309      0.0036258033   1.0230932      763.91607     -9.0359026      754.88016    
   2595000   283.6934       0.0036258033   2.0364584      703.85115     -7.0387406      696.81241    
   2596000   308.39911      0.0036258033   3.4992637      765.14669     -8.5343566      756.61234    
   2597000   321.76158      0.0036258033   2.605917       798.29935     -7.8803214      790.41903    
   2598000   304.27739      0.0036258033   0.069209474    754.9206      -8.3995374      746.52106    
   2599000   294.11804      0.0036258033   2.7230333      729.71497     -4.8732598      724.84171    
   2600000   311.82807      0.0036258033   1.6433633      773.65405     -4.0282345      769.62581    
   2601000   305.15017      0.0036258033  -0.660004       757.08598     -4.525878       752.5601     
   2602000   300.45075      0.0036258033   2.0806854      745.42659     -5.6213729      739.80521    
   2603000   296.98454      0.0036258033   3.8620439      736.82682     -3.2077974      733.61902    
   2604000   302.81594      0.0036258033   1.9262305      751.2947      -4.2773411      747.01736    
   2605000   293.11797      0.0036258033  -0.44340725     727.23376     -3.6999046      723.53386    
   2606000   296.4094       0.0036258033   2.7306641      735.39988     -2.6228836      732.777      
   2607000   316.28948      0.0036258033   1.4278276      784.72291     -3.5423744      781.18053    
   2608000   300.02878      0.0036258033   1.1864203      744.37967     -3.1035502      741.27612    
   2609000   292.54022      0.0036258033   1.376929       725.80035     -3.9530358      721.84731    
   2610000   285.99778      0.0036258033   1.8051773      709.56837     -3.8883314      705.68004    
   2611000   307.63373      0.0036258033   2.8333893      763.24776     -6.8474252      756.40033    
   2612000   301.10411      0.0036258033   1.6819007      747.04759     -3.5504827      743.4971     
   2613000   293.94057      0.0036258033   1.9589028      729.27466     -3.5030812      725.77158    
   2614000   297.10631      0.0036258033   1.8875029      737.12894     -2.301577       734.82736    
   2615000   300.37727      0.0036258033   1.0295144      745.2443      -1.8166309      743.42767    
   2616000   305.19386      0.0036258033   1.0908625      757.19437     -3.0612077      754.13316    
   2617000   298.5842       0.0036258033   3.9726456      740.79562     -2.5308547      738.26476    
   2618000   300.35418      0.0036258033   2.7124932      745.18699     -2.553988       742.633      
   2619000   293.10166      0.0036258033   0.065155471    727.19329     -2.9372111      724.25608    
   2620000   297.91031      0.0036258033  -0.38139319     739.12368     -4.759796       734.36389    
   2621000   303.97292      0.0036258033   2.8324614      754.16519     -5.329899       748.83529    
   2622000   300.19928      0.0036258033   3.0809636      744.80268     -7.0830044      737.71967    
   2623000   306.69468      0.0036258033   2.0884442      760.91795     -9.3922615      751.52569    
   2624000   299.85603      0.0036258033   1.3897119      743.95107     -8.3988608      735.55221    
   2625000   296.26463      0.0036258033   1.8344203      735.04072     -5.6417781      729.39894    
   2626000   301.87138      0.0036258033   3.7183658      748.95121     -5.0169267      743.93429    
   2627000   299.07398      0.0036258033   2.5852578      742.0108      -4.5142251      737.49657    
   2628000   309.52253      0.0036258033  -0.04373979     767.93394     -5.0397522      762.89419    
   2629000   296.96125      0.0036258033   1.9197889      736.76905     -4.7640542      732.00499    
   2630000   302.86619      0.0036258033   4.997019       751.41937     -3.1899347      748.22943    
   2631000   294.40777      0.0036258033   0.54719619     730.4338      -2.9738616      727.45994    
   2632000   295.50623      0.0036258033  -5.4973064      733.1591      -3.6979844      729.46111    
   2633000   304.82669      0.0036258033   5.6956091      756.28342     -2.5526472      753.73077    
   2634000   300.59804      0.0036258033   5.5056662      745.79203     -2.3041864      743.48785    
   2635000   293.80685      0.0036258033  -2.8325541      728.94289     -3.7139682      725.22892    
   2636000   291.82332      0.0036258033   0.23251299     724.0217      -2.7180308      721.30367    
   2637000   291.40011      0.0036258033   6.5737481      722.97171     -2.8850257      720.08668    
   2638000   297.04309      0.0036258033   3.6472087      736.97209     -4.4918978      732.4802     
   2639000   305.84077      0.0036258033  -2.3469645      758.79938     -4.6656154      754.13376    
   2640000   304.71957      0.0036258033   0.94335647     756.01765     -1.194141       754.82351    
   2641000   297.0341       0.0036258033   3.2323285      736.9498      -3.4640368      733.48576    
   2642000   292.83984      0.0036258033   2.9871803      726.54371     -2.2132812      724.33043    
   2643000   312.77843      0.0036258033  -3.5191061      776.01192     -2.8370453      773.17487    
   2644000   310.18377      0.0036258033   0.12721037     769.57448     -4.1897764      765.38471    
   2645000   304.13435      0.0036258033   7.1393947      754.56571     -4.4264458      750.13926    
   2646000   283.22314      0.0036258033   2.6187703      702.68441     -3.3893597      699.29505    
   2647000   294.40928      0.0036258033  -2.8106134      730.43753     -3.5284198      726.90911    
   2648000   315.84519      0.0036258033   1.1233695      783.62061     -5.7567315      777.86388    
   2649000   301.06167      0.0036258033   4.2662301      746.94229     -5.4169078      741.52538    
   2650000   296.52549      0.0036258033   0.66107847     735.6879      -4.5556462      731.13226    
   2651000   296.73363      0.0036258033  -4.3695185      736.20431     -3.6441471      732.56016    
   2652000   309.50773      0.0036258033   3.4110599      767.8972      -4.5392223      763.35798    
   2653000   294.93784      0.0036258033   6.7400281      731.74892     -4.6050458      727.14387    
   2654000   298.18806      0.0036258033  -1.9540822      739.81279     -4.5015244      735.31127    
   2655000   301.27406      0.0036258033  -1.8795834      747.46925     -6.4424734      741.02678    
   2656000   308.70282      0.0036258033   3.1787283      765.9002      -2.4567454      763.44346    
   2657000   287.64411      0.0036258033   1.9720282      713.65296     -3.7556733      709.89729    
   2658000   283.88281      0.0036258033   1.6314936      704.32108     -7.2880654      697.03302    
   2659000   309.61227      0.0036258033  -2.416005       768.15657     -4.4738023      763.68276    
   2660000   315.7642       0.0036258033   3.4657672      783.41968     -3.9407993      779.47888    
   2661000   297.00016      0.0036258033   3.5833585      736.86558     -5.3315398      731.53404    
   2662000   289.96876      0.0036258033   1.9930992      719.42049     -4.7223399      714.69815    
   2663000   300.07329      0.0036258033  -1.4356748      744.4901      -4.0132159      740.47688    
   2664000   311.93786      0.0036258033   5.2464845      773.92644     -5.318802       768.60764    
   2665000   290.45059      0.0036258033   8.6260862      720.61593     -4.4525514      716.16338    
   2666000   288.10382      0.0036258033  -0.52374539     714.79352     -5.4644665      709.32906    
   2667000   305.56387      0.0036258033  -3.4383463      758.11238     -7.290997       750.82138    
   2668000   306.90158      0.0036258033   4.5872816      761.43127     -8.2365403      753.19473    
   2669000   293.34417      0.0036258033   6.382147       727.79497     -7.4794985      720.31547    
   2670000   294.21528      0.0036258033  -2.4548273      729.95622     -5.3297974      724.62643    
   2671000   296.294        0.0036258033   1.4653814      735.11358     -3.8498788      731.2637     
   2672000   314.95506      0.0036258033   4.0937348      781.41219     -5.5269965      775.8852     
   2673000   300.53527      0.0036258033   6.3478945      745.63629     -6.4576836      739.17861    
   2674000   295.68699      0.0036258033   3.5743354      733.60757     -7.5532067      726.05436    
   2675000   294.83949      0.0036258033  -3.2859692      731.50489     -7.7764199      723.72847    
   2676000   300.63825      0.0036258033   2.0496475      745.89178     -8.2023857      737.68939    
   2677000   308.61698      0.0036258033   4.9192343      765.68722     -9.2775246      756.4097     
   2678000   300.60006      0.0036258033   5.2512961      745.79704     -6.2934652      739.50357    
   2679000   292.71189      0.0036258033   2.0904449      726.22626     -6.5382211      719.68804    
   2680000   305.07247      0.0036258033  -4.7136149      756.8932      -5.1328005      751.7604     
   2681000   308.12559      0.0036258033  -4.3950517      764.46807     -5.2920267      759.17605    
   2682000   294.57387      0.0036258033   4.1970961      730.8459      -8.8015362      722.04436    
   2683000   294.89292      0.0036258033   6.1579721      731.63746     -5.7865819      725.85088    
   2684000   293.09136      0.0036258033   2.7089734      727.16775     -9.5266263      717.64112    
   2685000   295.2192       0.0036258033  -1.8281763      732.44697     -7.292751       725.15422    
   2686000   308.59018      0.0036258033  -0.47161885     765.62075     -7.5185176      758.10223    
   2687000   301.20949      0.0036258033   2.5456528      747.30904     -4.7348181      742.57422    
   2688000   296.50327      0.0036258033   2.5438085      735.63279     -6.9184451      728.71435    
   2689000   296.72758      0.0036258033   3.8705506      736.1893      -7.3536272      728.83567    
   2690000   298.28648      0.0036258033   1.4568558      740.05697     -6.1991676      733.85781    
   2691000   304.94175      0.0036258033   0.36710947     756.56888     -6.6982772      749.87061    
   2692000   308.19346      0.0036258033  -0.37252592     764.63646     -6.2724239      758.36404    
   2693000   291.13284      0.0036258033   3.0818873      722.3086      -6.6983295      715.61027    
   2694000   289.63842      0.0036258033   4.5021229      718.6009      -4.0947889      714.50611    
   2695000   304.90443      0.0036258033   0.020554635    756.4763      -5.6818555      750.79445    
   2696000   300.03787      0.0036258033   1.0160128      744.40222     -4.4870629      739.91516    
   2697000   302.17281      0.0036258033   4.5178268      749.69907     -4.7037768      744.99529    
   2698000   308.07006      0.0036258033   1.5504227      764.3303      -4.2568563      760.07344    
   2699000   314.33929      0.0036258033   2.5789723      779.88445     -5.6749466      774.20951    
   2700000   286.50575      0.0036258033   2.8332058      710.82865     -3.7804312      707.04822    
   2701000   292.88958      0.0036258033   1.9714875      726.66713     -2.6277447      724.03938    
   2702000   306.07885      0.0036258033   1.912188       759.39007     -4.7210266      754.66904    
   2703000   311.33917      0.0036258033   2.0692835      772.44107     -3.7638053      768.67726    
   2704000   292.31328      0.0036258033   1.7858381      725.23731     -3.7242811      721.51303    
   2705000   298.72932      0.0036258033   2.3386736      741.15568     -3.2118945      737.94379    
   2706000   308.76342      0.0036258033   3.4919493      766.05055     -4.4344625      761.61609    
   2707000   298.85734      0.0036258033   2.1170146      741.47331     -4.9367631      736.53655    
   2708000   296.81772      0.0036258033   1.009364       736.41294     -4.0255558      732.38739    
   2709000   298.29465      0.0036258033   0.31311481     740.07725     -4.5349059      735.54235    
   2710000   304.65545      0.0036258033   8.1124066      755.85856     -3.2738601      752.5847     
   2711000   305.48705      0.0036258033   4.3564352      757.9218      -9.5373062      748.38449    
   2712000   308.89697      0.0036258033  -1.3373545      766.3819      -7.5619749      758.81993    
   2713000   301.61224      0.0036258033   2.1606744      748.30829     -7.6575765      740.65071    
   2714000   309.49454      0.0036258033   5.7392133      767.86448     -6.1108434      761.75363    
   2715000   302.5953       0.0036258033   0.59146702     750.74728     -6.9886818      743.75859    
   2716000   280.8464       0.0036258033   2.9216295      696.78767     -4.8967725      691.8909     
   2717000   293.9992       0.0036258033   4.9653531      729.42013     -5.1603855      724.25974    
   2718000   313.05591      0.0036258033   3.5664385      776.70035     -7.1214552      769.5789     
   2719000   309.65094      0.0036258033  -0.60153825     768.25253     -7.7138072      760.53872    
   2720000   283.75093      0.0036258033   2.8776842      703.99388     -8.3966327      695.59724    
   2721000   302.41235      0.0036258033   7.6734686      750.29339     -4.7903194      745.50307    
   2722000   307.44064      0.0036258033   1.5809427      762.76869     -7.0483784      755.72031    
   2723000   310.71075      0.0036258033  -1.5391664      770.88194     -5.2186435      765.6633     
   2724000   300.92972      0.0036258033   1.2974195      746.61494     -4.1821097      742.43283    
   2725000   283.30821      0.0036258033   4.8364033      702.89549     -4.3002031      698.59529    
   2726000   309.75513      0.0036258033   2.079749       768.51101     -4.8405701      763.67044    
   2727000   301.13515      0.0036258033  -0.99586742     747.1246      -2.8410495      744.28355    
   2728000   297.26867      0.0036258033   3.9009393      737.53177     -4.8073138      732.72445    
   2729000   301.57527      0.0036258033   1.1747459      748.21657     -3.7769781      744.43959    
   2730000   300.87409      0.0036258033   1.7554729      746.47691     -5.1615393      741.31537    
   2731000   301.13778      0.0036258033   0.8180335      747.13114     -6.0339136      741.09723    
   2732000   292.22854      0.0036258033   1.9623445      725.02705     -4.2404087      720.78664    
   2733000   290.04973      0.0036258033   2.3943213      719.62138     -2.89385        716.72753    
   2734000   318.25684      0.0036258033   2.4471417      789.60399     -4.399982       785.204      
   2735000   300.43788      0.0036258033   0.59390851     745.39466     -4.1805332      741.21413    
   2736000   301.25483      0.0036258033   1.979152       747.42153     -6.0134803      741.40804    
   2737000   299.61402      0.0036258033   5.2970604      743.35065     -7.6318516      735.7188     
   2738000   305.41352      0.0036258033   2.6509561      757.73937     -5.1300614      752.60931    
   2739000   295.81968      0.0036258033   0.11652756     733.93679     -5.2566599      728.68013    
   2740000   298.09821      0.0036258033   2.0046047      739.58988     -6.3568933      733.23298    
   2741000   290.99376      0.0036258033   5.1862711      721.96354     -6.3582798      715.60526    
   2742000   304.40805      0.0036258033   3.2250993      755.24477     -5.3551446      749.88962    
   2743000   300.80952      0.0036258033   1.8344475      746.31672     -5.1495735      741.16715    
   2744000   296.73558      0.0036258033   1.2383184      736.20916     -4.2792926      731.92986    
   2745000   291.2485       0.0036258033   0.48105793     722.59556     -3.0300123      719.56554    
   2746000   307.89622      0.0036258033   2.4329236      763.899       -4.7756704      759.12333    
   2747000   308.25492      0.0036258033   2.1493352      764.78896     -4.9988959      759.79006    
   2748000   295.34         0.0036258033   2.1140226      732.74668     -6.5147726      726.23191    
   2749000   288.5862       0.0036258033   1.9098073      715.99032     -6.704763       709.28556    
   2750000   309.75843      0.0036258033   1.9799885      768.51921     -7.4149048      761.10431    
   2751000   306.92578      0.0036258033   2.0583129      761.49133     -8.9128543      752.57848    
   2752000   290.90292      0.0036258033   1.8034896      721.73816     -8.3385875      713.39958    
   2753000   293.57021      0.0036258033   2.449006       728.35578     -5.9524691      722.40331    
   2754000   301.90184      0.0036258033   2.2024238      749.02679     -6.6537645      742.37303    
   2755000   304.94022      0.0036258033   2.0294275      756.5651      -7.339096       749.22601    
   2756000   326.45208      0.0036258033   0.97783703     809.9366      -6.8916827      803.04492    
   2757000   290.63371      0.0036258033   0.78015479     721.07024     -6.7875562      714.28268    
   2758000   300.02386      0.0036258033   3.9917806      744.36747     -6.7227259      737.64475    
   2759000   315.99018      0.0036258033   2.1097105      783.98036     -7.8661156      776.11424    
   2760000   298.99888      0.0036258033   0.80686925     741.82446     -6.4167218      735.40774    
   2761000   297.78556      0.0036258033   1.5640865      738.81419     -7.3147313      731.49946    
   2762000   300.70458      0.0036258033   2.1366914      746.05634     -6.5820066      739.47433    
   2763000   302.77739      0.0036258033   3.4017241      751.19905     -5.0724389      746.12661    
   2764000   303.23901      0.0036258033   2.1457082      752.34435     -7.3317505      745.01259    
   2765000   294.29901      0.0036258033   0.65237316     730.16395     -4.9551873      725.20876    
   2766000   293.6559       0.0036258033   2.6486104      728.56839     -9.3471255      719.22126    
   2767000   303.90955      0.0036258033   2.1988005      754.00797     -8.6454469      745.36252    
   2768000   292.1874       0.0036258033  -0.95409553     724.925       -8.4630185      716.46199    
   2769000   298.33272      0.0036258033   3.2454847      740.1717      -8.9195223      731.25218    
   2770000   308.70969      0.0036258033   4.1417932      765.91724     -5.3797182      760.53752    
   2771000   313.25366      0.0036258033   1.8512129      777.19097     -5.9160916      771.27488    
   2772000   291.90121      0.0036258033   1.2501731      724.21495     -4.2246086      719.99034    
   2773000   288.26234      0.0036258033   0.52195337     715.18681     -5.778825       709.40798    
   2774000   310.8116       0.0036258033   3.1346127      771.13215     -4.898737       766.23341    
   2775000   304.19217      0.0036258033   0.62342742     754.70916     -5.4139987      749.29516    
   2776000   292.79194      0.0036258033   0.25899045     726.42487     -7.8334038      718.59147    
   2777000   286.42658      0.0036258033   2.4233728      710.63225     -4.8328118      705.79944    
   2778000   302.46293      0.0036258033   3.9906276      750.41887     -6.0304525      744.38842    
   2779000   307.41131      0.0036258033   2.0816222      762.69594     -6.9258214      755.77012    
   2780000   291.23229      0.0036258033   0.83533818     722.55535     -7.3001582      715.25519    
   2781000   279.78072      0.0036258033  -0.38648732     694.14367     -6.4816676      687.66201    
   2782000   305.501        0.0036258033   3.5370414      757.9564      -3.255029       754.70137    
   2783000   318.84815      0.0036258033   1.2343327      791.07105     -5.2029388      785.86811    
   2784000   300.37267      0.0036258033  -0.020942034    745.23289     -3.6498684      741.58302    
   2785000   288.20361      0.0036258033   1.9032391      715.04109     -6.6392215      708.40187    
   2786000   298.60471      0.0036258033   2.5565778      740.84652     -6.0486294      734.79789    
   2787000   305.06864      0.0036258033   4.041634       756.88371     -5.7652271      751.11848    
   2788000   310.40396      0.0036258033   4.0149774      770.12078     -5.6156843      764.50509    
   2789000   296.3317       0.0036258033   0.93456961     735.20711     -5.3429012      729.86421    
   2790000   293.79058      0.0036258033   0.40166869     728.90252     -6.6229184      722.27961    
   2791000   286.39622      0.0036258033   3.3122192      710.55691     -6.9127061      703.64421    
   2792000   308.75845      0.0036258033   2.7777325      766.03821     -3.7602622      762.27795    
   2793000   296.53673      0.0036258033  -1.0450528      735.7158      -7.6132129      728.10259    
   2794000   292.41043      0.0036258033   2.7763645      725.47833     -4.7808011      720.69753    
   2795000   305.93306      0.0036258033   2.4587762      759.02836     -6.4977647      752.53059    
   2796000   305.70281      0.0036258033   2.0495988      758.4571      -7.2095062      751.24759    
   2797000   300.16266      0.0036258033   0.90208426     744.71184     -5.9014196      738.81042    
   2798000   305.22794      0.0036258033   2.3329042      757.27893     -7.9552563      749.32367    
   2799000   302.48251      0.0036258033   2.4690473      750.46745     -7.0401533      743.4273     
   2800000   297.06183      0.0036258033   2.4562686      737.01859     -5.9468027      731.07179    
   2801000   292.38632      0.0036258033  -2.2303132      725.41851     -5.3685233      720.04999    
   2802000   301.52943      0.0036258033   2.7573446      748.10282     -5.0967658      743.00606    
   2803000   296.93948      0.0036258033   3.5634898      736.71503     -6.5213727      730.19365    
   2804000   297.13923      0.0036258033   3.2534718      737.21061     -5.1693156      732.0413     
   2805000   294.43265      0.0036258033  -1.5585232      730.49551     -6.4525609      724.04295    
   2806000   301.82336      0.0036258033   1.6437577      748.83209     -6.7879035      742.04418    
   2807000   290.64086      0.0036258033   4.6129848      721.08799     -7.8957501      713.19224    
   2808000   304.64844      0.0036258033   4.29108        755.84117     -9.8304399      746.01073    
   2809000   307.51363      0.0036258033   0.72447249     762.94978     -6.926745       756.02304    
   2810000   297.0119       0.0036258033   1.11957        736.89471     -6.0189926      730.87572    
   2811000   289.78518      0.0036258033   3.1419683      718.96502     -6.5232098      712.44181    
   2812000   293.12161      0.0036258033   3.0312083      727.24279     -4.7182742      722.52451    
   2813000   314.69467      0.0036258033   3.296467       780.76614     -4.8126726      775.95347    
   2814000   308.61221      0.0036258033   1.5148227      765.6754      -4.8720884      760.80331    
   2815000   293.38169      0.0036258033   2.0775319      727.88807     -5.4969457      722.39112    
   2816000   298.39005      0.0036258033   2.5687448      740.31395     -7.3924721      732.92148    
   2817000   289.70853      0.0036258033   1.8498161      718.77486     -7.8181345      710.95672    
   2818000   300.47914      0.0036258033   0.77506814     745.49703     -10.346996      735.15004    
   2819000   305.18725      0.0036258033   2.6565307      757.17798     -7.4989462      749.67904    
   2820000   302.55772      0.0036258033   3.8323711      750.65404     -6.5298378      744.12421    
   2821000   294.84515      0.0036258033   2.4247105      731.51894     -5.6829399      725.836      
   2822000   299.78384      0.0036258033   0.8818414      743.77198     -6.9815449      736.79044    
   2823000   295.73612      0.0036258033   1.4836302      733.72948     -7.4966291      726.23285    
   2824000   303.26722      0.0036258033   4.7868854      752.41432     -7.7787236      744.6356     
   2825000   296.92581      0.0036258033  -0.99963894     736.68112     -6.7526627      729.92846    
   2826000   302.06248      0.0036258033   3.7242282      749.42533     -7.6010741      741.82426    
   2827000   305.61121      0.0036258033   2.465743       758.22985     -5.64227        752.58758    
   2828000   304.30631      0.0036258033  -2.183265       754.99235     -4.4116531      750.5807     
   2829000   290.5466       0.0036258033   1.3109583      720.85411     -7.1980779      713.65603    
   2830000   311.39267      0.0036258033   3.6683809      772.57381     -4.9240784      767.64973    
   2831000   311.43844      0.0036258033   2.8473071      772.68735     -5.5485765      767.13877    
   2832000   293.55984      0.0036258033   1.8182006      728.33005     -4.8979584      723.43209    
   2833000   293.98857      0.0036258033   1.4146941      729.39376     -4.2452885      725.14847    
   2834000   303.77968      0.0036258033   2.4208947      753.68577     -5.2614924      748.42428    
   2835000   299.25787      0.0036258033   2.0969364      742.46702     -4.827334       737.63969    
   2836000   299.54728      0.0036258033   2.2784595      743.18505     -2.5250996      740.65995    
   2837000   305.7001       0.0036258033   2.5585296      758.45038     -3.8230651      754.62731    
   2838000   294.05388      0.0036258033   2.3842908      729.55578     -4.5766638      724.97912    
   2839000   300.25054      0.0036258033   1.2661781      744.92987     -5.771308       739.15856    
   2840000   290.69428      0.0036258033   0.99880246     721.22053     -8.1806146      713.03991    
   2841000   298.18773      0.0036258033   2.8966434      739.81197     -7.4514047      732.36056    
   2842000   293.15399      0.0036258033   2.1813887      727.32313     -7.9324178      719.39071    
   2843000   298.84497      0.0036258033   2.1157498      741.4426      -7.5285593      733.91404    
   2844000   309.33975      0.0036258033   1.8813395      767.48044     -5.619401       761.86104    
   2845000   301.56769      0.0036258033   3.2061883      748.19776     -6.1741888      742.02357    
   2846000   285.64413      0.0036258033   1.6167091      708.69097     -5.839299       702.85167    
   2847000   301.89885      0.0036258033   1.8959175      749.01936     -7.2634341      741.75593    
   2848000   314.78368      0.0036258033   2.2935384      780.987       -7.8876823      773.09931    
   2849000   299.06721      0.0036258033   3.0169885      741.99398     -7.7421667      734.25182    
   2850000   284.48393      0.0036258033   0.57821275     705.81247     -7.0049372      698.80754    
   2851000   303.1933       0.0036258033   0.23030344     752.23094     -5.6958678      746.53507    
   2852000   310.60972      0.0036258033   1.9992068      770.63127     -7.9020922      762.72917    
   2853000   290.42385      0.0036258033   2.6603241      720.54959     -8.9528989      711.59669    
   2854000   293.31473      0.0036258033   1.1026432      727.72192     -9.9363982      717.78552    
   2855000   312.03262      0.0036258033  -0.1296426      774.16154     -7.3638978      766.79764    
   2856000   305.19339      0.0036258033   2.2622212      757.19322     -7.3214429      749.87178    
   2857000   291.01331      0.0036258033   2.6153161      722.01205     -8.1501842      713.86186    
   2858000   298.43924      0.0036258033   1.1897249      740.43597     -7.7271345      732.70884    
   2859000   302.12309      0.0036258033   1.7002152      749.57572     -7.2484506      742.32727    
   2860000   309.03048      0.0036258033   1.9899142      766.71315     -7.3506639      759.36248    
   2861000   305.31732      0.0036258033   2.1704996      757.50069     -5.6205136      751.88018    
   2862000   295.69508      0.0036258033   2.0661432      733.62765     -7.7888104      725.83884    
   2863000   287.76798      0.0036258033   1.8809324      713.96029     -7.6568492      706.30344    
   2864000   313.7585       0.0036258033   2.3017966      778.44349     -6.4753462      771.96814    
   2865000   309.88427      0.0036258033   2.2722093      768.83143     -3.0440944      765.78733    
   2866000   295.48291      0.0036258033   2.1940244      733.10124     -7.8124931      725.28875    
   2867000   293.67863      0.0036258033   1.6588895      728.62479     -8.1588617      720.46592    
   2868000   314.52602      0.0036258033   1.5874278      780.34772     -5.7866408      774.56107    
   2869000   309.33338      0.0036258033   2.0117121      767.46465     -6.6608753      760.80378    
   2870000   287.59949      0.0036258033   2.4986216      713.54225     -6.1472785      707.39498    
   2871000   292.95469      0.0036258033   2.1642669      726.82867     -4.4256577      722.40301    
   2872000   307.68656      0.0036258033   0.22736923     763.37883     -6.8946238      756.4842     
   2873000   309.86871      0.0036258033   2.1412942      768.79281     -6.9718816      761.82093    
   2874000   292.62986      0.0036258033   2.7591008      726.02276     -5.36101        720.66175    
   2875000   293.59673      0.0036258033   1.5458311      728.42158     -7.4958672      720.92572    
   2876000   314.22375      0.0036258033   1.3998792      779.59778     -7.0874865      772.51029    
   2877000   293.28007      0.0036258033   3.2484774      727.63593     -7.0871563      720.54877    
   2878000   293.59281      0.0036258033   1.7529015      728.41186     -8.5050247      719.90683    
   2879000   307.92233      0.0036258033   1.2089787      763.96379     -6.5705685      757.39322    
   2880000   303.87864      0.0036258033   1.1514601      753.93127     -6.7386211      747.19265    
   2881000   305.76911      0.0036258033   1.2494694      758.6216      -6.6575112      751.96409    
   2882000   306.05998      0.0036258033   3.3651416      759.34325     -6.8515199      752.49173    
   2883000   298.34972      0.0036258033   2.2948253      740.21388     -7.6513279      732.56256    
   2884000   289.18795      0.0036258033   1.7176741      717.48328     -7.1855593      710.29772    
   2885000   294.20193      0.0036258033   1.432198       729.9231      -8.9365328      720.98656    
   2886000   304.85848      0.0036258033   2.3235627      756.3623      -5.821005       750.54129    
   2887000   300.64616      0.0036258033   1.9797361      745.91142     -10.210665      735.70075    
   2888000   296.49805      0.0036258033   1.8674219      735.61984     -6.8124265      728.80741    
   2889000   297.9791       0.0036258033   1.958865       739.29435     -6.4056843      732.88867    
   2890000   311.06331      0.0036258033   1.9963149      771.75664     -8.6995645      763.05707    
   2891000   298.05793      0.0036258033   1.7652759      739.48994     -8.064963       731.42498    
   2892000   278.16783      0.0036258033   0.53014077     690.14207     -10.54557       679.5965     
   2893000   294.10887      0.0036258033   2.2849658      729.69221     -9.658441       720.03377    
   2894000   304.36906      0.0036258033   2.9459439      755.14803     -7.518517       747.62951    
   2895000   311.29676      0.0036258033   2.6542131      772.33585     -6.7221939      765.61365    
   2896000   297.04837      0.0036258033   1.8915448      736.98519     -6.2180998      730.76709    
   2897000   283.5493       0.0036258033   1.4537855      703.49362     -7.2878556      696.20577    
   2898000   307.86699      0.0036258033   2.3532023      763.82648     -9.0458909      754.78059    
   2899000   297.93503      0.0036258033   2.2861736      739.18503     -10.058539      729.12649    
   2900000   302.1147       0.0036258033   1.7169073      749.55489     -9.6548324      739.90006    
   2901000   309.08265      0.0036258033   1.8832636      766.84258     -11.385263      755.45732    
   2902000   291.39161      0.0036258033   1.920094       722.95063     -10.188274      712.76235    
   2903000   292.62077      0.0036258033   2.0203332      726.0002      -11.527585      714.47261    
   2904000   310.13519      0.0036258033   2.0461116      769.45395     -11.939285      757.51466    
   2905000   310.22916      0.0036258033   0.93053071     769.6871      -12.574688      757.11241    
   2906000   288.66828      0.0036258033   1.6166673      716.19397     -12.049316      704.14465    
   2907000   293.19711      0.0036258033   1.8036528      727.43011     -9.7419068      717.6882     
   2908000   302.02849      0.0036258033   2.9827033      749.341       -9.6366608      739.70434    
   2909000   302.60573      0.0036258033   1.7150163      750.77315     -10.293267      740.47988    
   2910000   309.53436      0.0036258033   1.2062023      767.96327     -7.2087541      760.75452    
   2911000   292.80011      0.0036258033   2.1892765      726.44515     -5.360201       721.08495    
   2912000   297.07962      0.0036258033   2.6614377      737.06272     -5.8403774      731.22234    
   2913000   309.6131       0.0036258033   1.7661593      768.15864     -8.3794776      759.77917    
   2914000   303.97949      0.0036258033   1.2502618      754.18149     -6.3517631      747.82972    
   2915000   288.05137      0.0036258033   1.5477172      714.66338     -6.6961432      707.96724    
   2916000   293.23015      0.0036258033   2.4591062      727.51209     -8.5819247      718.93016    
   2917000   295.3398       0.0036258033   0.53351258     732.74617     -5.1764034      727.56977    
   2918000   307.3672       0.0036258033   1.4326648      762.58648     -5.5144495      757.07203    
   2919000   293.03026      0.0036258033   3.3074004      727.01614     -7.4707781      719.54536    
   2920000   298.67041      0.0036258033   2.017867       741.00951     -5.5520347      735.45747    
   2921000   300.24442      0.0036258033   1.4628754      744.91469     -6.9214998      737.99319    
   2922000   303.33262      0.0036258033   2.01693        752.57658     -8.165794       744.41079    
   2923000   290.12623      0.0036258033   2.2383963      719.81117     -7.9636552      711.84752    
   2924000   302.85972      0.0036258033   2.1452403      751.40331     -7.7913883      743.61192    
   2925000   305.27416      0.0036258033   1.2491083      757.39362     -6.8203074      750.57331    
   2926000   303.71824      0.0036258033   2.1953644      753.53333     -4.3150448      749.21828    
   2927000   291.1109       0.0036258033   2.874049       722.25416     -5.4389755      716.81518    
   2928000   305.59032      0.0036258033   2.9144845      758.17801     -5.152958       753.02505    
   2929000   310.0057       0.0036258033   1.7602409      769.13269     -6.5129023      762.61978    
   2930000   295.74664      0.0036258033   0.60980769     733.75557     -4.8708659      728.8847     
   2931000   301.32633      0.0036258033   2.921399       747.59893     -7.4413084      740.15762    
   2932000   303.65537      0.0036258033   3.1881982      753.37735     -7.4042355      745.97312    
   2933000   308.72992      0.0036258033  -0.66634516     765.96743     -6.5668398      759.40059    
   2934000   297.90407      0.0036258033   1.1104351      739.10821     -7.0684414      732.03977    
   2935000   294.52036      0.0036258033   4.1245532      730.71312     -7.1675213      723.5456     
   2936000   311.53092      0.0036258033   2.0831714      772.91681     -8.33966        764.57715    
   2937000   301.44983      0.0036258033   0.51708587     747.90533     -8.6622154      739.24311    
   2938000   293.66386      0.0036258033   1.5609116      728.58813     -8.8136446      719.77449    
   2939000   301.79033      0.0036258033   4.8223912      748.75013     -6.5728309      742.1773     
   2940000   302.2915       0.0036258033   1.9195712      749.99354     -8.4669148      741.52662    
   2941000   291.32006      0.0036258033   1.3940727      722.77309     -8.5833924      714.1897     
   2942000   309.51021      0.0036258033   2.846349       767.90336     -9.5124399      758.39092    
   2943000   303.31193      0.0036258033   2.0528011      752.52526     -8.4373543      744.08791    
   2944000   293.82793      0.0036258033   1.9075169      728.99521     -8.0046231      720.99058    
   2945000   300.65537      0.0036258033   0.78689503     745.93427     -6.4828119      739.45146    
   2946000   296.32303      0.0036258033   1.9758963      735.18561     -5.9104702      729.27514    
   2947000   317.39486      0.0036258033   1.9133206      787.46541     -6.2006835      781.26473    
   2948000   302.99419      0.0036258033   2.7908248      751.73693     -6.5301819      745.20675    
   2949000   290.44246      0.0036258033   2.8417213      720.59576     -7.6009129      712.99485    
   2950000   305.82368      0.0036258033   0.97021858     758.75697     -7.0355722      751.7214     
   2951000   313.25662      0.0036258033   2.1066609      777.1983      -8.0360751      769.16223    
   2952000   305.83123      0.0036258033   2.3967652      758.77572     -7.6232467      751.15247    
   2953000   292.15253      0.0036258033   1.8404563      724.83847     -7.7613079      717.07716    
   2954000   278.52163      0.0036258033   2.2221155      691.01985     -6.6193677      684.40048    
   2955000   303.15751      0.0036258033   2.4134666      752.14213     -7.4454726      744.69666    
   2956000   304.26468      0.0036258033   1.8752243      754.88905     -6.3254966      748.56355    
   2957000   303.50411      0.0036258033   1.8294884      753.00207     -6.7654173      746.23666    
   2958000   307.18273      0.0036258033   2.0319569      762.12883     -8.6197677      753.50906    
   2959000   294.61406      0.0036258033   1.98254        730.9456      -5.8411547      725.10445    
   2960000   292.58599      0.0036258033   2.1212324      725.91392     -7.6966357      718.21728    
   2961000   307.77032      0.0036258033   5.1368942      763.58665     -7.2697235      756.31692    
   2962000   306.59893      0.0036258033   2.0765586      760.6804      -6.4666563      754.21375    
   2963000   286.52869      0.0036258033   2.1228932      710.88557     -5.4990055      705.38657    
   2964000   311.1556       0.0036258033   1.8474597      771.98561     -5.2444738      766.74114    
   2965000   310.01045      0.0036258033   2.1072823      769.14447     -5.3572735      763.7872     
   2966000   311.25181      0.0036258033   2.7600476      772.22433     -4.8899455      767.33439    
   2967000   303.62351      0.0036258033   2.5003073      753.29829     -1.923156       751.37514    
   2968000   302.23788      0.0036258033   1.5167698      749.86052     -4.4463244      745.4142     
   2969000   306.04443      0.0036258033   1.9201074      759.30467     -3.7680683      755.5366     
   2970000   297.52393      0.0036258033   3.7915958      738.16508     -2.8398662      735.32522    
   2971000   294.88524      0.0036258033   1.5755917      731.61842     -4.5783522      727.04007    
   2972000   306.99386      0.0036258033   2.0493725      761.66024     -5.691151       755.96909    
   2973000   301.46344      0.0036258033   1.8426703      747.93909     -7.1275549      740.81154    
   2974000   287.62282      0.0036258033   1.6215121      713.60015     -6.3460243      707.25413    
   2975000   304.72665      0.0036258033   0.11829334     756.03521     -5.314453       750.72076    
   2976000   301.50433      0.0036258033   2.2202611      748.04056     -4.3752398      743.66532    
   2977000   303.04783      0.0036258033   3.4029702      751.87001     -7.0523756      744.81763    
   2978000   286.3351       0.0036258033   1.6170532      710.40527     -5.6935567      704.71171    
   2979000   308.88894      0.0036258033   0.79293418     766.36198     -7.2148179      759.14716    
   2980000   301.13983      0.0036258033   1.6707125      747.13623     -6.8280462      740.30818    
   2981000   305.53229      0.0036258033   2.1949954      758.03403     -5.8322086      752.20182    
   2982000   301.22037      0.0036258033   1.9825583      747.33603     -6.3807964      740.95524    
   2983000   295.94736      0.0036258033   1.9913985      734.25355     -4.9301649      729.32339    
   2984000   298.93124      0.0036258033   2.6833463      741.65665     -6.8633936      734.79325    
   2985000   318.98348      0.0036258033   2.095847       791.40682     -8.9721838      782.43464    
   2986000   302.40457      0.0036258033   2.0905982      750.27409     -7.7242659      742.54982    
   2987000   299.98655      0.0036258033   2.3928705      744.2749      -4.9719361      739.30296    
   2988000   302.24851      0.0036258033   2.4648726      749.88688     -4.9052582      744.98162    
   2989000   285.37844      0.0036258033   2.1430027      708.03178     -7.0837257      700.94806    
   2990000   300.78466      0.0036258033   1.5232491      746.25502     -7.3345667      738.92045    
   2991000   320.90182      0.0036258033   1.9735205      796.16626     -8.3185808      787.84767    
   2992000   310.51732      0.0036258033   2.135013       770.40202     -8.3311506      762.07087    
   2993000   290.89743      0.0036258033   2.1376048      721.72453     -8.4566409      713.26789    
   2994000   293.13827      0.0036258033   1.419079       727.28413     -6.072186       721.21194    
   2995000   315.00728      0.0036258033   1.23106        781.54175     -6.9544265      774.58732    
   2996000   308.38537      0.0036258033   2.0771455      765.11261     -4.3534349      760.75917    
   2997000   291.8          0.0036258033   2.6476964      723.96383     -5.3223085      718.64153    
   2998000   293.28038      0.0036258033   1.5427651      727.6367      -5.5022605      722.13444    
   2999000   308.30571      0.0036258033   1.3764278      764.91497     -5.8651846      759.04979    
   3000000   300.07077      0.0036258033   2.83588        744.48385     -6.4040629      738.07979    
   3001000   291.81103      0.0036258033   2.4590339      723.9912      -7.0554549      716.93575    
   3002000   299.31192      0.0036258033   1.3876115      742.60112     -6.8917401      735.70938    
   3003000   307.75696      0.0036258033   2.4325238      763.55351     -7.2907322      756.26278    
   3004000   295.70326      0.0036258033   3.2091983      733.64793     -6.6243179      727.02362    
   3005000   294.37641      0.0036258033   2.2433713      730.35598     -6.9184501      723.43753    
   3006000   291.12589      0.0036258033   1.8962722      722.29136     -5.8123022      716.47906    
   3007000   302.44802      0.0036258033   1.9841759      750.38187     -3.3487978      747.03308    
   3008000   307.51364      0.0036258033   2.2784633      762.94982     -3.1458047      759.80402    
   3009000   297.58806      0.0036258033   1.9643599      738.32418     -4.8124379      733.51174    
   3010000   299.33369      0.0036258033   1.6860876      742.65514     -4.9459083      737.70923    
   3011000   302.0402       0.0036258033   2.1568243      749.37006     -5.0894362      744.28062    
   3012000   302.17274      0.0036258033   2.320503       749.6989      -8.8179962      740.8809     
   3013000   290.74558      0.0036258033   1.9054476      721.34779     -7.5358341      713.81195    
   3014000   302.05735      0.0036258033   2.1610009      749.41261     -5.040972       744.37164    
   3015000   299.54753      0.0036258033   1.9507817      743.18567     -3.947689       739.23798    
   3016000   314.72381      0.0036258033   1.0122578      780.83844     -4.1086674      776.72977    
   3017000   301.85181      0.0036258033   2.1363158      748.90267     -4.019151       744.88352    
   3018000   300.24475      0.0036258033   2.6591795      744.9155      -3.2356133      741.67988    
   3019000   303.79996      0.0036258033   2.5256495      753.73606     -3.3615834      750.37448    
   3020000   312.41867      0.0036258033   1.9842523      775.11933     -2.9930231      772.12631    
   3021000   297.62121      0.0036258033   0.72370254     738.40642     -3.8653418      734.54108    
   3022000   294.18306      0.0036258033   3.0805278      729.87627     -4.026214       725.85006    
   3023000   304.54901      0.0036258033   1.1279022      755.59449     -3.594813       751.99968    
   3024000   304.44471      0.0036258033   1.6053121      755.33572     -6.2177609      749.11796    
   3025000   291.84792      0.0036258033   2.131561       724.08274     -7.0022851      717.08045    
   3026000   301.47604      0.0036258033   4.4322152      747.97036     -6.6399683      741.33039    
   3027000   307.04941      0.0036258033   2.4891501      761.79806     -8.4366527      753.36141    
   3028000   311.2035       0.0036258033  -0.64591976     772.10446     -9.4558521      762.64861    
   3029000   283.64738      0.0036258033   1.5092289      703.73697     -10.986741      692.75023    
   3030000   295.62859      0.0036258033   2.5483486      733.46269     -9.8830458      723.57964    
   3031000   297.43969      0.0036258033   2.9331075      737.95607     -8.288302       729.66777    
   3032000   318.92207      0.0036258033   5.8630779      791.25444     -7.0984604      784.15598    
   3033000   305.26672      0.0036258033   1.0752266      757.37515     -5.2639289      752.11122    
   3034000   280.29345      0.0036258033   0.44526017     695.41577     -5.9206771      689.4951     
   3035000   292.03496      0.0036258033   2.0222999      724.54679     -6.4173238      718.12947    
   3036000   299.37556      0.0036258033   5.4502822      742.759       -3.5609679      739.19804    
   3037000   312.3279       0.0036258033   3.6947589      774.89414     -4.6793907      770.21475    
   3038000   302.73193      0.0036258033   0.29365412     751.08625     -5.4855283      745.60072    
   3039000   290.54737      0.0036258033   3.7153433      720.85604     -6.0103138      714.84573    
   3040000   298.9107       0.0036258033   2.7251294      741.60568     -5.8163117      735.78937    
   3041000   308.00092      0.0036258033  -0.64145711     764.15877     -5.8274418      758.33133    
   3042000   305.32117      0.0036258033   1.9931097      757.51024     -7.5163718      749.99387    
   3043000   295.98078      0.0036258033   2.0078578      734.33646     -6.3454282      727.99104    
   3044000   290.33082      0.0036258033   1.9814667      720.31876     -7.48829        712.83047    
   3045000   306.25832      0.0036258033   2.1026882      759.83533     -6.0888594      753.74647    
   3046000   303.97152      0.0036258033   2.0183923      754.16172     -7.5720068      746.58971    
   3047000   285.01769      0.0036258033   2.4919773      707.13674     -7.0510734      700.08566    
   3048000   284.30766      0.0036258033   1.1421119      705.37513     -5.3091271      700.066      
   3049000   302.70086      0.0036258033   1.3114023      751.00919     -7.5310327      743.47815    
   3050000   312.87389      0.0036258033   4.3164077      776.24875     -6.0098524      770.2389     
   3051000   294.76367      0.0036258033   2.6623782      731.31679     -7.6873192      723.62947    
   3052000   284.74308      0.0036258033   1.6907004      706.45542     -8.0743758      698.38105    
   3053000   301.29096      0.0036258033   1.162908       747.51117     -7.9301732      739.581      
   3054000   304.38273      0.0036258033  -0.69500417     755.18194     -6.6163294      748.56561    
   3055000   302.22689      0.0036258033   5.8006132      749.83326     -5.2813572      744.5519     
   3056000   307.23235      0.0036258033   2.3060517      762.25192     -6.0029811      756.24894    
   3057000   302.51863      0.0036258033   1.5001626      750.55705     -6.0995971      744.45745    
   3058000   305.3924       0.0036258033  -0.44883836     757.68697     -4.7834008      752.90357    
   3059000   321.02244      0.0036258033   3.9846156      796.46551     -4.7878347      791.67768    
   3060000   293.98027      0.0036258033   2.3265392      729.37314     -5.5609292      723.81221    
   3061000   291.5902       0.0036258033   1.2459281      723.44332     -4.6180773      718.82524    
   3062000   305.77641      0.0036258033   2.7019011      758.6397      -6.8336442      751.80606    
   3063000   306.74443      0.0036258033   5.0492676      761.04139     -6.6078965      754.4335     
   3064000   295.64061      0.0036258033   1.2503177      733.49251     -5.6309957      727.86151    
   3065000   300.15457      0.0036258033   0.54050159     744.69176     -4.6729807      740.01878    
   3066000   310.74314      0.0036258033   5.5853571      770.96229     -4.0818104      766.88048    
   3067000   306.26525      0.0036258033   5.1913252      759.85252     -6.225665       753.62686    
   3068000   297.62431      0.0036258033   0.86001115     738.41412     -6.4766114      731.93751    
   3069000   301.66572      0.0036258033   1.9427691      748.44097     -6.7896492      741.65132    
   3070000   306.08449      0.0036258033   3.6173784      759.40406     -6.1540841      753.24998    
   3071000   300.59821      0.0036258033   3.2619362      745.79244     -5.0630176      740.72942    
   3072000   293.19546      0.0036258033   1.3588929      727.42601     -5.9902687      721.43575    
   3073000   294.84744      0.0036258033   1.1107097      731.52462     -8.2761854      723.24844    
   3074000   303.54547      0.0036258033   4.9662232      753.10467     -6.5270987      746.57757    
   3075000   293.48292      0.0036258033   4.4436686      728.13922     -8.4337365      719.70548    
   3076000   294.22987      0.0036258033   1.5771915      729.99243     -9.4033992      720.58903    
   3077000   293.82756      0.0036258033   0.06645074     728.99427     -6.7774099      722.21686    
   3078000   289.08536      0.0036258033   0.59242629     717.22874     -6.2491996      710.97954    
   3079000   304.26518      0.0036258033  -1.1932183      754.8903      -8.379915       746.51039    
   3080000   308.30917      0.0036258033   2.116441       764.92354     -8.7529557      756.17058    
   3081000   295.09439      0.0036258033   2.6184969      732.13733     -7.5498999      724.58743    
   3082000   287.25042      0.0036258033   1.1988819      712.6762      -7.028713       705.64749    
   3083000   301.05093      0.0036258033   1.4571833      746.91564     -8.5129461      738.4027     
   3084000   311.66876      0.0036258033   2.6864389      773.2588      -8.4792165      764.77958    
   3085000   300.71529      0.0036258033   1.9350629      746.08291     -4.365321       741.71759    
   3086000   298.8621       0.0036258033   1.9983199      741.48512     -4.3504825      737.13464    
   3087000   302.42756      0.0036258033   1.826706       750.33112     -4.790744       745.54037    
   3088000   301.00471      0.0036258033   0.44168663     746.80098     -5.8416206      740.95936    
   3089000   307.50256      0.0036258033   2.0944052      762.92232     -6.1359817      756.78634    
   3090000   315.51961      0.0036258033   2.3033009      782.81285     -8.120038       774.69281    
   3091000   287.64431      0.0036258033   2.320342       713.65347     -7.8223298      705.83114    
   3092000   289.16417      0.0036258033   1.1030114      717.42427     -9.5808944      707.84337    
   3093000   313.54608      0.0036258033   1.8394707      777.91646     -7.8818001      770.03466    
   3094000   298.51256      0.0036258033   2.1082483      740.6179      -7.5344136      733.08348    
   3095000   290.71856      0.0036258033   1.9823739      721.28075     -7.0934862      714.18727    
   3096000   298.78445      0.0036258033   2.2369093      741.29245     -7.4610819      733.83137    
   3097000   320.39479      0.0036258033   2.2171368      794.9083      -6.2941009      788.6142     
   3098000   297.70164      0.0036258033   2.0043842      738.60598     -7.649402       730.95658    
   3099000   296.44093      0.0036258033   1.9186109      735.47813     -6.9860994      728.49203    
   3100000   303.8915       0.0036258033   2.1763738      753.96319     -8.5909391      745.37225    
   3101000   314.99878      0.0036258033   2.3149817      781.52066     -6.0464795      775.47418    
   3102000   300.24268      0.0036258033   1.8668254      744.91037     -8.2915113      736.61886    
   3103000   283.28257      0.0036258033   1.9770272      702.83186     -8.3074604      694.5244     
   3104000   307.71751      0.0036258033   1.9528176      763.45563     -9.206014       754.24961    
   3105000   312.24231      0.0036258033   1.9921417      774.68179     -8.2124511      766.46934    
   3106000   291.2008       0.0036258033   1.3368539      722.47722     -7.5041423      714.97308    
   3107000   292.1366       0.0036258033   1.7780196      724.79897     -6.7052372      718.09373    
   3108000   302.60292      0.0036258033   2.2654296      750.76619     -5.7160136      745.05018    
   3109000   306.85836      0.0036258033   2.0426246      761.32405     -5.2583983      756.06565    
   3110000   306.25472      0.0036258033   2.0338786      759.82639     -4.6446027      755.18179    
   3111000   296.82195      0.0036258033   2.0264255      736.42343     -7.3826532      729.04078    
   3112000   297.39974      0.0036258033   2.0673954      737.85696     -9.2855006      728.57146    
   3113000   304.61744      0.0036258033   1.9633064      755.76428     -6.8394973      748.92478    
   3114000   300.79924      0.0036258033   2.0109196      746.29121     -6.8745775      739.41663    
   3115000   293.82664      0.0036258033   2.450964       728.99199     -7.903012       721.08897    
   3116000   297.84342      0.0036258033   3.2509655      738.95773     -5.1753027      733.78243    
   3117000   310.09966      0.0036258033   1.4288553      769.36582     -4.8376881      764.52813    
   3118000   315.98271      0.0036258033   0.97795491     783.96182     -4.1866382      779.77518    
   3119000   292.23096      0.0036258033   2.4344781      725.03306     -4.1936403      720.83942    
   3120000   294.53564      0.0036258033   3.6771326      730.75104     -4.8473502      725.90369    
   3121000   306.8482       0.0036258033   1.5369474      761.29885     -5.621058       755.67779    
   3122000   302.13067      0.0036258033   1.9060403      749.59451     -5.18858        744.40593    
   3123000   296.91594      0.0036258033   0.27277206     736.65664     -5.8942507      730.76239    
   3124000   294.00456      0.0036258033   1.8094097      729.43342     -7.2860762      722.14734    
   3125000   303.35331      0.0036258033   6.4083289      752.62792     -6.210323       746.41759    
   3126000   308.06847      0.0036258033   3.7809613      764.32638     -4.9616761      759.3647     
   3127000   297.0178       0.0036258033   1.0507104      736.90934     -5.0090248      731.90032    
   3128000   298.52912      0.0036258033   2.5279991      740.65898     -5.5603981      735.09858    
   3129000   305.09621      0.0036258033   2.7091606      756.95211     -5.1291209      751.82299    
   3130000   304.35799      0.0036258033  -0.95803787     755.12057     -5.0066295      750.11394    
   3131000   293.55128      0.0036258033   2.0313928      728.30881     -6.1640237      722.14479    
   3132000   309.42497      0.0036258033   3.7826735      767.69187     -8.2957634      759.39611    
   3133000   302.56365      0.0036258033   2.370664       750.66875     -6.0655168      744.60324    
   3134000   291.05427      0.0036258033   1.7415565      722.11366     -7.8257688      714.28789    
   3135000   287.52494      0.0036258033   2.3791008      713.3573      -6.7398797      706.61742    
   3136000   311.07684      0.0036258033   2.4288723      771.79022     -6.734667       765.05556    
   3137000   310.0892       0.0036258033   1.9256463      769.33985     -6.3667458      762.9731     
   3138000   285.00617      0.0036258033   1.4935488      707.10816     -7.0200405      700.08812    
   3139000   292.99863      0.0036258033   2.7493564      726.93767     -6.4804002      720.45727    
   3140000   312.30202      0.0036258033   0.89477766     774.82993     -5.6646234      769.1653     
   3141000   283.16985      0.0036258033   1.9544488      702.5522      -3.3668548      699.18534    
   3142000   295.45948      0.0036258033   2.3085812      733.04311     -4.7672835      728.27583    
   3143000   314.14676      0.0036258033   2.2299229      779.40676     -6.9559646      772.4508     
   3144000   292.05113      0.0036258033   1.5973822      724.58691     -5.7419196      718.84499    
   3145000   301.11908      0.0036258033   2.869363       747.08474     -5.2368654      741.84788    
   3146000   308.37778      0.0036258033   1.5174089      765.09377     -5.3404562      759.75332    
   3147000   289.56235      0.0036258033  -0.82405203     718.41216     -5.364834       713.04733    
   3148000   290.02515      0.0036258033   0.50961677     719.56038     -6.3676854      713.19269    
   3149000   318.42815      0.0036258033   3.1499633      790.02901     -7.0523909      782.97662    
   3150000   307.78545      0.0036258033   4.8294918      763.62418     -5.9997112      757.62446    
   3151000   300.17784      0.0036258033   0.80210231     744.74949     -6.3161498      738.43334    
   3152000   289.82561      0.0036258033   1.0022593      719.06533     -9.4484958      709.61684    
   3153000   305.21322      0.0036258033   2.901884       757.24242     -6.1052808      751.13714    
   3154000   315.36981      0.0036258033   3.0798316      782.44118     -6.8369916      775.60419    
   3155000   290.83958      0.0036258033   1.2070192      721.58101     -6.5172709      715.06374    
   3156000   292.55635      0.0036258033   1.4500696      725.84036     -8.259186       717.58118    
   3157000   316.5012       0.0036258033   4.0569592      785.24821     -9.0823216      776.16589    
   3158000   302.97287      0.0036258033   1.7260821      751.68403     -5.6258025      746.05823    
   3159000   298.76213      0.0036258033   1.031054       741.23707     -6.8998652      734.3372     
   3160000   299.73717      0.0036258033   2.3202633      743.65618     -8.3306926      735.32549    
   3161000   291.05189      0.0036258033   4.2086408      722.10775     -6.9272852      715.18047    
   3162000   301.66391      0.0036258033   2.0173026      748.43647     -9.2901099      739.14636    
   3163000   304.18698      0.0036258033  -0.1086571      754.69629     -11.700563      742.99573    
   3164000   297.50298      0.0036258033   0.9435835      738.1131      -8.9557625      729.15734    
   3165000   297.75422      0.0036258033   3.7169279      738.73642     -9.7633674      728.97305    
   3166000   296.42901      0.0036258033   4.2236959      735.44853     -8.2617817      727.18675    
   3167000   309.26076      0.0036258033   0.85755405     767.28448     -9.056645       758.22783    
   3168000   303.97675      0.0036258033  -0.25276774     754.17469     -8.2763977      745.89829    
   3169000   297.50446      0.0036258033   2.6841669      738.11676     -6.1677996      731.94896    
   3170000   308.83704      0.0036258033   1.8119132      766.23321     -8.1693752      758.06384    
   3171000   296.60562      0.0036258033   1.507583       735.88671     -7.4167807      728.46993    
   3172000   294.35411      0.0036258033   1.618049       730.30067     -7.8721275      722.42855    
   3173000   299.7482       0.0036258033   3.4689944      743.68355     -8.2337831      735.44976    
   3174000   311.1781       0.0036258033   2.9298115      772.04146     -10.582798      761.45866    
   3175000   299.58974      0.0036258033   1.4307872      743.2904      -8.3394557      734.95095    
   3176000   295.80848      0.0036258033   1.9650284      733.90899     -10.683538      723.22545    
   3177000   306.10044      0.0036258033   3.2375159      759.44362     -8.2315887      751.21203    
   3178000   292.48201      0.0036258033  -0.327037       725.65592     -7.3190636      718.33686    
   3179000   294.76217      0.0036258033   2.5107372      731.31306     -7.1404422      724.17262    
   3180000   302.13993      0.0036258033   2.1247108      749.61749     -6.7873255      742.83016    
   3181000   301.10607      0.0036258033   2.3542057      747.05245     -4.9391334      742.11332    
   3182000   280.71438      0.0036258033   0.2859846      696.46011     -5.7082708      690.75184    
   3183000   302.57246      0.0036258033   1.9181222      750.69062     -7.3494315      743.34119    
   3184000   301.90624      0.0036258033   2.6244564      749.0377      -7.6451433      741.39256    
   3185000   304.91621      0.0036258033   1.2937618      756.50551     -8.8152647      747.69025    
   3186000   296.26341      0.0036258033   0.83783086     735.03769     -6.8117249      728.22597    
   3187000   303.52207      0.0036258033   1.4248928      753.04662     -5.76224        747.28438    
   3188000   309.19345      0.0036258033   2.2895773      767.11747     -5.9337731      761.1837     
   3189000   314.87562      0.0036258033   5.6333125      781.21509     -9.2789204      771.93617    
   3190000   302.956        0.0036258033   1.0375108      751.64218     -6.8563619      744.78581    
   3191000   290.54206      0.0036258033   0.88673611     720.84287     -9.9008942      710.94197    
   3192000   301.65458      0.0036258033   3.2696155      748.41333     -7.2132722      741.20006    
   3193000   305.09526      0.0036258033   2.9557709      756.94974     -7.1680154      749.78173    
   3194000   298.50315      0.0036258033   0.47812544     740.59455     -9.0566659      731.53789    
   3195000   307.28484      0.0036258033   2.9575568      762.38215     -5.4198995      756.96225    
   3196000   311.65556      0.0036258033   1.2427215      773.22604     -6.3652472      766.86079    
   3197000   290.26007      0.0036258033   0.81267729     720.14323     -6.5515367      713.59169    
   3198000   294.52425      0.0036258033   3.662842       730.72278     -7.0341491      723.68863    
   3199000   309.18027      0.0036258033   3.9557999      767.08476     -5.2556342      761.82913    
   3200000   310.01403      0.0036258033   1.5810096      769.15337     -5.179878       763.97349    
   3201000   303.45387      0.0036258033  -0.42890028     752.87743     -3.4059075      749.47152    
   3202000   300.91363      0.0036258033   0.42016034     746.57502     -5.9008298      740.67419    
   3203000   297.11832      0.0036258033   2.5433444      737.15875     -5.5796705      731.57908    
   3204000   308.76277      0.0036258033   3.268991       766.04894     -4.1431883      761.90575    
   3205000   297.83428      0.0036258033   1.2679199      738.93506     -5.365423       733.56963    
   3206000   290.61172      0.0036258033   2.4548771      721.01569     -8.6836876      712.33201    
   3207000   303.89302      0.0036258033   2.4411777      753.96697     -3.0672419      750.89973    
   3208000   307.86384      0.0036258033   3.1109535      763.81868     -3.627468       760.19122    
   3209000   292.20785      0.0036258033   0.85634633     724.97573     -3.817103       721.15862    
   3210000   293.45906      0.0036258033   1.6955719      728.08003     -3.4002766      724.67975    
   3211000   298.72318      0.0036258033   4.2524302      741.14045     -3.9234955      737.21696    
   3212000   307.99331      0.0036258033   1.6595313      764.1399      -4.6552306      759.48467    
   3213000   304.38029      0.0036258033   0.51569619     755.17589     -5.7888003      749.38709    
   3214000   299.90073      0.0036258033   4.1205672      744.06199     -5.5389452      738.52304    
   3215000   302.14586      0.0036258033   2.1957987      749.63221     -9.1714371      740.46077    
   3216000   297.94366      0.0036258033   2.2247197      739.20644     -6.2442716      732.96217    
   3217000   288.92891      0.0036258033   1.7643649      716.84059     -6.3390884      710.5015     
   3218000   307.12654      0.0036258033   2.0059577      761.98941     -6.382691       755.60672    
   3219000   315.66725      0.0036258033   2.0634211      783.17915     -7.4932469      775.6859     
   3220000   303.73865      0.0036258033   2.6776439      753.58397     -7.831899       745.75208    
   3221000   293.39323      0.0036258033   2.0226965      727.91668     -5.3853661      722.53132    
   3222000   303.93417      0.0036258033   1.9921476      754.06907     -3.7145104      750.35455    
   3223000   308.47036      0.0036258033   1.715804       765.32346     -4.5741641      760.74929    
   3224000   296.11439      0.0036258033   3.29331        734.66797     -6.1227816      728.54519    
   3225000   286.74476      0.0036258033   1.7313084      711.42166     -4.8815923      706.54007    
   3226000   308.9718       0.0036258033   1.6266459      766.56754     -4.4102814      762.15726    
   3227000   313.95893      0.0036258033   2.1201499      778.94076     -3.895926       775.04484    
   3228000   306.53269      0.0036258033   2.8978299      760.51606     -5.1957482      755.32031    
   3229000   296.71711      0.0036258033   3.9079402      736.16333     -5.9545631      730.20877    
   3230000   299.45169      0.0036258033   1.7330705      742.9479      -5.7006263      737.24728    
   3231000   313.13629      0.0036258033   0.020496013    776.89976     -5.8250036      771.07476    
   3232000   308.0184       0.0036258033   2.9200935      764.20215     -8.212225       755.98993    
   3233000   296.3571       0.0036258033   4.26505        735.27014     -6.8776541      728.39248    
   3234000   302.00203      0.0036258033   1.9180728      749.27537     -7.1472124      742.12816    
   3235000   314.06168      0.0036258033   0.98661336     779.19569     -6.8424739      772.35321    
   3236000   308.87663      0.0036258033   1.7801994      766.33144     -8.1838696      758.14757    
   3237000   302.73373      0.0036258033   3.7792743      751.09072     -8.5992153      742.4915     
   3238000   301.76323      0.0036258033   2.8679424      748.68288     -8.4578231      740.22506    
   3239000   298.62046      0.0036258033   1.2839912      740.88559     -7.3548894      733.5307     
   3240000   294.20627      0.0036258033   0.35043028     729.93387     -9.0725734      720.8613     
   3241000   310.72491      0.0036258033   1.9408118      770.91707     -5.9249815      764.99209    
   3242000   312.83983      0.0036258033   4.4195562      776.16424     -7.5910902      768.57315    
   3243000   292.33438      0.0036258033   1.2018183      725.28965     -6.0627574      719.22689    
   3244000   303.6434       0.0036258033   1.4797591      753.34764     -6.3725742      746.97507    
   3245000   302.39263      0.0036258033   4.0161145      750.24445     -7.0184342      743.22601    
   3246000   292.04829      0.0036258033   2.5834577      724.57987     -7.3373152      717.24255    
   3247000   294.21704      0.0036258033  -0.90385508     729.96059     -8.3981615      721.56243    
   3248000   312.52839      0.0036258033   1.6905468      775.39154     -8.1672725      767.22427    
   3249000   306.51874      0.0036258033   3.3902868      760.48144     -4.5958498      755.88559    
   3250000   290.03966      0.0036258033   3.0795871      719.59639     -3.7758813      715.82051    
   3251000   310.24587      0.0036258033  -0.86804437     769.72856     -6.5868557      763.14171    
   3252000   313.82616      0.0036258033   2.2438119      778.61135     -6.6780172      771.93333    
   3253000   296.67499      0.0036258033   5.9565273      736.05882     -6.2148871      729.84393    
   3254000   298.49008      0.0036258033   2.2361369      740.5621      -7.6826188      732.87949    
   3255000   305.21943      0.0036258033  -0.29436218     757.25782     -5.8141787      751.44364    
   3256000   309.70205      0.0036258033   3.6030696      768.37932     -7.6786887      760.70063    
   3257000   286.73226      0.0036258033   3.3625479      711.39065     -6.1116502      705.279      
   3258000   292.10626      0.0036258033   1.2773388      724.72368     -7.611322       717.11236    
   3259000   302.99595      0.0036258033  -0.74382633     751.7413      -5.5769273      746.16437    
   3260000   305.99236      0.0036258033   3.0846154      759.17549     -6.4356737      752.73981    
   3261000   289.78164      0.0036258033   2.008882       718.95624     -7.9222427      711.034      
   3262000   298.54913      0.0036258033  -1.0454973      740.70862     -7.8478339      732.86079    
   3263000   313.86769      0.0036258033   1.0661782      778.7144      -6.0864729      772.62793    
   3264000   302.29459      0.0036258033   5.3839347      750.0012      -4.7463686      745.25484    
   3265000   294.89499      0.0036258033   1.8631237      731.64261     -4.136054       727.50656    
   3266000   293.55795      0.0036258033   1.0807522      728.32538     -5.1985432      723.12683    
   3267000   314.15665      0.0036258033   2.9785027      779.43132     -4.6636972      774.76762    
   3268000   308.95814      0.0036258033   2.5726762      766.53365     -7.0333063      759.50035    
   3269000   302.28756      0.0036258033   0.63145319     749.98376     -8.5305417      741.45322    
   3270000   295.51923      0.0036258033   3.4043134      733.19135     -5.6606706      727.53068    
   3271000   289.85344      0.0036258033   1.8084472      719.13438     -7.9204348      711.21394    
   3272000   306.39844      0.0036258033   1.8754223      760.18297     -6.02323        754.15974    
   3273000   305.02513      0.0036258033   1.4381607      756.77577     -5.0696434      751.70612    
   3274000   297.67908      0.0036258033   2.1815379      738.55        -3.7827465      734.76725    
   3275000   301.52581      0.0036258033   2.7166231      748.09384     -4.2657887      743.82806    
   3276000   287.75638      0.0036258033  -0.38573376     713.9315      -4.5680768      709.36342    
   3277000   279.50263      0.0036258033   2.4009815      693.45374     -4.6004917      688.85324    
   3278000   308.22423      0.0036258033   0.48294429     764.71281     -5.5749367      759.13788    
   3279000   307.36748      0.0036258033   5.3589317      762.58718     -3.2348716      759.35231    
   3280000   292.63566      0.0036258033   3.4028391      726.03714     -3.3971274      722.64001    
   3281000   295.00083      0.0036258033   1.1485789      731.9052      -4.3686539      727.53655    
   3282000   322.18494      0.0036258033   2.3387805      799.34971     -4.4162279      794.93348    
   3283000   295.48185      0.0036258033   2.3260897      733.09861     -6.3080895      726.79052    
   3284000   292.09596      0.0036258033   0.98664259     724.69812     -3.7162182      720.9819     
   3285000   325.35565      0.0036258033   1.9165041      807.21633     -5.0710565      802.14527    
   3286000   299.02654      0.0036258033   2.5589168      741.8931      -5.2945913      736.59851    
   3287000   293.80464      0.0036258033   2.1137309      728.93742     -3.9386976      724.99872    
   3288000   289.42983      0.0036258033   1.7558215      718.0834      -5.9771281      712.10627    
   3289000   298.75036      0.0036258033   1.7178396      741.20787     -5.3663087      735.84156    
   3290000   299.64478      0.0036258033   1.9866279      743.42697     -6.9790781      736.44789    
   3291000   304.89625      0.0036258033   2.0056487      756.456       -6.2047614      750.25124    
   3292000   301.69328      0.0036258033   1.8564859      748.50935     -7.0102354      741.49911    
   3293000   297.52933      0.0036258033   1.9052017      738.17846     -4.1375241      734.04094    
   3294000   305.35215      0.0036258033   2.7592647      757.58709     -6.7947386      750.79235    
   3295000   301.23915      0.0036258033   2.6587909      747.38263     -7.5649664      739.81766    
   3296000   304.61892      0.0036258033   1.9817443      755.76793     -6.6913884      749.07655    
   3297000   289.61768      0.0036258033   1.7604166      718.54945     -6.5406327      712.00882    
   3298000   309.17406      0.0036258033   1.8457649      767.06937     -4.8686864      762.20068    
   3299000   321.76348      0.0036258033   2.6982073      798.30408     -3.8614135      794.44266    
   3300000   296.7711       0.0036258033   3.2373381      736.29727     -4.1840186      732.11325    
   3301000   288.13374      0.0036258033   0.89329799     714.86774     -6.1279924      708.73975    
   3302000   306.07538      0.0036258033  -0.72929748     759.38146     -6.8101909      752.57127    
   3303000   307.87323      0.0036258033   1.7063579      763.84197     -5.9458105      757.89616    
   3304000   292.84422      0.0036258033   2.6738993      726.55458     -7.6532773      718.9013     
   3305000   294.81588      0.0036258033   1.802362       731.44631     -5.1667553      726.27956    
   3306000   313.09325      0.0036258033   1.8806269      776.79298     -3.2302477      773.56273    
   3307000   303.90681      0.0036258033   1.9404727      754.00118     -4.4170118      749.58417    
   3308000   298.19878      0.0036258033   2.5901309      739.83939     -3.7086136      736.13078    
   3309000   288.56847      0.0036258033   1.9873738      715.94632     -3.2018272      712.74449    
   3310000   305.14139      0.0036258033   2.0145699      757.0642      -2.993869       754.07034    
   3311000   304.36311      0.0036258033   2.269981       755.13327     -4.96247        750.1708     
   3312000   294.82127      0.0036258033   4.3520551      731.4597      -3.6141115      727.84558    
   3313000   289.44711      0.0036258033   1.6561962      718.12626     -5.8868498      712.23941    
   3314000   302.91054      0.0036258033  -0.4943358      751.5294      -4.462824       747.06658    
   3315000   308.05289      0.0036258033   2.1028799      764.28772     -3.408248       760.87947    
   3316000   297.32662      0.0036258033   2.2713991      737.67553     -3.1781303      734.4974     
   3317000   293.06819      0.0036258033   1.7683258      727.11025     -4.6582388      722.45201    
   3318000   301.23203      0.0036258033   1.6674792      747.36497     -6.7022022      740.66277    
   3319000   309.61534      0.0036258033   1.8443141      768.16419     -9.6186051      758.54558    
   3320000   303.12388      0.0036258033   2.8486403      752.05871     -6.0002172      746.05849    
   3321000   303.66125      0.0036258033   2.8143584      753.39192     -7.4302107      745.96171    
   3322000   296.29292      0.0036258033   2.6826747      735.1109      -5.7248688      729.38603    
   3323000   291.15076      0.0036258033   0.90602836     722.35307     -4.442178       717.91089    
   3324000   297.08941      0.0036258033   1.22335        737.08702     -5.7659957      731.32102    
   3325000   315.81371      0.0036258033   3.321693       783.54252     -4.9947191      778.5478     
   3326000   293.062        0.0036258033   2.9721159      727.09491     -5.1093002      721.98561    
   3327000   288.31778      0.0036258033   2.3114712      715.32436     -4.8787283      710.44563    
   3328000   288.60014      0.0036258033   0.30077212     716.0249      -6.3409985      709.68391    
   3329000   308.31082      0.0036258033   1.7158903      764.92765     -7.0923835      757.83527    
   3330000   301.23346      0.0036258033   2.182875       747.36851     -8.2502123      739.1183     
   3331000   284.20844      0.0036258033   1.7383763      705.12896     -9.3354518      695.79351    
   3332000   299.20031      0.0036258033   2.149001       742.32422     -8.982302       733.34191    
   3333000   316.82869      0.0036258033   1.98335        786.06071     -9.3361497      776.72456    
   3334000   297.26113      0.0036258033   2.2037687      737.51307     -8.613916       728.89915    
   3335000   287.63647      0.0036258033   1.735913       713.63401     -8.9380611      704.69595    
   3336000   297.62959      0.0036258033   1.8839883      738.42721     -9.2671565      729.16005    
   3337000   292.78687      0.0036258033   0.9464646      726.41231     -7.1519423      719.26036    
   3338000   297.58045      0.0036258033   1.7586764      738.3053      -7.0111734      731.29412    
   3339000   303.15976      0.0036258033   3.4692835      752.14773     -7.3507386      744.79699    
   3340000   295.58022      0.0036258033   3.1612617      733.34268     -6.5676994      726.77498    
   3341000   293.66028      0.0036258033   2.0070178      728.57925     -8.5795551      719.99969    
   3342000   300.04862      0.0036258033   0.13416971     744.42889     -7.2358405      737.19304    
   3343000   305.84452      0.0036258033   1.7405306      758.80869     -7.7897909      751.0189     
   3344000   304.48009      0.0036258033   2.637378       755.42349     -7.6660716      747.75742    
   3345000   292.54696      0.0036258033   1.2587845      725.81707     -4.2668511      721.55022    
   3346000   306.81358      0.0036258033   1.4306246      761.21294     -5.0477208      756.16522    
   3347000   300.92998      0.0036258033   2.2281171      746.61558     -6.8973439      739.71824    
   3348000   297.69564      0.0036258033   2.1659729      738.59108     -7.2881959      731.30288    
   3349000   304.92593      0.0036258033   2.7159232      756.52964     -9.8466962      746.68295    
   3350000   296.90165      0.0036258033   1.805549       736.62117     -9.8490364      726.77213    
   3351000   309.43786      0.0036258033   1.7358834      767.72386     -9.2904076      758.43345    
   3352000   307.25639      0.0036258033   1.9053952      762.31157     -7.7206663      754.5909     
   3353000   294.90004      0.0036258033   1.7998693      731.65513     -6.8872765      724.76785    
   3354000   304.1583       0.0036258033   1.9025356      754.62513     -10.324186      744.30095    
   3355000   308.06856      0.0036258033   2.2504566      764.32658     -8.6541425      755.67244    
   3356000   293.91317      0.0036258033   2.1962077      729.20667     -7.7081905      721.49848    
   3357000   294.20132      0.0036258033   1.5916695      729.92158     -6.7512203      723.17036    
   3358000   298.63092      0.0036258033   1.4904796      740.91155     -10.789355      730.1222     
   3359000   309.19294      0.0036258033   1.2145632      767.1162      -9.060267       758.05593    
   3360000   292.41124      0.0036258033   2.6955117      725.48034     -7.5812839      717.89906    
   3361000   285.17721      0.0036258033   1.7969187      707.53251     -8.5532386      698.97927    
   3362000   308.43445      0.0036258033   1.9614721      765.23436     -8.21949        757.01487    
   3363000   298.56479      0.0036258033   2.0693889      740.74748     -7.8408059      732.90668    
   3364000   297.54599      0.0036258033   1.8685515      738.2198      -6.5027568      731.71704    
   3365000   297.40466      0.0036258033   2.0527771      737.86916     -8.6793326      729.18983    
   3366000   294.39964      0.0036258033   1.9517937      730.41361     -8.9775047      721.43611    
   3367000   293.69275      0.0036258033   2.3653811      728.6598      -9.218825       719.44097    
   3368000   306.20403      0.0036258033   2.1773946      759.70063     -6.3632481      753.33738    
   3369000   301.97576      0.0036258033   1.1490147      749.21017     -8.5445482      740.66563    
   3370000   302.40953      0.0036258033   1.7777734      750.28639     -7.8628123      742.42358    
   3371000   297.93566      0.0036258033   1.9070247      739.18658     -9.1523785      730.03421    
   3372000   290.57629      0.0036258033   3.0806357      720.92779     -9.0006625      711.92712    
   3373000   303.3712       0.0036258033   2.0408171      752.67231     -8.4968536      744.17545    
   3374000   311.23653      0.0036258033   1.7386834      772.18641     -9.7336022      762.45281    
   3375000   299.01774      0.0036258033   1.3267349      741.87126     -6.0238187      735.84744    
   3376000   286.18737      0.0036258033   1.9887455      710.03875     -5.8030109      704.23574    
   3377000   312.07068      0.0036258033   2.5034669      774.25596     -5.1697155      769.08625    
   3378000   302.1941       0.0036258033   1.5441113      749.7519      -6.0901279      743.66177    
   3379000   287.89646      0.0036258033   1.6002811      714.27906     -6.5225195      707.75654    
   3380000   305.52134      0.0036258033   2.0725214      758.00686     -6.6763299      751.33053    
   3381000   300.61078      0.0036258033   2.0263852      745.82363     -6.531834       739.29179    
   3382000   302.13729      0.0036258033   2.0105177      749.61095     -8.0930307      741.51792    
   3383000   294.05044      0.0036258033   1.7372237      729.54725     -7.0619424      722.4853     
   3384000   310.25308      0.0036258033   1.2923561      769.74644     -7.7755779      761.97086    
   3385000   302.82775      0.0036258033   2.3243543      751.324       -7.1203454      744.20366    
   3386000   286.86641      0.0036258033   1.1659301      711.72348     -5.1198666      706.60361    
   3387000   310.82097      0.0036258033   1.0066849      771.1554      -6.6247522      764.53065    
   3388000   311.86811      0.0036258033   3.8870013      773.75337     -8.8023768      764.95099    
   3389000   294.12623      0.0036258033   1.8147932      729.73528     -9.5521295      720.18315    
   3390000   300.09044      0.0036258033   0.71455326     744.53266     -7.8182415      736.71442    
   3391000   292.60127      0.0036258033   4.3779293      725.95183     -7.3420177      718.60981    
   3392000   305.36865      0.0036258033   1.8828319      757.62803     -7.7002077      749.92783    
   3393000   308.96597      0.0036258033  -1.5087463      766.5531      -5.1535985      761.3995     
   3394000   310.02736      0.0036258033   2.026245       769.18642     -9.1090775      760.07734    
   3395000   292.6379       0.0036258033   3.246254       726.04269     -5.4298831      720.61281    
   3396000   292.91424      0.0036258033   2.2950615      726.72831     -5.9977598      720.73055    
   3397000   293.90157      0.0036258033  -1.2174255      729.17789     -4.2984875      724.8794     
   3398000   300.09595      0.0036258033   0.49679183     744.54632     -4.1231379      740.42318    
   3399000   293.61039      0.0036258033   3.3482883      728.45547     -6.8890082      721.56646    
   3400000   295.31423      0.0036258033   2.7351229      732.68275     -6.2364604      726.44629    
   3401000   308.22857      0.0036258033  -0.21618259     764.72358     -3.8176952      760.90589    
   3402000   310.25163      0.0036258033   3.12912        769.74284     -3.6467171      766.09612    
   3403000   290.6215       0.0036258033   4.2463285      721.03994     -5.6865708      715.35337    
   3404000   286.53023      0.0036258033   2.4780623      710.88941     -5.2436163      705.64579    
   3405000   315.08694      0.0036258033   0.4244198      781.73938     -5.9795363      775.75984    
   3406000   304.39147      0.0036258033   3.4798316      755.20363     -6.3423773      748.86126    
   3407000   281.14847      0.0036258033   0.1162361      697.53711     -9.6405629      687.89655    
   3408000   301.61349      0.0036258033   0.34221825     748.31139     -9.3468489      738.96454    
   3409000   308.50441      0.0036258033   5.1083268      765.40794     -7.2966079      758.11133    
   3410000   307.622        0.0036258033   3.5262106      763.21867     -6.2243757      756.99429    
   3411000   291.7359       0.0036258033   1.7318009      723.80481     -5.9961646      717.80865    
   3412000   294.56911      0.0036258033   1.0005446      730.83408     -5.0703313      725.76375    
   3413000   316.78547      0.0036258033   3.3331265      785.95347     -5.0098766      780.9436     
   3414000   298.44206      0.0036258033   5.0134135      740.44298     -5.2366196      735.20636    
   3415000   293.44695      0.0036258033   0.84684722     728.04997     -4.839133       723.21084    
   3416000   314.49432      0.0036258033   2.0805689      780.26907     -7.684081       772.58499    
   3417000   298.08296      0.0036258033   2.912854       739.55203     -6.9139202      732.63811    
   3418000   295.76108      0.0036258033   2.2591652      733.7914      -5.0082067      728.7832     
   3419000   303.9648       0.0036258033   0.96123704     754.14506     -5.2377695      748.90729    
   3420000   305.44325      0.0036258033   2.288413       757.81313     -6.8889593      750.92417    
   3421000   297.41726      0.0036258033   3.6837334      737.90042     -4.2748667      733.62555    
   3422000   314.5756       0.0036258033   1.4534432      780.47074     -5.4491413      775.02159    
   3423000   307.59593      0.0036258033   1.6394946      763.15397     -6.7078487      756.44612    
   3424000   297.20112      0.0036258033   2.4049307      737.36416     -4.4629159      732.90125    
   3425000   296.78166      0.0036258033   2.4836058      736.32349     -3.3722728      732.95122    
   3426000   292.5357       0.0036258033   1.3036927      725.78913     -4.6874032      721.10172    
   3427000   300.11526      0.0036258033   1.9146456      744.59422     -3.7754844      740.81874    
   3428000   311.92121      0.0036258033   2.3431124      773.88513     -2.8074275      771.0777     
   3429000   289.96693      0.0036258033   1.8231216      719.41593     -4.0928358      715.3231     
   3430000   298.84961      0.0036258033   2.0224104      741.45412     -5.1411604      736.31296    
   3431000   313.10276      0.0036258033   2.2369744      776.81657     -6.6018376      770.21474    
   3432000   293.71218      0.0036258033   2.3866538      728.70801     -6.3718563      722.33615    
   3433000   301.29501      0.0036258033   1.964892       747.52123     -7.119002       740.40222    
   3434000   304.64687      0.0036258033   2.0705169      755.83728     -7.3023835      748.53489    
   3435000   304.15127      0.0036258033   2.0583874      754.60769     -5.6916602      748.91603    
   3436000   293.3485       0.0036258033   1.9892105      727.80572     -5.1980582      722.60766    
   3437000   297.43721      0.0036258033   1.704875       737.94991     -5.3562634      732.59364    
   3438000   295.7154       0.0036258033   2.2494046      733.67805     -6.4386582      727.2394     
   3439000   292.81445      0.0036258033   2.9075793      726.48071     -6.2368611      720.24385    
   3440000   303.83767      0.0036258033   2.4031235      753.82964     -6.8463463      746.9833     
   3441000   305.62803      0.0036258033   0.95331912     758.27158     -6.2223694      752.04921    
   3442000   305.07573      0.0036258033   0.71600023     756.9013      -6.88786        750.01344    
   3443000   297.23667      0.0036258033   4.3836317      737.45237     -6.7654098      730.68696    
   3444000   300.51274      0.0036258033   2.5705479      745.58039     -5.5825268      739.99786    
   3445000   292.56537      0.0036258033   0.05967412     725.86274     -7.4074464      718.45529    
   3446000   291.38954      0.0036258033   1.6466771      722.94548     -6.4375714      716.5079     
   3447000   303.35832      0.0036258033   3.3966798      752.64034     -7.0535897      745.58675    
   3448000   296.18854      0.0036258033   1.7772815      734.85194     -9.237647       725.61429    
   3449000   302.94446      0.0036258033   1.8511324      751.61355     -8.9610954      742.65245    
   3450000   293.11634      0.0036258033   1.4890519      727.22973     -6.2288738      721.00086    
   3451000   303.29862      0.0036258033   2.8270574      752.49224     -5.1375837      747.35466    
   3452000   305.19851      0.0036258033   3.4930372      757.20591     -6.5192416      750.68666    
   3453000   301.07256      0.0036258033   0.667395       746.96933     -4.9279979      742.04133    
   3454000   287.15004      0.0036258033   3.430827       712.42716     -3.8233644      708.60379    
   3455000   295.3083       0.0036258033   1.7789383      732.66803     -4.8877611      727.78027    
   3456000   301.50908      0.0036258033   3.1043008      748.05234     -8.1789856      739.87336    
   3457000   299.25852      0.0036258033   5.6800402      742.46863     -7.4738562      734.99478    
   3458000   304.17534      0.0036258033  -0.31569821     754.66741     -9.5583567      745.10906    
   3459000   303.5331       0.0036258033   1.8084754      753.074       -10.068219      743.00578    
   3460000   290.02699      0.0036258033   2.2028164      719.56495     -6.5742839      712.99067    
   3461000   295.44669      0.0036258033   2.7090467      733.01139     -5.5153498      727.49604    
   3462000   301.65726      0.0036258033  -0.47570239     748.41997     -5.7586024      742.66137    
   3463000   296.37008      0.0036258033   2.1324869      735.30234     -4.4663909      730.83595    
   3464000   308.15677      0.0036258033   2.3801137      764.54544     -7.044793       757.50065    
   3465000   304.78437      0.0036258033   2.5716943      756.17842     -10.188802      745.98962    
   3466000   297.6147       0.0036258033   0.0059362846   738.39027     -9.2664726      729.1238     
   3467000   293.5115       0.0036258033   3.9183792      728.21013     -9.173255       719.03687    
   3468000   302.73236      0.0036258033   2.4889838      751.08733     -9.7741958      741.31313    
   3469000   295.86724      0.0036258033  -1.1810337      734.05478     -7.9434381      726.11134    
   3470000   290.52798      0.0036258033   1.9899128      720.80792     -9.161031       711.64688    
   3471000   281.89367      0.0036258033   6.0166388      699.38598     -9.3135454      690.07243    
   3472000   308.09883      0.0036258033   2.5321681      764.4017      -10.882625      753.51907    
   3473000   302.69986      0.0036258033   1.7591806      751.00669     -7.6372434      743.36944    
   3474000   290.15492      0.0036258033   2.3768105      719.88236     -6.3130744      713.56928    
   3475000   308.46345      0.0036258033   2.4544919      765.30632     -7.3459413      757.96038    
   3476000   305.47904      0.0036258033   1.1590756      757.90191     -5.9605525      751.94136    
   3477000   296.96286      0.0036258033   2.6099248      736.77304     -8.0895861      728.68346    
   3478000   300.31861      0.0036258033   2.4330222      745.09874     -5.2725832      739.82616    
   3479000   308.20576      0.0036258033   2.0609465      764.66699     -7.6241749      757.04282    
   3480000   291.52459      0.0036258033   1.9215261      723.28055     -7.2702346      716.01032    
   3481000   300.41198      0.0036258033   2.3291476      745.33041     -5.8926834      739.43772    
   3482000   293.91794      0.0036258033   2.0100853      729.21851     -5.1277379      724.09077    
   3483000   300.83111      0.0036258033   0.74765105     746.37027     -7.3358472      739.03443    
   3484000   316.23826      0.0036258033   2.9053345      784.59584     -6.6408848      777.95496    
   3485000   289.55025      0.0036258033   2.3299487      718.38216     -4.5882752      713.79388    
   3486000   296.83365      0.0036258033   1.2163487      736.45247     -10.080804      726.37167    
   3487000   309.12315      0.0036258033   3.108109       766.94307     -7.8876339      759.05543    
   3488000   304.34347      0.0036258033   2.1947454      755.08455     -6.7094181      748.37513    
   3489000   293.6714       0.0036258033   2.0237347      728.60684     -7.4264552      721.18038    
   3490000   297.26018      0.0036258033   1.9744048      737.51071     -5.7298217      731.78089    
   3491000   319.80332      0.0036258033   1.5859199      793.44086     -6.2825686      787.15829    
   3492000   299.88569      0.0036258033   2.2931622      744.02467     -5.8657104      738.15896    
   3493000   295.13005      0.0036258033   2.1071569      732.22579     -5.8525918      726.3732     
   3494000   299.7189       0.0036258033   0.76487435     743.61086     -4.0401853      739.57068    
   3495000   312.10948      0.0036258033   2.472723       774.35222     -4.6728533      769.67936    
   3496000   291.51002      0.0036258033   2.2889078      723.24439     -4.1514395      719.09295    
   3497000   296.68978      0.0036258033   0.75442408     736.09552     -6.6440015      729.45152    
   3498000   311.22968      0.0036258033   2.7478732      772.16943     -5.3096226      766.8598     
   3499000   296.54121      0.0036258033   2.0810861      735.72692     -4.9847452      730.74217    
   3500000   291.32996      0.0036258033   1.9170952      722.79767     -4.6456852      718.15198    
   3501000   297.08119      0.0036258033   1.6786037      737.06663     -4.6263782      732.44025    
   3502000   295.58605      0.0036258033   2.2252309      733.35713     -3.9683998      729.38873    
   3503000   295.68133      0.0036258033   1.248903       733.59354     -5.7744008      727.81914    
   3504000   294.9439       0.0036258033   1.8469629      731.76395     -6.3570228      725.40692    
   3505000   301.39147      0.0036258033   1.8230467      747.76054     -6.3591508      741.40139    
   3506000   323.46223      0.0036258033   1.9754789      802.51872     -5.457116       797.0616     
   3507000   296.24871      0.0036258033   3.0580362      735.00121     -4.3902825      730.61093    
   3508000   288.39492      0.0036258033   1.1739041      715.51575     -5.9165144      709.59924    
   3509000   295.12355      0.0036258033   0.56708599     732.20967     -4.8478793      727.36179    
   3510000   309.40379      0.0036258033   3.7702678      767.63933     -7.4782972      760.16104    
   3511000   308.70098      0.0036258033   2.7020431      765.89565     -7.1424326      758.75321    
   3512000   299.28474      0.0036258033   0.0097546036   742.53369     -4.9197232      737.61397    
   3513000   299.56166      0.0036258033   2.3118248      743.22074     -4.8804865      738.34025    
   3514000   284.12999      0.0036258033   1.2783623      704.93434     -5.2804804      699.65386    
   3515000   305.3165       0.0036258033   1.0825423      757.49865     -5.5437641      751.95488    
   3516000   305.97473      0.0036258033   2.1675501      759.13175     -4.4196316      754.71212    
   3517000   281.54095      0.0036258033   2.7776511      698.51085     -4.3863236      694.12452    
   3518000   294.43068      0.0036258033   1.2127153      730.49063     -4.9543422      725.53629    
   3519000   294.64568      0.0036258033  -1.683987       731.02406     -5.786312       725.23775    
   3520000   305.27445      0.0036258033   1.770453       757.39432     -6.1915414      751.20278    
   3521000   301.94229      0.0036258033   2.646921       749.12714     -7.2007988      741.92634    
   3522000   285.25503      0.0036258033   2.2205219      707.72559     -4.9455812      702.78001    
   3523000   284.78701      0.0036258033   0.8258327      706.56441     -6.2087592      700.35565    
   3524000   292.7612       0.0036258033   2.4485812      726.34861     -6.3774472      719.97116    
   3525000   310.40536      0.0036258033   1.3970684      770.12424     -6.0829514      764.04129    
   3526000   315.74236      0.0036258033   2.4605256      783.3655      -7.1755272      776.18997    
   3527000   299.81015      0.0036258033   2.2722723      743.83725     -5.6442862      738.19296    
   3528000   292.43497      0.0036258033   2.7495184      725.53923     -5.1891235      720.35011    
   3529000   304.15069      0.0036258033   0.41079278     754.60625     -7.0379129      747.56834    
   3530000   305.35648      0.0036258033   4.744181       757.59785     -8.1296418      749.46821    
   3531000   290.24228      0.0036258033   4.2153417      720.0991      -7.4937076      712.60539    
   3532000   300.5066       0.0036258033   0.7288744      745.56515     -5.5125232      740.05263    
   3533000   303.931        0.0036258033  -0.27736798     754.0612      -6.5420252      747.51917    
   3534000   305.48467      0.0036258033   2.439114       757.91589     -7.1478009      750.76809    
   3535000   290.12508      0.0036258033   4.0801838      719.80833     -7.0410058      712.76733    
   3536000   294.83526      0.0036258033   1.5232714      731.49441     -9.6033037      721.89111    
   3537000   309.95796      0.0036258033   2.3831731      769.01424     -7.0310081      761.98323    
   3538000   290.45603      0.0036258033   3.98257        720.62942     -5.3074112      715.32201    
   3539000   283.64928      0.0036258033   3.6135784      703.74169     -9.0575298      694.68416    
   3540000   295.83002      0.0036258033   1.0976851      733.96243     -7.5494289      726.413      
   3541000   327.51141      0.0036258033   1.9903644      812.56485     -6.9570638      805.60778    
   3542000   304.59955      0.0036258033   2.7713197      755.71987     -5.7870717      749.9328     
   3543000   292.94969      0.0036258033   1.5926435      726.81625     -6.5476311      720.26862    
   3544000   297.60589      0.0036258033   1.7535328      738.36841     -5.6943169      732.6741     
   3545000   295.63735      0.0036258033   2.8397226      733.4844      -4.6923926      728.79201    
   3546000   295.91812      0.0036258033   2.3206683      734.18102     -6.974692       727.20633    
   3547000   288.83374      0.0036258033   1.1985368      716.60446     -7.368086       709.23638    
   3548000   298.75043      0.0036258033   1.9988194      741.20805     -5.5520949      735.65595    
   3549000   309.1549       0.0036258033   2.1019665      767.02184     -4.0542863      762.96755    
   3550000   299.49508      0.0036258033   1.9505323      743.05555     -4.0088023      739.04675    
   3551000   293.61593      0.0036258033   2.6396815      728.4692      -5.3186933      723.15051    
   3552000   297.02256      0.0036258033   2.9970892      736.92117     -4.0756898      732.84548    
   3553000   305.18194      0.0036258033   1.9801297      757.1648      -4.0297489      753.13505    
   3554000   295.92739      0.0036258033   1.9937578      734.20401     -4.2584579      729.94555    
   3555000   298.77329      0.0036258033   2.4220551      741.26477     -5.676625       735.58815    
   3556000   301.71222      0.0036258033   2.4244145      748.55633     -3.2721029      745.28422    
   3557000   320.58042      0.0036258033   1.613023       795.36885     -4.853695       790.51516    
   3558000   292.40223      0.0036258033   1.7853526      725.45799     -4.2874114      721.17057    
   3559000   290.44066      0.0036258033   2.9938842      720.59129     -4.3436162      716.24767    
   3560000   315.55092      0.0036258033   2.6848149      782.89052     -5.7217509      777.16877    
   3561000   310.68637      0.0036258033   2.172626       770.82145     -4.5493682      766.27209    
   3562000   291.48737      0.0036258033   1.6952482      723.18821     -4.7771261      718.41108    
   3563000   296.57635      0.0036258033   2.255977       735.81409     -6.5305861      729.2835     
   3564000   318.95227      0.0036258033   3.0595106      791.32937     -5.7372685      785.5921     
   3565000   311.12923      0.0036258033   1.7428358      771.9202      -6.92942        764.99078    
   3566000   285.66954      0.0036258033   1.3079302      708.75401     -5.5912111      703.1628     
   3567000   293.6049       0.0036258033   2.1709841      728.44186     -4.1861884      724.25567    
   3568000   308.81576      0.0036258033   4.5221624      766.18042     -4.6930926      761.48733    
   3569000   308.31209      0.0036258033   0.98167247     764.93079     -7.5106744      757.42011    
   3570000   293.70232      0.0036258033   1.4861081      728.68354     -7.0987198      721.58482    
   3571000   301.0018       0.0036258033   4.6045229      746.79376     -7.5455423      739.24821    
   3572000   303.01098      0.0036258033   1.633729       751.7786      -4.5129506      747.26565    
   3573000   305.99261      0.0036258033   1.3044819      759.1761      -7.1044393      752.07166    
   3574000   283.57349      0.0036258033   1.588604       703.55365     -4.5691994      698.98445    
   3575000   304.49121      0.0036258033   3.5199749      755.45109     -6.5272074      748.92388    
   3576000   303.60235      0.0036258033   1.7662879      753.24579     -8.350103       744.89569    
   3577000   296.79959      0.0036258033  -0.5272145      736.36796     -6.6669154      729.70105    
   3578000   302.54324      0.0036258033   1.9018552      750.61811     -9.6627856      740.95532    
   3579000   316.4486       0.0036258033   3.5591408      785.11771     -6.0896441      779.02807    
   3580000   304.32093      0.0036258033  -0.14086563     755.02861     -5.2092923      749.81932    
   3581000   297.88202      0.0036258033   0.084709701    739.0535      -3.7218369      735.33166    
   3582000   302.66909      0.0036258033   2.7409406      750.93035     -4.2801059      746.65024    
   3583000   307.03032      0.0036258033   3.1571338      761.75069     -5.7219535      756.02874    
   3584000   289.35884      0.0036258033  -3.6638683      717.90725     -5.3848216      712.52243    
   3585000   300.09357      0.0036258033   5.1416659      744.54043     -5.5740118      738.96642    
   3586000   298.62941      0.0036258033   8.9748555      740.9078      -5.5817633      735.32603    
   3587000   295.90424      0.0036258033   0.57908028     734.14657     -4.4626784      729.68389    
   3588000   292.80484      0.0036258033  -2.5251174      726.45688     -4.172499       722.28438    
   3589000   306.66032      0.0036258033   2.0800037      760.8327      -4.925177       755.90753    
   3590000   303.00022      0.0036258033   3.353998       751.7519      -6.3393724      745.41252    
   3591000   297.12432      0.0036258033  -1.1616382      737.17364     -6.0287911      731.14485    
   3592000   301.07235      0.0036258033   6.7663354      746.96881     -5.8715336      741.09728    
   3593000   301.54118      0.0036258033   3.8536666      748.13198     -5.1546732      742.9773     
   3594000   298.44506      0.0036258033   1.8361211      740.45041     -3.0998626      737.35055    
   3595000   298.75076      0.0036258033  -2.2345966      741.20888     -3.7473519      737.46153    
   3596000   308.40917      0.0036258033  -6.5535403      765.17166     -5.6178741      759.55379    
   3597000   280.58626      0.0036258033  -0.48345522     696.14226     -4.9798968      691.16236    
   3598000   297.41326      0.0036258033   6.37598        737.89049     -4.2468228      733.64367    
   3599000   307.05506      0.0036258033   1.1413524      761.81208     -5.3060018      756.50607    
   3600000   301.14232      0.0036258033  -0.98667933     747.14241     -5.9479684      741.19444    
   3601000   287.538        0.0036258033   8.5330772      713.38971     -5.5135313      707.87618    
   3602000   306.00931      0.0036258033   2.0042697      759.21754     -5.1080033      754.10954    
   3603000   294.98614      0.0036258033  -1.7899851      731.86875     -6.3002052      725.56854    
   3604000   300.46749      0.0036258033   5.0231508      745.46812     -6.1527558      739.31537    
   3605000   310.8482       0.0036258033   2.5169769      771.22295     -5.4539789      765.76897    
   3606000   301.61186      0.0036258033   0.79617668     748.30733     -6.0312507      742.27608    
   3607000   289.36216      0.0036258033   2.3885708      717.91551     -3.4811673      714.43434    
   3608000   309.15267      0.0036258033   2.5321508      767.01631     -4.3424213      762.67389    
   3609000   301.29769      0.0036258033   2.3073958      747.52787     -4.5573082      742.97056    
   3610000   299.13892      0.0036258033  -1.1057034      742.1719      -4.7003109      737.47159    
   3611000   287.92636      0.0036258033   1.4663117      714.35323     -6.5962913      707.75694    
   3612000   307.41396      0.0036258033   3.7924623      762.70251     -6.9093613      755.79315    
   3613000   306.88645      0.0036258033   5.94564        761.39374     -6.7906317      754.60311    
   3614000   307.83683      0.0036258033   0.4165691      763.75167     -8.5112345      755.24044    
   3615000   293.76304      0.0036258033   1.0646775      728.83421     -7.2766682      721.55754    
   3616000   283.35799      0.0036258033   6.5386198      703.01899     -6.3470016      696.67199    
   3617000   314.11904      0.0036258033   2.0132751      779.33799     -5.7864802      773.55151    
   3618000   310.97253      0.0036258033   0.33394168     771.53141     -6.9579999      764.57341    
   3619000   289.22481      0.0036258033  -0.62920496     717.57472     -4.5698933      713.00482    
   3620000   284.26965      0.0036258033   0.3608919      705.28083     -5.9601733      699.32066    
   3621000   313.70278      0.0036258033   3.2973925      778.30523     -8.1815608      770.12367    
   3622000   309.94609      0.0036258033  -2.5898338      768.98478     -7.4371404      761.54764    
   3623000   283.63135      0.0036258033   1.5492377      703.69719     -7.0406606      696.65653    
   3624000   298.47191      0.0036258033   2.971077       740.51703     -6.4300546      734.08697    
   3625000   309.82896      0.0036258033   2.6643677      768.69419     -6.4939309      762.20026    
   3626000   307.33645      0.0036258033   2.2872747      762.5102      -8.1160671      754.39414    
   3627000   298.65403      0.0036258033   1.3117741      740.96889     -8.144612       732.82428    
   3628000   307.46995      0.0036258033   1.6574987      762.84141     -6.9863187      755.85509    
   3629000   298.6372       0.0036258033   2.0381162      740.92713     -5.9373354      734.9898     
   3630000   296.2958       0.0036258033   4.6350331      735.11804     -4.0817213      731.03632    
   3631000   301.25711      0.0036258033   2.1999469      747.42719     -5.7918487      741.63534    
   3632000   305.33548      0.0036258033   1.1664272      757.54575     -5.2060471      752.3397     
   3633000   299.48121      0.0036258033   0.53348757     743.02113     -3.6661429      739.35498    
   3634000   299.16896      0.0036258033   6.1089789      742.24644     -2.5244452      739.72199    
   3635000   312.82158      0.0036258033   2.6779774      776.11897     -6.3430385      769.77593    
   3636000   304.64309      0.0036258033  -1.0362739      755.8279      -7.7447402      748.08316    
   3637000   286.95448      0.0036258033   2.2364346      711.94198     -9.0329878      702.90899    
   3638000   309.46222      0.0036258033   2.8900502      767.78429     -7.7902093      759.99408    
   3639000   310.62495      0.0036258033   3.0407091      770.66905     -5.4232632      765.24579    
   3640000   292.86043      0.0036258033   1.1788385      726.5948      -7.7698138      718.82499    
   3641000   295.15816      0.0036258033   1.6239034      732.29553     -6.6128409      725.68269    
   3642000   306.96387      0.0036258033   3.5269033      761.58582     -9.2498808      752.33594    
   3643000   306.89777      0.0036258033   5.1493333      761.42183     -7.3827122      754.03911    
   3644000   294.09148      0.0036258033   1.8161615      729.64907     -5.4126439      724.23643    
   3645000   301.3788       0.0036258033   1.2442495      747.72911     -7.3642054      740.3649     
   3646000   295.99913      0.0036258033   1.6805161      734.38201     -7.5753051      726.80671    
   3647000   290.52042      0.0036258033   3.7042777      720.78916     -8.9699697      711.81919    
   3648000   308.94719      0.0036258033   3.8340962      766.50649     -7.1591665      759.34733    
   3649000   308.58719      0.0036258033  -0.84252992     765.61331     -6.8532744      758.76004    
   3650000   299.81741      0.0036258033   1.1669193      743.85527     -6.9554211      736.89985    
   3651000   281.15411      0.0036258033   2.9209315      697.5511      -5.6721794      691.87892    
   3652000   291.66512      0.0036258033   2.6020705      723.6292      -4.3704786      719.25872    
   3653000   312.61679      0.0036258033   2.3632676      775.61088     -6.2636071      769.34727    
   3654000   301.26146      0.0036258033   1.9440592      747.43799     -4.9924679      742.44552    
   3655000   298.09018      0.0036258033   0.21393149     739.56995     -8.0972172      731.47274    
   3656000   298.49366      0.0036258033   2.5898256      740.57099     -7.9498643      732.62112    
   3657000   307.78257      0.0036258033   1.9122199      763.61703     -7.4078149      756.20922    
   3658000   298.48581      0.0036258033   0.88593138     740.55153     -5.7610343      734.7905     
   3659000   303.07914      0.0036258033   3.1323203      751.94771     -6.9833969      744.96431    
   3660000   317.92356      0.0036258033   2.6174178      788.77713     -5.371055       783.40607    
   3661000   284.58688      0.0036258033   1.5363039      706.06788     -6.1233369      699.94455    
   3662000   293.43236      0.0036258033   2.1470648      728.01378     -6.4027745      721.61101    
   3663000   310.74414      0.0036258033   2.3043169      770.96478     -6.5273795      764.4374     
   3664000   302.43597      0.0036258033   2.2233357      750.35198     -7.2964753      743.0555     
   3665000   305.23215      0.0036258033   2.2815215      757.28938     -7.9105255      749.37885    
   3666000   308.39685      0.0036258033   2.0356455      765.14109     -7.9493258      757.19177    
   3667000   300.3022       0.0036258033   2.0578216      745.05803     -8.4588238      736.59921    
   3668000   296.01406      0.0036258033   1.0607851      734.41904     -6.5721055      727.84693    
   3669000   308.52009      0.0036258033   1.9882245      765.44685     -4.7275203      760.71933    
   3670000   298.52764      0.0036258033   3.3412874      740.65529     -5.1312223      735.52407    
   3671000   301.69327      0.0036258033   1.8412368      748.50933     -5.9663569      742.54297    
   3672000   295.92925      0.0036258033   0.31933124     734.20863     -7.332344       726.87628    
   3673000   299.77735      0.0036258033   1.0932258      743.75587     -7.7430816      736.01279    
   3674000   310.92777      0.0036258033   3.5584032      771.42036     -6.8787133      764.54165    
   3675000   293.66879      0.0036258033   2.2448304      728.60036     -8.8048951      719.79546    
   3676000   295.52966      0.0036258033   2.0355198      733.21724     -10.064782      723.15246    
   3677000   296.23981      0.0036258033   2.0506015      734.97913     -7.205939       727.77319    
   3678000   297.95963      0.0036258033   2.0500012      739.24605     -7.1031866      732.14287    
   3679000   301.6703       0.0036258033   2.0546166      748.45233     -6.8860176      741.56631    
   3680000   311.53558      0.0036258033   2.1620804      772.92836     -6.8127254      766.11564    
   3681000   292.52252      0.0036258033   2.166163       725.75644     -5.3797523      720.37669    
   3682000   308.02145      0.0036258033   1.6114725      764.20972     -5.9645763      758.24514    
   3683000   310.18773      0.0036258033   2.1452059      769.58431     -7.5379748      762.04634    
   3684000   279.58857      0.0036258033   1.9412047      693.66696     -6.9656389      686.70132    
   3685000   294.51226      0.0036258033   2.0025077      730.69304     -4.2576216      726.43541    
   3686000   308.53418      0.0036258033   1.9667349      765.4818      -8.3722387      757.10956    
   3687000   311.08435      0.0036258033   2.1489014      771.80886     -10.647681      761.16117    
   3688000   292.12826      0.0036258033   3.0669081      724.77828     -7.6684897      717.10979    
   3689000   298.07035      0.0036258033   1.6195929      739.52076     -8.8906092      730.63015    
   3690000   307.84778      0.0036258033   0.63154639     763.77883     -7.7596893      756.01914    
   3691000   303.84974      0.0036258033   2.8358761      753.85958     -8.4769027      745.38267    
   3692000   296.68638      0.0036258033   2.1896707      736.08709     -8.8932118      727.19387    
   3693000   277.16658      0.0036258033   1.8949456      687.65791     -10.473866      677.18405    
   3694000   304.73653      0.0036258033   2.0378459      756.05972     -7.4321449      748.62758    
   3695000   315.6079       0.0036258033   2.0566793      783.0319      -8.2804177      774.75149    
   3696000   290.52098      0.0036258033   1.9631356      720.79055     -8.7381548      712.0524     
   3697000   301.17215      0.0036258033   1.717773       747.2164      -4.3831554      742.83324    
   3698000   302.95163      0.0036258033   1.9871172      751.63134     -6.6816696      744.94967    
   3699000   306.96648      0.0036258033   3.1201632      761.5923      -5.6856274      755.90667    
   3700000   298.19473      0.0036258033   1.9720191      739.82934     -5.7649699      734.06437    
   3701000   298.46911      0.0036258033   1.8918719      740.51009     -8.609293       731.9008     
   3702000   298.46909      0.0036258033   1.927693       740.51005     -10.334338      730.17571    
   3703000   295.96583      0.0036258033   1.9510868      734.29938     -8.2819931      726.01739    
   3704000   311.98397      0.0036258033   2.3652133      774.04083     -5.9730144      768.06781    
   3705000   309.5362       0.0036258033   1.7562521      767.96785     -6.1080556      761.8598     
   3706000   294.70651      0.0036258033   2.4097556      731.17497     -7.5632802      723.61169    
   3707000   301.76511      0.0036258033   1.2017356      748.68755     -6.9846911      741.70286    
   3708000   305.9095       0.0036258033   1.8911125      758.96991     -5.966553       753.00336    
   3709000   299.18791      0.0036258033   1.9798653      742.29345     -5.321177       736.97228    
   3710000   305.35608      0.0036258033   2.9085102      757.59685     -6.4404983      751.15635    
   3711000   303.1075       0.0036258033   2.1794548      752.01807     -3.3199328      748.69814    
   3712000   309.26015      0.0036258033   0.92385391     767.28295     -4.0173913      763.26556    
   3713000   304.74912      0.0036258033   2.3404224      756.09097     -1.6380585      754.45291    
   3714000   298.34986      0.0036258033   2.2840902      740.21421     -3.4020734      736.81214    
   3715000   301.57414      0.0036258033   1.7276342      748.21376     -3.2791899      744.93457    
   3716000   315.76657      0.0036258033   1.3120452      783.42555     -4.7378434      778.68771    
   3717000   296.65778      0.0036258033   2.2184957      736.01614     -5.0063957      731.00974    
   3718000   291.39104      0.0036258033   2.3636563      722.9492      -6.0284381      716.92077    
   3719000   296.42935      0.0036258033   1.8942653      735.44939     -8.1756751      727.27371    
   3720000   297.51673      0.0036258033   1.8760743      738.1472      -5.6347949      732.51241    
   3721000   300.81082      0.0036258033   2.2192061      746.31995     -4.2496663      742.07028    
   3722000   305.35828      0.0036258033   3.5821418      757.60231     -5.8461954      751.75612    
   3723000   302.11983      0.0036258033   2.1329445      749.56763     -6.9176388      742.64999    
   3724000   295.18099      0.0036258033   1.8457158      732.35217     -5.947513       726.40465    
   3725000   296.6924       0.0036258033   1.8487886      736.10202     -4.8191576      731.28287    
   3726000   313.03026      0.0036258033   1.081668       776.6367      -5.6401872      770.99652    
   3727000   302.37943      0.0036258033   3.2119157      750.21169     -4.7616477      745.45004    
   3728000   284.34825      0.0036258033   3.3059863      705.47585     -6.2073465      699.2685     
   3729000   306.69851      0.0036258033   1.5324067      760.92746     -5.6755961      755.25187    
   3730000   309.89479      0.0036258033   0.37064783     768.85752     -8.126827       760.73069    
   3731000   301.90824      0.0036258033   2.4672674      749.04265     -7.3372124      741.70544    
   3732000   292.34497      0.0036258033   2.8952949      725.31593     -5.9415639      719.37437    
   3733000   309.55157      0.0036258033   1.3553391      768.00597     -6.7102269      761.29575    
   3734000   306.18612      0.0036258033   1.2237703      759.6562      -4.7638442      754.89236    
   3735000   304.96985      0.0036258033   2.7956123      756.63861     -5.4344091      751.2042     
   3736000   293.25237      0.0036258033   3.171593       727.56721     -5.6309122      721.9363     
   3737000   290.27881      0.0036258033   2.9182082      720.18973     -6.1861814      714.00355    
   3738000   303.07699      0.0036258033   1.2323308      751.94237     -7.3705921      744.57178    
   3739000   312.08263      0.0036258033   2.2152687      774.28561     -10.147323      764.13829    
   3740000   293.02468      0.0036258033   2.2510408      727.00231     -9.1353616      717.86695    
   3741000   283.27988      0.0036258033  -0.008328711    702.8252      -8.9807823      693.84442    
   3742000   311.32489      0.0036258033   1.7148994      772.40563     -12.235976      760.16965    
   3743000   320.01925      0.0036258033   4.2048997      793.97659     -9.9749417      784.00165    
   3744000   294.94806      0.0036258033   4.8363226      731.77426     -8.4012074      723.37305    
   3745000   288.232        0.0036258033   2.4083757      715.11153     -10.814843      704.29669    
   3746000   296.83479      0.0036258033   0.95194325     736.4553      -8.5451078      727.9102     
   3747000   323.24782      0.0036258033   2.6443031      801.98676     -8.4373064      793.54945    
   3748000   289.22944      0.0036258033   3.1257975      717.5862      -7.1595399      710.42666    
   3749000   299.33674      0.0036258033   0.50470023     742.6627      -8.0007636      734.66193    
   3750000   317.62172      0.0036258033   2.1191793      788.02824     -6.4823592      781.54588    
   3751000   293.31578      0.0036258033   2.4581152      727.72453     -8.8584158      718.86611    
   3752000   292.53572      0.0036258033   1.4973468      725.78918     -9.2593439      716.52984    
   3753000   314.26758      0.0036258033   2.1788622      779.70653     -8.0301402      771.67639    
   3754000   314.08604      0.0036258033   2.7003562      779.25612     -8.6689493      770.58717    
   3755000   302.23157      0.0036258033   3.4189948      749.84485     -10.030834      739.81402    
   3756000   286.05638      0.0036258033  -0.93955819     709.71376     -10.600097      699.11367    
   3757000   296.3654       0.0036258033   1.3460533      735.29072     -10.239265      725.05146    
   3758000   308.77336      0.0036258033   1.754573       766.07523     -10.783028      755.2922     
   3759000   296.12118      0.0036258033   2.9005462      734.68482     -9.6518727      725.03295    
   3760000   284.42753      0.0036258033   2.1309209      705.67254     -11.298857      694.37368    
   3761000   299.088        0.0036258033   1.5462172      742.04558     -9.2234935      732.82208    
   3762000   302.1119       0.0036258033   1.7418058      749.54794     -9.0785313      740.46941    
   3763000   304.8906       0.0036258033   5.0713714      756.44199     -7.2061798      749.23581    
   3764000   293.14384      0.0036258033   1.6260001      727.29794     -5.8212341      721.47671    
   3765000   293.13523      0.0036258033   1.1280304      727.27658     -5.7214434      721.55514    
   3766000   309.78055      0.0036258033   2.0217503      768.57409     -5.4185256      763.15557    
   3767000   303.91401      0.0036258033   2.2911378      754.01905     -6.0806795      747.93837    
   3768000   292.10605      0.0036258033   1.7550979      724.72316     -7.5323714      717.19079    
   3769000   313.96881      0.0036258033   1.8177926      778.96527     -8.041703       770.92357    
   3770000   298.70657      0.0036258033   1.1584907      741.09922     -7.1573603      733.94186    
   3771000   301.8081       0.0036258033   2.6006917      748.79422     -8.9619831      739.83224    
   3772000   307.53247      0.0036258033   2.3369728      762.99653     -6.9721308      756.0244     
   3773000   304.69227      0.0036258033   1.9976408      755.94993     -3.6948062      752.25512    
   3774000   311.47226      0.0036258033   2.6383442      772.77126     -7.1983418      765.57292    
   3775000   299.40918      0.0036258033   1.7506581      742.84242     -9.3420946      733.50033    
   3776000   307.37004      0.0036258033   1.6867762      762.59354     -9.4914922      753.10205    
   3777000   316.00714      0.0036258033   2.0404347      784.02243     -8.1008202      775.92161    
   3778000   286.65803      0.0036258033   1.0033453      711.20647     -7.1053196      704.10115    
   3779000   294.46009      0.0036258033   1.9190852      730.5636      -8.2117801      722.35182    
   3780000   306.19705      0.0036258033   2.107742       759.68331     -9.2570671      750.42624    
   3781000   308.20082      0.0036258033   2.2395863      764.65473     -7.1102959      757.54444    
   3782000   283.77426      0.0036258033   1.9027539      704.05175     -6.8208636      697.23089    
   3783000   290.5929       0.0036258033   2.0469776      720.96899     -6.6128796      714.35611    
   3784000   304.84161      0.0036258033   2.6754913      756.32044     -6.2342412      750.0862     
   3785000   314.52147      0.0036258033   1.7693024      780.33645     -6.8166743      773.51977    
   3786000   289.70403      0.0036258033   1.4980977      718.76369     -9.4074976      709.35619    
   3787000   289.76016      0.0036258033   2.2149325      718.90294     -8.2171754      710.68577    
   3788000   301.80932      0.0036258033   2.7276748      748.79723     -6.6147895      742.18244    
   3789000   314.98751      0.0036258033   2.434034       781.49269     -8.3391862      773.15351    
   3790000   299.09079      0.0036258033   0.66172194     742.0525      -10.494783      731.55772    
   3791000   301.70472      0.0036258033   1.4307718      748.53772     -8.6231688      739.91455    
   3792000   302.3203       0.0036258033   1.4167251      750.06501     -9.8301731      740.23484    
   3793000   297.21504      0.0036258033   1.9765661      737.39871     -10.02053       727.37818    
   3794000   294.24556      0.0036258033   1.7938387      730.03134     -12.25247       717.77887    
   3795000   314.53007      0.0036258033   2.309017       780.35778     -8.743731       771.61405    
   3796000   304.63216      0.0036258033   1.4909004      755.8008      -6.7362763      749.06452    
   3797000   302.31742      0.0036258033   2.3283671      750.05785     -7.7622763      742.29557    
   3798000   306.02317      0.0036258033   2.2338571      759.25193     -4.9521233      754.29981    
   3799000   290.83154      0.0036258033   1.5417026      721.56106     -7.9836118      713.57745    
   3800000   287.87915      0.0036258033   1.9587156      714.23611     -7.0172542      707.21886    
   3801000   299.11995      0.0036258033   2.4831265      742.12483     -7.3374418      734.78739    
   3802000   302.65718      0.0036258033   1.8455722      750.90081     -6.0013544      744.89945    
   3803000   296.15001      0.0036258033   1.8784237      734.75633     -6.6206827      728.13564    
   3804000   301.34282      0.0036258033   2.0589905      747.63985     -5.4499355      742.18992    
   3805000   287.80764      0.0036258033   1.3303118      714.0587      -5.1872141      708.87148    
   3806000   304.62973      0.0036258033   2.5611515      755.79476     -7.1893898      748.60537    
   3807000   303.36749      0.0036258033   1.907527       752.66311     -5.2798888      747.38322    
   3808000   309.91455      0.0036258033   0.51712791     768.90655     -5.238605       763.66794    
   3809000   294.37098      0.0036258033   1.8044651      730.34251     -5.6062985      724.73621    
   3810000   295.55279      0.0036258033   2.7544194      733.27463     -4.9718318      728.3028     
   3811000   312.7581       0.0036258033   2.3181375      775.96147     -7.3452757      768.61619    
   3812000   304.26202      0.0036258033   0.4023391      754.88247     -8.5901833      746.29228    
   3813000   285.65465      0.0036258033   1.968366       708.71705     -8.9674225      699.74963    
   3814000   299.05132      0.0036258033   2.642252       741.95458     -9.7395917      732.21498    
   3815000   306.8097       0.0036258033   1.9820126      761.20332     -8.0830306      753.12029    
   3816000   301.83631      0.0036258033   1.5179166      748.8642      -10.257808      738.60639    
   3817000   291.0034       0.0036258033   1.3549612      721.98745     -9.5053036      712.48214    
   3818000   282.99578      0.0036258033   1.614953       702.12033     -9.2393143      692.88102    
   3819000   312.24137      0.0036258033   3.1780557      774.67944     -11.307096      763.37235    
   3820000   303.3879       0.0036258033  -0.45207349     752.71375     -9.7546467      742.9591     
   3821000   287.60139      0.0036258033   2.0365003      713.54697     -6.9200388      706.62693    
   3822000   299.04896      0.0036258033   2.6035371      741.94871     -6.3786297      735.57008    
   3823000   321.20434      0.0036258033   2.0700569      796.91681     -6.6628987      790.25391    
   3824000   307.53552      0.0036258033   1.6110449      763.00411     -9.2378004      753.7663     
   3825000   293.73946      0.0036258033   1.6227292      728.7757      -5.8014492      722.97425    
   3826000   289.07667      0.0036258033   2.0166797      717.20718     -7.5286099      709.67857    
   3827000   312.08904      0.0036258033   2.2227243      774.30152     -7.5067741      766.79474    
   3828000   307.77917      0.0036258033   1.6193383      763.60859     -5.9286551      757.67994    
   3829000   296.88705      0.0036258033   1.9637492      736.58495     -7.3632123      729.22174    
   3830000   298.30078      0.0036258033   2.2329548      740.09246     -5.4735567      734.6189     
   3831000   301.90753      0.0036258033   2.0238823      749.0409      -8.0446523      740.99625    
   3832000   306.68085      0.0036258033   3.0583321      760.88364     -7.9359977      752.94764    
   3833000   290.3202       0.0036258033   2.2059985      720.29241     -9.3755076      710.9169     
   3834000   293.6874       0.0036258033   1.6001637      728.64653     -10.578656      718.06787    
   3835000   302.33347      0.0036258033   2.0677712      750.09768     -7.334802       742.76288    
   3836000   301.3877       0.0036258033   2.1213652      747.7512      -9.3459669      738.40523    
   3837000   284.34576      0.0036258033   0.95647037     705.46966     -6.9602989      698.50936    
   3838000   292.71013      0.0036258033   1.9151183      726.22189     -10.055797      716.1661     
   3839000   304.61829      0.0036258033   2.1349383      755.76638     -5.7182342      750.04815    
   3840000   307.19119      0.0036258033   2.1016614      762.14982     -9.3231893      752.82663    
   3841000   301.98334      0.0036258033   1.7865583      749.22898     -7.1813061      742.04768    
   3842000   296.81394      0.0036258033   2.4937707      736.40358     -7.038177       729.3654     
   3843000   304.09573      0.0036258033   2.0609432      754.46988     -6.4242011      748.04568    
   3844000   292.96236      0.0036258033   1.6476242      726.8477      -6.5005745      720.34712    
   3845000   294.31857      0.0036258033   1.7579683      730.21248     -6.9285701      723.28391    
   3846000   298.42679      0.0036258033   1.9506151      740.40509     -8.3451592      732.05993    
   3847000   299.31199      0.0036258033   2.1090522      742.60129     -5.6449197      736.95637    
   3848000   299.81674      0.0036258033   2.3529545      743.8536      -6.565495       737.28811    
   3849000   299.64702      0.0036258033   1.4670292      743.43252     -6.2811459      737.15138    
   3850000   297.96634      0.0036258033   1.8462422      739.26269     -7.3052483      731.95744    
   3851000   310.1819       0.0036258033   2.3796751      769.56985     -7.5736584      761.9962     
   3852000   312.59165      0.0036258033   3.3405886      775.54851     -8.0544014      767.49411    
   3853000   299.21413      0.0036258033   1.8795784      742.35849     -7.1428785      735.21561    
   3854000   302.38209      0.0036258033   0.896474       750.21829     -6.6151586      743.60314    
   3855000   304.95974      0.0036258033   1.9045174      756.61351     -5.6776393      750.93587    
   3856000   316.64967      0.0036258033   2.3462113      785.61655     -5.1356079      780.48094    
   3857000   303.92972      0.0036258033   3.0614117      754.058       -5.5066105      748.55139    
   3858000   290.3747       0.0036258033   2.1785954      720.42764     -5.2308185      715.19682    
   3859000   288.872        0.0036258033   1.7507427      716.69939     -7.0743767      709.62501    
   3860000   314.06672      0.0036258033   2.1639697      779.2082      -7.9167631      771.29143    
   3861000   297.9129       0.0036258033   1.7222585      739.13011     -9.2805675      729.84954    
   3862000   298.9288       0.0036258033   2.0197879      741.6506      -8.4768685      733.17373    
   3863000   303.45444      0.0036258033   2.7939253      752.87883     -6.475678       746.40315    
   3864000   300.21016      0.0036258033   2.2368884      744.82967     -7.4433143      737.38636    
   3865000   300.53158      0.0036258033   2.0405995      745.62714     -5.9174026      739.70973    
   3866000   287.82634      0.0036258033   2.1813074      714.10507     -6.2177944      707.88728    
   3867000   304.13996      0.0036258033   1.6540132      754.57963     -6.2031124      748.37652    
   3868000   314.93448      0.0036258033   2.4826413      781.36112     -6.5520748      774.80905    
   3869000   294.64628      0.0036258033   2.0866898      731.02554     -7.3907206      723.63482    
   3870000   292.44423      0.0036258033   1.804144       725.56221     -8.2645184      717.29769    
   3871000   303.23963      0.0036258033   3.0028555      752.34587     -9.0171362      743.32874    
   3872000   308.19353      0.0036258033   2.0532817      764.63664     -10.16778       754.46886    
   3873000   297.95121      0.0036258033   1.8786102      739.22518     -7.078838       732.14634    
   3874000   292.32023      0.0036258033   2.3434145      725.25455     -9.1767314      716.07782    
   3875000   303.97225      0.0036258033   1.7615291      754.16354     -6.7862885      747.37725    
   3876000   309.52689      0.0036258033   2.3598879      767.94475     -8.2244899      759.72026    
   3877000   296.81972      0.0036258033   2.2541565      736.41792     -5.4377309      730.98019    
   3878000   289.28022      0.0036258033   2.1639476      717.71221     -4.6652032      713.04701    
   3879000   303.91318      0.0036258033   1.8754932      754.01698     -5.919621       748.09736    
   3880000   310.97136      0.0036258033   2.2596408      771.52851     -4.6984417      766.83006    
   3881000   302.18886      0.0036258033   2.0168283      749.73889     -5.8408973      743.89799    
   3882000   297.0368       0.0036258033   2.5236088      736.95648     -3.8307501      733.12573    
   3883000   290.35321      0.0036258033   0.49275009     720.37432     -4.7162615      715.65806    
   3884000   300.7695       0.0036258033   1.179076       746.21741     -5.8939327      740.32348    
   3885000   304.18534      0.0036258033   2.1280164      754.69222     -7.2055151      747.4867     
   3886000   297.34616      0.0036258033   2.1460876      737.72402     -7.933188       729.79083    
   3887000   300.54557      0.0036258033   2.2898414      745.66185     -5.889567       739.77228    
   3888000   300.02647      0.0036258033   2.0478092      744.37393     -7.5782595      736.79567    
   3889000   293.74623      0.0036258033   1.9542759      728.79249     -6.7137183      722.07877    
   3890000   294.97036      0.0036258033   1.8663612      731.82961     -7.165454       724.66415    
   3891000   288.71114      0.0036258033   2.1284478      716.3003      -6.7510199      709.54928    
   3892000   304.88947      0.0036258033   2.7845228      756.43919     -6.7114375      749.72775    
   3893000   305.57497      0.0036258033   1.8640848      758.13993     -7.9956606      750.14427    
   3894000   288.85844      0.0036258033   1.9999787      716.66575     -8.7758992      707.88985    
   3895000   298.99052      0.0036258033   1.7673608      741.80373     -10.04674       731.75699    
   3896000   298.37098      0.0036258033   2.1309222      740.26663     -6.3594824      733.90715    
   3897000   289.5778       0.0036258033   2.1275526      718.45051     -7.7746577      710.67585    
   3898000   301.31141      0.0036258033   2.2784885      747.56191     -7.1067254      740.45519    
   3899000   308.00005      0.0036258033   2.3732316      764.1566      -9.6362414      754.52036    
   3900000   295.00875      0.0036258033   2.3789178      731.92484     -6.8171986      725.10764    
   3901000   300.03575      0.0036258033   1.9311594      744.39696     -8.1960318      736.20093    
   3902000   308.11839      0.0036258033   2.2047491      764.45022     -6.6883192      757.7619     
   3903000   317.4684       0.0036258033   2.1712292      787.64784     -6.8089854      780.83886    
   3904000   296.55358      0.0036258033   1.7999303      735.75761     -6.5379689      729.21964    
   3905000   294.70804      0.0036258033   1.9848232      731.17876     -8.3931599      722.7856     
   3906000   306.4817       0.0036258033   2.3279657      760.38954     -6.5488642      753.84068    
   3907000   301.79786      0.0036258033   2.1406983      748.7688      -7.254194       741.51461    
   3908000   287.38045      0.0036258033   1.9702791      712.99881     -9.6626493      703.33616    
   3909000   301.02723      0.0036258033   1.8554858      746.85686     -10.64289       736.21397    
   3910000   300.91321      0.0036258033   1.9829244      746.57397     -9.7587091      736.81526    
   3911000   292.793        0.0036258033   2.0929256      726.42751     -7.2695943      719.15792    
   3912000   308.21497      0.0036258033   2.2673954      764.68984     -9.1993475      755.49049    
   3913000   310.93999      0.0036258033   1.9206414      771.45069     -10.885456      760.56523    
   3914000   297.53694      0.0036258033   1.9117569      738.19735     -9.3429803      728.85437    
   3915000   290.77343      0.0036258033   2.0238217      721.41691     -10.101624      711.31528    
   3916000   299.75618      0.0036258033   1.7492733      743.70333     -10.721947      732.98139    
   3917000   303.49308      0.0036258033   2.0305091      752.9747      -7.9446711      745.03003    
   3918000   308.78945      0.0036258033   1.7260135      766.11513     -8.8406546      757.27447    
   3919000   295.50187      0.0036258033   1.1651925      733.1483      -8.8963967      724.2519     
   3920000   294.09583      0.0036258033   2.029638       729.65985     -10.137671      719.52218    
   3921000   296.74521      0.0036258033   2.0678731      736.23305     -12.824492      723.40856    
   3922000   296.94399      0.0036258033   1.7262957      736.72622     -11.350544      725.37568    
   3923000   302.87743      0.0036258033   1.6698662      751.44726     -10.413448      741.03381    
   3924000   297.89049      0.0036258033   2.5765055      739.07452     -10.71762       728.3569     
   3925000   293.76752      0.0036258033   2.1742287      728.8453      -8.2324181      720.61289    
   3926000   295.35207      0.0036258033   1.9437407      732.77663     -7.2310162      725.54561    
   3927000   301.3367       0.0036258033   2.0471773      747.62465     -7.7870176      739.83763    
   3928000   300.50137      0.0036258033   2.2028422      745.55218     -7.1190668      738.43312    
   3929000   303.36119      0.0036258033   0.95601495     752.64748     -7.3857713      745.26171    
   3930000   296.67925      0.0036258033   1.2063463      736.06939     -8.2016025      727.86779    
   3931000   306.13858      0.0036258033   3.2002317      759.53826     -9.1551599      750.3831     
   3932000   306.10425      0.0036258033   2.8857487      759.45308     -9.6904376      749.76265    
   3933000   291.26488      0.0036258033   1.7402603      722.63619     -8.230824       714.40536    
   3934000   301.14224      0.0036258033   1.8668788      747.14219     -9.1069459      738.03524    
   3935000   296.84409      0.0036258033   2.5403625      736.47838     -7.0801722      729.3982     
   3936000   300.46699      0.0036258033   1.9255209      745.46688     -6.8785009      738.58838    
   3937000   305.9092       0.0036258033   3.4830005      758.96915     -10.03074       748.93841    
   3938000   311.56144      0.0036258033   2.9336501      772.99253     -7.7710738      765.22146    
   3939000   302.10019      0.0036258033  -0.86404088     749.5189      -6.0625881      743.45631    
   3940000   293.95227      0.0036258033   0.59416079     729.3037      -5.1898134      724.11388    
   3941000   315.04519      0.0036258033   1.9143377      781.63581     -8.22904        773.40677    
   3942000   307.59069      0.0036258033   3.2715166      763.14097     -8.8806235      754.26035    
   3943000   291.27849      0.0036258033   2.391682       722.66996     -9.2285224      713.44144    
   3944000   296.36046      0.0036258033  -1.311689       735.27848     -8.1281721      727.15031    
   3945000   309.8632       0.0036258033   1.0218979      768.77914     -9.9019165      758.87722    
   3946000   312.25254      0.0036258033   3.0814429      774.70716     -9.9517455      764.75542    
   3947000   300.38952      0.0036258033   4.5630447      745.27468     -8.1148401      737.15984    
   3948000   288.5872       0.0036258033   1.3704245      715.99281     -8.1280374      707.86477    
   3949000   301.45721      0.0036258033  -2.3135485      747.92364     -7.9432385      739.9804     
   3950000   303.00998      0.0036258033   1.571317       751.77611     -9.172255       742.60386    
   3951000   306.09352      0.0036258033   3.9696981      759.42647     -10.756321      748.67015    
   3952000   287.02669      0.0036258033   2.6279715      712.12113     -8.2647247      703.8564     
   3953000   298.22314      0.0036258033  -1.1940075      739.89984     -9.5422221      730.35762    
   3954000   306.8755       0.0036258033  -0.0049519842   761.36658     -8.6438132      752.72277    
   3955000   315.36021      0.0036258033   6.1193918      782.41737     -9.1272902      773.29008    
   3956000   292.21195      0.0036258033   2.6057584      724.9859      -9.5773633      715.40853    
   3957000   301.38709      0.0036258033  -1.1270264      747.74968     -11.184394      736.56529    
   3958000   314.87482      0.0036258033   1.0784197      781.2131      -10.401414      770.81168    
   3959000   295.79683      0.0036258033   5.2399941      733.8801      -7.2870301      726.59307    
   3960000   296.08192      0.0036258033   0.93270415     734.5874      -7.5714308      727.01597    
   3961000   317.95363      0.0036258033   3.2571631      788.85172     -9.4089302      779.44279    
   3962000   302.20122      0.0036258033   5.0099826      749.76955     -11.129283      738.64027    
   3963000   291.32112      0.0036258033   0.75747381     722.77572     -10.788273      711.98745    
   3964000   314.05511      0.0036258033   2.2979053      779.1794      -8.4904498      770.68895    
   3965000   295.76274      0.0036258033   4.0545881      733.79551     -7.4992068      726.2963     
   3966000   297.71262      0.0036258033   2.0553618      738.63321     -7.9967201      730.63649    
   3967000   300.99474      0.0036258033   1.3893135      746.77626     -8.5248864      738.25137    
   3968000   309.31209      0.0036258033   2.3423719      767.41182     -7.1544991      760.25732    
   3969000   285.30269      0.0036258033   2.2405597      707.84384     -6.5943792      701.24946    
   3970000   296.40134      0.0036258033   1.6768998      735.37989     -5.1944939      730.18539    
   3971000   319.15706      0.0036258033   1.6919985      791.83746     -5.9409871      785.89647    
   3972000   303.9933       0.0036258033   2.4928917      754.21577     -5.8486844      748.36708    
   3973000   293.42588      0.0036258033   2.0658484      727.99769     -7.0243639      720.97333    
   3974000   290.634        0.0036258033   0.5027884      721.07095     -8.7875598      712.28339    
   3975000   314.4262       0.0036258033   2.2849068      780.10006     -9.829072       770.27099    
   3976000   288.27725      0.0036258033   1.9233529      715.22381     -9.2939714      705.92984    
   3977000   293.01618      0.0036258033   1.4054202      726.98121     -8.6313562      718.34986    
   3978000   328.25263      0.0036258033   2.0673602      814.40381     -6.9630991      807.44071    
   3979000   293.49362      0.0036258033   2.355337       728.16577     -7.8396031      720.32617    
   3980000   290.64611      0.0036258033   2.1926025      721.10102     -7.3275204      713.7735     
   3981000   303.70353      0.0036258033   1.4355832      753.49683     -8.4987659      744.99806    
   3982000   308.61062      0.0036258033   2.1258011      765.67147     -8.6468543      757.02461    
   3983000   297.29981      0.0036258033   2.3874853      737.60902     -9.1330709      728.47595    
   3984000   295.82807      0.0036258033   1.9756402      733.95759     -8.2485358      725.70906    
   3985000   309.73962      0.0036258033   0.42635607     768.47253     -7.3912427      761.08129    
   3986000   302.05917      0.0036258033   2.7853788      749.41714     -8.896265       740.52087    
   3987000   280.18365      0.0036258033   2.3475108      695.14337     -7.105356       688.03801    
   3988000   306.74761      0.0036258033   1.4807583      761.04928     -6.862149       754.18713    
   3989000   334.83515      0.0036258033   2.2058614      830.73524     -7.3596605      823.37558    
   3990000   302.10439      0.0036258033   1.9250801      749.52932     -5.0672598      744.46206    
   3991000   282.80956      0.0036258033   2.024536       701.65831     -5.7892626      695.86905    
   3992000   291.40486      0.0036258033   1.4414836      722.98349     -5.3595787      717.62391    
   3993000   306.09181      0.0036258033   2.0885018      759.42222     -6.3643578      753.05786    
   3994000   309.62118      0.0036258033   2.1091645      768.17868     -5.0229179      763.15576    
   3995000   302.85496      0.0036258033   1.9030802      751.39152     -7.9300681      743.46145    
   3996000   292.46819      0.0036258033   1.9259882      725.62163     -11.166742      714.45489    
   3997000   306.56163      0.0036258033   3.05203        760.58786     -7.0684078      753.51946    
   3998000   311.95042      0.0036258033   1.3110046      773.95759     -5.0579337      768.89966    
   3999000   297.86638      0.0036258033   1.9227989      739.01471     -6.3791747      732.63553    
   4000000   286.7232       0.0036258033   1.8255944      711.36816     -8.5116113      702.85655    
Loop time of 19868.1 on 1 procs for 4000000 steps with 1500 atoms

Performance: 4.349 ns/day, 5.519 hours/ns, 201.328 timesteps/s, 301.992 katom-step/s
99.3% CPU use with 1 MPI tasks x 1 OpenMP threads

MPI task timing breakdown:
Section |  min time  |  avg time  |  max time  |%varavg| %total
---------------------------------------------------------------
Pair    | 1063.9     | 1063.9     | 1063.9     |   0.0 |  5.35
Bond    | 192.3      | 192.3      | 192.3      |   0.0 |  0.97
Kspace  | 17622      | 17622      | 17622      |   0.0 | 88.69
Neigh   | 0.066894   | 0.066894   | 0.066894   |   0.0 |  0.00
Comm    | 45.993     | 45.993     | 45.993     |   0.0 |  0.23
Output  | 0.14075    | 0.14075    | 0.14075    |   0.0 |  0.00
Modify  | 914.93     | 914.93     | 914.93     |   0.0 |  4.61
Other   |            | 29.08      |            |       |  0.15

Nlocal:           1500 ave        1500 max        1500 min
Histogram: 1 0 0 0 0 0 0 0 0 0
Nghost:            647 ave         647 max         647 min
Histogram: 1 0 0 0 0 0 0 0 0 0
Neighs:              0 ave           0 max           0 min
Histogram: 1 0 0 0 0 0 0 0 0 0

Total # of neighbors = 0
Ave neighs/atom = 0
Ave special neighs/atom = 2
Neighbor list builds = 23025
Dangerous builds = 0
write_data	last_conf.data pair ij
System init for write_data ...
PPPM initialization ...
  using 12-bit tables for long-range coulomb (src/kspace.cpp:342)
  G vector (1/distance) = 0.14624004
  grid = 36 36 36
  stencil order = 5
  estimated absolute RMS force accuracy = 0.037261173
  estimated relative force accuracy = 0.00011221091
  using double precision FFTW3
  3d grid and FFT values/proc = 68921 46656
Generated 1 of 1 mixed pair_coeff terms from arithmetic mixing rule
Total wall time: 5:31:08
