LAMMPS (29 Aug 2024 - Update 1)
  using 1 OpenMP thread(s) per MPI task
package gpu 1 gpuID 0
# GCMC for CO2 molecular fluid, rigid/small/nvt dynamics
# Rigid CO2 TraPPE model
# [Potoff and J.I. Siepmann, Vapor-liquid equilibria of
# mixtures containing alkanes, carbon dioxide and
# nitrogen AIChE J., 47,1676-1682 (2001)].

# global model settings

units           real
atom_style      full
boundary        p p p
pair_style      lj/cut/coul/long  12
pair_modify     mix arithmetic shift yes
kspace_style    pppm 1.0e-4
bond_style      harmonic
angle_style     harmonic
neigh_modify    one 4000

# box, start molecules on simple cubic lattice
region          mbox block 0 ${lbox} 0 ${lbox} 0 ${lbox} units box
region          mbox block 0 125 0 ${lbox} 0 ${lbox} units box
region          mbox block 0 125 0 125 0 ${lbox} units box
region          mbox block 0 125 0 125 0 125 units box
create_box      2 mbox                                       bond/types 1                                angle/types 1                               extra/bond/per/atom 2                       extra/angle/per/atom 1                      extra/special/per/atom 2
Created orthogonal box = (0 0 0) to (125 125 125)
  1 by 1 by 1 MPI processor grid
molecule        co2mol ../CO2.txt
Read molecule template co2mol:
# CO2 molecule file. TraPPE model.
  1 molecules
  0 fragments
  3 atoms with max type 2
  2 bonds with max type 1
  1 angles with max type 1
  0 dihedrals with max type 0
  0 impropers with max type 0
create_atoms   	0 random ${nmols} 34578 mbox mol co2mol 464563 overlap 1.2
create_atoms   	0 random 500 34578 mbox mol co2mol 464563 overlap 1.2
Created 1500 atoms
  using lattice units in orthogonal box = (0 0 0) to (125 125 125)
  create_atoms CPU = 0.013 seconds

# rigid CO2 TraPPE model

pair_coeff      1   1  0.053649   2.800
pair_coeff      2   2  0.156973   3.050
bond_coeff      1       0       1.16
angle_coeff     1       0       180

# masses

mass 1 12.0107
mass 2 15.9994

write_data init_conf.data  pair ij
System init for write_data ...
PPPM initialization ...
  using 12-bit tables for long-range coulomb (src/kspace.cpp:342)
  G vector (1/distance) = 0.16711723
  grid = 27 27 27
  stencil order = 5
  estimated absolute RMS force accuracy = 0.032994381
  estimated relative force accuracy = 9.9361597e-05
  using double precision FFTW3
  3d grid and FFT values/proc = 32768 19683
Generated 1 of 1 mixed pair_coeff terms from arithmetic mixing rule

# MD settings

group           co2 type 1 2
1500 atoms in group co2
velocity       	all create 300 54654
timestep        0.25

# rigid constraints with thermostat
fix             myrigidnvt co2 rigid/nvt molecule temp 300 300 $(100*dt)
fix             myrigidnvt co2 rigid/nvt molecule temp 300 300 25
  500 rigid bodies with 1500 atoms

thermo 1000
thermo_style custom step temp density press ke pe etotal


variable    mvol equal vol
variable    mden equal density
variable	mtmp equal temp
variable    mpre equal press

fix mydat all ave/time 1 4000 4000 v_mtmp v_mden v_mpre file statistics.dat ## every 1ps

run 4000000 ## 1ns

CITE-CITE-CITE-CITE-CITE-CITE-CITE-CITE-CITE-CITE-CITE-CITE-CITE

Your simulation uses code contributions which should be cited:

- GPU package (short-range, long-range and three-body potentials): doi:10.1016/j.cpc.2010.12.021, doi:10.1016/j.cpc.2011.10.012, doi:10.1016/j.cpc.2013.08.002, doi:10.1016/j.commatsci.2014.10.068, doi:10.1016/j.cpc.2016.10.020, doi:10.3233/APC200086

@Article{Brown11,
 author = {W. M. Brown and P. Wang and S. J. Plimpton and A. N. Tharrington},
 title = {Implementing Molecular Dynamics on Hybrid High Performance Computers---Short Range Forces},
 journal = {Comput.\ Phys.\ Commun.},
 year =    2011,
 volume =  182,
 pages =   {898--911},
 doi =     {10.1016/j.cpc.2010.12.021}
}

@Article{Brown12,
 author = {W. M. Brown and A. Kohlmeyer and S. J. Plimpton and A. N. Tharrington},
 title = {Implementing Molecular Dynamics on Hybrid High Performance Computers - Particle-Particle Particle-Mesh},
 journal = {Comput.\ Phys.\ Commun.},
 year =    2012,
 volume =  183,
 doi =     {10.1016/j.cpc.2011.10.012},
 pages =   {449--459}
}

@Article{Brown13,
 author = {W. M. Brown and Y. Masako},
 title = {Implementing Molecular Dynamics on Hybrid High Performance Computers---Three-Body Potentials},
 journal = {Comput.\ Phys.\ Commun.},
 year =    2013,
 volume =  184,
 pages =   {2785--2793},
 doi =     {10.1016/j.cpc.2013.08.002},
}

@Article{Trung15,
 author = {T. D. Nguyen and S. J. Plimpton},
 title = {Accelerating Dissipative Particle Dynamics Simulations for Soft Matter Systems},
 journal = {Comput.\ Mater.\ Sci.},
 year =    2015,
 doi =     {10.1016/j.commatsci.2014.10.068},
 volume =  100,
 pages =   {173--180}
}

@Article{Trung17,
 author = {T. D. Nguyen},
 title = {{GPU}-Accelerated {T}ersoff Potentials for Massively Parallel
    Molecular Dynamics Simulations},
 journal = {Comput.\ Phys.\ Commun.},
 year =    2017,
 doi =     {10.1016/j.cpc.2016.10.020},
 volume =  212,
 pages =   {113--122}
}

@inproceedings{Nikolskiy19,
 author = {V. Nikolskiy and V. Stegailov},
 title = {{GPU} Acceleration of Four-Site Water Models in {LAMMPS}},
 booktitle = {Proceedings of the International Conference on Parallel
    Computing (ParCo 2019), Prague, Czech Republic},
 doi =     {10.3233/APC200086},
 year =    2019
}

CITE-CITE-CITE-CITE-CITE-CITE-CITE-CITE-CITE-CITE-CITE-CITE-CITE

PPPM initialization ...
  using 12-bit tables for long-range coulomb (src/kspace.cpp:342)
  G vector (1/distance) = 0.16711723
  grid = 27 27 27
  stencil order = 5
  estimated absolute RMS force accuracy = 0.032994381
  estimated relative force accuracy = 9.9361597e-05
  using double precision FFTW3
  3d grid and FFT values/proc = 32768 19683
Generated 1 of 1 mixed pair_coeff terms from arithmetic mixing rule
Per MPI rank memory allocation (min/avg/max) = 10.39 | 10.39 | 10.39 Mbytes
   Step          Temp         Density         Press          KinEng         PotEng         TotEng    
         0   306.19616      0.018708349   -28.885572      759.68112      23236.992      23996.673    
      1000   297.12854      0.018708349    12.352902      737.18409     -21.540296      715.64379    
      2000   301.122        0.018708349    9.3486803      747.09199     -29.78904       717.30295    
      3000   295.37434      0.018708349    5.7152951      732.83189     -41.294787      691.5371     
      4000   293.67396      0.018708349    7.4492166      728.61318     -45.209439      683.40374    
      5000   306.97202      0.018708349    11.290697      761.60605     -47.695131      713.91092    
      6000   300.54364      0.018708349    19.468129      745.65706     -55.89701       689.76005    
      7000   298.0661       0.018708349    8.9365801      739.5102      -62.4793        677.0309     
      8000   304.23208      0.018708349    8.3230947      754.80817     -64.663612      690.14456    
      9000   293.50596      0.018708349    25.44288       728.19639     -66.532335      661.66405    
     10000   307.53066      0.018708349    17.977912      762.99205     -64.237206      698.75484    
     11000   297.01241      0.018708349    13.945396      736.89598     -64.355038      672.54094    
     12000   306.41091      0.018708349    10.519908      760.21392     -71.625826      688.5881     
     13000   300.86748      0.018708349    11.278193      746.46052     -71.498749      674.96177    
     14000   303.55212      0.018708349   -0.048269351    753.12117     -72.776386      680.34479    
     15000   315.78472      0.018708349    12.98993       783.47059     -68.497326      714.97326    
     16000   304.67124      0.018708349    17.311009      755.89775     -77.765518      678.13223    
     17000   290.3648       0.018708349    18.935129      720.40307     -80.289799      640.11327    
     18000   288.86987      0.018708349    5.9634565      716.6941      -80.009101      636.685      
     19000   306.73778      0.018708349    9.0285326      761.02489     -72.680609      688.34428    
     20000   313.11393      0.018708349    10.042256      776.84429     -82.037607      694.80668    
     21000   300.83187      0.018708349    8.6515858      746.37217     -89.427021      656.94515    
     22000   302.34415      0.018708349    16.067903      750.12417     -91.632319      658.49185    
     23000   302.62815      0.018708349    9.5636113      750.82877     -88.685682      662.14309    
     24000   287.68033      0.018708349    8.5786142      713.74283     -96.112791      617.63004    
     25000   294.80569      0.018708349    11.487727      731.42105     -100.31973      631.10132    
     26000   311.7848       0.018708349    11.772558      773.54669     -103.67665      669.87004    
     27000   306.37375      0.018708349    11.430629      760.12172     -102.62391      657.49782    
     28000   309.55095      0.018708349    7.9632338      768.00445     -100.63017      667.37428    
     29000   311.66777      0.018708349    2.3965703      773.25633     -99.421493      673.83484    
     30000   295.25516      0.018708349    13.804745      732.5362      -103.81561      628.72059    
     31000   301.65099      0.018708349    18.646988      748.40442     -101.02792      647.3765     
     32000   311.40937      0.018708349    8.0619443      772.61524     -102.93901      669.67623    
     33000   306.44195      0.018708349    9.9807488      760.29091     -111.95359      648.33732    
     34000   289.13213      0.018708349    9.2154124      717.34477     -112.484        604.86077    
     35000   304.04514      0.018708349    9.0733602      754.34438     -109.75342      644.59096    
     36000   295.88981      0.018708349    3.6950695      734.11078     -113.42256      620.68822    
     37000   295.59724      0.018708349    9.6947738      733.38489     -111.61846      621.76643    
     38000   291.05261      0.018708349    9.0727516      722.10956     -117.30418      604.80538    
     39000   294.03068      0.018708349    10.808832      729.49821     -114.03163      615.46659    
     40000   307.74835      0.018708349    6.9842275      763.53213     -114.22517      649.30696    
     41000   279.5959       0.018708349   -2.5458165      693.68513     -120.6793       573.00582    
     42000   300.84796      0.018708349    7.6038715      746.41208     -126.75921      619.65288    
     43000   308.53821      0.018708349    9.9368066      765.49181     -117.11088      648.38093    
     44000   300.86082      0.018708349    15.366593      746.44398     -113.46249      632.98149    
     45000   298.35153      0.018708349    8.9027831      740.21838     -119.34495      620.87343    
     46000   286.54237      0.018708349    8.6732553      710.91952     -119.69188      591.22764    
     47000   306.34785      0.018708349    5.159572       760.05747     -121.47015      638.58732    
     48000   302.81694      0.018708349    19.131259      751.29716     -120.85935      630.43782    
     49000   296.62823      0.018708349    8.7621696      735.94281     -123.99667      611.94614    
     50000   307.12113      0.018708349    8.9423649      761.976       -119.17391      642.80209    
     51000   299.65719      0.018708349    9.4760648      743.45776     -122.63936      620.8184     
     52000   300.66633      0.018708349    10.03361       745.96146     -132.4279       613.53356    
     53000   301.08257      0.018708349    10.18778       746.99415     -136.5262       610.46795    
     54000   296.81787      0.018708349    5.9838903      736.41332     -131.72005      604.69327    
     55000   281.6915       0.018708349    3.882953       698.88437     -129.89596      568.98842    
     56000   293.91316      0.018708349    14.176889      729.20666     -133.04837      596.1583     
     57000   301.94394      0.018708349    10.252798      749.13125     -127.50809      621.62315    
     58000   304.46714      0.018708349    6.2960506      755.39138     -130.68761      624.70376    
     59000   307.89347      0.018708349    13.083508      763.89218     -127.96697      635.92521    
     60000   298.57984      0.018708349    6.8751541      740.78481     -128.08641      612.6984     
     61000   311.88246      0.018708349    6.8611305      773.78898     -128.41085      645.37813    
     62000   293.06072      0.018708349    9.8420392      727.09173     -127.46491      599.62682    
     63000   293.31614      0.018708349    9.8970311      727.72542     -130.2746       597.45082    
     64000   297.42828      0.018708349    12.040952      737.92775     -129.77841      608.14934    
     65000   315.6886       0.018708349    12.662646      783.23212     -131.15533      652.0768     
     66000   298.66936      0.018708349    8.0285758      741.00691     -138.86817      602.13874    
     67000   295.29566      0.018708349    11.71173       732.63667     -137.732        594.90466    
     68000   299.91701      0.018708349    18.210228      744.10236     -134.46149      609.64087    
     69000   304.00234      0.018708349    8.4751274      754.23819     -134.97597      619.26222    
     70000   310.15932      0.018708349    2.6433767      769.51381     -133.12929      636.38452    
     71000   297.00844      0.018708349    10.54118       736.88614     -126.08442      610.80171    
     72000   304.55686      0.018708349    14.526954      755.61396     -125.09043      630.52353    
     73000   309.08711      0.018708349    9.1697652      766.85364     -127.61347      639.24016    
     74000   287.89993      0.018708349    8.4057072      714.28765     -135.34117      578.94648    
     75000   308.66228      0.018708349    7.3683176      765.79963     -131.23082      634.56881    
     76000   299.44202      0.018708349    14.97873       742.9239      -131.29911      611.62478    
     77000   293.0686       0.018708349    14.623363      727.11128     -137.59958      589.5117     
     78000   295.24653      0.018708349   -0.54476291     732.51478     -135.27253      597.24226    
     79000   306.95245      0.018708349    6.8712075      761.55749     -133.43654      628.12095    
     80000   295.66782      0.018708349    20.272457      733.56002     -132.27912      601.28089    
     81000   284.60426      0.018708349    5.9108687      706.11101     -120.75293      585.35808    
     82000   303.89068      0.018708349   -2.0182489      753.96115     -139.2109       614.75025    
     83000   304.17074      0.018708349    7.6891154      754.656       -131.11209      623.54391    
     84000   300.06138      0.018708349    10.05212       744.46055     -128.04839      616.41216    
     85000   300.23119      0.018708349    9.1594496      744.88185     -129.85606      615.0258     
     86000   287.56608      0.018708349    8.4697591      713.45937     -137.1867       576.27268    
     87000   306.40954      0.018708349    8.3335248      760.21051     -143.49037      616.72014    
     88000   311.03935      0.018708349    9.2645179      771.6972      -140.87099      630.82621    
     89000   292.06142      0.018708349    12.664221      724.61243     -147.93971      576.67272    
     90000   300.38646      0.018708349    0.63432882     745.26708     -151.64314      593.62395    
     91000   304.52252      0.018708349    18.157         755.52876     -147.52319      608.00557    
     92000   300.21953      0.018708349    7.2533761      744.85294     -143.41695      601.436      
     93000   289.27064      0.018708349    5.2421608      717.68842     -145.01709      572.67134    
     94000   308.65953      0.018708349    18.727232      765.7928      -145.2929       620.4999     
     95000   297.60149      0.018708349    11.6306        738.35749     -143.15005      595.20744    
     96000   303.9879       0.018708349   -0.82045833     754.20235     -144.84106      609.36129    
     97000   301.20014      0.018708349    13.343418      747.28586     -148.63399      598.65187    
     98000   293.87183      0.018708349    7.3659637      729.1041      -148.87033      580.23378    
     99000   305.71211      0.018708349    7.5279177      758.48016     -144.67674      613.80343    
    100000   309.88986      0.018708349    11.953124      768.84529     -147.4807       621.36458    
    101000   294.52728      0.018708349    10.421435      730.7303      -147.14401      583.5863     
    102000   301.37625      0.018708349    6.9849248      747.72277     -143.17466      604.54811    
    103000   289.65005      0.018708349    7.6476879      718.62975     -144.50066      574.12909    
    104000   305.98626      0.018708349    10.249474      759.16036     -145.81568      613.34468    
    105000   291.7915       0.018708349    11.234178      723.94275     -137.82125      586.12151    
    106000   307.51631      0.018708349    4.0557204      762.95645     -142.48883      620.46762    
    107000   297.96754      0.018708349    9.7443095      739.26567     -144.3081       594.95757    
    108000   304.75515      0.018708349    28.649258      756.10592     -151.02333      605.08259    
    109000   300.8981       0.018708349    9.5127011      746.53649     -143.24533      603.29116    
    110000   291.0448       0.018708349    7.5141885      722.09018     -140.667        581.42318    
    111000   304.4813       0.018708349    6.9537036      755.4265      -133.88418      621.54233    
    112000   314.68649      0.018708349    14.358355      780.74585     -146.75098      633.99486    
    113000   300.74349      0.018708349    9.2857831      746.15289     -144.88602      601.26687    
    114000   294.96241      0.018708349    2.9324706      731.80987     -140.03488      591.77499    
    115000   303.20415      0.018708349    1.6010208      752.25786     -140.10359      612.15427    
    116000   314.21974      0.018708349    13.997013      779.58784     -145.17202      634.41582    
    117000   285.91974      0.018708349    9.4710666      709.37476     -148.36601      561.00875    
    118000   301.3366       0.018708349    5.7825069      747.62441     -142.41781      605.20661    
    119000   310.48795      0.018708349    16.488854      770.32916     -148.68735      621.64181    
    120000   284.17246      0.018708349    11.870786      705.03971     -139.80724      565.23247    
    121000   285.82052      0.018708349    5.2589313      709.12859     -139.99612      569.13247    
    122000   298.68396      0.018708349    8.7058782      741.04313     -132.17163      608.8715     
    123000   314.23542      0.018708349    15.555074      779.62675     -129.97742      649.64933    
    124000   303.10467      0.018708349    12.793447      752.01104     -130.51258      621.49846    
    125000   288.22301      0.018708349    7.2456142      715.08923     -132.46846      582.62077    
    126000   298.30424      0.018708349    7.209147       740.10103     -134.21713      605.8839     
    127000   302.94046      0.018708349    11.86139       751.60363     -131.86254      619.7411     
    128000   306.85229      0.018708349    8.4300767      761.30899     -127.8656       633.44338    
    129000   294.78831      0.018708349    8.1879799      731.37793     -134.19974      597.17819    
    130000   297.18462      0.018708349    10.057945      737.32323     -139.59991      597.72331    
    131000   316.91905      0.018708349    1.8411035      786.2849      -132.4578       653.82709    
    132000   291.94856      0.018708349    8.1703901      724.33243     -135.6506       588.68183    
    133000   295.75956      0.018708349    8.7707197      733.78763     -139.41964      594.36799    
    134000   313.12893      0.018708349    18.886931      776.88151     -144.09577      632.78574    
    135000   314.6578       0.018708349    7.3794009      780.67468     -139.40165      641.27304    
    136000   287.17155      0.018708349    5.6764559      712.48054     -133.7151       578.76544    
    137000   301.84959      0.018708349    11.663409      748.89715     -132.08731      616.80984    
    138000   313.79935      0.018708349    10.642306      778.54483     -130.33977      648.20505    
    139000   293.35196      0.018708349    17.036531      727.8143      -128.66567      599.14864    
    140000   299.14937      0.018708349    11.903593      742.19783     -127.9678       614.23003    
    141000   303.30357      0.018708349    8.2560955      752.50452     -126.67279      625.83173    
    142000   313.80692      0.018708349    0.51747748     778.56362     -128.30043      650.26319    
    143000   305.01062      0.018708349   -1.009816       756.73976     -132.82967      623.91009    
    144000   292.73023      0.018708349    13.957158      726.27177     -133.4001       592.87167    
    145000   296.15138      0.018708349   -0.58284187     734.75974     -129.50128      605.25845    
    146000   325.27124      0.018708349   -11.003337      807.00691     -128.51846      678.48845    
    147000   302.63498      0.018708349    17.257649      750.84572     -130.43044      620.41528    
    148000   290.72824      0.018708349    20.538164      721.30477     -126.66885      594.63592    
    149000   289.67421      0.018708349    12.79952       718.6897      -125.29257      593.39713    
    150000   310.50012      0.018708349   -0.15534197     770.35936     -129.1666       641.19276    
    151000   309.87377      0.018708349    14.313099      768.80536     -133.12031      635.68505    
    152000   293.05065      0.018708349    12.874262      727.06675     -131.06992      595.99683    
    153000   297.89574      0.018708349   -12.567488      739.08753     -128.19727      610.89026    
    154000   304.4913       0.018708349    9.4547946      755.45131     -126.52447      628.92684    
    155000   298.97558      0.018708349    4.1669682      741.76666     -129.55784      612.20882    
    156000   310.73475      0.018708349    16.140745      770.94149     -123.05261      647.88887    
    157000   299.81962      0.018708349    27.297585      743.86074     -120.89791      622.96282    
    158000   290.40502      0.018708349    8.1539891      720.50285     -114.60398      605.89887    
    159000   298.06193      0.018708349    3.411121       739.49987     -113.42314      626.07673    
    160000   305.12755      0.018708349    17.030319      757.02986     -112.78065      644.24921    
    161000   304.738        0.018708349    10.410226      756.06338     -111.62579      644.43759    
    162000   298.66621      0.018708349    8.5259163      740.9991      -109.44375      631.55535    
    163000   304.99445      0.018708349    6.9723287      756.69964     -107.71198      648.98766    
    164000   306.39183      0.018708349    11.328992      760.16657     -112.88171      647.28486    
    165000   284.25495      0.018708349    12.676785      705.24436     -94.850829      610.39353    
    166000   309.13084      0.018708349    6.5019101      766.96213     -102.84165      664.12048    
    167000   306.33578      0.018708349    10.076351      760.02753     -104.87611      655.15142    
    168000   284.7451       0.018708349    7.9816913      706.46044     -103.70945      602.751      
    169000   289.58355      0.018708349    7.8519135      718.46477     -99.490141      618.97462    
    170000   313.23422      0.018708349    9.1061173      777.14275     -106.73313      670.40962    
    171000   301.98036      0.018708349    11.394403      749.22159     -109.42773      639.79387    
    172000   302.92914      0.018708349    15.820385      751.57555     -104.72633      646.84922    
    173000   307.77133      0.018708349    12.950435      763.58915     -105.47923      658.10992    
    174000   299.05499      0.018708349    9.1405203      741.96368     -99.339536      642.62414    
    175000   307.74302      0.018708349    10.029043      763.51893     -102.10054      661.41839    
    176000   291.96661      0.018708349    12.927072      724.3772      -100.90014      623.47706    
    177000   298.22137      0.018708349    8.1976592      739.89545     -103.25078      636.64467    
    178000   303.98936      0.018708349    7.0464479      754.20598     -99.022557      655.18342    
    179000   297.75473      0.018708349    9.4511985      738.73769     -99.841142      638.89655    
    180000   284.38777      0.018708349    10.49896       705.5739      -99.468772      606.10512    
    181000   301.4282       0.018708349    6.9991294      747.85168     -95.627099      652.22458    
    182000   306.1851       0.018708349    9.5300706      759.65366     -87.064908      672.58876    
    183000   305.31143      0.018708349    9.8871102      757.48609     -92.350995      665.13509    
    184000   297.03142      0.018708349    9.3014247      736.94313     -92.231905      644.71123    
    185000   298.21996      0.018708349    9.9602501      739.89195     -91.138357      648.75359    
    186000   303.39358      0.018708349    12.233717      752.72784     -91.502406      661.22544    
    187000   298.1227       0.018708349    9.1516645      739.65063     -91.14351       648.50712    
    188000   308.50479      0.018708349    7.666773       765.40888     -90.536759      674.87212    
    189000   295.12705      0.018708349    12.429021      732.21836     -96.626657      635.5917     
    190000   304.09835      0.018708349    16.411489      754.47638     -100.55072      653.92566    
    191000   305.31399      0.018708349    7.6565296      757.49241     -95.49396       661.99845    
    192000   304.5425       0.018708349    3.6539579      755.57833     -94.704256      660.87408    
    193000   292.79724      0.018708349    8.2484048      726.43801     -90.156826      636.28119    
    194000   302.23604      0.018708349    15.156205      749.85594     -90.489437      659.3665     
    195000   319.03787      0.018708349    9.9253198      791.54175     -89.693167      701.84858    
    196000   306.08858      0.018708349    7.0050576      759.41421     -89.882764      669.53144    
    197000   293.51178      0.018708349    3.8918146      728.21082     -92.463276      635.74755    
    198000   297.77864      0.018708349    13.035716      738.797       -84.484917      654.31209    
    199000   317.76844      0.018708349    18.593015      788.39227     -82.496343      705.89593    
    200000   306.05102      0.018708349    3.0147992      759.32101     -89.814241      669.50677    
    201000   293.36366      0.018708349    12.129172      727.84334     -87.60045       640.24289    
    202000   305.66229      0.018708349    19.677056      758.35657     -88.96982       669.38675    
    203000   299.31135      0.018708349    0.70695749     742.59972     -82.225305      660.37442    
    204000   299.49292      0.018708349    23.023517      743.0502      -80.730359      662.31984    
    205000   305.93931      0.018708349    37.72722       759.04385     -77.324387      681.71946    
    206000   303.05357      0.018708349    3.5759748      751.88427     -74.543283      677.34099    
    207000   292.80069      0.018708349    10.433175      726.44659     -78.847726      647.59886    
    208000   301.28842      0.018708349    16.359071      747.50487     -72.739049      674.76582    
    209000   297.42632      0.018708349   -7.4833923      737.9229      -79.515542      658.40736    
    210000   294.81011      0.018708349    12.511463      731.43202     -78.894226      652.53779    
    211000   290.69883      0.018708349    3.6599999      721.23182     -77.875246      643.35657    
    212000   285.53444      0.018708349    13.061593      708.41883     -75.432672      632.98615    
    213000   314.31747      0.018708349    19.40639       779.8303      -75.607868      704.22243    
    214000   302.21214      0.018708349   -4.5933445      749.79666     -81.398512      668.39815    
    215000   292.39807      0.018708349    12.832943      725.44767     -86.456669      638.991      
    216000   314.60731      0.018708349    8.2778701      780.54941     -80.561828      699.98758    
    217000   306.53817      0.018708349   -0.62259016     760.52965     -81.360856      679.16879    
    218000   299.53034      0.018708349    6.7328069      743.14302     -76.309332      666.83369    
    219000   294.84408      0.018708349    13.32363       731.51629     -74.177168      657.33912    
    220000   297.72882      0.018708349    9.9452013      738.67341     -79.130641      659.54277    
    221000   303.61549      0.018708349    5.6989226      753.27839     -76.933065      676.34533    
    222000   298.95518      0.018708349   -0.31561599     741.71604     -76.210113      665.50593    
    223000   302.44046      0.018708349    14.631439      750.36313     -82.379719      667.98341    
    224000   299.51354      0.018708349    9.511678       743.10135     -80.794624      662.30673    
    225000   306.08222      0.018708349    4.8134685      759.39842     -73.681876      685.71654    
    226000   301.69358      0.018708349    6.2927193      748.51008     -74.193506      674.31658    
    227000   304.98493      0.018708349    18.211941      756.67602     -73.980443      682.69557    
    228000   300.10554      0.018708349    10.145085      744.57011     -75.259124      669.31098    
    229000   294.7379       0.018708349    8.5419667      731.25286     -69.092134      662.16072    
    230000   296.03001      0.018708349    1.2262269      734.45863     -76.375195      658.08343    
    231000   293.52306      0.018708349    17.245739      728.23879     -72.562976      655.67582    
    232000   307.73538      0.018708349    11.728785      763.49997     -87.903304      675.59666    
    233000   310.44019      0.018708349    2.3923998      770.21066     -82.804281      687.40638    
    234000   300.47197      0.018708349    5.3225836      745.47925     -89.019411      656.45984    
    235000   292.0794       0.018708349    9.3840129      724.65703     -84.952393      639.70464    
    236000   300.79683      0.018708349    12.343128      746.28522     -75.767674      670.51754    
    237000   303.20582      0.018708349    4.3379914      752.26199     -78.502831      673.75916    
    238000   309.30112      0.018708349    6.7350908      767.38461     -75.455305      691.9293     
    239000   298.58786      0.018708349    8.4375662      740.80471     -80.164926      660.63979    
    240000   299.09271      0.018708349    9.0399363      742.05725     -80.85068       661.20657    
    241000   306.71907      0.018708349    10.567791      760.97848     -79.071724      681.90676    
    242000   305.01168      0.018708349    5.9319334      756.74239     -74.113004      682.62938    
    243000   299.85714      0.018708349    8.2569161      743.95383     -73.491681      670.46215    
    244000   296.90563      0.018708349    11.810754      736.63105     -69.63268       666.99837    
    245000   289.67678      0.018708349    17.685772      718.69607     -68.759517      649.93656    
    246000   306.28772      0.018708349    9.891998       759.90826     -67.300736      692.60753    
    247000   300.09739      0.018708349    7.7576896      744.5499      -73.143883      671.40602    
    248000   289.98945      0.018708349    8.6475865      719.47181     -72.20368       647.26813    
    249000   291.48819      0.018708349    9.7035046      723.19023     -75.471736      647.7185     
    250000   309.72438      0.018708349    10.548473      768.43473     -77.320408      691.11432    
    251000   295.73113      0.018708349    8.0831371      733.71708     -74.034504      659.68258    
    252000   287.26188      0.018708349    9.0723411      712.70464     -76.866667      635.83797    
    253000   298.23923      0.018708349    8.8910736      739.93975     -78.164312      661.77543    
    254000   300.34072      0.018708349    5.5299119      745.1536      -78.592086      666.56151    
    255000   289.90234      0.018708349    13.910824      719.2557      -75.223052      644.03265    
    256000   291.79025      0.018708349    11.959078      723.93965     -78.534251      645.4054     
    257000   303.37392      0.018708349    8.9443006      752.67907     -80.262811      672.41626    
    258000   299.17516      0.018708349    10.762409      742.26183     -75.045667      667.21616    
    259000   303.04232      0.018708349    9.4990072      751.85635     -76.240438      675.61591    
    260000   291.99539      0.018708349    7.6466283      724.44862     -79.112749      645.33587    
    261000   299.46319      0.018708349    10.020641      742.97643     -78.641793      664.33464    
    262000   290.9726       0.018708349    8.7769829      721.91103     -80.971742      640.93929    
    263000   299.41673      0.018708349    11.582635      742.86115     -80.490212      662.37094    
    264000   310.38987      0.018708349    10.374948      770.08582     -71.57314       698.51268    
    265000   304.14563      0.018708349    9.0713518      754.59368     -69.447312      685.14637    
    266000   285.82215      0.018708349    8.3020778      709.13263     -71.00973       638.1229     
    267000   304.40482      0.018708349    9.9140464      755.23676     -68.618698      686.61806    
    268000   304.97693      0.018708349    13.745691      756.65616     -66.20765       690.44851    
    269000   295.33362      0.018708349    9.8380714      732.73086     -68.058353      664.6725     
    270000   299.14493      0.018708349    7.5009993      742.18681     -74.949504      667.2373     
    271000   296.07626      0.018708349    10.806754      734.57335     -72.623113      661.95024    
    272000   288.56606      0.018708349    8.2661457      715.94034     -69.161405      646.77893    
    273000   301.4626       0.018708349    8.1701292      747.93702     -67.158222      680.7788     
    274000   306.94788      0.018708349    6.3581966      761.54614     -65.352158      696.19398    
    275000   305.89494      0.018708349    10.020167      758.93379     -63.900317      695.03347    
    276000   302.14497      0.018708349    9.2434207      749.63        -64.28869       685.34131    
    277000   313.30712      0.018708349    10.167291      777.32361     -66.380595      710.94302    
    278000   311.17753      0.018708349    10.835831      772.04003     -69.643791      702.39623    
    279000   301.13796      0.018708349    12.135759      747.13159     -66.027029      681.10456    
    280000   269.97656      0.018708349    8.4944803      669.81929     -63.268331      606.55096    
    281000   296.33146      0.018708349    6.6813309      735.20652     -62.869247      672.33728    
    282000   311.71677      0.018708349    5.1627563      773.37789     -66.409012      706.96888    
    283000   297.07581      0.018708349    10.468728      737.05328     -62.34197       674.71131    
    284000   301.07611      0.018708349    9.9916251      746.97812     -63.107623      683.8705     
    285000   298.96232      0.018708349    11.17181       741.73375     -60.12949       681.60426    
    286000   280.50728      0.018708349    8.7399148      695.94631     -56.872508      639.0738     
    287000   283.74225      0.018708349    10.854216      703.97235     -55.445467      648.52688    
    288000   295.49356      0.018708349    1.7871777      733.12766     -66.580921      666.54674    
    289000   307.49513      0.018708349    6.687444       762.9039      -67.150686      695.75321    
    290000   294.95691      0.018708349    13.518364      731.79622     -69.477009      662.31922    
    291000   294.64514      0.018708349    11.587104      731.02272     -64.431148      666.59157    
    292000   301.44414      0.018708349    8.2607896      747.89122     -57.263965      690.62725    
    293000   313.24425      0.018708349    9.1575678      777.16761     -58.150035      719.01758    
    294000   293.13251      0.018708349    17.696261      727.26983     -61.054561      666.21527    
    295000   299.85905      0.018708349    14.537069      743.95858     -56.225082      687.7335     
    296000   299.41357      0.018708349    10.248054      742.85332     -55.942978      686.91034    
    297000   298.00071      0.018708349    3.276169       739.34798     -56.362679      682.9853     
    298000   305.48826      0.018708349    9.5981179      757.9248      -49.018778      708.90602    
    299000   288.67448      0.018708349    11.113319      716.20935     -52.843109      663.36624    
    300000   294.4895       0.018708349    7.8924365      730.63656     -54.710563      675.926      
    301000   298.59767      0.018708349    9.3624531      740.82906     -51.30976       689.5193     
    302000   293.29125      0.018708349    10.211905      727.66367     -57.234108      670.42956    
    303000   307.20792      0.018708349    10.137585      762.19131     -55.793153      706.39816    
    304000   299.04635      0.018708349    9.3192361      741.94224     -54.668497      687.27374    
    305000   292.0136       0.018708349    9.147812       724.49379     -49.803335      674.69046    
    306000   304.0449       0.018708349    6.9130283      754.34379     -52.227653      702.11614    
    307000   303.37718      0.018708349    11.014863      752.68715     -50.438668      702.24848    
    308000   303.15728      0.018708349    13.356089      752.14156     -46.97893       705.16263    
    309000   288.50365      0.018708349    10.182058      715.7855      -48.80836       666.97714    
    310000   304.35024      0.018708349    8.0335748      755.10134     -50.6926        704.40874    
    311000   316.81727      0.018708349    10.352877      786.03238     -47.09918       738.9332     
    312000   298.15185      0.018708349    10.774358      739.72297     -48.251334      691.47164    
    313000   294.31031      0.018708349    9.5344235      730.19199     -48.895967      681.29603    
    314000   296.06281      0.018708349    5.1950851      734.54        -50.791668      683.74833    
    315000   311.47959      0.018708349    9.8046266      772.78945     -47.526655      725.2628     
    316000   305.13856      0.018708349    12.451174      757.05717     -47.334181      709.72299    
    317000   300.31324      0.018708349    9.9805109      745.08542     -47.080491      698.00493    
    318000   297.24667      0.018708349    7.5654242      737.47719     -47.920296      689.55689    
    319000   311.36371      0.018708349    11.080289      772.50194     -46.323609      726.17833    
    320000   289.50829      0.018708349    8.8242384      718.27805     -50.274675      668.00338    
    321000   299.04862      0.018708349    11.693254      741.94787     -51.334299      690.61357    
    322000   311.66283      0.018708349    10.104417      773.24407     -46.833737      726.41033    
    323000   300.98332      0.018708349    2.9557233      746.74791     -48.05843       698.68948    
    324000   294.3369       0.018708349    9.248202       730.25796     -47.266381      682.99157    
    325000   280.1647       0.018708349    10.881335      695.09635     -47.523023      647.57332    
    326000   296.8754       0.018708349    12.718207      736.55606     -46.132356      690.42371    
    327000   307.9074       0.018708349    6.7663063      763.92675     -43.959389      719.96736    
    328000   291.21728      0.018708349    6.899575       722.51811     -48.476397      674.04171    
    329000   301.27498      0.018708349    12.681822      747.47152     -49.44341       698.02811    
    330000   301.18686      0.018708349    1.1558996      747.25289     -53.064026      694.18887    
    331000   287.77071      0.018708349    9.78225        713.96706     -52.874987      661.09207    
    332000   301.01853      0.018708349    16.221424      746.83527     -53.588457      693.24681    
    333000   302.10762      0.018708349    14.121213      749.53734     -57.376861      692.16048    
    334000   320.87106      0.018708349    11.377819      796.08993     -53.854111      742.23582    
    335000   294.50941      0.018708349    8.5429892      730.68596     -52.901596      677.78437    
    336000   292.36484      0.018708349    16.432639      725.36522     -45.003893      680.36133    
    337000   310.55714      0.018708349    7.1365193      770.50083     -57.950741      712.55009    
    338000   302.26095      0.018708349    7.3032159      749.91775     -52.351017      697.56674    
    339000   301.54454      0.018708349    11.617927      748.14031     -53.607046      694.53327    
    340000   298.89477      0.018708349    17.605547      741.56616     -58.435856      683.13031    
    341000   308.19242      0.018708349    7.7893287      764.63388     -58.216238      706.41764    
    342000   296.79647      0.018708349    3.216932       736.36021     -55.673101      680.68711    
    343000   300.13102      0.018708349    10.766374      744.63334     -55.509204      689.12414    
    344000   306.92795      0.018708349    8.30609        761.4967      -58.19887       703.29783    
    345000   301.05198      0.018708349    7.2313745      746.91826     -58.054459      688.8638     
    346000   298.5432       0.018708349    12.581051      740.69391     -55.922397      684.77151    
    347000   314.86984      0.018708349    16.522179      781.20076     -54.098255      727.1025     
    348000   298.45763      0.018708349    6.0305148      740.48162     -52.733474      687.74814    
    349000   303.72429      0.018708349    7.8590783      753.54834     -48.539513      705.00883    
    350000   294.88712      0.018708349    17.113799      731.62307     -45.513         686.11007    
    351000   298.51242      0.018708349    14.298587      740.61755     -49.741018      690.87653    
    352000   304.41397      0.018708349    7.4067771      755.25944     -48.734798      706.52464    
    353000   313.40711      0.018708349    3.3141742      777.57169     -53.619627      723.95206    
    354000   296.06357      0.018708349    11.798695      734.54187     -47.019061      687.52281    
    355000   312.45234      0.018708349    13.586926      775.20287     -57.547626      717.65524    
    356000   285.06217      0.018708349    3.9898413      707.2471      -52.375926      654.87117    
    357000   292.72077      0.018708349    7.9239395      726.2483      -56.772323      669.47598    
    358000   301.41988      0.018708349    13.341035      747.83104     -46.422403      701.40864    
    359000   294.03704      0.018708349    10.369441      729.51399     -47.552193      681.9618     
    360000   307.20975      0.018708349    10.731191      762.19586     -51.254586      710.94127    
    361000   300.4557       0.018708349    10.421022      745.43888     -51.295533      694.14335    
    362000   299.01195      0.018708349    9.6202018      741.85689     -51.101466      690.75542    
    363000   302.64465      0.018708349    11.971815      750.86973     -50.584863      700.28486    
    364000   296.26518      0.018708349    12.08712       735.04209     -46.832462      688.20963    
    365000   300.90387      0.018708349    8.8673257      746.55081     -43.783842      702.76697    
    366000   301.7351       0.018708349    8.6610017      748.61309     -39.798614      708.81448    
    367000   291.20035      0.018708349    11.472124      722.47609     -40.020567      682.45552    
    368000   299.47387      0.018708349    11.339226      743.00292     -42.322102      700.68082    
    369000   308.49187      0.018708349    10.824981      765.37682     -42.398932      722.97789    
    370000   314.52665      0.018708349    11.487275      780.34929     -40.714669      739.63463    
    371000   305.14371      0.018708349    10.801913      757.06996     -43.716969      713.35299    
    372000   296.86257      0.018708349    9.6574688      736.52421     -47.392439      689.13177    
    373000   295.32569      0.018708349    9.066003       732.71119     -56.243499      676.46769    
    374000   304.6304       0.018708349    12.915574      755.79642     -55.307969      700.48846    
    375000   307.79109      0.018708349    10.579394      763.63819     -55.932646      707.70554    
    376000   295.08479      0.018708349    10.320004      732.11349     -54.097776      678.01572    
    377000   291.5942       0.018708349    9.5737996      723.45326     -51.785929      671.66733    
    378000   308.51527      0.018708349    9.9470328      765.4349      -48.414724      717.02017    
    379000   306.78446      0.018708349    9.6935499      761.14071     -51.735036      709.40568    
    380000   300.40267      0.018708349    10.312856      745.3073      -51.187585      694.11971    
    381000   289.32338      0.018708349    10.0412        717.81929     -52.426346      665.39294    
    382000   305.68743      0.018708349    10.304764      758.41893     -55.558976      702.85996    
    383000   308.00277      0.018708349    9.1178519      764.16335     -53.650145      710.51321    
    384000   306.34733      0.018708349    10.649653      760.05617     -46.977686      713.07848    
    385000   295.35787      0.018708349    7.2336393      732.791       -43.897509      688.8935     
    386000   288.98291      0.018708349    8.3439957      716.97457     -46.15324       670.82133    
    387000   303.51149      0.018708349    14.461586      753.02038     -49.682142      703.33824    
    388000   296.82283      0.018708349    11.829356      736.42562     -47.127961      689.29766    
    389000   293.94611      0.018708349    6.9290896      729.2884      -48.728453      680.55995    
    390000   281.92279      0.018708349    4.2118653      699.45822     -47.243394      652.21482    
    391000   287.45778      0.018708349    2.806721       713.19068     -44.163581      669.0271     
    392000   310.41326      0.018708349   -3.9763673      770.14386     -40.003903      730.13996    
    393000   296.71228      0.018708349    16.841796      736.15135     -39.330452      696.8209     
    394000   293.22467      0.018708349    4.3260209      727.49848     -39.78249       687.71599    
    395000   306.28333      0.018708349   -0.30818585     759.89738     -36.144854      723.75253    
    396000   300.15671      0.018708349    12.023555      744.69706     -33.30457       711.39249    
    397000   303.52341      0.018708349    12.974513      753.04994     -43.384025      709.66591    
    398000   287.0239       0.018708349    10.869898      712.1142      -36.206568      675.90764    
    399000   295.28311      0.018708349    4.1355502      732.60553     -37.916692      694.68884    
    400000   295.32026      0.018708349    12.588844      732.6977      -38.84947       693.84823    
    401000   299.17254      0.018708349    16.953837      742.25533     -43.091889      699.16344    
    402000   304.62676      0.018708349    7.8845987      755.78738     -44.265361      711.52202    
    403000   310.2065       0.018708349    1.1513117      769.63087     -42.377851      727.25302    
    404000   298.39671      0.018708349    12.331577      740.33046     -41.091161      699.2393     
    405000   299.10631      0.018708349    15.28079       742.09101     -41.15533       700.93568    
    406000   297.79083      0.018708349    3.8624569      738.82727     -37.015846      701.81142    
    407000   306.41458      0.018708349   -7.298626       760.22301     -40.041538      720.18148    
    408000   303.45002      0.018708349    10.754065      752.86786     -44.992371      707.87549    
    409000   294.31337      0.018708349    12.737507      730.19958     -41.083688      689.11589    
    410000   298.49379      0.018708349    11.009395      740.57133     -40.071838      700.4995     
    411000   299.07352      0.018708349    6.096095       742.00964     -42.068763      699.94088    
    412000   299.21403      0.018708349    10.040849      742.35826     -41.395389      700.96287    
    413000   293.98279      0.018708349    15.418835      729.37941     -40.011609      689.3678     
    414000   292.23425      0.018708349    4.5924948      725.04124     -38.173518      686.86772    
    415000   311.99757      0.018708349    4.1625062      774.07456     -32.388596      741.68597    
    416000   304.95276      0.018708349    9.7090128      756.59621     -34.951473      721.64474    
    417000   285.50498      0.018708349    21.714424      708.34572     -30.140462      678.20525    
    418000   299.40931      0.018708349    13.034151      742.84274     -35.269163      707.57358    
    419000   295.03336      0.018708349    9.3520149      731.98589     -37.067954      694.91794    
    420000   294.4633       0.018708349   -7.361638       730.57155     -38.513166      692.05839    
    421000   300.84401      0.018708349    6.1717282      746.40229     -36.12276       710.27953    
    422000   311.00562      0.018708349    24.35678       771.61351     -41.123708      730.4898     
    423000   298.51161      0.018708349    8.5379168      740.61554     -42.335038      698.2805     
    424000   300.92424      0.018708349   -1.4643679      746.60133     -45.485586      701.11575    
    425000   303.95078      0.018708349    20.305938      754.11027     -42.477821      711.63245    
    426000   295.39699      0.018708349    17.455112      732.88808     -40.986751      691.90133    
    427000   297.07136      0.018708349    6.6951267      737.04223     -41.907287      695.13494    
    428000   302.51293      0.018708349    4.3350122      750.54293     -44.634366      705.90856    
    429000   320.04898      0.018708349    25.191274      794.05034     -46.324151      747.72619    
    430000   296.2391       0.018708349    29.009013      734.97736     -39.585945      695.39142    
    431000   286.24137      0.018708349    6.8030814      710.17272     -45.28377       664.88895    
    432000   301.64691      0.018708349    2.3211897      748.39429     -46.910876      701.48342    
    433000   303.15653      0.018708349    8.6095601      752.1397      -40.943527      711.19618    
    434000   297.47634      0.018708349    18.088018      738.047       -43.644413      694.40259    
    435000   289.50709      0.018708349    9.6765496      718.27508     -48.347513      669.92757    
    436000   308.7811       0.018708349    8.8484128      766.09443     -43.000908      723.09352    
    437000   303.88494      0.018708349    9.9430525      753.9469      -44.06596       709.88094    
    438000   278.6222       0.018708349    9.7907597      691.26935     -42.456395      648.81296    
    439000   299.12564      0.018708349    7.1740831      742.13896     -43.004332      699.13463    
    440000   302.09356      0.018708349    7.7010975      749.50244     -47.773845      701.72859    
    441000   296.30899      0.018708349    9.9324987      735.15076     -45.175361      689.9754     
    442000   286.69509      0.018708349    10.622034      711.29841     -43.517747      667.78067    
    443000   302.92537      0.018708349    6.5970757      751.5662      -40.869682      710.69652    
    444000   308.97199      0.018708349    10.474338      766.56802     -45.385234      721.18278    
    445000   301.87834      0.018708349    12.242415      748.96849     -40.624005      708.34448    
    446000   297.91707      0.018708349    4.8223331      739.14047     -42.135903      697.00457    
    447000   301.76162      0.018708349    9.7031661      748.6789      -36.175723      712.50318    
    448000   298.20409      0.018708349    13.394652      739.85257     -36.092429      703.76014    
    449000   307.61874      0.018708349    9.2800994      763.21057     -35.755213      727.45535    
    450000   308.01256      0.018708349    10.262873      764.18765     -38.005613      726.18204    
    451000   294.54626      0.018708349    10.680577      730.77739     -33.364211      697.41318    
    452000   296.02609      0.018708349    10.003015      734.4489      -37.194893      697.254      
    453000   294.96083      0.018708349    14.7231        731.80594     -40.762743      691.0432     
    454000   294.05685      0.018708349    13.88548       729.56316     -38.333591      691.22957    
    455000   293.22183      0.018708349    10.58921       727.49143     -33.095809      694.39562    
    456000   299.80322      0.018708349    9.2201173      743.82005     -33.334384      710.48566    
    457000   306.67079      0.018708349    10.083284      760.85868     -34.005893      726.85278    
    458000   299.92347      0.018708349    7.3033003      744.1184      -33.920139      710.19826    
    459000   291.53043      0.018708349    8.250084       723.29504     -43.704452      679.59059    
    460000   301.0836       0.018708349    7.0652181      746.9967      -43.212625      703.78408    
    461000   295.36473      0.018708349    9.4413978      732.80804     -31.181367      701.62668    
    462000   309.0932       0.018708349    19.862527      766.86874     -40.733199      726.13554    
    463000   306.03799      0.018708349    4.6749004      759.28869     -36.109755      723.17893    
    464000   279.73611      0.018708349    9.4496538      694.03299     -38.743599      655.28939    
    465000   282.56794      0.018708349    4.8354076      701.05885     -39.455223      661.60363    
    466000   308.70225      0.018708349    15.755912      765.89879     -39.140542      726.75825    
    467000   297.20484      0.018708349    0.50955189     737.3734      -37.528859      699.84454    
    468000   286.44171      0.018708349    8.9769892      710.66978     -38.180695      672.48908    
    469000   296.24794      0.018708349    21.942609      734.99929     -37.983885      697.01541    
    470000   302.20666      0.018708349    17.384714      749.78306     -40.86611       708.91694    
    471000   314.01734      0.018708349    7.4104831      779.08568     -37.178116      741.90757    
    472000   295.02973      0.018708349   -5.3045994      731.97688     -37.526756      694.45013    
    473000   278.63548      0.018708349    2.9702964      691.30232     -33.848817      657.4535     
    474000   295.48795      0.018708349    10.959167      733.11374     -39.230043      693.88369    
    475000   301.6335       0.018708349    12.217178      748.36102     -36.980426      711.38059    
    476000   302.43676      0.018708349    23.474975      750.35393     -31.320887      719.03304    
    477000   309.49542      0.018708349    7.1499646      767.86666     -33.819607      734.04705    
    478000   306.68518      0.018708349    2.8136028      760.89439     -34.773726      726.12066    
    479000   301.68185      0.018708349   -1.2334418      748.48099     -35.03082       713.45017    
    480000   290.49909      0.018708349    10.593188      720.73625     -37.24132       683.49493    
    481000   300.11237      0.018708349    19.186738      744.58707     -38.16709       706.41998    
    482000   314.26907      0.018708349    9.1240006      779.71022     -33.123034      746.58718    
    483000   301.26374      0.018708349    7.9507152      747.44365     -35.730744      711.71291    
    484000   304.53959      0.018708349    7.5155818      755.57112     -36.381462      719.18966    
    485000   310.21075      0.018708349    9.9136517      769.64142     -34.32461       735.31681    
    486000   305.59528      0.018708349    26.566115      758.19032     -35.733268      722.45705    
    487000   292.50877      0.018708349    7.7027338      725.72232     -32.250477      693.47184    
    488000   307.20762      0.018708349    12.918161      762.19057     -37.859329      724.33125    
    489000   315.58555      0.018708349    8.1520777      782.97645     -35.014063      747.96239    
    490000   291.47451      0.018708349    10.284532      723.15628     -36.856577      686.29971    
    491000   300.91139      0.018708349    12.663909      746.56945     -44.675092      701.89436    
    492000   303.74212      0.018708349    11.778419      753.59257     -40.327725      713.26484    
    493000   317.47516      0.018708349    10.146118      787.66462     -37.641389      750.02323    
    494000   288.10719      0.018708349    7.8863017      714.80188     -40.042742      674.75913    
    495000   292.45102      0.018708349    13.573649      725.57904     -35.222021      690.35702    
    496000   309.74284      0.018708349    10.594173      768.48053     -34.689749      733.79078    
    497000   287.6456       0.018708349    9.446584       713.65667     -30.959482      682.69719    
    498000   297.05847      0.018708349    8.5394208      737.01026     -31.766855      705.24341    
    499000   312.26724      0.018708349    10.518089      774.74363     -30.642308      744.10133    
    500000   292.04837      0.018708349    9.5945075      724.58005     -32.637598      691.94245    
    501000   287.33578      0.018708349    7.2522925      712.888       -33.416008      679.47199    
    502000   304.95618      0.018708349    14.076506      756.60468     -34.558508      722.04617    
    503000   319.12271      0.018708349    10.576476      791.75223     -34.770911      756.98132    
    504000   293.82257      0.018708349    8.8599001      728.98189     -32.942928      696.03896    
    505000   293.17631      0.018708349    13.720178      727.37849     -32.760413      694.61808    
    506000   314.50536      0.018708349    10.979336      780.29646     -33.835724      746.46073    
    507000   291.42115      0.018708349    5.271251       723.0239      -31.394626      691.62928    
    508000   297.54852      0.018708349    12.827485      738.22608     -30.687089      707.53899    
    509000   310.81246      0.018708349    21.757326      771.13428     -30.144782      740.9895     
    510000   301.65583      0.018708349    7.954226       748.41643     -34.739691      713.67674    
    511000   296.56537      0.018708349    9.0117667      735.78686     -29.789872      705.99699    
    512000   296.44222      0.018708349    10.769531      735.48132     -28.713645      706.76768    
    513000   300.97214      0.018708349    10.712806      746.72018     -25.604549      721.11564    
    514000   301.30537      0.018708349    9.4853443      747.54692     -30.173992      717.37293    
    515000   295.08471      0.018708349    8.8721935      732.11329     -27.158241      704.95505    
    516000   297.85116      0.018708349    10.815973      738.97693     -27.73406       711.24287    
    517000   328.06904      0.018708349    13.679588      813.94832     -30.883787      783.06454    
    518000   297.0948       0.018708349    8.7025168      737.10038     -31.993089      705.1073     
    519000   278.44051      0.018708349    4.9493196      690.81857     -33.822266      656.9963     
    520000   309.1691       0.018708349    12.346547      767.05707     -32.700053      734.35701    
    521000   322.34988      0.018708349    13.023442      799.75895     -36.136614      763.62234    
    522000   295.704        0.018708349    7.9680922      733.64978     -33.542542      700.10724    
    523000   293.68134      0.018708349    8.079219       728.63149     -37.545986      691.08551    
    524000   303.10016      0.018708349    12.026956      751.99986     -39.080598      712.91926    
    525000   307.11903      0.018708349    10.531149      761.97078     -35.915071      726.05571    
    526000   285.49659      0.018708349    6.8659681      708.32491     -35.749935      672.57497    
    527000   301.75484      0.018708349    11.141717      748.66208     -34.450047      714.21203    
    528000   319.58124      0.018708349    6.7548722      792.88987     -31.867138      761.02273    
    529000   299.29375      0.018708349    7.1892706      742.55604     -29.260821      713.29522    
    530000   283.94726      0.018708349    15.66941       704.48099     -28.691089      675.7899     
    531000   290.52553      0.018708349    15.51934       720.80185     -26.852697      693.94916    
    532000   306.81018      0.018708349    15.32486       761.20452     -29.408887      731.79563    
    533000   299.8954       0.018708349    9.3498082      744.04876     -27.573608      716.47515    
    534000   298.63535      0.018708349    8.2677162      740.92254     -26.506371      714.41617    
    535000   296.94722      0.018708349    11.235596      736.73423     -27.272763      709.46147    
    536000   295.27386      0.018708349    12.794786      732.5826      -28.714605      703.86799    
    537000   305.00853      0.018708349    9.0717718      756.73458     -33.379191      723.35539    
    538000   307.70932      0.018708349    2.9040459      763.4353      -35.342981      728.09232    
    539000   283.20976      0.018708349    7.3075814      702.65123     -35.916935      666.73429    
    540000   302.96594      0.018708349    13.550465      751.66684     -33.394748      718.27209    
    541000   303.22176      0.018708349    3.2361714      752.30154     -34.341182      717.96036    
    542000   286.01622      0.018708349    6.1980532      709.61412     -33.002504      676.61162    
    543000   296.09909      0.018708349    15.637938      734.63001     -27.95538       706.67463    
    544000   299.14663      0.018708349    6.901629       742.19103     -34.277421      707.9136     
    545000   294.26831      0.018708349    10.573553      730.08779     -32.522953      697.56483    
    546000   320.47726      0.018708349    12.759036      795.11292     -28.698241      766.41468    
    547000   309.04521      0.018708349    7.8993724      766.74967     -29.66677       737.0829     
    548000   298.3006       0.018708349    9.9501245      740.09201     -33.073873      707.01814    
    549000   287.88537      0.018708349    9.7315008      714.25153     -24.531701      689.71983    
    550000   316.96515      0.018708349    14.089571      786.39927     -31.62702       754.77225    
    551000   312.47763      0.018708349    9.8695435      775.26561     -37.431638      737.83398    
    552000   292.10848      0.018708349    9.9553769      724.72918     -35.843268      688.88592    
    553000   289.87915      0.018708349    8.2471218      719.19817     -35.519961      683.67821    
    554000   311.92737      0.018708349    10.019248      773.90041     -36.797186      737.10323    
    555000   292.01158      0.018708349    10.890373      724.48878     -30.384046      694.10473    
    556000   293.47311      0.018708349    8.6156013      728.11487     -26.227835      701.88704    
    557000   308.88838      0.018708349    10.969387      766.36058     -27.572025      738.78855    
    558000   306.90254      0.018708349    10.575021      761.43366     -28.620262      732.8134     
    559000   285.65126      0.018708349    12.459293      708.70864     -30.793965      677.91467    
    560000   296.11765      0.018708349    9.2631924      734.67605     -32.144577      702.53147    
    561000   310.28759      0.018708349    8.3771181      769.83207     -31.139558      738.69251    
    562000   297.14953      0.018708349    16.631746      737.23617     -29.284077      707.9521     
    563000   298.52448      0.018708349    11.499438      740.64747     -27.359547      713.28792    
    564000   312.92744      0.018708349    9.4098732      776.3816      -24.255566      752.12604    
    565000   301.51714      0.018708349    7.7161458      748.07234     -24.477637      723.59471    
    566000   293.35945      0.018708349    5.4952271      727.83288     -22.667382      705.1655     
    567000   303.31118      0.018708349    12.447216      752.52339     -21.826614      730.69678    
    568000   300.51132      0.018708349    9.3379443      745.57688     -27.379156      718.19772    
    569000   304.03514      0.018708349    4.2462008      754.31957     -29.060603      725.25897    
    570000   304.01803      0.018708349    10.740997      754.2771      -29.261741      725.01536    
    571000   302.5829       0.018708349    15.949977      750.71652     -27.665886      723.05063    
    572000   286.83351      0.018708349    5.5122692      711.64185     -32.245322      679.39653    
    573000   293.3064       0.018708349    3.7147486      727.70126     -33.520117      694.18114    
    574000   303.47795      0.018708349    3.3001264      752.93715     -32.034748      720.9024     
    575000   307.25237      0.018708349    9.8442775      762.30161     -37.657675      724.64394    
    576000   296.71856      0.018708349    15.789634      736.16693     -32.585114      703.58182    
    577000   282.90832      0.018708349    15.57316       701.90334     -30.526913      671.37643    
    578000   301.38783      0.018708349    7.4640614      747.7515      -32.292999      715.45851    
    579000   317.20912      0.018708349    11.882779      787.00457     -34.737371      752.2672     
    580000   291.8466       0.018708349    10.792533      724.07945     -33.909877      690.16958    
    581000   294.18601      0.018708349    10.764659      729.88359     -31.637918      698.24567    
    582000   297.39279      0.018708349    1.7997443      737.83971     -33.696839      704.14287    
    583000   310.33618      0.018708349    10.674489      769.95261     -33.118309      736.83431    
    584000   315.30287      0.018708349    14.860622      782.27512     -28.618184      753.65693    
    585000   281.75157      0.018708349    14.543745      699.03342     -23.344222      675.6892     
    586000   296.6196       0.018708349    11.076621      735.9214      -24.29248       711.62892    
    587000   298.7218       0.018708349    8.8115019      741.13703     -25.782874      715.35415    
    588000   302.84906      0.018708349    8.8723555      751.37686     -24.912622      726.46424    
    589000   296.03545      0.018708349    14.420444      734.47212     -28.03512       706.437      
    590000   298.30402      0.018708349    8.8851511      740.10049     -29.009109      711.09138    
    591000   299.93947      0.018708349    9.7386049      744.1581      -28.948139      715.20996    
    592000   290.53541      0.018708349    8.3216945      720.82637     -28.37781       692.44856    
    593000   300.87934      0.018708349    8.5787118      746.48995     -30.043661      716.44628    
    594000   294.66378      0.018708349    16.472947      731.06895     -31.104204      699.96475    
    595000   304.8581       0.018708349    8.861745       756.36134     -28.25996       728.10138    
    596000   308.14431      0.018708349    5.0232491      764.51453     -27.305648      737.20889    
    597000   298.69952      0.018708349    13.645117      741.08173     -28.911056      712.17068    
    598000   288.27742      0.018708349    2.7929269      715.22423     -28.181013      687.04321    
    599000   307.11359      0.018708349    8.6218418      761.95729     -29.888457      732.06884    
    600000   296.03092      0.018708349    12.524968      734.46086     -27.742188      706.71868    
    601000   305.67517      0.018708349    9.2824905      758.38853     -26.447086      731.94144    
    602000   300.70218      0.018708349    10.147531      746.05039     -29.953919      716.09647    
    603000   294.31492      0.018708349    9.7941609      730.20343     -33.128279      697.07515    
    604000   310.39273      0.018708349    10.510047      770.09293     -36.207654      733.88527    
    605000   296.50833      0.018708349    10.811121      735.64534     -40.393506      695.25183    
    606000   290.89279      0.018708349    10.782913      721.71303     -41.380693      680.33234    
    607000   292.3718       0.018708349    9.8577218      725.3825      -39.628468      685.75403    
    608000   310.32755      0.018708349    11.019253      769.9312      -36.081804      733.8494     
    609000   315.51746      0.018708349    8.1109808      782.80751     -36.962872      745.84464    
    610000   289.88063      0.018708349    12.285645      719.20184     -35.308943      683.89289    
    611000   308.99972      0.018708349    12.313276      766.63683     -36.625848      730.01098    
    612000   308.36074      0.018708349    6.8255513      765.05149     -37.649137      727.40235    
    613000   283.63333      0.018708349    8.5373389      703.70211     -38.373616      665.32849    
    614000   311.24757      0.018708349    10.597438      772.21381     -33.001863      739.21195    
    615000   309.75371      0.018708349    10.303181      768.50748     -36.938363      731.56912    
    616000   300.51197      0.018708349    11.633665      745.57848     -35.08526       710.49322    
    617000   293.34209      0.018708349    9.002873       727.78982     -28.134099      699.65572    
    618000   300.3245       0.018708349    10.186168      745.11337     -32.055992      713.05738    
    619000   302.65503      0.018708349    13.297657      750.89548     -30.253986      720.6415     
    620000   308.39611      0.018708349    9.2627609      765.13926     -31.325899      733.81336    
    621000   302.37314      0.018708349    12.503888      750.19609     -33.112222      717.08387    
    622000   304.82236      0.018708349    8.9194704      756.27267     -33.02223       723.25044    
    623000   307.93938      0.018708349    5.8582868      764.00609     -36.246541      727.75955    
    624000   297.27962      0.018708349    9.1430193      737.55892     -44.792349      692.76657    
    625000   298.28075      0.018708349    7.8446996      740.04276     -44.208511      695.83425    
    626000   300.73059      0.018708349    11.23457       746.12087     -40.765225      705.35565    
    627000   298.15143      0.018708349    9.5728373      739.72192     -41.133948      698.58798    
    628000   301.05464      0.018708349    9.0498482      746.92485     -40.923892      706.00096    
    629000   296.07942      0.018708349    10.292564      734.58121     -40.41923       694.16198    
    630000   303.10536      0.018708349    12.225716      752.01276     -36.580533      715.43222    
    631000   298.00562      0.018708349    11.115916      739.36016     -34.102113      705.25805    
    632000   302.24739      0.018708349    9.1872368      749.88409     -35.637925      714.24617    
    633000   295.87325      0.018708349    11.439873      734.06968     -31.689673      702.38       
    634000   308.84921      0.018708349    14.531801      766.26341     -36.212537      730.05087    
    635000   302.8377       0.018708349    9.6060481      751.34869     -34.095441      717.25325    
    636000   302.01851      0.018708349    8.4099439      749.31625     -37.371277      711.94497    
    637000   298.29717      0.018708349    10.360921      740.08349     -35.932177      704.15132    
    638000   291.31197      0.018708349    20.618248      722.75303     -39.752894      683.00013    
    639000   299.86625      0.018708349    10.17666       743.97643     -34.543853      709.43258    
    640000   304.10974      0.018708349    7.5512925      754.50465     -31.543856      722.96079    
    641000   287.18884      0.018708349    11.513633      712.52344     -32.084223      680.43922    
    642000   297.21801      0.018708349    10.310983      737.40606     -36.302731      701.10333    
    643000   303.89406      0.018708349    8.4543085      753.96955     -34.41676       719.55278    
    644000   313.65861      0.018708349    14.605982      778.19565     -31.086233      747.10941    
    645000   302.27936      0.018708349    10.619397      749.96342     -40.633422      709.33       
    646000   294.5778       0.018708349    10.706643      730.85565     -36.809324      694.04632    
    647000   300.12468      0.018708349    10.881029      744.6176      -37.58732       707.03028    
    648000   301.78116      0.018708349    6.2447585      748.72738     -41.422657      707.30472    
    649000   301.8294       0.018708349    10.886517      748.84706     -39.96206       708.88501    
    650000   297.26838      0.018708349    10.440002      737.53104     -37.103326      700.42771    
    651000   304.91031      0.018708349    5.9311454      756.49087     -35.378571      721.1123     
    652000   295.95646      0.018708349    8.0179264      734.27613     -31.005638      703.27049    
    653000   303.99541      0.018708349    11.321022      754.22098     -33.198406      721.02257    
    654000   303.48333      0.018708349    10.098747      752.9505      -35.864546      717.08596    
    655000   288.55756      0.018708349    8.8583004      715.91925     -33.190034      682.72922    
    656000   291.34818      0.018708349    9.4680996      722.84286     -34.501657      688.34121    
    657000   298.97049      0.018708349    5.2239047      741.75404     -34.121469      707.63257    
    658000   306.89484      0.018708349    11.232744      761.41457     -31.461302      729.95327    
    659000   289.66802      0.018708349    10.772626      718.67434     -36.437162      682.23718    
    660000   309.91689      0.018708349    7.8525866      768.91234     -30.980869      737.93147    
    661000   308.0393       0.018708349    7.9282191      764.254       -30.692238      733.56176    
    662000   302.56954      0.018708349    9.0755718      750.68338     -32.700714      717.98267    
    663000   291.79033      0.018708349    13.871013      723.93985     -30.576108      693.36375    
    664000   295.56211      0.018708349    10.167751      733.29774     -26.949874      706.34787    
    665000   300.80621      0.018708349    8.4722065      746.3085      -28.716962      717.59154    
    666000   307.44244      0.018708349    9.9666775      762.77316     -30.152467      732.62069    
    667000   283.00901      0.018708349    14.913357      702.15315     -27.489714      674.66344    
    668000   297.94978      0.018708349    7.9922434      739.22161     -34.141295      705.08032    
    669000   307.34175      0.018708349    4.9940866      762.52334     -33.737288      728.78606    
    670000   297.75782      0.018708349    11.618001      738.74536     -32.070397      706.67496    
    671000   296.22486      0.018708349    14.469967      734.94204     -37.924543      697.01749    
    672000   297.44773      0.018708349    5.9925716      737.97602     -39.609371      698.36665    
    673000   308.66422      0.018708349    2.0078215      765.80445     -35.102389      730.70206    
    674000   299.61127      0.018708349    10.662127      743.34382     -35.570122      707.7737     
    675000   299.80779      0.018708349    12.386722      743.83138     -35.531707      708.29968    
    676000   305.48604      0.018708349    7.9929803      757.91927     -32.360727      725.55855    
    677000   315.82151      0.018708349    12.243163      783.56188     -35.122559      748.43932    
    678000   297.64941      0.018708349    13.140471      738.4764      -30.769387      707.70701    
    679000   293.44032      0.018708349    10.138025      728.03351     -29.965237      698.06828    
    680000   279.71609      0.018708349    9.6603122      693.98333     -36.131375      657.85196    
    681000   298.90399      0.018708349    5.9018401      741.58905     -32.821369      708.76768    
    682000   318.69807      0.018708349    10.178632      790.69869     -34.134154      756.56453    
    683000   294.16952      0.018708349    10.142895      729.8427      -34.356822      695.48588    
    684000   294.34531      0.018708349    8.7819626      730.27883     -29.511252      700.76757    
    685000   319.61183      0.018708349    9.2835843      792.96577     -31.664192      761.30158    
    686000   307.35183      0.018708349    13.047033      762.54836     -29.993315      732.55504    
    687000   300.46334      0.018708349    9.8236112      745.45783     -32.965776      712.49206    
    688000   287.44669      0.018708349    10.710993      713.16317     -27.561474      685.60169    
    689000   305.71707      0.018708349    10.337811      758.49247     -28.976309      729.51616    
    690000   318.23701      0.018708349    10.423003      789.55479     -33.534432      756.02035    
    691000   294.56404      0.018708349    10.074692      730.8215      -37.54412       693.27738    
    692000   289.98568      0.018708349    6.105253       719.46248     -31.848882      687.6136     
    693000   307.89509      0.018708349    6.5335252      763.89621     -28.733301      735.16291    
    694000   305.99791      0.018708349    16.18407       759.18925     -33.493471      725.69578    
    695000   295.11004      0.018708349    5.9184312      732.17614     -38.291448      693.8847     
    696000   293.7046       0.018708349    6.6619826      728.68921     -33.619504      695.0697     
    697000   306.32664      0.018708349    10.104572      760.00485     -32.126297      727.87855    
    698000   306.18092      0.018708349    13.262039      759.6433      -32.330113      727.31319    
    699000   286.53699      0.018708349    10.281698      710.90616     -32.049161      678.857      
    700000   297.60163      0.018708349    3.9633742      738.35785     -35.764966      702.59288    
    701000   304.5473       0.018708349    12.168096      755.59024     -36.306085      719.28415    
    702000   283.58173      0.018708349    8.7737541      703.57408     -32.959237      670.61485    
    703000   293.05455      0.018708349    9.376434       727.07643     -33.500623      693.57581    
    704000   312.02657      0.018708349    8.5790917      774.14652     -30.403252      743.74327    
    705000   300.98955      0.018708349    12.766654      746.76336     -32.654711      714.10865    
    706000   303.68838      0.018708349    9.5401666      753.45923     -27.589151      725.87008    
    707000   295.42098      0.018708349    9.7493278      732.94759     -33.32163       699.62596    
    708000   301.08666      0.018708349    11.266175      747.00429     -33.582126      713.42217    
    709000   302.05659      0.018708349    10.73603       749.41073     -34.021682      715.38904    
    710000   297.00948      0.018708349    7.727879       736.88871     -30.030957      706.85776    
    711000   307.93342      0.018708349    11.830527      763.99129     -29.258308      734.73299    
    712000   295.00923      0.018708349    10.037622      731.92603     -25.316142      706.60989    
    713000   300.00342      0.018708349    10.018891      744.31676     -23.32134       720.99542    
    714000   307.16988      0.018708349    8.8111418      762.09695     -26.941217      735.15573    
    715000   301.84216      0.018708349    9.4797443      748.87872     -28.162019      720.7167     
    716000   284.67382      0.018708349    8.8871416      706.2836      -29.968914      676.31468    
    717000   297.39249      0.018708349    13.633962      737.83896     -31.769323      706.06963    
    718000   308.43388      0.018708349    9.8974811      765.23295     -28.738377      736.49457    
    719000   292.10689      0.018708349    8.1886605      724.72525     -26.421954      698.3033     
    720000   294.49449      0.018708349    13.019239      730.64895     -31.873059      698.77589    
    721000   300.46162      0.018708349    8.7298043      745.45356     -32.640408      712.81316    
    722000   300.45002      0.018708349    7.5518263      745.42479     -31.722894      713.70189    
    723000   288.61844      0.018708349    10.347872      716.07031     -35.768809      680.3015     
    724000   300.07025      0.018708349    13.406632      744.48257     -37.769431      706.71314    
    725000   312.88276      0.018708349    9.8248417      776.27076     -36.77107       739.49969    
    726000   301.02423      0.018708349    3.1088308      746.84942     -37.032093      709.81733    
    727000   283.39785      0.018708349    11.613696      703.11787     -41.097018      662.02085    
    728000   302.97888      0.018708349    10.993366      751.69895     -37.821601      713.87735    
    729000   305.30632      0.018708349    6.4786386      757.47341     -32.62926       724.84415    
    730000   303.13462      0.018708349    7.779397       752.08536     -26.013497      726.07186    
    731000   302.59357      0.018708349    23.077435      750.743       -27.460598      723.2824     
    732000   304.2033       0.018708349    18.247329      754.73676     -31.27045       723.46631    
    733000   304.97085      0.018708349    7.6698434      756.64109     -25.683895      730.95719    
    734000   289.6682       0.018708349    5.1087003      718.67479     -30.555293      688.11949    
    735000   293.98585      0.018708349    15.167387      729.387       -32.996984      696.39001    
    736000   304.80537      0.018708349    23.457756      756.23052     -30.631218      725.5993     
    737000   298.17611      0.018708349    10.415197      739.78314     -34.300496      705.48264    
    738000   299.61094      0.018708349    7.8697611      743.343       -33.676829      709.66617    
    739000   295.57703      0.018708349    10.510533      733.33475     -32.73856       700.59619    
    740000   296.85979      0.018708349    24.570711      736.51731     -31.017927      705.49938    
    741000   302.05137      0.018708349    7.1022366      749.39777     -37.619694      711.77807    
    742000   301.55279      0.018708349    10.096605      748.16079     -34.744458      713.41633    
    743000   309.082        0.018708349    14.953768      766.84096     -35.184701      731.65626    
    744000   306.26911      0.018708349    10.369257      759.8621      -28.275819      731.58628    
    745000   292.46578      0.018708349    9.1724725      725.61566     -26.174808      699.44085    
    746000   292.79566      0.018708349    11.018306      726.43411     -29.513961      696.92015    
    747000   309.2126       0.018708349    12.788754      767.16497     -29.93547       737.2295     
    748000   313.97613      0.018708349    8.4873505      778.98343     -31.271         747.71243    
    749000   295.22668      0.018708349    5.9533191      732.46553     -33.419929      699.0456     
    750000   294.53961      0.018708349    7.593563       730.76089     -31.406024      699.35486    
    751000   295.70564      0.018708349    10.111537      733.65385     -35.647331      698.00652    
    752000   303.64788      0.018708349    12.165553      753.35877     -32.104451      721.25432    
    753000   308.59542      0.018708349    4.9685479      765.63373     -34.182648      731.45108    
    754000   292.83087      0.018708349    9.2303578      726.52146     -32.11557       694.40589    
    755000   290.57932      0.018708349    12.339413      720.93531     -33.307442      687.62787    
    756000   317.73735      0.018708349    11.940909      788.31512     -38.76734       749.54778    
    757000   298.99809      0.018708349   -1.2313735      741.8225      -39.495164      702.32734    
    758000   292.69686      0.018708349    1.3248695      726.18898     -41.631745      684.55723    
    759000   292.98543      0.018708349    10.385981      726.90492     -38.758824      688.14609    
    760000   299.67318      0.018708349    13.407721      743.49743     -35.968703      707.52873    
    761000   305.03379      0.018708349    4.5820143      756.79724     -37.294715      719.50253    
    762000   297.26334      0.018708349    8.7740856      737.51855     -35.659968      701.85858    
    763000   301.23764      0.018708349    10.837384      747.37889     -32.132551      715.24634    
    764000   297.07268      0.018708349    10.286432      737.04551     -37.55203       699.49348    
    765000   308.77899      0.018708349    7.5169563      766.08918     -32.884129      733.20505    
    766000   297.81023      0.018708349    8.9156843      738.8754      -30.378076      708.49732    
    767000   298.26308      0.018708349    12.424844      739.99893     -29.435775      710.56316    
    768000   304.14052      0.018708349    11.332082      754.581       -30.731808      723.8492     
    769000   301.35309      0.018708349    11.807173      747.66533     -26.420516      721.24482    
    770000   306.03664      0.018708349    9.8844554      759.28535     -29.106272      730.17908    
    771000   302.93603      0.018708349    15.022948      751.59264     -30.435494      721.15715    
    772000   302.34187      0.018708349    10.057727      750.11853     -34.251075      715.86745    
    773000   294.44625      0.018708349    7.3135971      730.52927     -29.017821      701.51145    
    774000   289.88385      0.018708349    10.398393      719.20982     -23.207533      696.00228    
    775000   307.57827      0.018708349    9.924242       763.11015     -27.755676      735.35448    
    776000   303.03881      0.018708349    9.4306698      751.84764     -33.050794      718.79685    
    777000   311.08089      0.018708349    10.863196      771.80026     -32.765946      739.03432    
    778000   306.68305      0.018708349    12.568738      760.88911     -28.516768      732.37234    
    779000   296.63383      0.018708349    10.447231      735.9567      -33.384939      702.57176    
    780000   305.84154      0.018708349    14.116664      758.80129     -31.493555      727.30773    
    781000   298.91461      0.018708349    9.7433313      741.61539     -35.791071      705.82431    
    782000   293.23942      0.018708349    9.4956166      727.53509     -33.402192      694.1329     
    783000   301.07417      0.018708349    10.534113      746.97332     -36.364461      710.60886    
    784000   303.07463      0.018708349    10.48483       751.93651     -28.700799      723.23571    
    785000   287.59751      0.018708349    10.80812       713.53735     -25.506584      688.03076    
    786000   307.04379      0.018708349    10.088385      761.7841      -26.867632      734.91647    
    787000   297.37288      0.018708349    10.1778        737.79032     -25.791026      711.9993     
    788000   300.19857      0.018708349    12.372439      744.80092     -22.017118      722.7838     
    789000   290.68366      0.018708349    9.8512395      721.19418     -27.674084      693.5201     
    790000   304.99529      0.018708349    9.1433482      756.70173     -26.249001      730.45273    
    791000   301.10367      0.018708349    14.057474      747.04651     -26.97429       720.07222    
    792000   283.85144      0.018708349    12.300258      704.24325     -27.782209      676.46104    
    793000   303.52449      0.018708349    2.2182449      753.05263     -32.669332      720.3833     
    794000   314.92152      0.018708349    8.8190841      781.32896     -29.028497      752.30046    
    795000   308.19849      0.018708349    15.161303      764.64895     -30.654131      733.99482    
    796000   286.1235       0.018708349    10.091962      709.88029     -24.965916      684.91437    
    797000   296.11273      0.018708349    5.3920251      734.66384     -32.243301      702.42054    
    798000   310.56671      0.018708349    18.171208      770.52457     -27.547115      742.97745    
    799000   303.26209      0.018708349    8.8188369      752.4016      -25.228139      727.17346    
    800000   303.31517      0.018708349    8.5509206      752.5333      -25.68091       726.85239    
    801000   293.64485      0.018708349    11.46834       728.54097     -26.639343      701.90162    
    802000   296.70529      0.018708349    9.9110999      736.13399     -30.268282      705.86571    
    803000   299.2718       0.018708349    9.7110963      742.50158     -26.564914      715.93667    
    804000   316.68004      0.018708349    9.4776847      785.6919      -28.159794      757.53211    
    805000   300.15605      0.018708349    11.989177      744.69544     -26.210109      718.48533    
    806000   295.8693       0.018708349    10.286673      734.05989     -26.65646       707.40343    
    807000   297.68008      0.018708349    8.8958069      738.55247     -28.425283      710.12719    
    808000   305.61954      0.018708349    10.233069      758.25049     -29.572218      728.67827    
    809000   316.5737       0.018708349    10.358968      785.42808     -24.854436      760.57365    
    810000   296.19296      0.018708349    7.7036252      734.86289     -25.261999      709.60089    
    811000   302.01836      0.018708349    9.882559       749.31587     -23.616078      725.69979    
    812000   297.50566      0.018708349    10.419403      738.11974     -25.514408      712.60533    
    813000   298.3412       0.018708349    9.8855156      740.19273     -25.159357      715.03338    
    814000   317.11591      0.018708349    9.3623578      786.77332     -24.349994      762.42333    
    815000   285.8393       0.018708349    13.883414      709.17518     -29.819048      679.35613    
    816000   297.97912      0.018708349    10.785532      739.2944      -27.005784      712.28862    
    817000   322.26388      0.018708349    6.86847        799.54558     -29.149503      770.39608    
    818000   299.4246       0.018708349    10.950614      742.88069     -30.857191      712.0235     
    819000   288.36989      0.018708349    14.465421      715.45365     -35.431826      680.02182    
    820000   310.18261      0.018708349    26.418853      769.57162     -31.363363      738.20825    
    821000   307.80857      0.018708349    8.5146858      763.68155     -30.668188      733.01336    
    822000   284.93615      0.018708349   -1.6916455      706.93445     -27.024391      679.91006    
    823000   301.88936      0.018708349    13.430683      748.99582     -25.819875      723.17594    
    824000   305.84693      0.018708349    8.8366227      758.81467     -32.156684      726.65798    
    825000   282.89437      0.018708349    5.7117442      701.86873     -32.745685      669.12305    
    826000   288.18545      0.018708349    10.483921      714.99605     -31.2358        683.76025    
    827000   308.08318      0.018708349    14.121308      764.36285     -30.923128      733.43972    
    828000   307.74937      0.018708349    8.6686818      763.53467     -33.399246      730.13543    
    829000   281.41707      0.018708349    7.0003885      698.20351     -30.845442      667.35807    
    830000   294.03831      0.018708349    10.599749      729.51716     -28.226144      701.29102    
    831000   310.08828      0.018708349    9.8064973      769.33757     -25.079879      744.25769    
    832000   301.50324      0.018708349    10.106188      748.03785     -28.545008      719.49284    
    833000   305.63545      0.018708349    12.631499      758.28997     -26.83576       731.45421    
    834000   303.23411      0.018708349    8.7482318      752.33219     -26.766691      725.5655     
    835000   296.17856      0.018708349    8.8766016      734.82718     -32.294462      702.53272    
    836000   299.29715      0.018708349    10.922423      742.56447     -31.02814       711.53633    
    837000   302.4229       0.018708349    10.411801      750.31956     -29.265617      721.05394    
    838000   297.35007      0.018708349    7.9067873      737.73371     -31.437819      706.2959     
    839000   297.57151      0.018708349    10.119946      738.28311     -31.126307      707.15681    
    840000   302.54492      0.018708349    12.947102      750.62228     -31.119771      719.50251    
    841000   306.84956      0.018708349    9.8953613      761.30223     -33.032735      728.26949    
    842000   296.77177      0.018708349    6.3554298      736.29894     -31.422699      704.87624    
    843000   286.49626      0.018708349    15.95521       710.80511     -27.548813      683.2563     
    844000   302.70699      0.018708349    7.6697163      751.02439     -33.655687      717.3687     
    845000   310.05633      0.018708349    9.6188594      769.25831     -29.00216       740.25615    
    846000   302.55534      0.018708349    10.035513      750.64815     -27.147937      723.50021    
    847000   299.12809      0.018708349    10.603811      742.14504     -30.430588      711.71445    
    848000   294.37222      0.018708349    10.018808      730.34558     -32.778107      697.56747    
    849000   294.54725      0.018708349    7.8585922      730.77985     -31.110816      699.66904    
    850000   298.87831      0.018708349    10.492385      741.52533     -29.110958      712.41437    
    851000   288.51203      0.018708349    9.8638988      715.8063      -30.094189      685.71211    
    852000   304.64649      0.018708349    10.351417      755.83634     -29.969618      725.86672    
    853000   294.68613      0.018708349    9.5215708      731.12441     -27.296502      703.82791    
    854000   300.54592      0.018708349    8.3126263      745.6627      -29.205003      716.4577     
    855000   300.85227      0.018708349    10.316283      746.42278     -30.551635      715.87115    
    856000   286.95583      0.018708349    8.8838296      711.94531     -31.378286      680.56703    
    857000   300.58742      0.018708349    11.314659      745.76566     -31.005256      714.76041    
    858000   307.28089      0.018708349    10.152243      762.37235     -28.957978      733.41437    
    859000   296.58644      0.018708349    9.1101809      735.83915     -34.04864       701.79051    
    860000   291.00751      0.018708349    9.8974302      721.99765     -35.468655      686.52899    
    861000   299.3281       0.018708349    10.478607      742.64125     -32.43183       710.20942    
    862000   321.7302       0.018708349    9.5213614      798.22149     -36.416689      761.8048     
    863000   302.18368      0.018708349    13.356704      749.72605     -36.428608      713.29744    
    864000   294.59871      0.018708349    12.496809      730.90753     -34.180127      696.7274     
    865000   288.94954      0.018708349    5.9247971      716.89176     -32.457428      684.43434    
    866000   294.49896      0.018708349    4.3046877      730.66003     -28.504812      702.15522    
    867000   302.21555      0.018708349    10.856062      749.80511     -32.342432      717.46268    
    868000   320.78277      0.018708349    10.679982      795.8709      -32.330977      763.53993    
    869000   298.86753      0.018708349    10.875404      741.49858     -31.765048      709.73353    
    870000   287.26885      0.018708349    9.1652306      712.72193     -31.894007      680.82793    
    871000   306.02645      0.018708349    9.5290341      759.26006     -31.329099      727.93097    
    872000   297.47624      0.018708349    10.900844      738.04675     -30.108926      707.93782    
    873000   289.3567       0.018708349    8.9872279      717.90194     -32.038867      685.86307    
    874000   301.92543      0.018708349    9.429549       749.08531     -28.14444       720.94088    
    875000   311.40451      0.018708349    10.293336      772.60318     -24.258109      748.34507    
    876000   308.67013      0.018708349    9.2461479      765.81911     -29.56313       736.25598    
    877000   286.73887      0.018708349    9.0664422      711.40705     -32.555398      678.85165    
    878000   292.88921      0.018708349    11.949112      726.66621     -33.051982      693.61423    
    879000   314.75434      0.018708349    10.766281      780.9142      -33.124727      747.78948    
    880000   301.74708      0.018708349    12.014409      748.64283     -32.499542      716.14329    
    881000   295.20809      0.018708349    8.2562091      732.41941     -32.551938      699.86747    
    882000   294.48309      0.018708349    8.1676069      730.62067     -26.284277      704.3364     
    883000   305.98488      0.018708349    11.401754      759.15692     -30.81147       728.34545    
    884000   309.22552      0.018708349    11.599532      767.19704     -28.636921      738.56012    
    885000   300.93871      0.018708349    10.414931      746.63724     -25.5819        721.05534    
    886000   293.80771      0.018708349    8.6881361      728.94504     -23.442579      705.50246    
    887000   305.30617      0.018708349    6.4465902      757.47301     -22.330942      735.14207    
    888000   319.5683       0.018708349    10.981833      792.85777     -30.49755       762.36022    
    889000   306.22676      0.018708349    10.524574      759.75702     -25.497698      734.25933    
    890000   306.65442      0.018708349    11.529586      760.81808     -24.920938      735.89714    
    891000   296.52348      0.018708349    12.060263      735.68292     -25.541036      710.14188    
    892000   300.63645      0.018708349    9.2204082      745.88732     -29.436547      716.45077    
    893000   311.66252      0.018708349    10.601906      773.24331     -31.561641      741.68167    
    894000   296.0225       0.018708349    15.364624      734.43998     -34.279094      700.16088    
    895000   298.38403      0.018708349    7.7594974      740.299       -38.08632       702.21268    
    896000   324.83607      0.018708349    11.535734      805.92725     -34.978959      770.94829    
    897000   303.5752       0.018708349    10.214464      753.17844     -35.37122       717.80722    
    898000   295.53396      0.018708349    9.8272508      733.22791     -34.846893      698.38102    
    899000   297.30274      0.018708349    9.0970386      737.6163      -34.239221      703.37708    
    900000   306.98904      0.018708349    10.124343      761.64828     -28.830125      732.81815    
    901000   292.55507      0.018708349    8.0656876      725.83719     -25.902686      699.9345     
    902000   300.3273       0.018708349    8.6978962      745.1203      -29.353575      715.76672    
    903000   306.93675      0.018708349    7.428988       761.51853     -25.348082      736.17045    
    904000   301.00841      0.018708349    11.562934      746.81017     -29.14592       717.66425    
    905000   289.14512      0.018708349    10.382414      717.37702     -25.860381      691.51664    
    906000   302.69197      0.018708349    6.8842873      750.98713     -27.279076      723.70805    
    907000   312.0147       0.018708349    8.7061196      774.11708     -27.75563       746.36145    
    908000   297.69651      0.018708349    10.397555      738.59326     -32.737382      705.85588    
    909000   299.34284      0.018708349    11.002224      742.67783     -36.56223       706.1156     
    910000   298.40318      0.018708349    9.3943334      740.34651     -33.676355      706.67016    
    911000   307.00982      0.018708349    10.176395      761.69983     -37.11731       724.58252    
    912000   289.05953      0.018708349    9.818106       717.16466     -37.067989      680.09667    
    913000   293.00639      0.018708349    14.955844      726.95693     -35.938574      691.01836    
    914000   306.64161      0.018708349    1.6415314      760.78628     -33.177425      727.60885    
    915000   304.14654      0.018708349    11.38483       754.59596     -31.945291      722.65067    
    916000   293.33862      0.018708349    11.576942      727.78119     -37.516437      690.26475    
    917000   282.28594      0.018708349    15.377192      700.35919     -38.996526      661.36266    
    918000   298.69458      0.018708349    4.2032478      741.06949     -37.087         703.98249    
    919000   318.91418      0.018708349    17.147017      791.23488     -39.938775      751.29611    
    920000   298.26985      0.018708349    12.485839      740.01573     -35.043763      704.97196    
    921000   289.90584      0.018708349    6.6155327      719.26437     -32.60138       686.66299    
    922000   295.56726      0.018708349    10.007341      733.31052     -26.21918       707.09134    
    923000   288.0434       0.018708349    9.3164315      714.64361     -30.891469      683.75214    
    924000   301.71264      0.018708349    14.033372      748.55737     -34.27073       714.28664    
    925000   298.49073      0.018708349    11.084189      740.56373     -38.837475      701.72625    
    926000   289.45644      0.018708349    8.914289       718.14941     -38.285281      679.86413    
    927000   295.03924      0.018708349    10.962842      732.00048     -42.569322      689.43116    
    928000   303.60906      0.018708349    8.0560409      753.26244     -42.325125      710.93732    
    929000   294.66805      0.018708349    8.7538129      731.07954     -39.09073       691.98881    
    930000   308.18842      0.018708349    12.859405      764.62397     -43.250903      721.37306    
    931000   301.34727      0.018708349    9.3668649      747.65089     -42.87197       704.77892    
    932000   296.13175      0.018708349    3.6681562      734.71104     -42.792075      691.91896    
    933000   297.0415       0.018708349    5.098132       736.96815     -36.949198      700.01895    
    934000   299.47867      0.018708349    11.859375      743.01482     -39.371774      703.64305    
    935000   295.67824      0.018708349    12.013196      733.58586     -39.067789      694.51807    
    936000   302.02362      0.018708349    6.9456903      749.32893     -38.164251      711.16467    
    937000   301.86516      0.018708349    2.6450431      748.93579     -34.64908       714.28671    
    938000   298.42339      0.018708349    12.835042      740.39666     -33.991666      706.405      
    939000   304.77655      0.018708349    26.611503      756.15901     -39.211868      716.94714    
    940000   305.74127      0.018708349    10.727175      758.55252     -40.812179      717.74034    
    941000   302.96586      0.018708349    3.8742472      751.66665     -31.613353      720.0533     
    942000   294.88205      0.018708349    17.319922      731.6105      -38.232844      693.37765    
    943000   294.55166      0.018708349    18.579277      730.7908      -38.830202      691.96059    
    944000   308.16544      0.018708349    3.197342       764.56695     -39.356411      725.21054    
    945000   300.16611      0.018708349    6.8527305      744.7204      -36.074708      708.64569    
    946000   289.52366      0.018708349    16.18969       718.31617     -35.98543       682.33074    
    947000   307.92828      0.018708349    18.404182      763.97855     -38.577999      725.40055    
    948000   304.9637       0.018708349    2.5485916      756.62336     -39.641364      716.98199    
    949000   296.51102      0.018708349    15.170284      735.652       -41.82077       693.83123    
    950000   284.46188      0.018708349    15.458469      705.75776     -41.320913      664.43684    
    951000   308.42349      0.018708349    15.842712      765.20717     -37.677844      727.52933    
    952000   306.29077      0.018708349    7.5745337      759.91585     -36.943827      722.97202    
    953000   299.04084      0.018708349    4.1682132      741.92856     -32.402128      709.52643    
    954000   296.61892      0.018708349    13.507947      735.91971     -36.506712      699.413      
    955000   304.58476      0.018708349    11.428918      755.68318     -28.696069      726.98711    
    956000   307.68921      0.018708349    4.3195209      763.3854      -30.738932      732.64647    
    957000   303.4501       0.018708349    9.2294029      752.86807     -35.043811      717.82426    
    958000   286.4494       0.018708349    8.7712553      710.68885     -32.179758      678.5091     
    959000   292.44221      0.018708349    13.472681      725.55718     -36.766552      688.79062    
    960000   301.18364      0.018708349    9.4567561      747.2449      -41.351694      705.89321    
    961000   304.43517      0.018708349    11.139882      755.31204     -33.117511      722.19453    
    962000   298.73508      0.018708349    9.7090231      741.16997     -32.353838      708.81613    
    963000   297.62567      0.018708349    11.757218      738.41748     -30.562553      707.85493    
    964000   302.80512      0.018708349    8.8005248      751.26786     -33.264389      718.00347    
    965000   298.61822      0.018708349    10.343579      740.88004     -30.695803      710.18424    
    966000   293.91834      0.018708349    9.3030374      729.21951     -29.104002      700.1155     
    967000   302.39029      0.018708349    8.0899329      750.23863     -30.257897      719.98074    
    968000   306.7007       0.018708349    9.9310527      760.93288     -28.047626      732.88525    
    969000   294.81018      0.018708349    14.678025      731.43218     -34.134192      697.29799    
    970000   290.97704      0.018708349    10.559192      721.92207     -27.803478      694.11859    
    971000   296.5864       0.018708349    9.3271411      735.83905     -30.777369      705.06168    
    972000   308.95472      0.018708349    10.636746      766.52518     -33.099309      733.42587    
    973000   304.0089       0.018708349    6.9886591      754.25447     -34.355787      719.89869    
    974000   303.61399      0.018708349    9.8300775      753.27467     -34.060981      719.21369    
    975000   293.51068      0.018708349    11.132628      728.20808     -37.210866      690.99722    
    976000   306.22847      0.018708349    9.7262975      759.76126     -32.698699      727.06256    
    977000   301.94154      0.018708349    9.0617813      749.12528     -36.027741      713.09754    
    978000   295.03127      0.018708349    10.838347      731.98072     -30.806788      701.17393    
    979000   294.57915      0.018708349    10.264014      730.85899     -31.311947      699.54704    
    980000   306.78451      0.018708349    10.327564      761.14082     -31.634946      729.50588    
    981000   303.40671      0.018708349    10.519057      752.76042     -26.850521      725.9099     
    982000   300.18586      0.018708349    9.6787328      744.7694      -31.14873       713.62067    
    983000   297.98961      0.018708349    10.250321      739.32044     -33.721499      705.59894    
    984000   290.94747      0.018708349    10.370024      721.8487      -35.477743      686.37095    
    985000   297.66817      0.018708349    10.979629      738.52294     -34.384324      704.13862    
    986000   296.58544      0.018708349    9.9182631      735.83665     -36.56935       699.2673     
    987000   300.22981      0.018708349    9.2681893      744.87844     -36.502737      708.3757     
    988000   293.05459      0.018708349    9.9933434      727.07652     -36.375038      690.70148    
    989000   295.7681       0.018708349    8.6714094      733.80882     -36.6393        697.16952    
    990000   304.52098      0.018708349    9.6873234      755.52494     -35.854045      719.6709     
    991000   309.28976      0.018708349    12.646476      767.35643     -38.3894        728.96703    
    992000   298.07013      0.018708349    10.726407      739.5202      -39.562832      699.95737    
    993000   282.8245       0.018708349    7.4383279      701.69539     -34.199778      667.49561    
    994000   302.70298      0.018708349    9.7623045      751.01443     -37.924654      713.08978    
    995000   308.46046      0.018708349    8.7376607      765.29892     -33.937515      731.3614     
    996000   288.24055      0.018708349    19.322134      715.13274     -40.955411      674.17733    
    997000   290.20639      0.018708349    11.030278      720.01006     -37.440329      682.56973    
    998000   291.67052      0.018708349    5.3054717      723.6426      -39.773123      683.86948    
    999000   301.58833      0.018708349    0.28664057     748.24896     -37.2609        710.98806    
   1000000   299.29047      0.018708349    4.4848887      742.5479      -34.879602      707.6683     
   1001000   306.43266      0.018708349    9.6429487      760.26787     -33.524758      726.74312    
   1002000   300.03268      0.018708349    18.640815      744.38934     -37.846681      706.54266    
   1003000   297.36214      0.018708349    5.2636146      737.76367     -38.569531      699.19414    
   1004000   310.22125      0.018708349    14.41295       769.66746     -40.399123      729.26834    
   1005000   288.60319      0.018708349    12.122501      716.03246     -40.021673      676.01078    
   1006000   300.53815      0.018708349    10.885087      745.64343     -34.369515      711.27391    
   1007000   293.04635      0.018708349    10.614918      727.05607     -29.378722      697.67735    
   1008000   295.24818      0.018708349    11.212502      732.51888     -33.657191      698.86169    
   1009000   327.25936      0.018708349    8.8082174      811.93948     -32.655635      779.28385    
   1010000   295.77283      0.018708349    9.4332084      733.82055     -37.465217      696.35533    
   1011000   286.59828      0.018708349    9.5792439      711.05823     -32.989239      678.06899    
   1012000   315.07991      0.018708349    10.884279      781.72195     -32.995916      748.72603    
   1013000   298.15221      0.018708349    7.7320708      739.72386     -35.498954      704.2249     
   1014000   288.42221      0.018708349    11.860067      715.58345     -37.360923      678.22253    
   1015000   304.45767      0.018708349    13.990303      755.36786     -40.21305       715.15481    
   1016000   310.78243      0.018708349    9.5906622      771.05976     -39.028807      732.03096    
   1017000   295.71264      0.018708349    3.3634265      733.67121     -39.647251      694.02396    
   1018000   287.02819      0.018708349    8.3120711      712.12486     -41.323142      670.80172    
   1019000   301.78547      0.018708349    13.49433       748.73807     -35.196195      713.54188    
   1020000   303.89649      0.018708349    16.614527      753.97556     -36.759376      717.21618    
   1021000   308.84706      0.018708349    18.433011      766.25808     -34.433112      731.82496    
   1022000   294.89143      0.018708349   -8.7822         731.63377     -34.48328       697.15049    
   1023000   300.44397      0.018708349    12.996199      745.40978     -35.607838      709.80194    
   1024000   308.94818      0.018708349    10.358448      766.50895     -31.962856      734.54609    
   1025000   299.46879      0.018708349    6.5449498      742.99033     -34.739677      708.25065    
   1026000   299.25625      0.018708349    7.6561767      742.46301     -36.644598      705.81841    
   1027000   303.72066      0.018708349    10.500183      753.53933     -33.293987      720.24534    
   1028000   304.44727      0.018708349    13.737133      755.34207     -35.320966      720.02111    
   1029000   304.53293      0.018708349    11.404902      755.55459     -32.140778      723.41381    
   1030000   314.01347      0.018708349    8.3592682      779.07607     -30.098341      748.97773    
   1031000   305.25938      0.018708349    9.1688282      757.35695     -27.01866       730.33829    
   1032000   296.6826       0.018708349    9.5278579      736.07771     -27.890107      708.1876     
   1033000   307.26157      0.018708349    12.215227      762.32442     -32.307439      730.01698    
   1034000   300.16188      0.018708349    8.6628663      744.7099      -30.303235      714.40667    
   1035000   298.24478      0.018708349    9.6360869      739.95353     -26.806664      713.14687    
   1036000   296.44015      0.018708349    10.379806      735.47619     -23.623611      711.85258    
   1037000   302.79689      0.018708349    10.618926      751.24743     -27.115654      724.13178    
   1038000   297.42497      0.018708349    13.217487      737.91956     -27.419655      710.4999     
   1039000   295.42055      0.018708349    11.865727      732.94652     -23.851656      709.09486    
   1040000   295.96479      0.018708349    9.3149125      734.29679     -26.244971      708.05182    
   1041000   296.27462      0.018708349    10.206247      735.06551     -31.985402      703.0801     
   1042000   302.40436      0.018708349    9.7302634      750.27355     -24.976946      725.2966     
   1043000   304.95515      0.018708349    11.187821      756.60214     -20.304406      736.29774    
   1044000   290.36759      0.018708349    12.961646      720.40999     -23.147905      697.26209    
   1045000   293.39435      0.018708349    8.8383083      727.91946     -22.718764      705.2007     
   1046000   304.41691      0.018708349    9.8381974      755.26674     -24.514174      730.75256    
   1047000   305.65756      0.018708349    12.330207      758.34484     -23.252076      735.09277    
   1048000   293.83721      0.018708349    10.510465      729.01822     -22.797111      706.22111    
   1049000   290.66853      0.018708349    11.213381      721.15664     -20.545824      700.61082    
   1050000   299.91739      0.018708349    8.396674       744.1033      -25.866978      718.23632    
   1051000   300.65972      0.018708349    9.3776239      745.94505     -26.085542      719.85951    
   1052000   297.58103      0.018708349    9.0513607      738.30673     -24.713903      713.59283    
   1053000   303.38572      0.018708349    12.515861      752.70833     -26.676452      726.03187    
   1054000   296.44489      0.018708349    9.6808519      735.48794     -23.958692      711.52925    
   1055000   308.48494      0.018708349    6.2574385      765.35963     -32.702931      732.6567     
   1056000   297.10257      0.018708349    9.2237683      737.11968     -31.599657      705.52002    
   1057000   300.06366      0.018708349    11.222055      744.46621     -31.23523       713.23098    
   1058000   277.75757      0.018708349    9.926744       689.1242      -28.645785      660.47841    
   1059000   300.34827      0.018708349    4.5691867      745.17234     -31.697417      713.47493    
   1060000   307.35611      0.018708349    12.20449       762.55899     -25.174282      737.38471    
   1061000   291.15157      0.018708349    13.210796      722.35508     -25.533378      696.8217     
   1062000   285.86754      0.018708349    14.648506      709.24524     -25.799336      683.44591    
   1063000   295.30632      0.018708349    8.5538791      732.66311     -28.378354      704.28476    
   1064000   299.3076       0.018708349    9.529776       742.59042     -24.622912      717.96751    
   1065000   295.80661      0.018708349    11.39855       733.90436     -28.905768      704.99859    
   1066000   300.75824      0.018708349    9.614873       746.18948     -27.115829      719.07365    
   1067000   301.41594      0.018708349    8.7089426      747.82127     -24.490838      723.33043    
   1068000   300.16423      0.018708349    8.3845294      744.71574     -29.484576      715.23116    
   1069000   306.74739      0.018708349    11.038466      761.04873     -19.543582      741.50515    
   1070000   322.65922      0.018708349    10.419785      800.52643     -25.123345      775.40308    
   1071000   292.23075      0.018708349    9.3491078      725.03255     -23.193024      701.83952    
   1072000   299.36316      0.018708349    8.7215613      742.72824     -26.589248      716.13899    
   1073000   324.43614      0.018708349    5.4637515      804.93501     -26.357853      778.57716    
   1074000   304.64354      0.018708349    12.568143      755.82901     -22.202395      733.62662    
   1075000   284.31121      0.018708349    13.443081      705.38394     -25.710499      679.67344    
   1076000   292.2484       0.018708349    3.7781536      725.07633     -26.026023      699.0503     
   1077000   315.63557      0.018708349    3.8249987      783.10054     -28.430176      754.67037    
   1078000   303.04565      0.018708349    11.140656      751.86461     -26.125023      725.73958    
   1079000   291.77008      0.018708349    13.333418      723.88961     -30.485291      693.40432    
   1080000   292.91188      0.018708349    7.4546704      726.72246     -28.717374      698.00508    
   1081000   322.42367      0.018708349    5.7798371      799.94202     -32.111547      767.83047    
   1082000   306.29513      0.018708349    13.036626      759.92666     -27.768352      732.15831    
   1083000   297.42362      0.018708349    15.25264       737.91619     -24.932198      712.98399    
   1084000   290.77976      0.018708349    10.235469      721.43261     -27.639241      693.79337    
   1085000   303.5526       0.018708349    6.3787445      753.12236     -29.989371      723.13299    
   1086000   318.08905      0.018708349    11.851627      789.1877      -29.029839      760.15786    
   1087000   299.56256      0.018708349    10.480804      743.22296     -28.326886      714.89608    
   1088000   292.83226      0.018708349    11.432718      726.52491     -28.240315      698.28459    
   1089000   289.98661      0.018708349    8.4830516      719.46478     -35.97789       683.48689    
   1090000   292.84746      0.018708349    10.476969      726.56261     -35.579457      690.98315    
   1091000   315.37343      0.018708349    11.186053      782.45017     -27.438945      755.01123    
   1092000   299.48374      0.018708349    11.635533      743.02742     -36.409244      706.61817    
   1093000   294.66254      0.018708349    9.7600964      731.06589     -38.29883       692.76706    
   1094000   305.42645      0.018708349    8.5604623      757.77144     -30.399566      727.37187    
   1095000   311.07598      0.018708349    15.162786      771.78808     -31.374531      740.41354    
   1096000   291.39179      0.018708349    13.72637       722.95105     -26.683295      696.26776    
   1097000   295.55322      0.018708349    6.5443264      733.2757      -28.664179      704.61152    
   1098000   316.92742      0.018708349    4.3643701      786.30566     -28.668261      757.6374     
   1099000   302.6023       0.018708349    11.493931      750.76466     -31.661071      719.10359    
   1100000   291.93934      0.018708349    11.825262      724.30956     -29.518695      694.79087    
   1101000   297.59174      0.018708349    8.6479176      738.3333      -30.478406      707.8549     
   1102000   306.65969      0.018708349    10.916037      760.83113     -25.263466      735.56767    
   1103000   288.02593      0.018708349    9.9777611      714.60027     -26.843238      687.75703    
   1104000   303.67742      0.018708349    10.345746      753.43205     -26.047734      727.38432    
   1105000   306.46562      0.018708349    10.538578      760.34964     -29.829612      730.52003    
   1106000   298.67763      0.018708349    10.63452       741.02743     -31.157992      709.86944    
   1107000   304.87297      0.018708349    8.7414289      756.39825     -31.303334      725.09492    
   1108000   304.0915       0.018708349    9.8598616      754.4594      -25.462766      728.99663    
   1109000   298.47158      0.018708349    10.451297      740.51621     -30.684458      709.83176    
   1110000   317.64782      0.018708349    10.645919      788.093       -24.406937      763.68606    
   1111000   301.78579      0.018708349    11.338122      748.73888     -29.775878      718.963      
   1112000   287.55073      0.018708349    9.2080552      713.42129     -27.886731      685.53456    
   1113000   294.36345      0.018708349    10.171202      730.32383     -27.85482       702.46901    
   1114000   310.38358      0.018708349    9.9343585      770.07021     -27.263166      742.80705    
   1115000   303.86516      0.018708349    10.698247      753.89785     -24.31749       729.58036    
   1116000   292.19151      0.018708349    10.370566      724.93518     -25.730862      699.20432    
   1117000   296.94516      0.018708349    9.4229685      736.72912     -25.985727      710.7434     
   1118000   301.07249      0.018708349    9.4765696      746.96915     -23.946836      723.02231    
   1119000   310.304        0.018708349    9.8227212      769.87277     -22.065125      747.80765    
   1120000   298.90149      0.018708349    9.4020631      741.58285     -24.24168       717.34117    
   1121000   282.88551      0.018708349    10.859619      701.84674     -23.397484      678.44926    
   1122000   299.90852      0.018708349    12.150884      744.08131     -21.160155      722.92116    
   1123000   312.61583      0.018708349    11.291118      775.60849     -21.388247      754.22025    
   1124000   295.84122      0.018708349    7.6493121      733.99022     -26.248845      707.74138    
   1125000   292.88081      0.018708349    9.8960468      726.64535     -29.360081      697.28527    
   1126000   306.87879      0.018708349    10.087552      761.37473     -34.779399      726.59533    
   1127000   304.73041      0.018708349    9.8945962      756.04455     -35.449595      720.59496    
   1128000   300.0655       0.018708349    9.6282171      744.47077     -37.273276      707.19749    
   1129000   293.65721      0.018708349    10.104141      728.57164     -31.30424       697.2674     
   1130000   308.05338      0.018708349    10.913361      764.28892     -28.560535      735.72839    
   1131000   310.87364      0.018708349    10.365163      771.28606     -28.679286      742.60678    
   1132000   302.43669      0.018708349    8.4681744      750.35375     -28.449529      721.90423    
   1133000   290.38244      0.018708349    9.451024       720.44685     -29.68282       690.76403    
   1134000   303.02606      0.018708349    10.523581      751.81602     -32.402746      719.41327    
   1135000   301.63872      0.018708349    12.825717      748.37399     -27.961043      720.41295    
   1136000   300.42791      0.018708349    8.5856007      745.36993     -28.557217      716.81271    
   1137000   296.20992      0.018708349    9.4497086      734.90497     -32.210594      702.69437    
   1138000   304.32221      0.018708349    9.9382138      755.03179     -26.813867      728.21793    
   1139000   298.72085      0.018708349    9.702225       741.13466     -25.939666      715.195      
   1140000   291.65891      0.018708349    9.4461273      723.6138      -25.601313      698.01249    
   1141000   289.31899      0.018708349    6.3193296      717.80839     -27.729432      690.07896    
   1142000   300.71918      0.018708349    10.438532      746.09259     -25.232879      720.85971    
   1143000   317.70303      0.018708349    12.21707       788.22997     -27.820114      760.40985    
   1144000   292.76371      0.018708349    9.5283797      726.35483     -35.630182      690.72465    
   1145000   292.3304       0.018708349    10.467934      725.27978     -30.546244      694.73353    
   1146000   308.60941      0.018708349    9.9478231      765.66845     -29.914671      735.75378    
   1147000   318.91994      0.018708349    8.248348       791.24916     -36.218025      755.03113    
   1148000   293.42324      0.018708349    9.4551388      727.99114     -33.717765      694.27338    
   1149000   301.97544      0.018708349    9.7146686      749.20939     -30.352348      718.85704    
   1150000   312.5734       0.018708349    10.072612      775.50322     -33.320589      742.18263    
   1151000   303.95937      0.018708349    9.3593742      754.13157     -34.70605       719.42552    
   1152000   289.03084      0.018708349    10.22061       717.09349     -36.892455      680.20103    
   1153000   300.96764      0.018708349    9.1074869      746.70902     -37.414332      709.29469    
   1154000   307.45734      0.018708349    10.052617      762.81014     -37.201836      725.6083     
   1155000   293.76332      0.018708349    8.4874557      728.8349      -31.133534      697.70137    
   1156000   288.41012      0.018708349    7.3640995      715.55345     -32.840235      682.71322    
   1157000   305.94415      0.018708349    5.4960974      759.05586     -33.311087      725.74477    
   1158000   301.22885      0.018708349    17.34496       747.35708     -33.065669      714.29141    
   1159000   292.20798      0.018708349    8.4673402      724.97606     -37.531302      687.44476    
   1160000   307.06168      0.018708349    7.660498       761.82849     -38.168259      723.66023    
   1161000   293.48297      0.018708349    13.667485      728.13933     -35.568121      692.57121    
   1162000   294.45657      0.018708349    6.7611006      730.55486     -36.237936      694.31693    
   1163000   310.65576      0.018708349    11.583502      770.74549     -26.392237      744.35326    
   1164000   306.0918       0.018708349    10.20612       759.4222      -31.867347      727.55485    
   1165000   291.12707      0.018708349    9.3053534      722.29429     -32.03366       690.26063    
   1166000   312.33633      0.018708349    9.9356332      774.91505     -33.685607      741.22945    
   1167000   307.64704      0.018708349    10.753969      763.2808      -35.27554       728.00526    
   1168000   288.86918      0.018708349    6.3974517      716.6924      -35.974259      680.71814    
   1169000   282.24219      0.018708349    12.741559      700.25066     -33.998518      666.25215    
   1170000   311.48373      0.018708349    11.790403      772.79972     -29.764201      743.03552    
   1171000   300.81877      0.018708349    8.7269086      746.33967     -36.574353      709.76532    
   1172000   288.31754      0.018708349    10.106644      715.32377     -37.156758      678.16701    
   1173000   293.31178      0.018708349    10.247277      727.71461     -39.222956      688.49166    
   1174000   299.56873      0.018708349    9.5591013      743.23828     -38.888617      704.34967    
   1175000   288.94431      0.018708349    9.8974828      716.8788      -32.488036      684.39077    
   1176000   300.3069       0.018708349    12.720849      745.0697      -35.91557       709.15413    
   1177000   306.49553      0.018708349    11.125172      760.42386     -36.112464      724.3114     
   1178000   292.91832      0.018708349    9.371947       726.73844     -31.835544      694.90289    
   1179000   296.41143      0.018708349    10.431474      735.40493     -31.969976      703.43495    
   1180000   316.73446      0.018708349    12.705963      785.82691     -26.746043      759.08087    
   1181000   293.48846      0.018708349    7.9458508      728.15295     -32.487736      695.66521    
   1182000   297.03147      0.018708349    5.8959388      736.94325     -37.711005      699.23225    
   1183000   299.76928      0.018708349    10.670718      743.73584     -35.743543      707.99229    
   1184000   302.43014      0.018708349    16.565874      750.33751     -28.882724      721.45479    
   1185000   304.20248      0.018708349    9.1561578      754.73475     -27.829098      726.90565    
   1186000   299.65775      0.018708349    1.4843858      743.45913     -35.396206      708.06293    
   1187000   298.12819      0.018708349    10.53811       739.66427     -35.890018      703.77425    
   1188000   310.21326      0.018708349    15.506179      769.64765     -35.728119      733.91954    
   1189000   300.22258      0.018708349    8.8860108      744.8605      -39.491332      705.36917    
   1190000   294.88087      0.018708349    8.0056496      731.60757     -32.671658      698.93591    
   1191000   304.4029       0.018708349    12.513408      755.23198     -38.050321      717.18166    
   1192000   301.06048      0.018708349    18.367016      746.93935     -32.259127      714.68023    
   1193000   301.44233      0.018708349    5.7914795      747.88674     -26.469537      721.4172     
   1194000   292.77903      0.018708349    10.63817       726.39285     -25.934041      700.45881    
   1195000   290.66974      0.018708349    22.063956      721.15963     -22.8432        698.31643    
   1196000   293.50425      0.018708349    8.4182331      728.19213     -27.541265      700.65087    
   1197000   290.41455      0.018708349    7.8084623      720.52651     -25.939386      694.58712    
   1198000   304.56053      0.018708349    13.567442      755.62307     -26.157178      729.46589    
   1199000   306.26566      0.018708349    9.3626272      759.85354     -24.959613      734.89393    
   1200000   287.85107      0.018708349    13.720867      714.16643     -25.145933      689.0205     
   1201000   294.45407      0.018708349    27.821922      730.54867     -26.866607      703.68206    
   1202000   303.05547      0.018708349    7.9786993      751.88897     -23.396993      728.49198    
   1203000   304.34737      0.018708349   -4.3019532      755.09422     -25.689875      729.40435    
   1204000   284.24245      0.018708349    16.295237      705.21335     -27.965496      677.24785    
   1205000   308.73611      0.018708349    10.341415      765.98279     -29.365952      736.61684    
   1206000   303.49697      0.018708349    5.979402       752.98436     -33.926047      719.05831    
   1207000   289.40974      0.018708349    18.059374      718.03354     -33.277215      684.75633    
   1208000   297.3809       0.018708349    31.118268      737.81021     -34.715318      703.09489    
   1209000   301.02155      0.018708349    0.49087574     746.84275     -31.446763      715.39599    
   1210000   291.27719      0.018708349    19.324034      722.66674     -27.905506      694.76124    
   1211000   305.42799      0.018708349    11.057329      757.77527     -31.288946      726.48632    
   1212000   301.01167      0.018708349    12.151617      746.81826     -32.339889      714.47837    
   1213000   289.72408      0.018708349    8.0172973      718.81343     -35.799589      683.01384    
   1214000   295.714        0.018708349    10.156237      733.67458     -29.170004      704.50458    
   1215000   301.80078      0.018708349    11.072089      748.77606     -33.347505      715.42856    
   1216000   313.17407      0.018708349    8.7337037      776.99349     -33.826114      743.16738    
   1217000   295.48322      0.018708349    10.009363      733.10201     -32.45952       700.64249    
   1218000   292.24408      0.018708349    7.4882139      725.06562     -36.571317      688.4943     
   1219000   300.06825      0.018708349    12.770892      744.4776      -33.822649      710.65495    
   1220000   310.75749      0.018708349    10.030095      770.99789     -34.421578      736.57631    
   1221000   294.14543      0.018708349    9.5417609      729.78293     -31.534307      698.24863    
   1222000   293.60578      0.018708349    9.7052257      728.44403     -30.741829      697.7022     
   1223000   300.69853      0.018708349    7.4228358      746.04135     -33.682846      712.3585     
   1224000   313.84517      0.018708349    8.4779089      778.65851     -29.537072      749.12144    
   1225000   311.72386      0.018708349    16.183232      773.3955      -26.70083       746.69467    
   1226000   319.835        0.018708349    13.928066      793.51945     -34.007939      759.51151    
   1227000   302.21643      0.018708349    15.257477      749.8073      -30.943557      718.86375    
   1228000   296.30413      0.018708349    5.7536463      735.1387      -28.350728      706.78797    
   1229000   293.67121      0.018708349    2.9879834      728.60637     -30.757903      697.84847    
   1230000   303.174        0.018708349    14.424261      752.18306     -29.829277      722.35378    
   1231000   305.56023      0.018708349    9.6256498      758.10336     -32.981766      725.1216     
   1232000   295.72571      0.018708349    1.9793983      733.70364     -31.781117      701.92252    
   1233000   293.59799      0.018708349    8.1150568      728.4247      -31.020397      697.40431    
   1234000   302.55072      0.018708349    13.148321      750.63668     -27.918228      722.71845    
   1235000   298.57414      0.018708349    14.540805      740.77067     -30.763535      710.00713    
   1236000   299.13656      0.018708349    8.3833958      742.16604     -25.636842      716.5292     
   1237000   308.48565      0.018708349    11.102817      765.36141     -27.905509      737.4559     
   1238000   300.93737      0.018708349    10.005173      746.63391     -28.771418      717.86249    
   1239000   299.43796      0.018708349    10.453223      742.91384     -28.122817      714.79102    
   1240000   300.64685      0.018708349    11.466414      745.91312     -30.40763       715.50549    
   1241000   296.1504       0.018708349    9.4221866      734.7573      -29.811692      704.94561    
   1242000   304.53467      0.018708349    10.887835      755.55891     -29.778971      725.77994    
   1243000   298.21317      0.018708349    9.7870046      739.8751      -30.028468      709.84663    
   1244000   300.45237      0.018708349    10.171531      745.4306      -29.683608      715.747      
   1245000   318.01876      0.018708349    12.770182      789.0133      -33.045133      755.96817    
   1246000   306.44561      0.018708349    10.835387      760.30002     -31.505638      728.79438    
   1247000   298.69637      0.018708349    7.7921283      741.07392     -31.091526      709.9824     
   1248000   297.77202      0.018708349    11.401609      738.78059     -36.693435      702.08716    
   1249000   276.90017      0.018708349    10.40776       686.99696     -33.797505      653.19946    
   1250000   298.78456      0.018708349    8.7341141      741.29272     -34.699991      706.59273    
   1251000   317.81998      0.018708349    14.123157      788.52012     -38.237617      750.28251    
   1252000   289.31752      0.018708349    10.65053       717.80475     -37.377553      680.4272     
   1253000   289.90009      0.018708349    9.4394499      719.25011     -38.327449      680.92266    
   1254000   310.06932      0.018708349    9.9396523      769.29052     -37.04787       732.24265    
   1255000   306.54588      0.018708349    8.6176599      760.54879     -35.821825      724.72697    
   1256000   292.69494      0.018708349    7.0675336      726.18421     -36.571479      689.61273    
   1257000   298.83641      0.018708349    7.6363776      741.42138     -38.795995      702.62539    
   1258000   299.52474      0.018708349    10.143481      743.12914     -39.48087       703.64827    
   1259000   305.39193      0.018708349    15.581658      757.6858      -38.342073      719.34372    
   1260000   299.55765      0.018708349    9.1658095      743.21079     -38.83574       704.37505    
   1261000   286.97371      0.018708349    7.3993778      711.98969     -38.100448      673.88924    
   1262000   308.69526      0.018708349    11.62527       765.88145     -40.021578      725.85988    
   1263000   306.94452      0.018708349    1.7332945      761.5378      -40.325533      721.21227    
   1264000   288.85702      0.018708349    8.6685322      716.66222     -42.35843       674.30379    
   1265000   288.08715      0.018708349    9.2104214      714.75216     -42.14045       672.61171    
   1266000   299.59952      0.018708349    20.905822      743.31467     -44.924115      698.39055    
   1267000   309.64617      0.018708349    8.0701225      768.24067     -40.87116       727.36951    
   1268000   301.48832      0.018708349    6.2011067      748.00084     -44.468622      703.53222    
   1269000   285.03755      0.018708349    12.700509      707.18601     -37.733298      669.45271    
   1270000   321.01641      0.018708349    10.51932       796.45057     -35.556181      760.89439    
   1271000   295.89126      0.018708349    7.5466859      734.11438     -34.9522        699.16218    
   1272000   295.29182      0.018708349    21.845256      732.62714     -37.392622      695.23452    
   1273000   308.48898      0.018708349    10.638549      765.36965     -36.732376      728.63727    
   1274000   312.2906       0.018708349    5.6823958      774.80158     -39.265963      735.53562    
   1275000   293.70736      0.018708349   -0.95429303     728.69607     -37.293591      691.40248    
   1276000   288.60884      0.018708349    15.360986      716.04649     -32.094675      683.95182    
   1277000   312.17028      0.018708349    14.865948      774.50307     -31.74653       742.75653    
   1278000   309.87693      0.018708349    0.32028423     768.81322     -35.052757      733.76046    
   1279000   285.43348      0.018708349    2.644067       708.16834     -38.038362      670.12998    
   1280000   292.18207      0.018708349    9.7499027      724.91178     -33.561814      691.34997    
   1281000   313.21589      0.018708349    21.75464       777.09726     -45.235358      731.86191    
   1282000   300.34627      0.018708349    6.4793294      745.16738     -41.701647      703.46573    
   1283000   285.38301      0.018708349    4.8847836      708.0431      -41.941356      666.10175    
   1284000   290.4305       0.018708349    14.972422      720.56609     -44.281971      676.28412    
   1285000   321.16128      0.018708349    12.096429      796.80999     -47.848087      748.9619     
   1286000   324.69097      0.018708349    1.7465677      805.56724     -47.997298      757.56994    
   1287000   295.05228      0.018708349    6.2064986      732.03285     -43.882546      688.1503     
   1288000   296.10862      0.018708349    2.0531819      734.65364     -38.349428      696.30421    
   1289000   293.32865      0.018708349    13.483116      727.75646     -31.359719      696.39674    
   1290000   308.82304      0.018708349    14.775572      766.19847     -30.309869      735.8886     
   1291000   315.25014      0.018708349    8.3736514      782.14429     -34.384636      747.75965    
   1292000   296.65023      0.018708349    5.6263937      735.9974      -31.289688      704.70771    
   1293000   285.64256      0.018708349    10.1089        708.68705     -31.718368      676.96869    
   1294000   298.6708       0.018708349    14.842203      741.0105      -30.101167      710.90933    
   1295000   319.40488      0.018708349    21.174636      792.45232     -31.86461       760.58771    
   1296000   302.96324      0.018708349    8.1032212      751.66016     -28.680162      722.97999    
   1297000   292.59211      0.018708349    8.7256313      725.92909     -26.013788      699.9153     
   1298000   295.90337      0.018708349    10.630236      734.14443     -28.118799      706.02563    
   1299000   301.2028       0.018708349    9.4879139      747.29244     -33.218776      714.07367    
   1300000   307.79334      0.018708349    17.470797      763.64375     -30.251055      733.39269    
   1301000   300.59933      0.018708349    8.7942808      745.79524     -32.103796      713.69144    
   1302000   301.74034      0.018708349    7.82973        748.6261      -33.041197      715.5849     
   1303000   293.53218      0.018708349    11.962417      728.26144     -31.96291       696.29853    
   1304000   303.87052      0.018708349    10.575938      753.91114     -33.071696      720.83944    
   1305000   301.72483      0.018708349    11.34557       748.58763     -31.144185      717.44345    
   1306000   298.36963      0.018708349    8.7237103      740.26328     -32.559386      707.70389    
   1307000   298.60251      0.018708349    10.232963      740.84107     -32.749699      708.09137    
   1308000   302.96453      0.018708349    13.123777      751.66334     -27.933677      723.72966    
   1309000   299.64893      0.018708349    10.312966      743.43727     -35.65691       707.78036    
   1310000   303.56738      0.018708349    10.189919      753.15904     -32.113745      721.0453     
   1311000   297.77493      0.018708349    9.4531454      738.78781     -31.92629       706.86152    
   1312000   297.54273      0.018708349    9.7491768      738.21171     -35.338618      702.87309    
   1313000   292.27364      0.018708349    11.117826      725.13896     -34.791764      690.34719    
   1314000   286.30648      0.018708349    11.21192       710.33427     -36.864486      673.46979    
   1315000   297.24454      0.018708349    8.4794871      737.47191     -42.588367      694.88354    
   1316000   316.18277      0.018708349    10.260679      784.45816     -45.620791      738.83737    
   1317000   302.04869      0.018708349    10.040757      749.39113     -42.406347      706.98479    
   1318000   288.67597      0.018708349    10.86412       716.21304     -47.071497      669.14155    
   1319000   305.74854      0.018708349    12.07542       758.57055     -47.139707      711.43084    
   1320000   308.96563      0.018708349    7.8204821      766.55224     -39.115596      727.43664    
   1321000   303.62566      0.018708349    9.1884584      753.30362     -45.19748       708.10614    
   1322000   308.62052      0.018708349    9.860422       765.69602     -45.251586      720.44444    
   1323000   303.91263      0.018708349    6.7787608      754.01562     -41.525118      712.4905     
   1324000   289.97085      0.018708349    9.4796429      719.42567     -40.565063      678.8606     
   1325000   307.76904      0.018708349    11.914512      763.58346     -37.878886      725.70458    
   1326000   294.29078      0.018708349    9.7702354      730.14354     -38.056848      692.08669    
   1327000   291.55722      0.018708349    7.9429571      723.36151     -36.011746      687.34976    
   1328000   296.86739      0.018708349    15.395893      736.53617     -34.826217      701.70995    
   1329000   316.19421      0.018708349    9.682331       784.48655     -32.282268      752.20428    
   1330000   295.81961      0.018708349    0.93379216     733.93661     -30.99395       702.94266    
   1331000   287.45533      0.018708349    12.384086      713.18459     -36.074381      677.11021    
   1332000   311.4732       0.018708349    18.339735      772.7736      -29.864183      742.90942    
   1333000   304.94243      0.018708349    5.8328923      756.57058     -28.980504      727.59008    
   1334000   291.82714      0.018708349    10.083679      724.03117     -30.532359      693.49881    
   1335000   299.45548      0.018708349    11.934383      742.95731     -29.159352      713.79796    
   1336000   312.01497      0.018708349    11.706954      774.11774     -30.52977       743.58797    
   1337000   320.45843      0.018708349    4.5581521      795.06619     -40.555284      754.5109     
   1338000   292.03648      0.018708349    8.1011894      724.55057     -39.324691      685.22588    
   1339000   288.34014      0.018708349    14.010015      715.37984     -36.906627      678.47321    
   1340000   312.23095      0.018708349    10.111328      774.6536      -34.581919      740.07168    
   1341000   292.27141      0.018708349    5.4496611      725.13342     -36.027028      689.10639    
   1342000   289.12215      0.018708349    9.9196966      717.32002     -33.659393      683.66063    
   1343000   301.1969       0.018708349    9.157588       747.2778      -31.505711      715.77209    
   1344000   308.28773      0.018708349    10.27252       764.87035     -31.066182      733.80417    
   1345000   299.94173      0.018708349    10.427297      744.16369     -33.476576      710.68712    
   1346000   276.90543      0.018708349    8.5401063      687.01001     -33.822836      653.18717    
   1347000   306.309        0.018708349    8.836729       759.96108     -41.323277      718.6378     
   1348000   309.05117      0.018708349    9.7327274      766.76447     -40.982103      725.78237    
   1349000   298.9052       0.018708349    14.09848       741.59203     -43.161148      698.43088    
   1350000   295.48102      0.018708349    8.8227454      733.09656     -36.362438      696.73412    
   1351000   308.91012      0.018708349    10.030623      766.41453     -35.869701      730.54482    
   1352000   294.61704      0.018708349    9.8019543      730.953       -36.959755      693.99325    
   1353000   305.6451       0.018708349    8.1393147      758.31393     -37.537685      720.77624    
   1354000   291.42974      0.018708349    15.437848      723.04522     -39.79446       683.25076    
   1355000   290.81546      0.018708349    8.1564277      721.52116     -33.402383      688.11878    
   1356000   302.25371      0.018708349    8.6008974      749.89979     -34.827429      715.07236    
   1357000   301.15552      0.018708349    10.167272      747.17516     -35.815105      711.36005    
   1358000   297.38544      0.018708349    9.5209948      737.82147     -36.532389      701.28909    
   1359000   304.08748      0.018708349    9.483263       754.44942     -35.018132      719.43129    
   1360000   308.84548      0.018708349    10.587477      766.25414     -35.554761      730.69938    
   1361000   288.39465      0.018708349    10.728485      715.51508     -32.225994      683.28909    
   1362000   291.30062      0.018708349    11.113141      722.72486     -33.391469      689.33339    
   1363000   292.30162      0.018708349    7.7518337      725.20838     -33.451106      691.75728    
   1364000   312.21366      0.018708349    10.061117      774.6107      -32.440133      742.17057    
   1365000   285.26173      0.018708349    9.9749806      707.74222     -34.961709      672.78051    
   1366000   300.32611      0.018708349   -3.9576324      745.11735     -32.6907        712.42665    
   1367000   311.54391      0.018708349    8.6042115      772.94904     -34.183103      738.76594    
   1368000   287.44203      0.018708349    12.857575      713.15161     -34.599756      678.55185    
   1369000   277.91542      0.018708349    16.588715      689.51581     -32.138878      657.37693    
   1370000   307.88         0.018708349    11.703729      763.85876     -33.696176      730.16258    
   1371000   293.55963      0.018708349    7.0377009      728.32952     -34.489543      693.83998    
   1372000   308.99724      0.018708349    10.224387      766.63067     -37.000536      729.63014    
   1373000   297.35231      0.018708349    9.5203076      737.73929     -34.831992      702.9073     
   1374000   315.88138      0.018708349    10.588901      783.71042     -31.062854      752.64757    
   1375000   305.37938      0.018708349    10.38499       757.65465     -31.653352      726.0013     
   1376000   299.50318      0.018708349    9.6667212      743.07565     -38.597916      704.47773    
   1377000   304.48541      0.018708349    12.358862      755.43669     -30.975529      724.46116    
   1378000   295.98051      0.018708349    9.4468029      734.33581     -31.091047      703.24476    
   1379000   290.32537      0.018708349    9.8138811      720.30524     -30.706342      689.5989     
   1380000   283.33195      0.018708349    7.6507743      702.95438     -30.939338      672.01504    
   1381000   307.39464      0.018708349    8.6524537      762.65457     -35.916284      726.73829    
   1382000   304.17286      0.018708349    15.020098      754.66124     -35.696442      718.9648     
   1383000   294.77597      0.018708349    10.758868      731.34732     -31.574948      699.77237    
   1384000   293.86468      0.018708349    12.016823      729.08638     -31.350348      697.73603    
   1385000   299.05002      0.018708349    10.677718      741.95135     -34.683512      707.26784    
   1386000   297.04272      0.018708349    7.1182637      736.97119     -30.247318      706.72387    
   1387000   300.13633      0.018708349    10.189581      744.64651     -34.021884      710.62462    
   1388000   299.78553      0.018708349    10.15929       743.77617     -33.256868      710.5193     
   1389000   306.88993      0.018708349    9.9602062      761.40237     -33.75784       727.64453    
   1390000   292.05155      0.018708349    9.916068       724.58795     -34.723528      689.86442    
   1391000   295.49225      0.018708349    9.6304746      733.12442     -36.090978      697.03344    
   1392000   312.99072      0.018708349    10.031122      776.5386      -34.264015      742.27458    
   1393000   304.80629      0.018708349    10.754478      756.2328      -32.450734      723.78207    
   1394000   289.3233       0.018708349    10.238907      717.81908     -36.805317      681.01377    
   1395000   298.45025      0.018708349    10.024489      740.4633      -37.267143      703.19615    
   1396000   307.57215      0.018708349    10.778446      763.09497     -34.37126       728.72371    
   1397000   305.0321       0.018708349    10.164283      756.79305     -43.004673      713.78838    
   1398000   294.31821      0.018708349    10.460923      730.21158     -42.95923       687.25235    
   1399000   287.70198      0.018708349    9.2301531      713.79655     -38.357977      675.43857    
   1400000   302.46645      0.018708349    6.2830143      750.4276      -35.706123      714.72148    
   1401000   313.15497      0.018708349    8.5854421      776.94611     -36.26655       740.67956    
   1402000   300.99331      0.018708349    6.1344726      746.77269     -34.631463      712.14122    
   1403000   309.16726      0.018708349    11.110728      767.05248     -38.023871      729.02861    
   1404000   284.27958      0.018708349    9.8026421      705.30547     -33.245624      672.05985    
   1405000   290.55895      0.018708349    9.0352308      720.88477     -30.74405       690.14072    
   1406000   309.85932      0.018708349    11.368703      768.76952     -30.680914      738.0886     
   1407000   309.92517      0.018708349    11.268706      768.93289     -29.259771      739.67312    
   1408000   280.08421      0.018708349    9.9475769      694.89665     -29.426243      665.47041    
   1409000   295.52261      0.018708349    9.4576816      733.19973     -27.448617      705.75111    
   1410000   298.93114      0.018708349    9.2029744      741.65639     -29.750763      711.90563    
   1411000   310.08762      0.018708349    10.045954      769.33592     -28.571546      740.76437    
   1412000   307.72357      0.018708349    11.103891      763.47067     -28.400861      735.06981    
   1413000   288.43654      0.018708349    9.0044494      715.61901     -25.794663      689.82435    
   1414000   311.4119       0.018708349    9.2554785      772.6215      -25.961813      746.65969    
   1415000   303.29187      0.018708349    10.580014      752.4755      -26.402166      726.07333    
   1416000   295.39996      0.018708349    9.6025217      732.89546     -28.445869      704.44959    
   1417000   277.86917      0.018708349    8.9817881      689.40108     -30.896144      658.50493    
   1418000   299.25537      0.018708349    9.8428981      742.46082     -27.619556      714.84126    
   1419000   303.84277      0.018708349    12.034931      753.84229     -28.044285      725.79801    
   1420000   304.59033      0.018708349    8.6876606      755.697       -27.808817      727.88819    
   1421000   298.72477      0.018708349    9.5631708      741.14438     -27.476845      713.66754    
   1422000   299.66489      0.018708349    10.233332      743.47686     -29.405623      714.07124    
   1423000   297.74726      0.018708349    11.36135       738.71916     -29.428701      709.29046    
   1424000   301.02423      0.018708349    9.7832095      746.84941     -28.812385      718.03703    
   1425000   300.90929      0.018708349    10.33846       746.56424     -22.807719      723.75653    
   1426000   309.82999      0.018708349    11.414359      768.69674     -23.493708      745.20304    
   1427000   316.5541       0.018708349    12.607049      785.37946     -18.899481      766.47998    
   1428000   297.57716      0.018708349    10.853119      738.29713     -22.486683      715.81045    
   1429000   290.39635      0.018708349    10.426395      720.48135     -22.580417      697.90093    
   1430000   296.13061      0.018708349    9.7770941      734.70821     -23.957697      710.75051    
   1431000   299.07362      0.018708349    4.4292183      742.0099      -26.071052      715.93885    
   1432000   299.00708      0.018708349   -2.9490235      741.84481     -26.005218      715.8396     
   1433000   310.591        0.018708349    9.0167333      770.58484     -22.531544      748.0533     
   1434000   298.23661      0.018708349    19.141317      739.93325     -27.586623      712.34663    
   1435000   299.74926      0.018708349    8.8261659      743.68618     -22.847655      720.83852    
   1436000   315.90939      0.018708349    9.7664384      783.77991     -26.098086      757.68183    
   1437000   298.06378      0.018708349    14.242939      739.50446     -28.000842      711.50362    
   1438000   289.53442      0.018708349    12.388619      718.34287     -26.442061      691.90081    
   1439000   302.62984      0.018708349    7.3937784      750.83299     -27.299529      723.53346    
   1440000   305.01502      0.018708349    13.514279      756.75068     -27.890741      728.85994    
   1441000   292.54446      0.018708349    14.065568      725.81087     -26.997436      698.81343    
   1442000   300.06734      0.018708349    9.7317449      744.47535     -24.566339      719.90901    
   1443000   320.06009      0.018708349    7.9408242      794.07792     -20.743603      773.33431    
   1444000   303.91932      0.018708349    13.318187      754.03222     -21.13955       732.89267    
   1445000   284.018        0.018708349    8.841313       704.65649     -21.38974       683.26675    
   1446000   280.82507      0.018708349    7.1978378      696.73473     -25.116602      671.61813    
   1447000   304.00765      0.018708349    10.451437      754.25135     -26.516297      727.73506    
   1448000   294.47911      0.018708349    14.243851      730.61078     -26.683652      703.92713    
   1449000   301.34893      0.018708349    5.9617246      747.65501     -25.565072      722.08994    
   1450000   302.14315      0.018708349    7.359893       749.62549     -24.446606      725.17888    
   1451000   301.31431      0.018708349    16.459614      747.5691      -27.46168       720.10742    
   1452000   301.89997      0.018708349    27.290018      749.02215     -27.449279      721.57287    
   1453000   302.51691      0.018708349    12.533389      750.5528      -27.857418      722.69539    
   1454000   296.05785      0.018708349    5.6487246      734.52769     -25.154196      709.37349    
   1455000   301.1302       0.018708349    9.9991288      747.11233     -27.972069      719.14027    
   1456000   308.34662      0.018708349    12.149816      765.01648     -25.459171      739.5573     
   1457000   299.53681      0.018708349    17.91895       743.15908     -24.542512      718.61657    
   1458000   296.60485      0.018708349    8.1947702      735.88481     -27.130975      708.75383    
   1459000   296.02214      0.018708349    0.6334146      734.43908     -26.797133      707.64195    
   1460000   315.13353      0.018708349    7.3813161      781.85498     -27.646553      754.20843    
   1461000   304.01457      0.018708349    12.864206      754.26853     -25.835126      728.43341    
   1462000   300.37631      0.018708349    14.500989      745.24191     -26.496862      718.74505    
   1463000   305.0413       0.018708349    16.625575      756.81587     -23.077391      733.73848    
   1464000   293.8249       0.018708349    11.175761      728.98767     -27.967652      701.02001    
   1465000   290.34693      0.018708349    7.3879604      720.35874     -27.799526      692.55922    
   1466000   301.80129      0.018708349    7.9190871      748.77733     -31.536287      717.24104    
   1467000   316.64187      0.018708349    11.2641        785.59721     -30.722727      754.87448    
   1468000   293.93894      0.018708349    12.375133      729.27061     -22.899424      706.37118    
   1469000   299.24694      0.018708349    6.9994879      742.43991     -27.207738      715.23217    
   1470000   309.66115      0.018708349    10.944122      768.27786     -24.667065      743.61079    
   1471000   307.30027      0.018708349    10.412523      762.42045     -26.740461      735.67999    
   1472000   285.92769      0.018708349    10.114593      709.39448     -24.850065      684.54442    
   1473000   308.95459      0.018708349    10.616981      766.52486     -27.372465      739.1524     
   1474000   314.13373      0.018708349    9.4570182      779.37444     -30.122987      749.25145    
   1475000   294.38942      0.018708349    8.1603823      730.38827     -27.086716      703.30155    
   1476000   287.22134      0.018708349    12.442735      712.60406     -25.552984      687.05107    
   1477000   308.44271      0.018708349    19.250818      765.25487     -28.777123      736.47775    
   1478000   308.80824      0.018708349    10.387709      766.16174     -29.457386      736.70436    
   1479000   286.61028      0.018708349    7.5825768      711.08802     -30.285567      680.80245    
   1480000   299.87904      0.018708349    14.870051      744.00818     -30.057507      713.95067    
   1481000   303.64961      0.018708349    8.7827983      753.36306     -37.783945      715.57912    
   1482000   303.67544      0.018708349    9.3534742      753.42714     -35.382986      718.04415    
   1483000   302.07499      0.018708349    20.230422      749.45637     -38.172701      711.28366    
   1484000   306.63614      0.018708349    15.799773      760.77272     -34.610107      726.16262    
   1485000   294.57204      0.018708349    4.6623484      730.84135     -32.571731      698.26962    
   1486000   295.87493      0.018708349    12.205001      734.07385     -30.661639      703.41221    
   1487000   303.59029      0.018708349    16.992204      753.21588     -34.880637      718.33524    
   1488000   301.4212       0.018708349    10.115666      747.8343      -30.680735      717.15357    
   1489000   297.82492      0.018708349    8.337887       738.91184     -29.31339       709.59845    
   1490000   309.89795      0.018708349    10.126787      768.86536     -29.837854      739.0275     
   1491000   299.36831      0.018708349    17.039741      742.74103     -27.112612      715.62842    
   1492000   299.67908      0.018708349    8.5395095      743.51206     -29.32262       714.18944    
   1493000   306.01384      0.018708349    5.4491174      759.22877     -30.715053      728.51372    
   1494000   297.41921      0.018708349    12.550612      737.90525     -33.924176      703.98108    
   1495000   302.36682      0.018708349    19.040642      750.18041     -37.796409      712.384      
   1496000   304.46805      0.018708349    7.1404485      755.39362     -38.663927      716.72969    
   1497000   288.34393      0.018708349    8.8908879      715.38924     -36.616246      678.773      
   1498000   295.45694      0.018708349    16.670692      733.03681     -36.325334      696.71148    
   1499000   321.67624      0.018708349    14.792777      798.08763     -31.226749      766.86088    
   1500000   305.15589      0.018708349    6.7946031      757.10018     -30.455867      726.64431    
   1501000   286.09191      0.018708349    21.758653      709.8019      -28.4835        681.3184     
   1502000   292.24264      0.018708349    18.997134      725.06204     -30.783226      694.27881    
   1503000   315.47888      0.018708349    16.075458      782.71179     -30.031907      752.67988    
   1504000   295.25804      0.018708349    3.8619102      732.54334     -26.332815      706.21053    
   1505000   294.35371      0.018708349    8.0633806      730.29966     -31.228477      699.07118    
   1506000   294.47018      0.018708349    8.3719197      730.58865     -28.889555      701.69909    
   1507000   304.80231      0.018708349    19.529197      756.22293     -30.965356      725.25757    
   1508000   297.23042      0.018708349    19.681913      737.43686     -27.977227      709.45963    
   1509000   305.76114      0.018708349    0.52067192     758.60183     -31.988938      726.61289    
   1510000   294.92202      0.018708349   -3.071711       731.70965     -29.254609      702.45504    
   1511000   300.90949      0.018708349    26.69727       746.56475     -25.508833      721.05592    
   1512000   306.70871      0.018708349    15.897626      760.95276     -28.118006      732.83475    
   1513000   298.92292      0.018708349    10.043759      741.63601     -29.167709      712.4683     
   1514000   293.99241      0.018708349    6.9867188      729.40327     -31.146073      698.2572     
   1515000   279.99978      0.018708349    15.913373      694.68717     -33.167767      661.5194     
   1516000   296.46874      0.018708349    22.301628      735.54712     -33.061375      702.48574    
   1517000   320.83086      0.018708349    10.360274      795.9902      -31.91014       764.08006    
   1518000   303.60811      0.018708349   -10.557793      753.26009     -34.43532       718.82477    
   1519000   285.45245      0.018708349    8.2919725      708.21539     -31.467215      676.74817    
   1520000   299.35013      0.018708349    18.414749      742.69593     -30.335949      712.35998    
   1521000   301.00718      0.018708349    27.43497       746.80711     -32.956927      713.85019    
   1522000   306.70686      0.018708349    14.765542      760.94817     -38.596082      722.35209    
   1523000   293.17328      0.018708349   -5.2937619      727.37099     -32.048752      695.32223    
   1524000   290.21949      0.018708349    15.974886      720.04255     -37.643636      682.39891    
   1525000   295.18971      0.018708349    17.284676      732.37381     -38.186682      694.18713    
   1526000   308.54438      0.018708349    19.397173      765.50712     -33.336453      732.17066    
   1527000   294.66017      0.018708349    6.68143        731.06        -34.326992      696.733      
   1528000   293.02983      0.018708349    7.6383149      727.01508     -34.923862      692.09122    
   1529000   294.01456      0.018708349    11.635235      729.45823     -31.897728      697.5605     
   1530000   289.30938      0.018708349    14.202808      717.78455     -34.870734      682.91382    
   1531000   298.64919      0.018708349    12.525971      740.95688     -26.871443      714.08543    
   1532000   296.63794      0.018708349   -0.24415978     735.9669      -28.506831      707.46006    
   1533000   298.2532       0.018708349    7.4860125      739.97441     -25.482053      714.49235    
   1534000   302.941        0.018708349    13.492939      751.60497     -19.820137      731.78483    
   1535000   314.8634       0.018708349    9.1136836      781.18478     -28.356559      752.82822    
   1536000   293.21965      0.018708349    9.6528182      727.48603     -22.808813      704.67721    
   1537000   294.70894      0.018708349    11.675825      731.181       -22.496138      708.68486    
   1538000   326.00777      0.018708349    9.7754548      808.83426     -25.49364       783.34062    
   1539000   308.67304      0.018708349    8.9398764      765.82633     -25.407349      740.41898    
   1540000   292.81529      0.018708349    6.2547981      726.4828      -28.835611      697.64719    
   1541000   290.75104      0.018708349    12.010624      721.36134     -33.510026      687.85131    
   1542000   313.23709      0.018708349    12.939773      777.14986     -31.421462      745.72839    
   1543000   300.61751      0.018708349   -2.7597141      745.84032     -31.075294      714.76502    
   1544000   292.56082      0.018708349    8.546412       725.85146     -33.950535      691.90092    
   1545000   297.19063      0.018708349    10.249574      737.33815     -30.055504      707.28265    
   1546000   300.72848      0.018708349    10.06788       746.11565     -29.708024      716.40763    
   1547000   303.76022      0.018708349    5.2085974      753.63749     -30.684495      722.953      
   1548000   293.14958      0.018708349    10.49791       727.3122      -26.989692      700.32251    
   1549000   288.51037      0.018708349    7.1999838      715.80219     -27.906085      687.89611    
   1550000   297.1322       0.018708349   -0.35301891     737.19319     -27.792562      709.40062    
   1551000   310.28397      0.018708349    11.264128      769.82309     -29.999061      739.82403    
   1552000   292.76994      0.018708349    13.805043      726.37029     -30.44394       695.92635    
   1553000   287.69898      0.018708349    4.9417874      713.7891      -30.998234      682.79087    
   1554000   303.07538      0.018708349    5.373738       751.93837     -28.087246      723.85112    
   1555000   305.19545      0.018708349    23.669824      757.19832     -33.508391      723.68993    
   1556000   293.51108      0.018708349    3.4330568      728.20908     -29.000834      699.20825    
   1557000   308.28077      0.018708349   -2.7926724      764.85309     -24.908108      739.94499    
   1558000   306.16289      0.018708349    12.530883      759.59857     -24.635762      734.96281    
   1559000   302.99085      0.018708349    28.801921      751.72865     -26.063174      725.66548    
   1560000   301.41602      0.018708349    8.3540492      747.82146     -25.463026      722.35843    
   1561000   281.4313       0.018708349   -2.6944905      698.23881     -27.60602       670.63279    
   1562000   310.00662      0.018708349    12.45724       769.13498     -30.801183      738.33379    
   1563000   307.32714      0.018708349    21.463978      762.4871      -30.049887      732.43721    
   1564000   296.26765      0.018708349   -1.7703214      735.04822     -26.840017      708.2082     
   1565000   292.49182      0.018708349    6.4178795      725.68027     -28.108377      697.57189    
   1566000   312.83554      0.018708349    14.242088      776.15359     -31.672757      744.48083    
   1567000   295.79386      0.018708349    19.593013      733.87272     -29.113214      704.7595     
   1568000   288.40158      0.018708349    7.0730576      715.53226     -30.399156      685.1331     
   1569000   314.86525      0.018708349    13.926881      781.18937     -32.908294      748.28107    
   1570000   306.22686      0.018708349    17.552486      759.75728     -31.323492      728.43378    
   1571000   292.21349      0.018708349    6.5538485      724.98972     -31.50385       693.48586    
   1572000   292.78212      0.018708349    7.1096016      726.40051     -30.783841      695.61666    
   1573000   303.62316      0.018708349    0.68558438     753.29744     -29.680848      723.61659    
   1574000   305.26284      0.018708349    12.372518      757.36553     -32.877389      724.48814    
   1575000   287.86034      0.018708349    11.701513      714.18945     -30.206303      683.98314    
   1576000   287.73116      0.018708349    4.5451176      713.86894     -30.606669      683.26227    
   1577000   312.10504      0.018708349    8.9167022      774.34121     -33.867824      740.47339    
   1578000   311.09322      0.018708349    15.16192       771.83084     -28.410255      743.42059    
   1579000   284.44281      0.018708349    7.3024602      705.71045     -31.021131      674.68932    
   1580000   295.16214      0.018708349   -3.0280992      732.30541     -33.925657      698.37976    
   1581000   305.5401       0.018708349    13.639139      758.05341     -29.483116      728.57029    
   1582000   300.05602      0.018708349    11.616052      744.44726     -31.884555      712.5627     
   1583000   297.96051      0.018708349    1.0555054      739.24824     -32.083502      707.16473    
   1584000   292.61625      0.018708349    13.619494      725.98899     -32.47543       693.51356    
   1585000   295.55875      0.018708349    18.507122      733.28941     -31.615582      701.67383    
   1586000   294.91959      0.018708349    10.28982       731.70364     -34.831027      696.87262    
   1587000   306.31797      0.018708349    5.0086689      759.98332     -32.492714      727.49061    
   1588000   307.1236       0.018708349    21.753383      761.98211     -31.099631      730.88248    
   1589000   291.07983      0.018708349    12.400668      722.17708     -38.162267      684.01481    
   1590000   309.19675      0.018708349    3.8668111      767.12566     -36.290661      730.835      
   1591000   306.52616      0.018708349    17.628294      760.49986     -34.278083      726.22177    
   1592000   288.34649      0.018708349    12.335942      715.3956      -32.978225      682.41737    
   1593000   305.87004      0.018708349    0.22509913     758.87201     -33.282389      725.58962    
   1594000   309.58369      0.018708349    12.255773      768.08566     -38.703762      729.3819     
   1595000   307.91333      0.018708349    9.3211231      763.94146     -34.364494      729.57697    
   1596000   307.27362      0.018708349    8.9772479      762.35433     -32.998187      729.35614    
   1597000   293.25149      0.018708349    12.18445       727.56503     -33.373419      694.19161    
   1598000   287.12809      0.018708349    11.092888      712.3727      -30.480494      681.8922     
   1599000   303.00209      0.018708349    9.360838       751.75653     -35.96224       715.79429    
   1600000   299.31723      0.018708349    11.158238      742.61429     -34.325165      708.28912    
   1601000   296.33452      0.018708349    11.035029      735.21411     -35.879285      699.33482    
   1602000   297.14814      0.018708349    12.577277      737.23272     -32.491712      704.741      
   1603000   305.75801      0.018708349    8.8771351      758.59406     -31.765376      726.82869    
   1604000   309.01888      0.018708349    11.004364      766.68435     -32.809815      733.87453    
   1605000   296.91554      0.018708349    10.481892      736.65565     -29.064862      707.59079    
   1606000   297.44929      0.018708349    9.3872638      737.97989     -33.459538      704.52036    
   1607000   319.78892      0.018708349    11.330357      793.40513     -26.19101       767.21412    
   1608000   300.42683      0.018708349    9.2151346      745.36724     -28.059723      717.30752    
   1609000   294.13437      0.018708349    8.3818877      729.75548     -33.693234      696.06224    
   1610000   303.9352       0.018708349    9.8003657      754.0716      -37.208571      716.86303    
   1611000   301.54409      0.018708349    10.083567      748.1392      -34.858172      713.28103    
   1612000   293.05501      0.018708349    10.160116      727.07756     -33.854359      693.2232     
   1613000   292.88358      0.018708349    10.499907      726.65225     -31.827758      694.82449    
   1614000   295.40937      0.018708349    10.762064      732.91879     -26.797148      706.12164    
   1615000   295.54241      0.018708349    10.448409      733.24887     -27.190807      706.05807    
   1616000   301.70603      0.018708349    7.2618149      748.54098     -27.083741      721.45724    
   1617000   315.20987      0.018708349    10.259015      782.04437     -29.647655      752.39672    
   1618000   281.43341      0.018708349    10.208844      698.24405     -30.064006      668.18005    
   1619000   298.59792      0.018708349    9.6511758      740.82967     -27.472837      713.35683    
   1620000   306.8352       0.018708349    9.45351        761.26659     -28.106346      733.16025    
   1621000   310.08076      0.018708349    9.9439257      769.31891     -24.178553      745.14035    
   1622000   283.53531      0.018708349    9.3572373      703.45891     -29.461621      673.99729    
   1623000   284.35792      0.018708349    8.9415775      705.49984     -28.55354       676.9463     
   1624000   307.95433      0.018708349    4.6258282      764.04319     -28.300289      735.7429     
   1625000   306.47003      0.018708349    7.6949027      760.3606      -32.902046      727.45856    
   1626000   295.46975      0.018708349    13.756465      733.0686      -34.843145      698.22546    
   1627000   288.8377       0.018708349    9.2444605      716.61431     -31.516548      685.09776    
   1628000   305.18022      0.018708349    6.4075954      757.16054     -29.696237      727.4643     
   1629000   302.79021      0.018708349    10.254046      751.23086     -29.394259      721.8366     
   1630000   293.29566      0.018708349    15.482793      727.67461     -33.470315      694.20429    
   1631000   299.96189      0.018708349    6.7907361      744.21371     -30.077757      714.13595    
   1632000   303.20434      0.018708349    3.447191       752.25831     -29.399033      722.85928    
   1633000   308.47445      0.018708349    14.92503       765.33361     -31.315766      734.01785    
   1634000   294.54305      0.018708349    10.459334      730.76942     -32.941292      697.82813    
   1635000   310.44076      0.018708349    2.8759006      770.21208     -26.329875      743.8822     
   1636000   304.16729      0.018708349    11.068492      754.64742     -29.904928      724.7425     
   1637000   289.32129      0.018708349    10.018859      717.81409     -30.710172      687.10392    
   1638000   299.91743      0.018708349    10.110307      744.10342     -25.703895      718.39952    
   1639000   310.01408      0.018708349    10.008371      769.15349     -26.229213      742.92428    
   1640000   294.08382      0.018708349    13.585782      729.63005     -28.654304      700.97575    
   1641000   298.62375      0.018708349    9.6477366      740.89376     -29.971382      710.92238    
   1642000   296.18081      0.018708349    7.780951       734.83274     -32.282607      702.55014    
   1643000   307.34443      0.018708349    11.034933      762.53        -32.157172      730.37283    
   1644000   285.94318      0.018708349    10.283739      709.43292     -28.867825      680.56509    
   1645000   291.57924      0.018708349    8.4573388      723.41613     -31.797553      691.61857    
   1646000   304.63435      0.018708349    9.5441143      755.80622     -29.69715       726.10907    
   1647000   306.54086      0.018708349    10.55669       760.53631     -27.474164      733.06215    
   1648000   298.16452      0.018708349    9.7159406      739.7544      -26.780254      712.97415    
   1649000   285.48026      0.018708349    12.271678      708.2844      -25.691492      682.5929     
   1650000   307.89615      0.018708349    10.849362      763.89884     -23.922859      739.97598    
   1651000   300.47709      0.018708349    8.1457365      745.49194     -27.462411      718.02953    
   1652000   290.27402      0.018708349    10.249047      720.17784     -29.860009      690.31783    
   1653000   303.36382      0.018708349    14.03844       752.65401     -30.012111      722.6419     
   1654000   311.33835      0.018708349    7.8547069      772.43902     -29.469481      742.96954    
   1655000   294.4096       0.018708349    10.675322      730.43833     -34.746826      695.6915     
   1656000   298.24698      0.018708349    14.88865       739.95898     -35.277501      704.68148    
   1657000   313.93578      0.018708349    8.954391       778.88331     -31.2601        747.62321    
   1658000   313.02479      0.018708349    7.7513847      776.62314     -30.357316      746.26582    
   1659000   288.62963      0.018708349    8.4045126      716.09807     -30.854661      685.24341    
   1660000   294.86672      0.018708349    14.531029      731.57246     -32.801369      698.77109    
   1661000   319.88376      0.018708349    10.54899       793.64042     -29.994665      763.64575    
   1662000   299.03798      0.018708349    7.5884509      741.92148     -26.956962      714.96451    
   1663000   290.81721      0.018708349    9.3727893      721.52551     -30.224183      691.30133    
   1664000   299.85343      0.018708349    10.417592      743.94462     -27.34349       716.60113    
   1665000   299.95048      0.018708349    10.033191      744.18541     -31.007038      713.17837    
   1666000   300.28049      0.018708349    10.429372      745.00418     -30.46983       714.53435    
   1667000   302.47222      0.018708349    9.8871997      750.4419      -34.879548      715.56236    
   1668000   296.18389      0.018708349    11.105831      734.84038     -32.440941      702.39944    
   1669000   302.30524      0.018708349    11.13393       750.02763     -28.512617      721.51501    
   1670000   304.34123      0.018708349    3.4188168      755.07899     -32.096483      722.98251    
   1671000   297.36154      0.018708349    8.6718456      737.76218     -32.600117      705.16207    
   1672000   292.98015      0.018708349    14.182325      726.89184     -26.138746      700.75309    
   1673000   298.88997      0.018708349    10.455522      741.55425     -28.718132      712.83612    
   1674000   307.22241      0.018708349    10.394156      762.22726     -30.810255      731.417      
   1675000   301.69723      0.018708349    6.6723908      748.51915     -29.447504      719.07165    
   1676000   295.8563       0.018708349    9.9246747      734.02763     -31.016656      703.01097    
   1677000   295.23501      0.018708349    11.873325      732.48619     -25.864018      706.62217    
   1678000   307.66532      0.018708349    6.006466       763.32613     -25.424165      737.90196    
   1679000   301.9814       0.018708349    8.8229087      749.22418     -29.30117       719.92301    
   1680000   295.32823      0.018708349    8.4709863      732.71747     -25.442855      707.27461    
   1681000   286.77158      0.018708349    7.4367677      711.4882      -33.638535      677.84966    
   1682000   302.04989      0.018708349    8.7168936      749.39411     -29.148665      720.24545    
   1683000   312.06187      0.018708349    12.421881      774.23411     -31.727412      742.5067     
   1684000   296.97075      0.018708349    10.566888      736.79263     -32.736633      704.05599    
   1685000   288.63796      0.018708349    8.5531014      716.11872     -30.933923      685.1848     
   1686000   304.48515      0.018708349    8.7238649      755.43606     -29.562363      725.8737     
   1687000   313.34434      0.018708349    12.903599      777.41594     -26.85141       750.56453    
   1688000   288.0661       0.018708349    10.379061      714.69995     -24.781805      689.91814    
   1689000   299.40063      0.018708349    7.2219167      742.82122     -26.762137      716.05909    
   1690000   302.75693      0.018708349    8.1041575      751.1483      -29.005864      722.14244    
   1691000   323.01634      0.018708349    9.302663       801.41245     -29.256618      772.15583    
   1692000   301.96286      0.018708349    12.142324      749.17817     -29.775125      719.40305    
   1693000   290.49446      0.018708349    8.1841897      720.72476     -31.546642      689.17811    
   1694000   294.3206       0.018708349    5.5791991      730.21753     -29.837753      700.37977    
   1695000   308.36641      0.018708349    9.6694383      765.06556     -25.291619      739.77394    
   1696000   308.06101      0.018708349    14.295098      764.30785     -23.769386      740.53847    
   1697000   301.29003      0.018708349    11.668549      747.50888     -31.505146      716.00373    
   1698000   288.22164      0.018708349    9.4845884      715.08585     -31.787348      683.2985     
   1699000   284.537        0.018708349    9.7358758      705.94415     -30.991992      674.95215    
   1700000   293.39286      0.018708349    9.4186673      727.91578     -34.204081      693.7117     
   1701000   308.23222      0.018708349    6.1269407      764.73263     -31.038089      733.69454    
   1702000   298.1986       0.018708349    5.4841281      739.83894     -28.287596      711.55134    
   1703000   320.9558       0.018708349    11.226666      796.30018     -30.967909      765.33227    
   1704000   306.15095      0.018708349    11.351897      759.56894     -31.525488      728.04345    
   1705000   282.55241      0.018708349    6.4647769      701.02032     -32.78738       668.23294    
   1706000   285.38238      0.018708349    9.2756133      708.04155     -32.618258      675.42329    
   1707000   303.42849      0.018708349    10.926672      752.81444     -35.93568       716.87876    
   1708000   329.09342      0.018708349    10.580456      816.48985     -31.735135      784.75471    
   1709000   292.19374      0.018708349    9.5504499      724.94071     -31.003239      693.93747    
   1710000   295.06624      0.018708349    10.248252      732.06746     -30.951916      701.11555    
   1711000   303.63063      0.018708349    11.627358      753.31597     -35.313901      718.00207    
   1712000   300.74864      0.018708349    9.4968147      746.16567     -36.152746      710.01292    
   1713000   295.08805      0.018708349    10.215759      732.12158     -38.161702      693.95987    
   1714000   285.28983      0.018708349    10.596933      707.81192     -28.794791      679.01713    
   1715000   310.60856      0.018708349    8.8863479      770.62839     -28.116338      742.51205    
   1716000   309.01093      0.018708349    9.7430428      766.66464     -25.884566      740.78008    
   1717000   289.76277      0.018708349    13.933457      718.90943     -24.261581      694.64784    
   1718000   310.06867      0.018708349    5.5343928      769.28893     -25.127698      744.16123    
   1719000   313.34085      0.018708349    10.439184      777.40728     -24.036222      753.37106    
   1720000   292.48437      0.018708349    13.99208       725.66178     -24.08063       701.58115    
   1721000   302.97324      0.018708349    9.7906134      751.68497     -25.012557      726.67241    
   1722000   310.29665      0.018708349    8.7410679      769.85455     -25.148237      744.70631    
   1723000   302.2336       0.018708349    10.616802      749.8499      -25.449193      724.40071    
   1724000   306.7224       0.018708349    10.694651      760.98674     -30.575525      730.41121    
   1725000   306.00165      0.018708349    11.624885      759.19853     -26.567399      732.63113    
   1726000   283.71075      0.018708349    10.267245      703.89419     -27.248956      676.64524    
   1727000   304.23442      0.018708349    10.497182      754.81398     -26.018293      728.79569    
   1728000   305.42017      0.018708349    9.1120751      757.75586     -24.648025      733.10783    
   1729000   290.95243      0.018708349    9.9721669      721.861       -27.737191      694.12381    
   1730000   281.90772      0.018708349    9.1749098      699.42083     -27.49011       671.93072    
   1731000   292.7301       0.018708349    10.811444      726.27144     -26.644656      699.62678    
   1732000   305.35442      0.018708349    9.7638416      757.59273     -27.512         730.08073    
   1733000   282.88101      0.018708349    12.217051      701.83559     -30.979291      670.8563     
   1734000   286.16207      0.018708349    9.6806145      709.97599     -22.979243      686.99675    
   1735000   295.48618      0.018708349    6.9497658      733.10936     -30.425879      702.68348    
   1736000   289.79337      0.018708349    7.7251433      718.98534     -27.110227      691.87512    
   1737000   305.69744      0.018708349    10.52063       758.44377     -30.427049      728.01672    
   1738000   302.3666       0.018708349    11.445717      750.17986     -31.301992      718.87787    
   1739000   299.56694      0.018708349    5.873605       743.23383     -30.752636      712.48119    
   1740000   308.22321      0.018708349    11.275427      764.71028     -28.860824      735.84946    
   1741000   291.39633      0.018708349    12.878395      722.96234     -33.343944      689.61839    
   1742000   292.04662      0.018708349    10.116051      724.5757      -34.79204       689.78366    
   1743000   310.64703      0.018708349    10.287856      770.72384     -33.525706      737.19813    
   1744000   319.87302      0.018708349    11.959665      793.61378     -32.487588      761.12619    
   1745000   303.97592      0.018708349    9.5662032      754.17262     -33.444252      720.72837    
   1746000   285.91258      0.018708349    5.9095261      709.35699     -30.611934      678.74505    
   1747000   295.10445      0.018708349    10.764308      732.16227     -29.678066      702.4842     
   1748000   302.70748      0.018708349    10.824501      751.02559     -25.133206      725.89239    
   1749000   301.53369      0.018708349    10.741847      748.11339     -24.957042      723.15635    
   1750000   299.39548      0.018708349    8.2955557      742.80844     -28.629363      714.17908    
   1751000   296.17797      0.018708349    10.035706      734.8257      -27.442268      707.38343    
   1752000   295.66262      0.018708349    13.602879      733.54712     -29.831017      703.7161     
   1753000   311.68764      0.018708349    3.7393238      773.30562     -25.878145      747.42748    
   1754000   306.27038      0.018708349    6.8548272      759.86526     -22.288458      737.57681    
   1755000   296.06664      0.018708349    11.031766      734.5495      -22.62562       711.92388    
   1756000   297.30511      0.018708349    21.64263       737.62216     -22.344622      715.27754    
   1757000   300.79522      0.018708349    4.7327714      746.28124     -19.363265      726.91798    
   1758000   303.26057      0.018708349    5.3017658      752.39784     -23.645177      728.75267    
   1759000   281.21131      0.018708349    21.729777      697.69301     -23.463847      674.22916    
   1760000   290.44133      0.018708349    15.476954      720.59295     -27.435079      693.15787    
   1761000   307.02726      0.018708349    5.8982785      761.74309     -33.188087      728.55501    
   1762000   301.15764      0.018708349    9.8326712      747.1804      -31.783927      715.39647    
   1763000   302.96953      0.018708349    13.247903      751.67576     -27.259252      724.41651    
   1764000   306.67493      0.018708349    5.5773711      760.86896     -28.945746      731.92321    
   1765000   290.71642      0.018708349    8.9689299      721.27546     -26.520541      694.75492    
   1766000   300.19213      0.018708349    12.528508      744.78495     -29.322643      715.46231    
   1767000   312.0243       0.018708349    10.239831      774.14089     -28.858242      745.28265    
   1768000   311.72374      0.018708349    8.7061251      773.3952      -30.670932      742.72427    
   1769000   287.07309      0.018708349    9.1742704      712.23626     -30.305398      681.93086    
   1770000   297.4279       0.018708349    10.401223      737.92683     -31.117883      706.80894    
   1771000   309.1444       0.018708349    10.230943      766.99579     -30.246789      736.749      
   1772000   308.51021      0.018708349    10.297111      765.42233     -24.039635      741.3827     
   1773000   288.75795      0.018708349    10.307146      716.41644     -29.649651      686.76678    
   1774000   305.41541      0.018708349    11.65253       757.74405     -26.464382      731.27967    
   1775000   317.83963      0.018708349    8.3837514      788.56889     -31.576803      756.99209    
   1776000   287.07413      0.018708349    9.8739707      712.23882     -28.561266      683.67756    
   1777000   300.52461      0.018708349    12.16813       745.60984     -27.645503      717.96433    
   1778000   307.31376      0.018708349    10.562303      762.45392     -26.156924      736.29699    
   1779000   287.79331      0.018708349    5.6986383      714.02312     -31.861909      682.16121    
   1780000   284.99316      0.018708349    11.812076      707.07588     -28.508669      678.56721    
   1781000   300.21998      0.018708349    16.470009      744.85404     -25.798244      719.05579    
   1782000   305.61636      0.018708349    8.9048581      758.24261     -24.941513      733.30109    
   1783000   296.06223      0.018708349    8.2336631      734.53854     -28.178824      706.35972    
   1784000   300.17044      0.018708349    13.85453       744.73114     -27.374297      717.35684    
   1785000   306.52829      0.018708349    5.0822997      760.50515     -30.432436      730.07271    
   1786000   289.43887      0.018708349    4.141166       718.10581     -27.254431      690.85138    
   1787000   288.91478      0.018708349    11.666331      716.80554     -27.749856      689.05568    
   1788000   313.49404      0.018708349    19.398249      777.78735     -25.888533      751.89882    
   1789000   305.91126      0.018708349    6.1920988      758.97426     -25.524793      733.44947    
   1790000   284.03401      0.018708349    10.246147      704.6962      -29.974344      674.72186    
   1791000   306.07909      0.018708349    16.060408      759.39066     -28.078094      731.31257    
   1792000   301.99812      0.018708349    10.03748       749.26566     -29.81886       719.4468     
   1793000   305.08054      0.018708349    9.9708384      756.91323     -29.920301      726.99293    
   1794000   306.5374       0.018708349    11.637595      760.52773     -32.177287      728.35044    
   1795000   299.59771      0.018708349    10.740226      743.31017     -30.356528      712.95364    
   1796000   297.26433      0.018708349    9.9131563      737.521       -30.739804      706.78119    
   1797000   306.88353      0.018708349    8.9304213      761.38651     -34.747999      726.63851    
   1798000   305.30318      0.018708349    9.9179804      757.4656      -31.408751      726.05685    
   1799000   301.84524      0.018708349    10.293605      748.88636     -28.40351       720.48285    
   1800000   296.92679      0.018708349    8.9776218      736.68354     -34.199684      702.48386    
   1801000   296.38832      0.018708349    7.434885       735.3476      -34.140531      701.20707    
   1802000   290.85763      0.018708349    8.4620487      721.62579     -33.18065       688.44514    
   1803000   300.68479      0.018708349    11.757874      746.00725     -35.92982       710.07743    
   1804000   315.54837      0.018708349    10.767139      782.88422     -34.942242      747.94197    
   1805000   299.04233      0.018708349    10.13295       741.93227     -30.928681      711.00359    
   1806000   304.03279      0.018708349    9.7102124      754.31374     -34.011598      720.30214    
   1807000   297.72786      0.018708349    9.99318        738.67103     -33.033446      705.63759    
   1808000   297.2319       0.018708349    9.0485036      737.44054     -28.247905      709.19264    
   1809000   300.29838      0.018708349    12.22398       745.04855     -34.11512       710.93343    
   1810000   295.73832      0.018708349    11.700658      733.73492     -31.950928      701.78399    
   1811000   293.97831      0.018708349    6.9524331      729.36828     -35.015994      694.35229    
   1812000   317.82396      0.018708349    11.231364      788.53001     -31.522478      757.00753    
   1813000   295.64058      0.018708349    10.633106      733.49242     -32.986163      700.50626    
   1814000   294.60809      0.018708349    6.7428422      730.9308      -36.140703      694.7901     
   1815000   311.0933       0.018708349    10.520072      771.83105     -33.028873      738.80218    
   1816000   295.05779      0.018708349    12.303435      732.0465      -35.588347      696.45816    
   1817000   291.84977      0.018708349    7.7809946      724.08733     -34.805678      689.28165    
   1818000   297.7141       0.018708349    10.5534        738.63688     -30.959183      707.6777     
   1819000   306.39511      0.018708349    11.354284      760.17472     -33.477139      726.69758    
   1820000   299.86751      0.018708349    9.130366       743.97955     -32.100722      711.87883    
   1821000   285.33612      0.018708349    5.9524739      707.92678     -30.593029      677.33375    
   1822000   304.54398      0.018708349    10.158207      755.58201     -33.266395      722.31562    
   1823000   299.88959      0.018708349    18.266937      744.03433     -33.093242      710.94109    
   1824000   284.64604      0.018708349    6.8344612      706.21466     -36.34127       669.87339    
   1825000   306.18943      0.018708349    4.6477833      759.66441     -31.894878      727.76954    
   1826000   304.79418      0.018708349    13.557844      756.20276     -31.872913      724.32985    
   1827000   297.94747      0.018708349    6.5863487      739.21589     -32.555452      706.66044    
   1828000   296.39326      0.018708349    8.4600329      735.35986     -31.388794      703.97107    
   1829000   306.1004       0.018708349    10.914188      759.44353     -29.193223      730.25031    
   1830000   306.22118      0.018708349    17.271368      759.74318     -26.720063      733.02312    
   1831000   291.9757       0.018708349    11.169565      724.39977     -32.428333      691.97144    
   1832000   298.12295      0.018708349    9.7003751      739.65125     -28.979754      710.6715     
   1833000   307.6978       0.018708349    7.1511781      763.40672     -29.614599      733.79212    
   1834000   298.37566      0.018708349    11.892681      740.27823     -30.567846      709.71038    
   1835000   283.10631      0.018708349    9.738311       702.39457     -29.583648      672.81092    
   1836000   312.36857      0.018708349    9.7569598      774.99503     -27.543953      747.45107    
   1837000   304.51494      0.018708349    16.136259      755.50995     -29.446638      726.06331    
   1838000   295.09593      0.018708349    16.137002      732.14113     -31.173854      700.96728    
   1839000   284.88958      0.018708349    15.885028      706.81891     -28.079873      678.73904    
   1840000   295.93666      0.018708349    9.0335292      734.22702     -29.733582      704.49344    
   1841000   310.5282       0.018708349    7.4946233      770.42903     -32.25764       738.17139    
   1842000   306.4543       0.018708349    11.307608      760.32157     -29.947202      730.37437    
   1843000   298.5328       0.018708349    12.235129      740.66811     -29.788304      710.8798     
   1844000   303.02754      0.018708349    7.3469737      751.81968     -32.722225      719.09746    
   1845000   318.1079       0.018708349    2.5501036      789.23447     -32.696078      756.53839    
   1846000   299.4965       0.018708349    13.375375      743.05907     -28.468952      714.59012    
   1847000   293.6844       0.018708349    8.6164406      728.63909     -32.856457      695.78264    
   1848000   293.1487       0.018708349    9.1879758      727.31001     -28.827005      698.483      
   1849000   317.04268      0.018708349    9.222325       786.59162     -35.093559      751.49806    
   1850000   311.13483      0.018708349    10.231792      771.93409     -35.009185      736.9249     
   1851000   290.40571      0.018708349    6.9514629      720.50457     -37.174179      683.33039    
   1852000   288.31409      0.018708349    4.9524451      715.31519     -38.720059      676.59514    
   1853000   289.36493      0.018708349    10.082336      717.92236     -37.215612      680.70675    
   1854000   313.03589      0.018708349    18.072651      776.65068     -34.774574      741.8761     
   1855000   306.26715      0.018708349    13.223301      759.85724     -36.389553      723.46768    
   1856000   294.96036      0.018708349    3.9707823      731.80479     -38.253571      693.55122    
   1857000   280.15874      0.018708349    3.8994105      695.08156     -40.653407      654.42815    
   1858000   301.30232      0.018708349    14.231996      747.53937     -40.955601      706.58376    
   1859000   315.73564      0.018708349    12.724825      783.34882     -36.069549      747.27927    
   1860000   290.77357      0.018708349    6.1322681      721.41725     -34.991091      686.42616    
   1861000   290.99307      0.018708349    9.7693353      721.96184     -29.166628      692.79521    
   1862000   303.90221      0.018708349    14.36237       753.98976     -32.152055      721.83771    
   1863000   302.85825      0.018708349    10.157786      751.39966     -29.52814       721.87152    
   1864000   295.78205      0.018708349    9.2703436      733.84342     -29.35717       704.48625    
   1865000   297.30936      0.018708349    11.518702      737.63273     -32.151397      705.48133    
   1866000   319.50268      0.018708349    10.749745      792.69496     -32.696719      759.99824    
   1867000   309.53735      0.018708349    9.1719071      767.97069     -37.276194      730.6945     
   1868000   295.27161      0.018708349    13.044132      732.577       -34.944321      697.63267    
   1869000   299.98145      0.018708349    11.406307      744.26225     -33.565057      710.69719    
   1870000   300.99242      0.018708349    11.046601      746.77048     -37.395327      709.37516    
   1871000   290.28535      0.018708349    9.0254993      720.20594     -35.123906      685.08204    
   1872000   301.60941      0.018708349    10.020932      748.30126     -28.493471      719.80779    
   1873000   302.04337      0.018708349    9.4591921      749.37793     -29.812817      719.56511    
   1874000   307.08068      0.018708349    10.146777      761.87564     -30.853678      731.02196    
   1875000   300.09571      0.018708349    11.408971      744.54574     -31.854114      712.69162    
   1876000   291.65419      0.018708349    8.2615611      723.60208     -31.631404      691.97068    
   1877000   298.87621      0.018708349    9.7683429      741.52012     -36.795925      704.7242     
   1878000   297.81415      0.018708349    10.751794      738.88512     -35.369724      703.5154     
   1879000   302.04121      0.018708349    10.579484      749.37257     -40.113326      709.25925    
   1880000   304.84631      0.018708349    9.8883782      756.33209     -37.935605      718.39648    
   1881000   301.72675      0.018708349    14.18633       748.59237     -30.977002      717.61537    
   1882000   305.06689      0.018708349    8.9067574      756.87936     -31.244426      725.63493    
   1883000   320.2449       0.018708349    9.6374456      794.53643     -28.510192      766.02624    
   1884000   300.15653      0.018708349    7.4376553      744.69661     -30.073399      714.62321    
   1885000   299.44393      0.018708349    9.703211       742.92864     -26.472904      716.45574    
   1886000   304.70536      0.018708349    10.234054      755.98239     -32.332577      723.64981    
   1887000   295.61288      0.018708349    10.46372       733.42371     -32.777682      700.64602    
   1888000   293.33436      0.018708349    13.20635       727.77064     -26.797769      700.97288    
   1889000   310.83942      0.018708349    10.272981      771.20116     -25.427886      745.77328    
   1890000   292.32156      0.018708349    9.018933       725.25784     -27.504881      697.75296    
   1891000   293.71693      0.018708349    11.634727      728.71979     -27.472454      701.24733    
   1892000   296.49645      0.018708349    13.813319      735.61585     -28.942116      706.67374    
   1893000   312.8426       0.018708349    12.401216      776.17112     -32.051443      744.11968    
   1894000   313.90043      0.018708349    8.5698489      778.79561     -32.013695      746.78191    
   1895000   299.30668      0.018708349    3.9278114      742.58813     -32.692706      709.89543    
   1896000   291.2863       0.018708349    6.404641       722.68934     -32.341397      690.34795    
   1897000   312.85466      0.018708349    10.633157      776.20103     -25.194334      751.0067     
   1898000   306.93365      0.018708349    12.657372      761.51084     -25.852211      735.65863    
   1899000   298.98387      0.018708349    12.235988      741.78723     -28.010048      713.77718    
   1900000   287.94572      0.018708349    4.9829511      714.40127     -25.944895      688.45637    
   1901000   294.99348      0.018708349    9.2221395      731.88695     -23.093664      708.79329    
   1902000   302.52198      0.018708349    13.435372      750.56537     -25.820871      724.74449    
   1903000   298.94356      0.018708349    11.515005      741.68722     -26.907876      714.77934    
   1904000   307.68875      0.018708349    1.6224537      763.38427     -28.140708      735.24356    
   1905000   300.79263      0.018708349    8.934425       746.2748      -32.126979      714.14782    
   1906000   295.92087      0.018708349    14.9049        734.18783     -31.358264      702.82957    
   1907000   304.89189      0.018708349    10.995022      756.44518     -31.450281      724.99489    
   1908000   297.80283      0.018708349    9.5277004      738.85704     -26.925274      711.93176    
   1909000   304.81615      0.018708349    11.764266      756.25726     -26.575925      729.68134    
   1910000   314.43109      0.018708349    9.8491846      780.11219     -23.782853      756.32934    
   1911000   297.966        0.018708349    7.9690481      739.26185     -24.539136      714.72272    
   1912000   285.06294      0.018708349    20.377775      707.24902     -29.441098      677.80792    
   1913000   308.34431      0.018708349    10.423166      765.01074     -23.698578      741.31217    
   1914000   310.07558      0.018708349    5.4372076      769.30606     -23.480291      745.82577    
   1915000   303.71889      0.018708349    11.899155      753.53494     -22.845729      730.68921    
   1916000   299.37268      0.018708349    16.024915      742.75187     -22.156278      720.5956     
   1917000   301.32977      0.018708349    9.3863837      747.60746     -25.053163      722.55429    
   1918000   300.42808      0.018708349    7.6847296      745.37034     -27.467016      717.90332    
   1919000   287.61827      0.018708349    11.248734      713.58886     -26.409719      687.17915    
   1920000   295.34888      0.018708349    12.298209      732.76871     -29.047932      703.72078    
   1921000   308.16337      0.018708349    13.214138      764.56183     -24.884041      739.67779    
   1922000   308.21565      0.018708349    8.7060768      764.69152     -27.877704      736.81382    
   1923000   286.39018      0.018708349   -0.56844633     710.54194     -27.497095      683.04485    
   1924000   292.64992      0.018708349    14.019983      726.07252     -31.580429      694.49209    
   1925000   302.94638      0.018708349    12.842687      751.61833     -34.584903      717.03342    
   1926000   311.25289      0.018708349    7.9487303      772.22699     -29.022783      743.20421    
   1927000   286.40107      0.018708349    11.407355      710.56895     -21.710277      688.85867    
   1928000   293.73669      0.018708349    10.904782      728.76884     -35.315186      693.45365    
   1929000   313.5828       0.018708349    15.121634      778.00757     -34.172772      743.8348     
   1930000   310.91575      0.018708349    7.3288463      771.39055     -33.543439      737.84711    
   1931000   294.13703      0.018708349    8.4834404      729.76208     -38.230194      691.53189    
   1932000   287.40475      0.018708349    13.280898      713.05912     -34.077138      678.98198    
   1933000   307.01163      0.018708349    9.8396065      761.70432     -29.696428      732.00789    
   1934000   306.96885      0.018708349    9.2852197      761.59818     -28.810271      732.78791    
   1935000   281.86378      0.018708349    4.6142909      699.3118      -25.338574      673.97323    
   1936000   292.39658      0.018708349    11.320424      725.44397     -24.976416      700.46755    
   1937000   306.31534      0.018708349    10.37158       759.97681     -26.316806      733.66001    
   1938000   297.58137      0.018708349    9.6009232      738.30758     -33.194015      705.11356    
   1939000   298.27494      0.018708349    6.5995717      740.02835     -30.412824      709.61553    
   1940000   298.93991      0.018708349    11.787665      741.67817     -27.965855      713.71231    
   1941000   295.77248      0.018708349    10.104713      733.81966     -29.810091      704.00957    
   1942000   315.9569       0.018708349    10.124547      783.89779     -31.473148      752.42464    
   1943000   301.98533      0.018708349    9.6394192      749.23394     -31.104216      718.12972    
   1944000   299.90158      0.018708349    9.7521213      744.06408     -26.038161      718.02592    
   1945000   297.14519      0.018708349    11.279161      737.22542     -31.189254      706.03616    
   1946000   304.78024      0.018708349    11.463769      756.16817     -33.474569      722.69361    
   1947000   310.27702      0.018708349    7.7345019      769.80583     -30.975099      738.83073    
   1948000   292.87306      0.018708349    7.2996978      726.62614     -32.105671      694.52047    
   1949000   304.91371      0.018708349    9.8153139      756.49931     -35.100351      721.39896    
   1950000   303.37388      0.018708349    12.452928      752.67897     -32.382491      720.29648    
   1951000   299.45554      0.018708349    6.8624986      742.95744     -30.563955      712.39349    
   1952000   299.02099      0.018708349    9.3952208      741.87931     -28.646653      713.23266    
   1953000   294.99196      0.018708349    17.147552      731.88319     -29.493942      702.38925    
   1954000   310.61892      0.018708349    13.370821      770.6541      -26.850161      743.80394    
   1955000   306.29835      0.018708349    7.3273094      759.93466     -32.648889      727.28577    
   1956000   297.05481      0.018708349    10.452239      737.00118     -27.57638       709.4248     
   1957000   302.51852      0.018708349    10.512681      750.55678     -30.887555      719.66923    
   1958000   321.23422      0.018708349    11.069511      796.99096     -24.388792      772.60217    
   1959000   309.95667      0.018708349    6.3919156      769.01105     -24.509595      744.50145    
   1960000   286.90842      0.018708349    12.454852      711.82771     -23.424129      688.40358    
   1961000   292.28217      0.018708349    12.761824      725.16012     -29.786087      695.37403    
   1962000   309.7888       0.018708349    10.752364      768.59454     -32.15349       736.44105    
   1963000   290.18656      0.018708349    9.95603        719.96086     -27.212015      692.74885    
   1964000   298.91658      0.018708349    12.387322      741.62028     -28.82133       712.79895    
   1965000   315.84695      0.018708349    9.791954       783.62499     -25.320867      758.30413    
   1966000   293.77445      0.018708349    10.235549      728.86251     -24.080273      704.78223    
   1967000   289.03665      0.018708349    10.513007      717.10791     -25.643762      691.46414    
   1968000   304.52818      0.018708349    10.734947      755.54281     -24.624327      730.91848    
   1969000   303.98111      0.018708349    10.466978      754.18551     -27.261544      726.92397    
   1970000   293.38989      0.018708349    9.5387205      727.9084      -31.638911      696.26949    
   1971000   303.56481      0.018708349    8.5161008      753.15266     -27.257667      725.895      
   1972000   307.15834      0.018708349    9.6016374      762.0683      -26.508898      735.5594     
   1973000   302.09667      0.018708349    9.6506361      749.51016     -26.101913      723.40825    
   1974000   294.57226      0.018708349    10.806099      730.8419      -23.826308      707.0156     
   1975000   302.11898      0.018708349    8.1518028      749.56552     -27.782117      721.7834     
   1976000   302.13186      0.018708349    8.6526877      749.59746     -26.231213      723.36625    
   1977000   302.35159      0.018708349    10.70463       750.14263     -27.606178      722.53645    
   1978000   297.23466      0.018708349    8.2443704      737.44738     -25.954416      711.49297    
   1979000   303.6412       0.018708349    10.320614      753.34218     -19.754073      733.58811    
   1980000   310.13273      0.018708349    11.126099      769.44784     -22.862334      746.58551    
   1981000   315.33758      0.018708349    10.094495      782.36123     -24.015272      758.34595    
   1982000   303.66473      0.018708349    9.0086318      753.40056     -26.966078      726.43448    
   1983000   297.9072       0.018708349    7.6948344      739.11598     -25.009959      714.10602    
   1984000   292.56661      0.018708349    6.7151347      725.86582     -26.660891      699.20493    
   1985000   294.74754      0.018708349    16.544423      731.27677     -24.671719      706.60505    
   1986000   318.93908      0.018708349    15.121976      791.29666     -24.276274      767.02039    
   1987000   300.43469      0.018708349    10.370749      745.38676     -28.330992      717.05577    
   1988000   293.51927      0.018708349    11.670351      728.2294      -25.840873      702.38853    
   1989000   290.88484      0.018708349    9.9570761      721.6933      -31.897339      689.79596    
   1990000   305.12267      0.018708349    10.570809      757.01777     -26.96588       730.05189    
   1991000   307.19762      0.018708349    10.795795      762.16576     -33.843812      728.32195    
   1992000   293.60646      0.018708349    9.732173       728.44571     -31.673852      696.77186    
   1993000   295.56917      0.018708349    10.233246      733.31527     -30.456151      702.85912    
   1994000   300.70346      0.018708349    14.979026      746.05357     -26.94391       719.10966    
   1995000   315.85706      0.018708349    12.630267      783.65007     -26.67029       756.97978    
   1996000   290.58834      0.018708349    9.4882281      720.95767     -28.695882      692.26179    
   1997000   298.28216      0.018708349    9.7335207      740.04627     -32.029729      708.01654    
   1998000   310.18434      0.018708349    10.517005      769.5759      -27.364265      742.21164    
   1999000   300.69197      0.018708349    9.2694405      746.02508     -27.615594      718.40948    
   2000000   299.62507      0.018708349    9.3920647      743.37806     -28.453775      714.92428    
   2001000   302.23828      0.018708349    9.9227063      749.86149     -27.387554      722.47394    
   2002000   293.15616      0.018708349    11.141756      727.32851     -27.072267      700.25624    
   2003000   304.08673      0.018708349    13.525087      754.44757     -29.558075      724.88949    
   2004000   296.69307      0.018708349    9.1243235      736.10368     -27.753803      708.34988    
   2005000   287.68455      0.018708349    8.4819059      713.75331     -25.763172      687.99014    
   2006000   302.63241      0.018708349   -2.8940579      750.83935     -30.369403      720.46994    
   2007000   308.95236      0.018708349    10.670532      766.51933     -29.488391      737.03094    
   2008000   297.52845      0.018708349    16.080891      738.17629     -29.195195      708.98109    
   2009000   279.40299      0.018708349    15.499646      693.20651     -32.703529      660.50298    
   2010000   303.72957      0.018708349    1.2680266      753.56143     -32.531675      721.02975    
   2011000   309.12679      0.018708349    7.2666018      766.95207     -30.525247      736.42683    
   2012000   298.60911      0.018708349    13.842888      740.85743     -33.583079      707.27435    
   2013000   292.39119      0.018708349    6.1910954      725.43059     -30.550293      694.8803     
   2014000   292.79392      0.018708349   -4.8237434      726.42979     -30.385363      696.04443    
   2015000   306.85081      0.018708349    3.7901533      761.30532     -30.400479      730.90484    
   2016000   289.89107      0.018708349    17.523014      719.22774     -30.486213      688.74153    
   2017000   296.4004       0.018708349    4.5721746      735.37755     -30.073458      705.3041     
   2018000   312.06418      0.018708349    1.0515602      774.23983     -34.798677      739.44115    
   2019000   300.35188      0.018708349    17.424168      745.1813      -31.079975      714.10132    
   2020000   297.31491      0.018708349    12.810013      737.64648     -34.147648      703.49883    
   2021000   316.76983      0.018708349    3.7937813      785.91468     -33.779833      752.13484    
   2022000   301.31007      0.018708349    11.334992      747.5586      -29.430251      718.12834    
   2023000   291.89259      0.018708349    13.376463      724.19357     -27.500055      696.69351    
   2024000   300.22179      0.018708349    9.3985378      744.85854     -25.018494      719.84004    
   2025000   308.56907      0.018708349    9.8789067      765.56837     -26.743889      738.82448    
   2026000   299.43179      0.018708349    10.157246      742.89851     -30.375098      712.52342    
   2027000   301.10924      0.018708349    11.06086       747.06033     -34.070994      712.98933    
   2028000   303.89064      0.018708349    12.939064      753.96105     -33.521636      720.43942    
   2029000   289.50533      0.018708349    8.4240822      718.27071     -32.545365      685.72535    
   2030000   301.29588      0.018708349    9.8204194      747.52338     -30.45479       717.06859    
   2031000   299.84873      0.018708349    12.361468      743.93297     -31.032971      712.9        
   2032000   286.55408      0.018708349    16.269955      710.94858     -22.999983      687.9486     
   2033000   288.26207      0.018708349    7.799708       715.18615     -23.361924      691.82423    
   2034000   307.16282      0.018708349    7.286912       762.07942     -28.396203      733.68322    
   2035000   310.42499      0.018708349    11.671639      770.17295     -28.793927      741.37902    
   2036000   308.14124      0.018708349    9.4391647      764.50691     -28.706052      735.80086    
   2037000   293.06094      0.018708349    10.459406      727.09226     -33.04696       694.0453     
   2038000   299.51546      0.018708349    10.006062      743.10612     -30.305936      712.80018    
   2039000   293.92897      0.018708349    9.5918033      729.24589     -28.573129      700.67276    
   2040000   307.16968      0.018708349    9.0425692      762.09644     -31.307712      730.78873    
   2041000   315.55907      0.018708349    10.554149      782.91076     -28.906285      754.00447    
   2042000   292.39319      0.018708349    8.2464157      725.43557     -32.850087      692.58549    
   2043000   295.91299      0.018708349    8.0551787      734.16828     -32.218265      701.95002    
   2044000   300.20884      0.018708349    11.299033      744.82641     -35.067044      709.75937    
   2045000   306.79278      0.018708349    12.316698      761.16135     -26.23484       734.92651    
   2046000   293.75743      0.018708349    1.2319014      728.82028     -24.31756       704.50272    
   2047000   293.42219      0.018708349    14.253302      727.98855     -21.667331      706.32122    
   2048000   308.87175      0.018708349    9.5976953      766.31932     -21.758862      744.56046    
   2049000   312.14401      0.018708349    18.31152       774.43789     -23.53691       750.90098    
   2050000   303.63696      0.018708349    7.6406598      753.33167     -23.097338      730.23434    
   2051000   287.3215       0.018708349    9.9425859      712.85256     -26.856197      685.99637    
   2052000   301.54592      0.018708349    14.696912      748.14374     -26.771604      721.37213    
   2053000   305.16062      0.018708349    11.491879      757.11192     -27.513242      729.59868    
   2054000   299.42691      0.018708349    5.8548282      742.88641     -23.720119      719.16629    
   2055000   299.59171      0.018708349    9.0642201      743.29529     -25.284347      718.01095    
   2056000   310.83344      0.018708349    17.568698      771.18632     -23.842256      747.34407    
   2057000   296.2916       0.018708349    7.4643656      735.10763     -28.99226       706.11537    
   2058000   292.69799      0.018708349    9.4590065      726.19178     -29.182956      697.00883    
   2059000   304.75745      0.018708349    12.664037      756.11164     -33.73407       722.37757    
   2060000   298.76319      0.018708349    9.8751135      741.2397      -37.488411      703.75129    
   2061000   309.03319      0.018708349    8.4279489      766.71986     -33.442321      733.27754    
   2062000   300.31506      0.018708349    9.3987174      745.08993     -35.20638       709.88355    
   2063000   305.05793      0.018708349    12.898671      756.85714     -33.702912      723.15423    
   2064000   291.49257      0.018708349    8.8028588      723.20111     -28.856787      694.34432    
   2065000   291.51668      0.018708349    6.0666741      723.26093     -32.589858      690.67107    
   2066000   299.96599      0.018708349    11.88696       744.22389     -29.674127      714.54976    
   2067000   306.17086      0.018708349    14.278134      759.61834     -31.812111      727.80623    
   2068000   302.83012      0.018708349    11.765182      751.32987     -29.166244      722.16363    
   2069000   288.91758      0.018708349    2.905941       716.81247     -30.688002      686.12447    
   2070000   282.43031      0.018708349    11.77129       700.71739     -30.754752      669.96264    
   2071000   304.94296      0.018708349    10.439525      756.57188     -30.239539      726.33234    
   2072000   292.11987      0.018708349    13.009814      724.75746     -29.433081      695.32438    
   2073000   301.691        0.018708349    9.7438379      748.50368     -32.065264      716.43842    
   2074000   295.02485      0.018708349    9.6060894      731.96478     -29.382774      702.582      
   2075000   303.64609      0.018708349    10.64786       753.35432     -27.112965      726.24135    
   2076000   305.61292      0.018708349    9.835813       758.23409     -32.657891      725.5762     
   2077000   289.58842      0.018708349    10.17418       718.47686     -28.03687       690.43999    
   2078000   297.64314      0.018708349    9.6879845      738.46084     -31.397338      707.0635     
   2079000   295.89387      0.018708349    9.432096       734.12084     -27.181419      706.93942    
   2080000   304.20385      0.018708349    9.0763513      754.73815     -30.475488      724.26266    
   2081000   300.41171      0.018708349    10.105711      745.32972     -24.653224      720.6765     
   2082000   294.16824      0.018708349    11.317356      729.83952     -29.977278      699.86224    
   2083000   310.53124      0.018708349    10.784245      770.43658     -29.157742      741.27883    
   2084000   299.73065      0.018708349    9.0985997      743.64        -30.468141      713.17186    
   2085000   289.70804      0.018708349    10.663204      718.77364     -30.039706      688.73393    
   2086000   299.36206      0.018708349    11.718439      742.72552     -37.651558      705.07396    
   2087000   314.23435      0.018708349    9.9914883      779.62409     -31.388285      748.2358     
   2088000   297.86018      0.018708349    14.484669      738.99931     -28.179498      710.81981    
   2089000   304.78039      0.018708349    5.4679654      756.16856     -23.970195      732.19836    
   2090000   302.92437      0.018708349    4.648736       751.56372     -26.858523      724.70519    
   2091000   297.60851      0.018708349    8.2021264      738.37491     -30.270525      708.10438    
   2092000   304.1081       0.018708349    16.830912      754.50058     -26.328073      728.17251    
   2093000   299.14503      0.018708349    8.679308       742.18708     -26.139896      716.04718    
   2094000   292.77378      0.018708349    10.111124      726.37983     -27.033171      699.34666    
   2095000   310.86282      0.018708349    16.787141      771.25923     -24.39399       746.86524    
   2096000   304.83671      0.018708349    4.8668713      756.30829     -27.610176      728.69811    
   2097000   294.17961      0.018708349    12.163682      729.86773     -23.196927      706.6708     
   2098000   312.52382      0.018708349    21.048437      775.38021     -25.870867      749.50935    
   2099000   301.5281       0.018708349    3.9200053      748.09952     -29.77594       718.32358    
   2100000   294.91962      0.018708349    15.393022      731.7037      -27.676066      704.02763    
   2101000   317.53058      0.018708349    28.85646       787.80213     -29.304249      758.49788    
   2102000   301.6963       0.018708349    10.709438      748.51684     -29.793473      718.72337    
   2103000   292.63573      0.018708349    6.4386255      726.03731     -28.358713      697.67859    
   2104000   302.96761      0.018708349    10.31088       751.67098     -27.019828      724.65115    
   2105000   307.47693      0.018708349    11.274034      762.85873     -30.924456      731.93427    
   2106000   305.01088      0.018708349    9.2684595      756.74041     -30.657355      726.08305    
   2107000   289.82558      0.018708349    7.2123273      719.06524     -29.946948      689.11829    
   2108000   300.64952      0.018708349    10.247595      745.91975     -28.224278      717.69548    
   2109000   311.78058      0.018708349    10.279152      773.53621     -32.146119      741.39009    
   2110000   283.95988      0.018708349    8.9496041      704.51229     -28.04149       676.4708     
   2111000   296.43111      0.018708349    9.7901034      735.45375     -24.461419      710.99233    
   2112000   308.45067      0.018708349    10.340482      765.27461     -31.317428      733.95718    
   2113000   292.74693      0.018708349    5.1414756      726.31321     -28.970761      697.34245    
   2114000   291.49953      0.018708349    9.9873995      723.21836     -28.958863      694.25949    
   2115000   313.80496      0.018708349    7.2216209      778.55877     -32.612194      745.94657    
   2116000   296.3434       0.018708349    9.1620736      735.23614     -30.333392      704.90274    
   2117000   292.72491      0.018708349    9.7584027      726.25858     -29.508117      696.75046    
   2118000   301.22487      0.018708349    10.447434      747.3472      -29.970664      717.37654    
   2119000   308.27938      0.018708349    9.6570081      764.84963     -34.492932      730.3567     
   2120000   305.01103      0.018708349    10.967697      756.74077     -30.085558      726.65522    
   2121000   294.19533      0.018708349    9.6181638      729.90673     -29.766115      700.14062    
   2122000   295.10838      0.018708349    10.07833       732.17201     -33.03273       699.13928    
   2123000   305.95907      0.018708349    10.81431       759.09288     -32.480553      726.61233    
   2124000   306.86161      0.018708349    12.951784      761.33211     -33.373133      727.95898    
   2125000   275.86069      0.018708349    11.347266      684.41798     -33.39925       651.01873    
   2126000   288.10966      0.018708349    6.3556581      714.808       -29.981974      684.82602    
   2127000   310.45734      0.018708349    6.6802137      770.25323     -27.335847      742.91738    
   2128000   304.31989      0.018708349    11.434604      755.02604     -29.415264      725.61078    
   2129000   307.56803      0.018708349    16.85203       763.08477     -26.480081      736.60469    
   2130000   296.76939      0.018708349    11.618797      736.29304     -28.782121      707.51092    
   2131000   293.77692      0.018708349    4.1387153      728.86863     -28.831309      700.03732    
   2132000   310.42286      0.018708349    12.030319      770.16768     -30.965961      739.20172    
   2133000   298.15297      0.018708349    17.90905       739.72574     -28.895763      710.82997    
   2134000   293.10349      0.018708349    13.726607      727.19785     -30.16361       697.03424    
   2135000   304.7237       0.018708349    7.4960158      756.0279      -35.167483      720.86042    
   2136000   312.30935      0.018708349    11.266946      774.84811     -32.323156      742.52495    
   2137000   309.64725      0.018708349    9.1351829      768.24336     -29.608004      738.63536    
   2138000   295.48264      0.018708349    14.556465      733.10058     -33.905183      699.19539    
   2139000   292.34355      0.018708349    8.7783329      725.31239     -36.569072      688.74332    
   2140000   305.30009      0.018708349    10.443785      757.45793     -36.190173      721.26776    
   2141000   305.90375      0.018708349    8.8386888      758.95564     -38.689897      720.26574    
   2142000   287.74638      0.018708349    9.3234269      713.90671     -43.016116      670.8906     
   2143000   314.77646      0.018708349    9.5268914      780.96907     -33.736738      747.23233    
   2144000   301.53102      0.018708349    15.123045      748.10676     -34.038291      714.06847    
   2145000   284.32898      0.018708349    9.3729561      705.42803     -37.588392      667.83964    
   2146000   303.61434      0.018708349    6.6853421      753.27554     -30.504136      722.77141    
   2147000   293.9766       0.018708349   -1.9192372      729.36404     -30.538156      698.82589    
   2148000   310.37922      0.018708349    8.3601121      770.05941     -26.299163      743.76025    
   2149000   301.21514      0.018708349    12.776394      747.32306     -26.717612      720.60545    
   2150000   298.63475      0.018708349    9.5356262      740.92104     -31.121623      709.79942    
   2151000   296.32049      0.018708349    9.9314455      735.1793      -30.694196      704.4851     
   2152000   307.88876      0.018708349    11.062314      763.8805      -29.736573      734.14393    
   2153000   310.76509      0.018708349    12.273888      771.01676     -23.813765      747.20299    
   2154000   298.28308      0.018708349    9.8497644      740.04855     -25.28171       714.76684    
   2155000   288.04312      0.018708349    6.7965322      714.64293     -29.60854       685.03439    
   2156000   292.63118      0.018708349    9.2115955      726.02602     -21.385773      704.64024    
   2157000   307.53185      0.018708349    13.419615      762.99501     -20.070466      742.92454    
   2158000   299.02837      0.018708349    11.89027       741.89763     -27.248285      714.64935    
   2159000   303.5672       0.018708349    7.8686827      753.15859     -27.135177      726.02341    
   2160000   294.26903      0.018708349    11.085595      730.08958     -31.227664      698.86192    
   2161000   299.61692      0.018708349    10.654461      743.35784     -33.501939      709.8559     
   2162000   301.67317      0.018708349    11.25722       748.45946     -36.071443      712.38802    
   2163000   300.30639      0.018708349    10.47608       745.06842     -33.731782      711.33664    
   2164000   297.1963       0.018708349    7.6731509      737.35221     -29.882722      707.46949    
   2165000   311.04301      0.018708349    9.2010135      771.70628     -31.395379      740.3109     
   2166000   287.09085      0.018708349    14.697204      712.28031     -28.113801      684.16651    
   2167000   305.95612      0.018708349    10.085368      759.08556     -24.891336      734.19422    
   2168000   302.39845      0.018708349    8.5271601      750.25889     -26.427297      723.8316     
   2169000   300.41084      0.018708349    5.8665457      745.32757     -23.517221      721.81035    
   2170000   297.03182      0.018708349    13.082067      736.94412     -28.077128      708.867      
   2171000   294.91342      0.018708349    10.393841      731.68833     -30.177         701.51133    
   2172000   305.48122      0.018708349    11.138432      757.90732     -31.174005      726.73331    
   2173000   291.32538      0.018708349    12.706552      722.78629     -30.64897       692.13732    
   2174000   296.09752      0.018708349    6.2077669      734.62612     -32.176918      702.4492     
   2175000   298.48219      0.018708349    3.9029736      740.54255     -30.824084      709.71847    
   2176000   295.23125      0.018708349    11.770053      732.47686     -29.673844      702.80302    
   2177000   300.2346       0.018708349    11.41825       744.89031     -32.980532      711.90978    
   2178000   309.10585      0.018708349    9.993175       766.90013     -33.389295      733.51084    
   2179000   298.70052      0.018708349    1.4080122      741.08424     -38.414494      702.66974    
   2180000   286.15603      0.018708349    13.076683      709.96101     -37.442726      672.51828    
   2181000   314.12724      0.018708349    11.1301        779.35834     -36.83855       742.51979    
   2182000   309.69927      0.018708349    8.7350475      768.37243     -33.397606      734.97483    
   2183000   290.59476      0.018708349    9.5396533      720.9736      -32.546923      688.42668    
   2184000   289.91609      0.018708349    11.32927       719.28982     -32.311951      686.97787    
   2185000   310.59475      0.018708349    10.071088      770.59413     -31.431069      739.16306    
   2186000   309.85515      0.018708349    10.155386      768.75917     -31.102059      737.65711    
   2187000   302.35784      0.018708349    8.0354198      750.15814     -30.143714      720.01443    
   2188000   298.21067      0.018708349    7.7885459      739.8689      -33.057658      706.81124    
   2189000   304.44465      0.018708349    10.185036      755.33557     -33.623615      721.71196    
   2190000   286.17893      0.018708349    8.2927616      710.0178      -36.139218      673.87859    
   2191000   301.5641       0.018708349    7.3407787      748.18885     -35.634529      712.55432    
   2192000   303.61132      0.018708349    9.8063763      753.26805     -37.169971      716.09808    
   2193000   292.34192      0.018708349    14.264796      725.30837     -34.316191      690.99218    
   2194000   301.26765      0.018708349    6.7600608      747.45334     -31.617348      715.83599    
   2195000   303.22034      0.018708349    2.1207854      752.29801     -26.109142      726.18887    
   2196000   300.58605      0.018708349    5.8121609      745.76228     -31.27149       714.49079    
   2197000   305.95402      0.018708349    11.219975      759.08036     -25.739644      733.34071    
   2198000   298.8365       0.018708349    11.46026       741.42159     -27.526274      713.89531    
   2199000   303.91742      0.018708349    9.2709238      754.02748     -32.078261      721.94922    
   2200000   304.71905      0.018708349    3.983997       756.01636     -33.312578      722.70378    
   2201000   299.72303      0.018708349    13.423085      743.6211      -29.535582      714.08552    
   2202000   295.77839      0.018708349    20.609101      733.83433     -27.65542       706.17891    
   2203000   299.08137      0.018708349    5.8456216      742.02912     -25.689394      716.33973    
   2204000   318.88108      0.018708349    4.6804163      791.15276     -28.10575       763.04701    
   2205000   295.02832      0.018708349    24.117641      731.97338     -34.087227      697.88616    
   2206000   292.28406      0.018708349    15.359875      725.16482     -32.768087      692.39673    
   2207000   305.79712      0.018708349    10.276868      758.69107     -29.983331      728.70774    
   2208000   305.77698      0.018708349    1.370525       758.64111     -33.095447      725.54567    
   2209000   302.7959       0.018708349    12.868236      751.24498     -35.526454      715.71853    
   2210000   303.6266       0.018708349    12.140622      753.30595     -33.564903      719.74105    
   2211000   295.17447      0.018708349    10.717899      732.33599     -36.312724      696.02327    
   2212000   300.28322      0.018708349    4.2128582      745.01096     -37.791693      707.21926    
   2213000   319.07883      0.018708349    14.338845      791.64339     -37.069019      754.57437    
   2214000   301.35652      0.018708349    18.085069      747.67384     -33.983939      713.6899     
   2215000   299.21874      0.018708349    1.2832219      742.36994     -33.587629      708.78231    
   2216000   303.82573      0.018708349    8.0627652      753.80001     -28.848581      724.95143    
   2217000   303.67501      0.018708349    8.7246474      753.42607     -32.401548      721.02452    
   2218000   302.47615      0.018708349    19.09373       750.45167     -33.181798      717.26988    
   2219000   294.30519      0.018708349    12.645258      730.17928     -33.649926      696.52936    
   2220000   305.78256      0.018708349    14.104829      758.65496     -36.413266      722.24169    
   2221000   293.65202      0.018708349    8.2078132      728.55875     -29.877399      698.68135    
   2222000   295.84188      0.018708349    7.7225073      733.99186     -30.223568      703.76829    
   2223000   299.64004      0.018708349    9.586978       743.41519     -28.05485       715.36034    
   2224000   307.4956       0.018708349    13.681827      762.90507     -33.526538      729.37853    
   2225000   290.86109      0.018708349    13.754432      721.63439     -35.408094      686.22629    
   2226000   303.38624      0.018708349    5.635247       752.70963     -32.419287      720.29034    
   2227000   298.45682      0.018708349    16.073775      740.47959     -31.676751      708.80284    
   2228000   289.22745      0.018708349    5.6549081      717.58128     -33.415012      684.16627    
   2229000   310.8926       0.018708349    6.7943788      771.33312     -31.654095      739.67903    
   2230000   300.02298      0.018708349    15.82768       744.36528     -32.664064      711.70122    
   2231000   288.12803      0.018708349    8.9895099      714.85359     -31.891943      682.96165    
   2232000   309.04218      0.018708349    3.5438619      766.74216     -34.665408      732.07675    
   2233000   310.24393      0.018708349    12.367472      769.72374     -35.649953      734.07379    
   2234000   293.55947      0.018708349    11.932413      728.32914     -38.793012      689.53613    
   2235000   290.24656      0.018708349    7.0296308      720.10972     -32.838647      687.27108    
   2236000   310.42828      0.018708349    5.598716       770.18112     -36.042882      734.13823    
   2237000   313.04619      0.018708349    12.399637      776.67623     -31.410186      745.26604    
   2238000   295.8946       0.018708349    9.5981536      734.12267     -37.152933      696.96974    
   2239000   294.86097      0.018708349    9.1796805      731.55818     -35.400334      696.15785    
   2240000   303.97648      0.018708349    7.8202035      754.17402     -32.558421      721.6156     
   2241000   308.38142      0.018708349    11.871746      765.1028      -34.971576      730.13123    
   2242000   303.29769      0.018708349    9.972796       752.48994     -28.021412      724.46853    
   2243000   295.32153      0.018708349    10.112726      732.70085     -28.090148      704.6107     
   2244000   297.91717      0.018708349    7.8971127      739.14071     -29.664093      709.47662    
   2245000   316.70711      0.018708349    12.340499      785.75907     -32.940244      752.81882    
   2246000   295.79147      0.018708349    12.313811      733.8668      -39.358776      694.50802    
   2247000   283.11948      0.018708349    10.927362      702.42724     -35.890732      666.53651    
   2248000   307.95209      0.018708349    10.122122      764.03763     -34.275672      729.76196    
   2249000   300.56217      0.018708349    10.174913      745.70304     -36.352832      709.3502     
   2250000   289.09694      0.018708349    9.2272398      717.25749     -32.940981      684.3165     
   2251000   292.18259      0.018708349    9.1546974      724.91307     -30.96768       693.94539    
   2252000   292.02245      0.018708349    8.6532736      724.51575     -33.244448      691.27131    
   2253000   306.92063      0.018708349    10.315796      761.47853     -30.19881       731.27973    
   2254000   311.09348      0.018708349    11.01486       771.8315      -37.210416      734.62108    
   2255000   296.88157      0.018708349    7.3789565      736.57135     -36.285621      700.28573    
   2256000   284.56555      0.018708349    12.45784       706.01498     -29.719692      676.29529    
   2257000   307.61062      0.018708349    25.069358      763.19042     -31.349896      731.84052    
   2258000   313.25446      0.018708349    7.0095184      777.19296     -33.625102      743.56786    
   2259000   288.93496      0.018708349    1.9797889      716.85561     -31.357225      685.49839    
   2260000   291.66793      0.018708349    16.386974      723.63618     -31.188862      692.44732    
   2261000   303.61639      0.018708349    16.159689      753.28064     -32.623364      720.65727    
   2262000   312.33875      0.018708349    7.4743301      774.92104     -40.005127      734.91592    
   2263000   291.13863      0.018708349    8.4534715      722.32296     -37.772734      684.55023    
   2264000   294.87189      0.018708349    19.538337      731.58528     -40.755177      690.83011    
   2265000   311.33692      0.018708349   -9.3037272      772.43548     -37.233358      735.20213    
   2266000   304.23793      0.018708349   -1.1164802      754.8227      -38.675072      716.14763    
   2267000   294.35374      0.018708349    8.1047006      730.29975     -35.78856       694.51119    
   2268000   287.47674      0.018708349    12.428249      713.23771     -39.653942      673.58377    
   2269000   306.59091      0.018708349    10.314876      760.66051     -38.222441      722.43806    
   2270000   302.27597      0.018708349    5.1583024      749.95502     -36.541741      713.41328    
   2271000   289.95947      0.018708349    7.8530525      719.39745     -40.048283      679.34916    
   2272000   297.17891      0.018708349    20.774574      737.30907     -40.349551      696.95952    
   2273000   302.87731      0.018708349    9.0656638      751.44695     -34.143193      717.30376    
   2274000   297.85136      0.018708349    10.476524      738.97743     -32.558737      706.4187     
   2275000   300.94955      0.018708349    10.307789      746.66412     -34.385744      712.27838    
   2276000   306.50522      0.018708349    9.2468106      760.44791     -29.680671      730.76724    
   2277000   296.97818      0.018708349    5.3175913      736.81105     -29.475858      707.3352     
   2278000   303.94358      0.018708349    7.0878401      754.0924      -31.723235      722.36917    
   2279000   299.60395      0.018708349    12.705754      743.32566     -26.20151       717.12415    
   2280000   313.86509      0.018708349    12.049494      778.70793     -32.375578      746.33235    
   2281000   300.92499      0.018708349    7.752158       746.60319     -39.925373      706.67781    
   2282000   296.68654      0.018708349    4.9734831      736.08748     -35.834582      700.25289    
   2283000   304.28512      0.018708349    8.9928428      754.93977     -30.165527      724.77424    
   2284000   300.98731      0.018708349    18.516066      746.75782     -31.525356      715.23246    
   2285000   301.41861      0.018708349    10.04083       747.82789     -29.117492      718.7104     
   2286000   292.47143      0.018708349    5.1787705      725.62968     -28.446612      697.18307    
   2287000   303.0839       0.018708349    15.969374      751.95952     -29.317589      722.64193    
   2288000   303.15492      0.018708349    10.741115      752.13571     -27.484422      724.65129    
   2289000   298.79511      0.018708349    7.0557913      741.31891     -27.902597      713.41631    
   2290000   309.04188      0.018708349    6.5757604      766.74142     -31.748606      734.99281    
   2291000   294.85862      0.018708349    17.426901      731.55236     -30.511856      701.04051    
   2292000   294.43592      0.018708349    16.282201      730.50363     -35.336739      695.16689    
   2293000   294.80753      0.018708349    5.1514266      731.42562     -37.334603      694.09101    
   2294000   298.27758      0.018708349    4.3281117      740.0349      -36.262496      703.7724     
   2295000   303.72097      0.018708349    10.303373      753.54009     -28.666695      724.87339    
   2296000   300.8362       0.018708349    15.422966      746.38289     -30.044545      716.33835    
   2297000   303.13127      0.018708349    9.9683513      752.07704     -26.304397      725.77265    
   2298000   297.92503      0.018708349    6.9268099      739.1602      -32.296948      706.86325    
   2299000   287.36176      0.018708349    13.155221      712.95246     -29.00983       683.94263    
   2300000   316.44996      0.018708349    10.045559      785.12108     -33.131745      751.98934    
   2301000   295.91116      0.018708349    6.5050462      734.16373     -36.410672      697.75306    
   2302000   291.09643      0.018708349    6.4675303      722.21826     -27.079364      695.1389     
   2303000   295.22123      0.018708349    11.55853       732.45202     -33.292957      699.15906    
   2304000   316.82934      0.018708349    11.038724      786.06232     -32.340327      753.722      
   2305000   306.06438      0.018708349    9.9199434      759.35417     -30.326424      729.02774    
   2306000   287.89771      0.018708349    10.330902      714.28216     -33.974394      680.30776    
   2307000   298.83321      0.018708349    12.907525      741.41343     -38.441244      702.97219    
   2308000   311.557        0.018708349    10.964259      772.98151     -34.75617       738.22534    
   2309000   307.97678      0.018708349    6.4193567      764.09888     -30.046513      734.05237    
   2310000   283.08008      0.018708349    8.6203619      702.32949     -31.410291      670.9192     
   2311000   296.24966      0.018708349    12.719633      735.00357     -27.887363      707.11621    
   2312000   306.59522      0.018708349    11.688509      760.67119     -30.316703      730.35449    
   2313000   301.3777       0.018708349    8.8306949      747.72638     -25.266094      722.46029    
   2314000   291.42466      0.018708349    7.5772535      723.0326      -26.142512      696.89009    
   2315000   293.47589      0.018708349    10.619713      728.12178     -25.570809      702.55097    
   2316000   307.89061      0.018708349    13.326173      763.8851      -26.738589      737.14651    
   2317000   307.86091      0.018708349    11.472987      763.81142     -26.970871      736.84054    
   2318000   289.20503      0.018708349    9.6227754      717.52566     -26.475082      691.05057    
   2319000   290.21066      0.018708349    10.615956      720.02064     -27.684235      692.33641    
   2320000   313.2172       0.018708349    9.6415058      777.10051     -30.459214      746.6413     
   2321000   311.78417      0.018708349    11.716228      773.54511     -33.492201      740.05291    
   2322000   301.39509      0.018708349    9.6590828      747.76953     -28.608282      719.16125    
   2323000   293.15375      0.018708349    8.5834238      727.32254     -34.557055      692.76549    
   2324000   302.91279      0.018708349    11.155271      751.53498     -30.255869      721.27911    
   2325000   304.48706      0.018708349    10.180414      755.4408      -28.481738      726.95906    
   2326000   299.14966      0.018708349    8.6260678      742.19855     -26.90287       715.29568    
   2327000   287.72814      0.018708349    11.101812      713.86144     -24.766139      689.0953     
   2328000   297.67423      0.018708349    9.7399988      738.53798     -24.269907      714.26807    
   2329000   305.05993      0.018708349    12.563784      756.86209     -24.566838      732.29525    
   2330000   308.55873      0.018708349    11.790503      765.54272     -28.978425      736.5643     
   2331000   305.23654      0.018708349    5.7059963      757.30026     -22.781704      734.51856    
   2332000   297.76416      0.018708349    9.0412391      738.76109     -28.407927      710.35316    
   2333000   303.77114      0.018708349    8.8980047      753.66457     -31.640071      722.0245     
   2334000   293.31053      0.018708349    16.443314      727.71151     -32.834648      694.87686    
   2335000   307.34945      0.018708349    10.184084      762.54246     -32.402755      730.1397     
   2336000   302.91456      0.018708349    9.425154       751.53937     -31.384009      720.15536    
   2337000   295.64811      0.018708349    8.5976228      733.5111      -35.89427       697.61683    
   2338000   289.17929      0.018708349    11.307157      717.46179     -37.772458      679.68934    
   2339000   309.92737      0.018708349    7.2263225      768.93836     -40.964656      727.9737     
   2340000   300.61567      0.018708349    8.9152594      745.83577     -38.473686      707.36208    
   2341000   286.13703      0.018708349    7.1724033      709.91386     -33.659658      676.2542     
   2342000   307.18169      0.018708349    12.452441      762.12623     -25.606543      736.51969    
   2343000   316.79675      0.018708349    10.247985      785.98146     -26.117485      759.86398    
   2344000   296.938        0.018708349    11.509481      736.71137     -22.218819      714.49255    
   2345000   284.24109      0.018708349    10.012086      705.20997     -30.232699      674.97727    
   2346000   300.51513      0.018708349    9.3503749      745.58633     -32.893335      712.69299    
   2347000   317.6982       0.018708349    10.905234      788.21798     -30.962495      757.25549    
   2348000   309.5593       0.018708349    9.5662884      768.02515     -29.683205      738.34194    
   2349000   290.61739      0.018708349    10.990522      721.02975     -30.598653      690.4311     
   2350000   290.75964      0.018708349    11.530404      721.38267     -31.58645       689.79622    
   2351000   311.47528      0.018708349    5.5096947      772.77876     -28.095072      744.68369    
   2352000   308.62371      0.018708349    12.274763      765.70393     -28.266994      737.43694    
   2353000   286.67174      0.018708349    10.664306      711.24048     -27.076698      684.16378    
   2354000   306.28027      0.018708349    9.2153217      759.8898      -28.05948       731.83032    
   2355000   316.53017      0.018708349    10.69895       785.32009     -24.959334      760.36075    
   2356000   302.80536      0.018708349    14.107498      751.26844     -28.901547      722.36689    
   2357000   283.67322      0.018708349    12.796677      703.80109     -31.258907      672.54218    
   2358000   288.80994      0.018708349    10.100402      716.54541     -30.623633      685.92178    
   2359000   305.80807      0.018708349    7.5013148      758.71826     -32.601836      726.11643    
   2360000   306.99566      0.018708349    9.0497538      761.6647      -32.781109      728.88359    
   2361000   305.29993      0.018708349    13.809528      757.45754     -30.385801      727.07174    
   2362000   284.62788      0.018708349    10.474432      706.16962     -32.903754      673.26586    
   2363000   284.13082      0.018708349    3.8800716      704.93639     -31.757958      673.17843    
   2364000   308.91714      0.018708349    8.7462942      766.43195     -29.985764      736.44619    
   2365000   298.04463      0.018708349    11.043312      739.45695     -29.794191      709.66276    
   2366000   297.32414      0.018708349    8.8089786      737.66939     -28.700034      708.96936    
   2367000   300.40166      0.018708349    8.0327989      745.30479     -29.384105      715.92068    
   2368000   314.51185      0.018708349    10.061954      780.31256     -33.005574      747.30699    
   2369000   300.31818      0.018708349    10.285399      745.09769     -31.491569      713.60612    
   2370000   298.5296       0.018708349    9.6351915      740.66017     -37.887505      702.77267    
   2371000   296.18244      0.018708349    11.380105      734.8368      -33.051152      701.78565    
   2372000   300.53205      0.018708349    12.458526      745.62829     -34.585865      711.04243    
   2373000   299.96946      0.018708349    8.7263854      744.23251     -30.717273      713.51523    
   2374000   295.52926      0.018708349    6.5932344      733.21625     -32.944531      700.27171    
   2375000   299.52475      0.018708349    12.379831      743.12916     -36.148184      706.98097    
   2376000   296.04827      0.018708349    15.179627      734.50392     -31.365794      703.13813    
   2377000   314.94421      0.018708349   -1.4085802      781.38526     -32.725013      748.66025    
   2378000   296.45109      0.018708349    11.384688      735.50334     -33.342047      702.16129    
   2379000   300.59024      0.018708349    12.205006      745.77267     -27.552023      718.22065    
   2380000   300.73716      0.018708349    6.3484554      746.13719     -34.078248      712.05894    
   2381000   302.70647      0.018708349    5.7982459      751.02309     -31.364135      719.65895    
   2382000   303.62229      0.018708349    1.5196724      753.29527     -32.352799      720.94247    
   2383000   292.83034      0.018708349    13.703837      726.52015     -34.593348      691.9268     
   2384000   310.98778      0.018708349    5.2857968      771.56924     -32.240348      739.32889    
   2385000   305.01179      0.018708349    8.4106818      756.74267     -33.168345      723.57432    
   2386000   308.95781      0.018708349    18.109036      766.53284     -35.375949      731.15689    
   2387000   303.8396       0.018708349    13.573989      753.83442     -33.478373      720.35605    
   2388000   296.31826      0.018708349    5.8513144      735.17376     -33.298948      701.87481    
   2389000   302.63684      0.018708349    8.1114032      750.85035     -32.064288      718.78606    
   2390000   292.11437      0.018708349    14.443738      724.7438      -32.568013      692.17578    
   2391000   304.22826      0.018708349    9.18161        754.7987      -32.543921      722.25478    
   2392000   301.92773      0.018708349    6.9771451      749.09102     -28.66807       720.42295    
   2393000   300.37573      0.018708349    10.227732      745.24047     -34.680953      710.55952    
   2394000   299.46463      0.018708349    10.554217      742.98        -36.336385      706.64361    
   2395000   286.61782      0.018708349    11.866172      711.1067      -34.822924      676.28378    
   2396000   302.52917      0.018708349    8.9891121      750.58321     -34.175241      716.40797    
   2397000   310.03846      0.018708349    7.9775741      769.21397     -36.816663      732.39731    
   2398000   296.52258      0.018708349    11.741824      735.68068     -38.94464       696.73604    
   2399000   304.1995       0.018708349    9.9902106      754.72735     -36.02499       718.70236    
   2400000   300.88702      0.018708349    10.398651      746.50898     -32.592887      713.91609    
   2401000   285.62942      0.018708349    9.5365608      708.65445     -31.905185      676.74927    
   2402000   290.89983      0.018708349    10.412938      721.7305      -35.657939      686.07256    
   2403000   311.04082      0.018708349    9.7336467      771.70084     -32.670668      739.03017    
   2404000   303.43064      0.018708349    10.399732      752.81978     -37.901533      714.91824    
   2405000   303.13251      0.018708349    10.749582      752.08011     -32.665479      719.41463    
   2406000   294.20937      0.018708349    7.5666513      729.94155     -27.851501      702.09005    
   2407000   288.31782      0.018708349    10.038263      715.32447     -28.876711      686.44776    
   2408000   305.43976      0.018708349    10.378166      757.80446     -32.939695      724.86477    
   2409000   313.67581      0.018708349    11.481599      778.23834     -33.451011      744.78733    
   2410000   286.19895      0.018708349    9.7525164      710.0675      -29.605535      680.46196    
   2411000   293.31037      0.018708349    10.168061      727.7111      -29.520975      698.19013    
   2412000   322.08156      0.018708349    10.288258      799.09324     -31.308034      767.7852     
   2413000   306.43869      0.018708349    10.232026      760.28283     -32.139358      728.14347    
   2414000   291.87972      0.018708349    8.7960996      724.16163     -30.425969      693.73567    
   2415000   296.73029      0.018708349    10.997841      736.19602     -37.599265      698.59675    
   2416000   305.39544      0.018708349    16.139695      757.69451     -26.628817      731.06569    
   2417000   313.42928      0.018708349    9.8049634      777.62668     -29.017359      748.60932    
   2418000   300.65241      0.018708349    6.9676292      745.92691     -29.515381      716.41153    
   2419000   291.1723       0.018708349    10.366022      722.4065      -28.671883      693.73462    
   2420000   304.08907      0.018708349    12.411615      754.45335     -34.305193      720.14816    
   2421000   308.72568      0.018708349    8.782448       765.95692     -33.454868      732.50205    
   2422000   289.65194      0.018708349    8.8290142      718.63444     -29.17336       689.46109    
   2423000   292.96554      0.018708349    13.73406       726.85559     -28.31195       698.54364    
   2424000   322.57344      0.018708349    12.861766      800.31359     -26.732616      773.58098    
   2425000   304.64058      0.018708349    8.8962616      755.82167     -28.56834       727.25333    
   2426000   284.35461      0.018708349    9.6770032      705.49163     -30.485539      675.00609    
   2427000   305.23143      0.018708349    16.277208      757.28758     -28.951518      728.33606    
   2428000   312.97109      0.018708349    7.854105       776.48991     -30.751201      745.73871    
   2429000   299.39845      0.018708349    9.051176       742.81581     -31.708133      711.10768    
   2430000   294.37852      0.018708349    9.249617       730.36122     -33.356177      697.00505    
   2431000   302.8916       0.018708349    10.747786      751.4824      -30.23648       721.24592    
   2432000   317.37971      0.018708349    9.1105044      787.42781     -33.206472      754.22133    
   2433000   291.63072      0.018708349    7.5755448      723.54385     -32.450333      691.09351    
   2434000   278.64606      0.018708349    10.145545      691.32855     -34.689554      656.639      
   2435000   293.27866      0.018708349    12.457388      727.63243     -32.13755       695.49488    
   2436000   306.68162      0.018708349    11.007203      760.88556     -28.446562      732.439      
   2437000   293.93162      0.018708349    9.3365387      729.25244     -31.426066      697.82638    
   2438000   279.39455      0.018708349    9.0100718      693.18558     -33.144989      660.04059    
   2439000   291.4031       0.018708349    11.918683      722.97911     -34.846103      688.13301    
   2440000   303.9387       0.018708349    10.20096       754.0803      -31.343348      722.73695    
   2441000   311.46745      0.018708349    10.345203      772.75932     -32.290881      740.46844    
   2442000   299.11082      0.018708349    10.324608      742.10218     -32.291434      709.81075    
   2443000   290.55887      0.018708349    11.786546      720.88457     -34.256135      686.62843    
   2444000   300.02542      0.018708349    9.7523841      744.37135     -31.825201      712.54615    
   2445000   317.72997      0.018708349    8.1853556      788.29682     -32.961962      755.33485    
   2446000   303.76614      0.018708349    11.232109      753.65216     -30.021629      723.63053    
   2447000   281.05865      0.018708349    10.176866      697.31426     -28.10291       669.21135    
   2448000   286.80716      0.018708349    10.607404      711.57648     -27.781843      683.79463    
   2449000   315.4073       0.018708349    11.269514      782.5342      -28.942167      753.59203    
   2450000   305.16081      0.018708349    9.1378416      757.11239     -28.45292       728.65947    
   2451000   290.37949      0.018708349    9.6553561      720.43952     -30.52757       689.91195    
   2452000   300.10967      0.018708349    9.9604314      744.58036     -34.466825      710.11353    
   2453000   306.67926      0.018708349    8.108917       760.87971     -38.930326      721.94938    
   2454000   302.46264      0.018708349    11.155618      750.41816     -37.895489      712.52267    
   2455000   286.34214      0.018708349    10.492846      710.42274     -34.436114      675.98662    
   2456000   306.18216      0.018708349    11.229944      759.64639     -34.273723      725.37267    
   2457000   310.75426      0.018708349    8.5202366      770.98988     -30.936391      740.05349    
   2458000   289.63885      0.018708349    11.01018       718.60198     -30.849242      687.75274    
   2459000   289.87169      0.018708349    7.7606774      719.17966     -29.85274       689.32692    
   2460000   309.35161      0.018708349    11.646504      767.50986     -24.957765      742.55209    
   2461000   303.47483      0.018708349    9.8579571      752.92941     -25.47023       727.45918    
   2462000   285.46265      0.018708349    6.240462       708.24071     -29.381191      678.85952    
   2463000   300.49602      0.018708349    12.47588       745.5389      -31.335974      714.20293    
   2464000   314.2366       0.018708349    13.135518      779.62967     -34.767857      744.86182    
   2465000   300.03448      0.018708349    7.0548375      744.39382     -35.569998      708.82382    
   2466000   297.47279      0.018708349    9.5793253      738.0382      -32.457657      705.58055    
   2467000   309.09407      0.018708349    12.836215      766.8709      -30.917801      735.9531     
   2468000   305.47353      0.018708349    10.652574      757.88826     -32.755785      725.13247    
   2469000   308.91019      0.018708349    9.1063442      766.41469     -33.507832      732.90686    
   2470000   297.69352      0.018708349    7.3722077      738.58582     -29.36013       709.22569    
   2471000   300.78372      0.018708349    8.9405022      746.2527      -30.581614      715.67109    
   2472000   297.2673       0.018708349    11.393277      737.52837     -37.327637      700.20073    
   2473000   307.22746      0.018708349    10.654272      762.23981     -40.059072      722.18073    
   2474000   303.3261       0.018708349    9.3906973      752.56042     -35.845639      716.71478    
   2475000   294.0149       0.018708349    9.8682401      729.45907     -33.481456      695.97762    
   2476000   293.36583      0.018708349    10.547523      727.84872     -33.251547      694.59717    
   2477000   305.093        0.018708349    10.726707      756.94414     -29.373746      727.57039    
   2478000   301.29393      0.018708349    11.793512      747.51854     -28.153667      719.36488    
   2479000   302.28631      0.018708349    9.6497626      749.98067     -28.19775       721.78292    
   2480000   304.56799      0.018708349    10.72308       755.64157     -23.848591      731.79298    
   2481000   299.5208       0.018708349    10.295277      743.11936     -28.155237      714.96413    
   2482000   300.18879      0.018708349    12.416616      744.77666     -28.201525      716.57514    
   2483000   288.28417      0.018708349    8.8475222      715.24097     -31.075446      684.16552    
   2484000   290.96833      0.018708349    9.1957348      721.90044     -31.865999      690.03444    
   2485000   304.15303      0.018708349    10.461532      754.61205     -31.921032      722.69102    
   2486000   310.21298      0.018708349    11.279221      769.64696     -30.563137      739.08382    
   2487000   295.39354      0.018708349    10.199696      732.87952     -33.784514      699.095      
   2488000   287.31742      0.018708349    8.558704       712.84245     -31.99824       680.84421    
   2489000   306.73492      0.018708349    9.2195976      761.01779     -33.711899      727.30589    
   2490000   315.41736      0.018708349    10.733656      782.55917     -34.63528       747.92389    
   2491000   298.54541      0.018708349    7.4982961      740.69939     -34.241554      706.45784    
   2492000   288.63136      0.018708349    9.3786535      716.10237     -31.277198      684.82517    
   2493000   296.0327       0.018708349    12.152562      734.4653      -29.37742       705.08788    
   2494000   311.31142      0.018708349    9.562594       772.37221     -29.237435      743.13478    
   2495000   299.9887       0.018708349    9.2750474      744.28025     -34.455875      709.82437    
   2496000   288.23768      0.018708349    10.893426      715.12564     -33.107676      682.01796    
   2497000   306.14787      0.018708349    12.236914      759.5613      -35.861377      723.69992    
   2498000   303.05169      0.018708349    9.840968       751.87959     -36.255081      715.62451    
   2499000   301.68551      0.018708349    11.272274      748.49007     -32.643548      715.84652    
   2500000   294.44853      0.018708349    7.0189638      730.53491     -33.378534      697.15637    
   2501000   287.38259      0.018708349    8.6799824      713.00413     -35.939959      677.06417    
   2502000   299.05124      0.018708349    9.3864528      741.95436     -39.353227      702.60113    
   2503000   299.39803      0.018708349    10.291623      742.81475     -32.572509      710.24224    
   2504000   305.27912      0.018708349    11.77586       757.4059      -32.220145      725.18576    
   2505000   300.95737      0.018708349    15.92363       746.68354     -30.616062      716.06748    
   2506000   297.54666      0.018708349    2.6468947      738.22146     -34.963284      703.25818    
   2507000   300.83911      0.018708349    10.929665      746.39012     -31.420818      714.96931    
   2508000   303.58835      0.018708349    11.310522      753.21107     -33.675742      719.53533    
   2509000   300.10549      0.018708349    10.118305      744.57        -34.334985      710.23501    
   2510000   308.59459      0.018708349    11.934805      765.63169     -35.422268      730.20942    
   2511000   305.90047      0.018708349    8.8693474      758.94749     -39.817859      719.12963    
   2512000   300.14015      0.018708349    9.3361172      744.65599     -32.217339      712.43865    
   2513000   305.4822       0.018708349    9.2268967      757.90976     -33.605648      724.30411    
   2514000   301.80704      0.018708349    11.444935      748.79157     -36.099189      712.69238    
   2515000   287.04411      0.018708349    13.017479      712.16434     -33.299176      678.86517    
   2516000   303.53643      0.018708349    11.854726      753.08225     -35.552533      717.52972    
   2517000   307.45488      0.018708349    3.6696882      762.80402     -35.736742      727.06728    
   2518000   282.30438      0.018708349    19.585366      700.40494     -29.856036      670.54891    
   2519000   302.41422      0.018708349    30.573746      750.29802     -34.011887      716.28613    
   2520000   312.62476      0.018708349    8.9778288      775.63064     -32.041213      743.58943    
   2521000   308.82225      0.018708349    2.5118492      766.1965      -32.042558      734.15394    
   2522000   290.83115      0.018708349    10.24629       721.56011     -30.063462      691.49665    
   2523000   301.07932      0.018708349    18.94215       746.98608     -33.296364      713.68972    
   2524000   314.23049      0.018708349    8.4504191      779.6145      -40.877062      738.73744    
   2525000   303.26705      0.018708349    9.7968505      752.41391     -36.556443      715.85746    
   2526000   292.85874      0.018708349    9.7372517      726.5906      -32.474032      694.11657    
   2527000   301.91058      0.018708349    10.034134      749.04847     -36.998118      712.05036    
   2528000   301.39485      0.018708349    6.5222952      747.76894     -39.746792      708.02215    
   2529000   311.15311      0.018708349    12.899669      771.97945     -36.424788      735.55466    
   2530000   295.02149      0.018708349    9.8795378      731.95644     -37.563557      694.39288    
   2531000   289.88497      0.018708349    6.7290304      719.21261     -38.178638      681.03397    
   2532000   305.99279      0.018708349    6.5496652      759.17656     -34.506718      724.66984    
   2533000   303.40223      0.018708349    8.5623212      752.74929     -32.253167      720.49612    
   2534000   302.60078      0.018708349    10.352193      750.76088     -34.165041      716.59584    
   2535000   302.56221      0.018708349    13.118944      750.66519     -32.464688      718.20051    
   2536000   286.54044      0.018708349    8.9535551      710.91473     -33.131258      677.78347    
   2537000   303.12232      0.018708349    11.059668      752.05484     -29.436941      722.6179     
   2538000   312.67661      0.018708349    13.723188      775.75929     -31.743616      744.01567    
   2539000   295.05285      0.018708349    9.8008295      732.03425     -32.062176      699.97207    
   2540000   297.79509      0.018708349    10.361751      738.83783     -29.045448      709.79238    
   2541000   305.05751      0.018708349    10.794051      756.8561      -34.516409      722.33969    
   2542000   290.85649      0.018708349    11.626778      721.62297     -26.27331       695.34966    
   2543000   300.59848      0.018708349    11.538071      745.79311     -35.242403      710.5507     
   2544000   299.7769       0.018708349    9.4029522      743.75474     -33.125216      710.62953    
   2545000   299.79581      0.018708349    11.311661      743.80166     -37.38054       706.42112    
   2546000   297.52194      0.018708349    8.5998969      738.16014     -34.174865      703.98528    
   2547000   293.03399      0.018708349    9.4277162      727.02541     -39.05323       687.97218    
   2548000   305.23996      0.018708349    10.395887      757.30875     -35.244055      722.06469    
   2549000   288.37881      0.018708349    6.802729       715.47578     -32.987857      682.48793    
   2550000   304.47544      0.018708349    10.11841       755.41197     -33.171394      722.24057    
   2551000   306.48935      0.018708349    11.37078       760.40852     -30.880041      729.52848    
   2552000   297.35397      0.018708349   -0.31039518     737.74339     -28.800143      708.94325    
   2553000   293.34842      0.018708349    9.4059346      727.80551     -33.049429      694.75608    
   2554000   305.27785      0.018708349    12.550207      757.40275     -34.789278      722.61347    
   2555000   302.95036      0.018708349    10.437119      751.6282      -37.294675      714.33352    
   2556000   293.71514      0.018708349    4.8988433      728.71535     -34.516082      694.19927    
   2557000   301.05302      0.018708349    13.722864      746.92085     -29.401585      717.51926    
   2558000   309.34919      0.018708349    10.266125      767.50386     -29.448909      738.05495    
   2559000   288.44589      0.018708349    6.605144       715.64221     -26.472426      689.16978    
   2560000   295.71832      0.018708349    11.023251      733.68531     -32.41967       701.26564    
   2561000   318.27724      0.018708349    8.4832608      789.65461     -35.285297      754.36931    
   2562000   302.65821      0.018708349    4.1141785      750.90335     -31.457948      719.44541    
   2563000   290.9523       0.018708349    8.4456631      721.86067     -28.879397      692.98127    
   2564000   285.25539      0.018708349    12.632561      707.7265      -31.08792       676.63858    
   2565000   308.18056      0.018708349    15.871883      764.60447     -23.327965      741.27651    
   2566000   316.75263      0.018708349    13.822264      785.872       -32.048694      753.82331    
   2567000   319.11062      0.018708349    11.707147      791.72224     -30.968931      760.75331    
   2568000   301.19261      0.018708349    7.4172854      747.26717     -28.699196      718.56798    
   2569000   293.66216      0.018708349    8.8251971      728.58391     -28.712681      699.87123    
   2570000   296.03275      0.018708349    10.080657      734.46541     -31.268849      703.19656    
   2571000   310.74466      0.018708349    16.44978       770.96608     -28.058339      742.90774    
   2572000   296.80973      0.018708349    6.7254741      736.39312     -32.186576      704.20654    
   2573000   283.30489      0.018708349    7.7526637      702.88725     -30.124933      672.76231    
   2574000   307.14447      0.018708349    11.361447      762.0339      -30.904531      731.12937    
   2575000   306.99476      0.018708349    10.628809      761.66246     -35.97036       725.6921     
   2576000   295.40349      0.018708349    6.4434685      732.90419     -35.482456      697.42174    
   2577000   284.68034      0.018708349    12.977155      706.29977     -31.155655      675.14412    
   2578000   314.18784      0.018708349    13.328667      779.50869     -32.367589      747.1411     
   2579000   299.36933      0.018708349   -0.2817695      742.74355     -33.022506      709.72105    
   2580000   291.65601      0.018708349    10.598339      723.6066      -33.693173      689.91343    
   2581000   303.0827       0.018708349    13.030945      751.95652     -34.945085      717.01144    
   2582000   308.87595      0.018708349    8.7196024      766.32975     -32.525437      733.80431    
   2583000   288.80032      0.018708349    5.5138146      716.52155     -34.628197      681.89335    
   2584000   295.74473      0.018708349    12.517083      733.75082     -33.221462      700.52936    
   2585000   305.95757      0.018708349    12.987752      759.08916     -34.709972      724.37919    
   2586000   312.09485      0.018708349    10.718138      774.31593     -27.729943      746.58598    
   2587000   302.34883      0.018708349    8.5949268      750.13579     -31.08602       719.04977    
   2588000   293.58999      0.018708349    10.484823      728.40485     -32.971208      695.43365    
   2589000   298.86552      0.018708349    9.5734969      741.4936      -30.43274       711.06086    
   2590000   303.34303      0.018708349    10.906746      752.60241     -26.761456      725.84095    
   2591000   303.95466      0.018708349    8.6156362      754.11989     -26.556682      727.56321    
   2592000   299.58306      0.018708349    10.608858      743.27384     -27.148621      716.12521    
   2593000   308.42612      0.018708349    15.298526      765.21371     -30.938476      734.27523    
   2594000   308.03431      0.018708349    10.766792      764.24161     -33.011903      731.22971    
   2595000   297.63291      0.018708349    8.8212322      738.43544     -32.762312      705.67313    
   2596000   292.02553      0.018708349    8.2712214      724.5234      -31.435925      693.08747    
   2597000   308.73051      0.018708349    11.824964      765.9689      -27.80525       738.16365    
   2598000   305.56517      0.018708349    10.819544      758.11561     -29.695803      728.41981    
   2599000   296.07376      0.018708349    9.138304       734.56717     -31.955258      702.61191    
   2600000   290.30522      0.018708349    11.525499      720.25526     -28.589505      691.66576    
   2601000   304.66585      0.018708349    10.844558      755.88436     -28.126943      727.75742    
   2602000   305.90748      0.018708349    7.8072831      758.9649      -26.858807      732.10609    
   2603000   301.56221      0.018708349    13.207486      748.18414     -25.641485      722.54266    
   2604000   308.61706      0.018708349    10.498253      765.68743     -26.52893       739.1585     
   2605000   296.8281       0.018708349    9.3362223      736.43871     -31.726433      704.71228    
   2606000   292.96913      0.018708349    8.0311987      726.86448     -37.279212      689.58527    
   2607000   302.49348      0.018708349    9.4244228      750.49467     -27.019126      723.47555    
   2608000   312.1131       0.018708349    10.314536      774.3612      -29.82945       744.53175    
   2609000   289.84121      0.018708349    7.1683642      719.10403     -36.641423      682.4626     
   2610000   300.715        0.018708349    11.225882      746.0822      -33.270834      712.81137    
   2611000   305.04752      0.018708349    1.6485829      756.83131     -33.212742      723.61856    
   2612000   304.4114       0.018708349    6.629279       755.25308     -32.987204      722.26588    
   2613000   297.58394      0.018708349    19.914949      738.31395     -31.252894      707.06106    
   2614000   298.13323      0.018708349    10.80194       739.67676     -36.41442       703.26234    
   2615000   306.14077      0.018708349    10.870499      759.5437      -31.926794      727.6169     
   2616000   307.00428      0.018708349    7.523745       761.68608     -29.233127      732.45296    
   2617000   300.14335      0.018708349    8.7696903      744.66393     -35.863107      708.80083    
   2618000   295.84154      0.018708349    1.3828314      733.991       -30.620579      703.37042    
   2619000   292.51642      0.018708349    9.218647       725.74129     -34.947873      690.79342    
   2620000   308.31933      0.018708349    15.85927       764.94875     -29.520367      735.42839    
   2621000   299.81589      0.018708349    11.722309      743.8515      -37.615182      706.23632    
   2622000   293.7004       0.018708349    10.801588      728.6788      -39.09152       689.58728    
   2623000   303.87561      0.018708349    10.735859      753.92377     -34.530349      719.39342    
   2624000   308.28372      0.018708349    10.528957      764.86041     -34.103298      730.75711    
   2625000   304.55585      0.018708349    7.9349034      755.61145     -30.290112      725.32134    
   2626000   298.31946      0.018708349    8.1033939      740.1388      -30.227685      709.91112    
   2627000   300.41978      0.018708349    9.2512218      745.34976     -35.489586      709.86017    
   2628000   292.30037      0.018708349    9.6481735      725.20527     -34.460592      690.74467    
   2629000   301.98562      0.018708349    9.8004536      749.23464     -31.04267       718.19197    
   2630000   319.35546      0.018708349    11.504256      792.32971     -34.547041      757.78266    
   2631000   300.70165      0.018708349    6.2551213      746.04909     -38.051603      707.99749    
   2632000   292.14477      0.018708349    13.651744      724.81922     -36.578609      688.24061    
   2633000   295.18246      0.018708349    14.577967      732.35582     -37.903344      694.45247    
   2634000   297.16863      0.018708349    7.0044824      737.28357     -40.225988      697.05758    
   2635000   304.82881      0.018708349    9.2247237      756.28869     -39.198092      717.0906     
   2636000   299.37083      0.018708349    9.9215612      742.74728     -40.488096      702.25918    
   2637000   302.27628      0.018708349    11.568925      749.95578     -37.89875       712.05703    
   2638000   297.72705      0.018708349    9.9020823      738.66902     -36.858272      701.81075    
   2639000   301.34365      0.018708349    10.004925      747.6419      -35.546643      712.09526    
   2640000   305.03393      0.018708349    10.289709      756.79759     -38.113617      718.68397    
   2641000   308.48109      0.018708349    8.7819803      765.35009     -35.113657      730.23644    
   2642000   280.54336      0.018708349    6.4212291      696.03582     -39.856737      656.17908    
   2643000   299.86932      0.018708349    11.193615      743.98405     -40.257167      703.72688    
   2644000   315.39284      0.018708349    10.671535      782.49832     -37.706616      744.7917     
   2645000   299.80179      0.018708349    10.684958      743.8165      -33.682056      710.13445    
   2646000   284.23833      0.018708349    6.87045        705.20314     -34.433029      670.77012    
   2647000   310.10259      0.018708349    9.6318303      769.37306     -30.40706       738.966      
   2648000   298.83066      0.018708349    10.549745      741.40711     -32.326591      709.08052    
   2649000   281.9298       0.018708349    9.0249683      699.47562     -36.093696      663.38192    
   2650000   290.01389      0.018708349    9.4786487      719.53245     -34.931353      684.60109    
   2651000   314.90188      0.018708349    9.6382088      781.28025     -36.348565      744.93169    
   2652000   298.59208      0.018708349    14.505861      740.81519     -29.434995      711.38019    
   2653000   295.44603      0.018708349    0.88267896     733.00974     -29.719527      703.29021    
   2654000   298.91937      0.018708349    9.3594323      741.6272      -28.924413      712.70279    
   2655000   295.74986      0.018708349    16.003336      733.76355     -31.907474      701.85608    
   2656000   288.14292      0.018708349    11.027614      714.89053     -33.627144      681.26339    
   2657000   309.49849      0.018708349    3.7257793      767.87429     -34.383089      733.4912     
   2658000   299.18462      0.018708349    8.0609129      742.28528     -33.582147      708.70313    
   2659000   299.41095      0.018708349    15.189297      742.84681     -29.965781      712.88103    
   2660000   298.3236       0.018708349    12.340833      740.14908     -32.748748      707.40033    
   2661000   312.68312      0.018708349    0.88846027     775.77543     -33.315225      742.46021    
   2662000   319.32397      0.018708349    13.312226      792.25158     -34.1067        758.14488    
   2663000   304.00145      0.018708349    18.11575       754.23599     -33.143265      721.09272    
   2664000   285.50815      0.018708349    8.318778       708.3536      -33.90984       674.44376    
   2665000   314.78787      0.018708349    10.93958       780.99739     -33.108256      747.88914    
   2666000   299.63197      0.018708349    11.400108      743.39518     -40.01945       703.37573    
   2667000   293.95535      0.018708349    10.913384      729.31134     -35.495788      693.81555    
   2668000   305.12684      0.018708349    10.736518      757.0281      -32.569481      724.45862    
   2669000   304.97868      0.018708349    9.7899631      756.66051     -31.725982      724.93453    
   2670000   303.82641      0.018708349    17.360727      753.80171     -32.510567      721.29114    
   2671000   292.57437      0.018708349    8.0028063      725.88507     -30.492759      695.39231    
   2672000   305.75557      0.018708349    2.0016991      758.588       -36.629171      721.95882    
   2673000   315.29131      0.018708349    13.942979      782.24644     -34.139333      748.10711    
   2674000   294.5276       0.018708349    16.696565      730.73109     -33.633686      697.0974     
   2675000   281.53956      0.018708349    8.147454       698.50742     -29.35637       669.15105    
   2676000   319.74835      0.018708349   -2.8778552      793.30447     -30.359391      762.94508    
   2677000   316.48322      0.018708349    6.7250941      785.20359     -35.349606      749.85398    
   2678000   294.39799      0.018708349    20.468007      730.40952     -26.898535      703.51099    
   2679000   288.48384      0.018708349    12.135834      715.73635     -28.526329      687.21002    
   2680000   301.69899      0.018708349    7.6935691      748.52352     -26.778728      721.74479    
   2681000   309.55497      0.018708349    7.7039402      768.01442     -29.554853      738.45957    
   2682000   300.19798      0.018708349    29.004986      744.79946     -29.007129      715.79233    
   2683000   287.32845      0.018708349    9.9503037      712.86981     -34.551513      678.31829    
   2684000   299.14737      0.018708349    1.6503013      742.19288     -29.613353      712.57953    
   2685000   301.52553      0.018708349    6.3840422      748.09315     -28.137149      719.956      
   2686000   308.11193      0.018708349    17.991101      764.43419     -30.830158      733.60403    
   2687000   301.71615      0.018708349    21.901668      748.56608     -32.84764       715.71844    
   2688000   303.80332      0.018708349    15.231886      753.74441     -35.341669      718.40274    
   2689000   296.80068      0.018708349    9.3367765      736.37067     -33.189384      703.18129    
   2690000   304.20961      0.018708349    2.9048887      754.75242     -34.597174      720.15525    
   2691000   306.48879      0.018708349    15.166884      760.40714     -33.798552      726.60859    
   2692000   290.28805      0.018708349    5.0658077      720.21266     -31.297983      688.91468    
   2693000   299.68884      0.018708349    9.3889267      743.53628     -32.006411      711.52987    
   2694000   301.30542      0.018708349    12.216241      747.54706     -27.554516      719.99254    
   2695000   294.39856      0.018708349    8.3195042      730.41095     -26.204042      704.20691    
   2696000   311.65671      0.018708349    7.773045       773.22889     -33.779335      739.44955    
   2697000   297.50056      0.018708349    12.461445      738.10709     -30.125889      707.9812     
   2698000   281.93098      0.018708349    7.9039473      699.47854     -25.669968      673.80857    
   2699000   309.88024      0.018708349    10.18222       768.82143     -27.24469       741.57674    
   2700000   299.37618      0.018708349    11.204894      742.76055     -22.093831      720.66672    
   2701000   297.86155      0.018708349    9.4909853      739.00271     -26.947687      712.05502    
   2702000   312.20824      0.018708349    9.6251576      774.59724     -30.496367      744.10087    
   2703000   307.29099      0.018708349    13.253687      762.3974      -27.766091      734.63131    
   2704000   286.35383      0.018708349    8.3125886      710.45174     -30.547057      679.90469    
   2705000   292.22401      0.018708349    9.007827       725.01581     -31.81697       693.19884    
   2706000   316.70046      0.018708349    11.399206      785.74257     -28.442009      757.30056    
   2707000   298.57221      0.018708349    10.23471       740.76588     -29.608015      711.15786    
   2708000   291.33048      0.018708349    8.7613537      722.79896     -32.597198      690.20176    
   2709000   309.08488      0.018708349    8.9451359      766.84811     -31.718939      735.12917    
   2710000   313.38539      0.018708349    12.65406       777.5178      -33.26899       744.24881    
   2711000   292.22845      0.018708349    9.829907       725.02683     -30.998445      694.02839    
   2712000   299.14626      0.018708349    11.286768      742.19012     -27.289128      714.90099    
   2713000   305.78024      0.018708349    1.5988895      758.64919     -32.491166      726.15803    
   2714000   307.80094      0.018708349    3.7560068      763.66262     -33.052947      730.60967    
   2715000   298.86947      0.018708349    8.9197439      741.5034      -33.867897      707.63551    
   2716000   295.49777      0.018708349    12.361877      733.1381      -33.42435       699.71375    
   2717000   296.80305      0.018708349    10.00765       736.37655     -35.845841      700.53071    
   2718000   312.47265      0.018708349    9.6024565      775.25325     -33.777316      741.47594    
   2719000   307.00365      0.018708349    10.244016      761.68451     -30.020867      731.66364    
   2720000   297.53208      0.018708349    10.218802      738.18529     -29.918884      708.26641    
   2721000   288.60822      0.018708349    13.98625       716.04496     -28.966771      687.07819    
   2722000   291.79686      0.018708349    6.7624277      723.95605     -29.833042      694.12301    
   2723000   304.64704      0.018708349    10.386909      755.8377      -27.143628      728.69407    
   2724000   307.26229      0.018708349    9.3147628      762.32622     -26.12487       736.20135    
   2725000   289.48852      0.018708349    8.774171       718.22899     -29.003325      689.22566    
   2726000   300.42449      0.018708349    11.397246      745.36143     -28.300066      717.06137    
   2727000   310.24927      0.018708349    10.499958      769.73699     -25.506139      744.23085    
   2728000   302.52947      0.018708349    8.461763       750.58394     -28.092839      722.4911     
   2729000   307.1409       0.018708349    12.398205      762.02503     -30.046831      731.9782     
   2730000   308.14821      0.018708349    13.119001      764.52421     -23.645012      740.87919    
   2731000   305.89725      0.018708349    15.94913       758.93952     -26.069301      732.87021    
   2732000   302.49282      0.018708349    8.0077099      750.49302     -27.990831      722.50219    
   2733000   307.0221       0.018708349    9.2363182      761.7303      -28.174076      733.55622    
   2734000   298.55432      0.018708349    12.613206      740.72149     -26.027995      714.6935     
   2735000   309.31072      0.018708349    9.7822688      767.40842     -32.139266      735.26915    
   2736000   308.40129      0.018708349    5.4585678      765.1521      -28.654617      736.49749    
   2737000   305.6024       0.018708349    8.7116552      758.20797     -32.857679      725.35029    
   2738000   301.5948       0.018708349    17.490166      748.26501     -30.513369      717.75164    
   2739000   310.55227      0.018708349    6.0958676      770.48875     -31.568291      738.92046    
   2740000   295.66889      0.018708349   -0.71866952     733.56267     -29.50261       704.06006    
   2741000   286.27812      0.018708349    9.7326421      710.26391     -30.62891       679.635      
   2742000   313.24739      0.018708349    30.311112      777.17541     -31.849335      745.32607    
   2743000   301.72232      0.018708349    3.6890144      748.58139     -29.731207      718.85019    
   2744000   279.37137      0.018708349    8.4806862      693.12807     -29.418836      663.70923    
   2745000   305.06138      0.018708349    20.006309      756.86569     -31.039003      725.82669    
   2746000   306.20528      0.018708349    9.2950452      759.70375     -27.505682      732.19806    
   2747000   312.19296      0.018708349    1.5552609      774.55933     -31.210117      743.34921    
   2748000   282.37021      0.018708349   -3.874456       700.56828     -31.169999      669.39828    
   2749000   291.90731      0.018708349    14.293392      724.23009     -30.224256      694.00583    
   2750000   309.32102      0.018708349    21.741098      767.43398     -27.007676      740.4263     
   2751000   306.40706      0.018708349    2.8907287      760.20436     -30.259176      729.94518    
   2752000   284.84974      0.018708349    13.92252       706.72005     -37.040394      669.67965    
   2753000   296.15952      0.018708349    13.521166      734.77993     -29.734592      705.04533    
   2754000   313.57698      0.018708349    6.5344618      777.99312     -31.847565      746.14556    
   2755000   302.32272      0.018708349    9.4372083      750.071       -34.36431       715.70669    
   2756000   288.14494      0.018708349    6.6258277      714.89553     -34.100747      680.79479    
   2757000   303.26042      0.018708349    9.900919       752.39746     -30.013242      722.38422    
   2758000   306.7726       0.018708349    6.7501816      761.11128     -29.560781      731.5505     
   2759000   299.98212      0.018708349    9.2502095      744.2639      -30.986709      713.27719    
   2760000   318.46317      0.018708349    12.317276      790.11589     -27.647165      762.46873    
   2761000   305.51464      0.018708349    10.773698      757.99025     -31.496415      726.49383    
   2762000   288.42339      0.018708349    9.5404732      715.58638     -37.898391      677.68799    
   2763000   299.33487      0.018708349    11.505856      742.65805     -36.342105      706.31595    
   2764000   301.86131      0.018708349    6.3435689      748.92622     -33.770278      715.15594    
   2765000   300.14554      0.018708349    10.213864      744.66935     -32.862932      711.80642    
   2766000   295.82298      0.018708349    12.183914      733.94496     -32.186587      701.75838    
   2767000   295.54428      0.018708349    10.404392      733.2535      -35.074807      698.17869    
   2768000   301.32597      0.018708349    7.7458716      747.59804     -25.234002      722.36404    
   2769000   303.7633       0.018708349    9.1342005      753.64511     -32.435996      721.20912    
   2770000   302.25165      0.018708349    12.528832      749.89467     -30.57451       719.32016    
   2771000   301.84429      0.018708349    9.4823779      748.884       -36.504894      712.3791     
   2772000   282.35789      0.018708349    9.9260648      700.5377      -31.866102      668.6716     
   2773000   297.45329      0.018708349    9.6009424      737.98981     -35.89478       702.09503    
   2774000   317.02755      0.018708349    10.1812        786.5541      -42.207987      744.34611    
   2775000   295.03993      0.018708349    8.7175208      732.0022      -42.335568      689.66664    
   2776000   282.45159      0.018708349    8.7426266      700.77018     -37.341394      663.42879    
   2777000   277.80048      0.018708349    15.287441      689.23066     -38.215317      651.01534    
   2778000   309.85735      0.018708349    10.268561      768.76462     -35.30643       733.45819    
   2779000   314.6002       0.018708349    7.2228458      780.53177     -36.946341      743.58543    
   2780000   299.37699      0.018708349    10.598238      742.76256     -32.854225      709.90833    
   2781000   296.62992      0.018708349    9.8750636      735.947       -38.635123      697.31187    
   2782000   303.587        0.018708349    11.342976      753.20772     -34.780013      718.42771    
   2783000   315.7906       0.018708349    10.116286      783.48517     -33.422682      750.06249    
   2784000   306.70702      0.018708349    9.8356138      760.94857     -30.195685      730.75289    
   2785000   294.23865      0.018708349    8.4732376      730.01419     -31.906102      698.10809    
   2786000   287.90436      0.018708349    9.6061775      714.29866     -31.16484       683.13382    
   2787000   305.13489      0.018708349    9.4185821      757.04808     -26.438321      730.60976    
   2788000   305.94544      0.018708349    12.718402      759.05907     -31.04022       728.01885    
   2789000   288.20752      0.018708349    10.059906      715.0508      -29.792091      685.25871    
   2790000   286.91557      0.018708349    9.290974       711.84544     -23.375053      688.47039    
   2791000   310.49464      0.018708349    10.064704      770.34575     -21.875514      748.47024    
   2792000   307.21086      0.018708349    12.786795      762.19862     -24.704991      737.49363    
   2793000   298.17255      0.018708349    11.550769      739.77431     -23.641522      716.13279    
   2794000   290.43791      0.018708349    7.3945725      720.58445     -22.496442      698.08801    
   2795000   298.60464      0.018708349    8.1027119      740.84634     -22.148675      718.69766    
   2796000   315.45645      0.018708349    11.733672      782.65615     -23.441772      759.21438    
   2797000   301.0227       0.018708349    10.025842      746.84563     -19.220599      727.62503    
   2798000   296.51227      0.018708349    7.400788       735.65511     -25.218134      710.43697    
   2799000   306.36544      0.018708349    10.236488      760.10109     -26.844794      733.2563     
   2800000   304.01521      0.018708349    10.649835      754.27011     -24.775885      729.49422    
   2801000   301.49765      0.018708349    8.7602789      748.02399     -23.440112      724.58388    
   2802000   304.31045      0.018708349    10.16532       755.00261     -26.549941      728.45267    
   2803000   300.09014      0.018708349    12.246521      744.53191     -30.584832      713.94708    
   2804000   307.83853      0.018708349    13.44948       763.75589     -30.102383      733.6535     
   2805000   295.39605      0.018708349    6.5736192      732.88574     -28.793857      704.09188    
   2806000   300.78293      0.018708349    4.6074387      746.25074     -29.647443      716.60329    
   2807000   305.48354      0.018708349    9.2057243      757.91309     -29.825944      728.08714    
   2808000   301.81529      0.018708349    10.907568      748.81206     -28.660242      720.15182    
   2809000   300.72477      0.018708349    9.7798189      746.10643     -32.470329      713.6361     
   2810000   293.94606      0.018708349    9.5667973      729.28827     -31.606487      697.68178    
   2811000   293.21037      0.018708349    9.686277       727.46302     -30.337043      697.12597    
   2812000   290.18419      0.018708349    11.173196      719.95499     -33.312514      686.64247    
   2813000   307.8791       0.018708349    11.911108      763.85653     -30.129091      733.72744    
   2814000   309.25948      0.018708349    10.31295       767.28129     -31.101407      736.17988    
   2815000   290.36753      0.018708349    10.991856      720.40985     -28.00494       692.40491    
   2816000   300.17094      0.018708349    11.932546      744.73239     -27.488373      717.24402    
   2817000   303.00933      0.018708349    7.3974597      751.7745      -29.727441      722.04706    
   2818000   301.64889      0.018708349    9.6136557      748.39922     -32.571884      715.82733    
   2819000   291.8219       0.018708349    10.248956      724.01818     -29.50336       694.51482    
   2820000   298.44378      0.018708349    9.6038254      740.44726     -35.127998      705.31926    
   2821000   292.58907      0.018708349    10.24714       725.92155     -34.865498      691.05605    
   2822000   299.54615      0.018708349    11.03586       743.18226     -36.352286      706.82997    
   2823000   315.90033      0.018708349    9.7473786      783.75743     -35.955068      747.80236    
   2824000   299.91691      0.018708349    10.092705      744.10213     -33.990303      710.11183    
   2825000   290.98151      0.018708349    9.2580143      721.93315     -28.126533      693.80662    
   2826000   301.47277      0.018708349    11.20227       747.96225     -27.549519      720.41273    
   2827000   300.20786      0.018708349    10.520847      744.82399     -27.961073      716.86291    
   2828000   297.12226      0.018708349    10.585802      737.16851     -24.674981      712.49352    
   2829000   299.84463      0.018708349    10.75023       743.92279     -28.415477      715.50731    
   2830000   306.81618      0.018708349    10.178129      761.21941     -30.707293      730.51211    
   2831000   302.54581      0.018708349    9.6097509      750.62451     -37.304657      713.31985    
   2832000   298.63609      0.018708349    10.434146      740.92436     -34.101203      706.82316    
   2833000   303.22911      0.018708349    9.5788044      752.31978     -34.265772      718.05401    
   2834000   296.13428      0.018708349    10.407939      734.71732     -33.287882      701.42944    
   2835000   304.86102      0.018708349    10.052824      756.3686      -31.502368      724.86623    
   2836000   316.40958      0.018708349    11.162207      785.02088     -30.505133      754.51575    
   2837000   293.49207      0.018708349    10.28582       728.16193     -26.180993      701.98093    
   2838000   284.78569      0.018708349    8.5186329      706.56115     -26.835355      679.72579    
   2839000   297.14513      0.018708349    9.9244451      737.22527     -25.736032      711.48924    
   2840000   305.56263      0.018708349    9.035675       758.10931     -24.891064      733.21824    
   2841000   307.10055      0.018708349    6.8281613      761.92493     -25.500595      736.42434    
   2842000   307.20247      0.018708349    7.8198678      762.1778      -23.025887      739.15191    
   2843000   300.76297      0.018708349    16.155056      746.20123     -21.743053      724.45817    
   2844000   306.14049      0.018708349    11.147774      759.543       -15.880884      743.66212    
   2845000   304.07067      0.018708349    1.4533352      754.40772     -21.305743      733.10197    
   2846000   299.45675      0.018708349    17.777445      742.96046     -23.323105      719.63735    
   2847000   308.22206      0.018708349    12.389462      764.70742     -25.744766      738.96266    
   2848000   299.28405      0.018708349    6.8208008      742.53198     -23.329347      719.20263    
   2849000   315.58996      0.018708349    16.151786      782.9874      -29.098912      753.88849    
   2850000   295.80066      0.018708349    12.993299      733.88959     -23.219527      710.67006    
   2851000   299.61384      0.018708349    10.406474      743.3502      -22.814913      720.53528    
   2852000   305.43224      0.018708349    2.5511215      757.78579     -23.145137      734.64066    
   2853000   295.49911      0.018708349   -9.1234586      733.14144     -25.132326      708.00911    
   2854000   297.37736      0.018708349    6.9112177      737.80142     -23.249693      714.55172    
   2855000   311.85279      0.018708349    15.597763      773.71538     -24.582961      749.13242    
   2856000   302.25413      0.018708349    11.25377       749.90082     -25.949716      723.95111    
   2857000   302.36188      0.018708349    6.5185126      750.16815     -23.384678      726.78348    
   2858000   299.99134      0.018708349    19.875279      744.28678     -29.935601      714.35118    
   2859000   305.28888      0.018708349    8.0185566      757.43011     -26.991438      730.43868    
   2860000   314.32798      0.018708349    8.9702172      779.85637     -30.784309      749.07207    
   2861000   295.91747      0.018708349    13.50316       734.17941     -29.403921      704.77549    
   2862000   287.97049      0.018708349    11.489487      714.46272     -27.508092      686.95463    
   2863000   302.97         0.018708349    7.1389596      751.67693     -31.631815      720.04512    
   2864000   298.43273      0.018708349    10.068272      740.41984     -29.322506      711.09733    
   2865000   302.6629       0.018708349    16.315956      750.915       -26.850339      724.06466    
   2866000   303.59839      0.018708349    10.058676      753.23598     -25.308078      727.9279     
   2867000   295.4073       0.018708349    7.9244262      732.91366     -27.387029      705.52663    
   2868000   307.02303      0.018708349    12.511897      761.73261     -23.513531      738.21908    
   2869000   303.07703      0.018708349    11.277078      751.94246     -23.730043      728.21242    
   2870000   290.79731      0.018708349    7.3793298      721.47614     -25.552834      695.9233     
   2871000   300.56123      0.018708349    6.6958188      745.7007      -29.708684      715.99202    
   2872000   303.41836      0.018708349    8.9922459      752.78931     -24.973671      727.81564    
   2873000   295.95505      0.018708349    18.138053      734.27263     -26.750524      707.52211    
   2874000   289.2689       0.018708349    9.178848       717.68411     -28.618241      689.06587    
   2875000   285.38248      0.018708349    11.796481      708.04179     -31.11814       676.92365    
   2876000   298.27615      0.018708349    7.1536113      740.03136     -37.258831      702.77253    
   2877000   306.47936      0.018708349    10.600202      760.38373     -37.082764      723.30097    
   2878000   295.98463      0.018708349    11.065971      734.34602     -35.873866      698.47216    
   2879000   287.24349      0.018708349    4.6968658      712.65903     -30.32598       682.33305    
   2880000   302.90534      0.018708349    11.414191      751.5165      -28.497607      723.01889    
   2881000   315.15595      0.018708349    10.561941      781.91059     -33.65196       748.25863    
   2882000   297.11164      0.018708349    9.418692       737.14217     -32.52207       704.6201     
   2883000   287.7647       0.018708349    9.5965199      713.95216     -33.434272      680.51789    
   2884000   318.99396      0.018708349    10.376716      791.43281     -34.66157       756.77124    
   2885000   298.64079      0.018708349    11.323399      740.93603     -33.510096      707.42594    
   2886000   289.6913       0.018708349    8.9974942      718.73209     -34.889041      683.84305    
   2887000   298.71661      0.018708349    9.4939998      741.12415     -26.793316      714.33084    
   2888000   301.49991      0.018708349    11.98194       748.02959     -28.764169      719.26543    
   2889000   291.31874      0.018708349    10.306577      722.76983     -35.473816      687.29601    
   2890000   307.85652      0.018708349    7.0477399      763.80052     -34.252877      729.54765    
   2891000   303.16675      0.018708349    9.8915498      752.16506     -29.942835      722.22222    
   2892000   302.32182      0.018708349    8.8365704      750.06876     -30.834369      719.23439    
   2893000   299.6116       0.018708349    10.288183      743.34463     -32.325871      711.01876    
   2894000   313.13268      0.018708349    14.246983      776.89082     -26.755906      750.13491    
   2895000   295.98781      0.018708349    8.9255531      734.3539      -30.323058      704.03085    
   2896000   288.64065      0.018708349    10.085805      716.1254      -30.858876      685.26652    
   2897000   300.09719      0.018708349    12.184408      744.54941     -34.18577       710.36364    
   2898000   312.27566      0.018708349    9.8087972      774.76451     -30.584477      744.18003    
   2899000   297.35918      0.018708349    8.4272771      737.75632     -29.383602      708.37272    
   2900000   289.81361      0.018708349    6.3424987      719.03556     -25.472247      693.56331    
   2901000   299.61591      0.018708349    10.224348      743.35532     -22.952419      720.4029     
   2902000   294.60875      0.018708349    10.5021        730.93242     -25.277488      705.65493    
   2903000   306.54473      0.018708349    8.8250716      760.54592     -24.164091      736.38183    
   2904000   299.89417      0.018708349    6.7291688      744.04569     -26.49068       717.55501    
   2905000   299.75855      0.018708349    8.6201748      743.70924     -28.457709      715.25153    
   2906000   302.67212      0.018708349    12.281669      750.93786     -27.749168      723.1887     
   2907000   300.96902      0.018708349    10.195283      746.71243     -23.821978      722.89045    
   2908000   288.59006      0.018708349    5.2198521      715.99989     -24.704792      691.2951     
   2909000   292.00562      0.018708349    11.876846      724.474       -21.77414       702.69986    
   2910000   300.36936      0.018708349    11.833327      745.22467     -23.873457      721.35122    
   2911000   304.4521       0.018708349    8.3642795      755.35404     -27.902047      727.452      
   2912000   299.50776      0.018708349    10.503368      743.08701     -26.522413      716.5646     
   2913000   303.16399      0.018708349    10.3027        752.15823     -27.006799      725.15143    
   2914000   298.25105      0.018708349    6.6112326      739.96908     -27.126982      712.8421     
   2915000   300.44147      0.018708349    11.336971      745.40358     -27.321117      718.08246    
   2916000   315.66932      0.018708349    12.641309      783.18428     -24.847761      758.33652    
   2917000   295.6235       0.018708349    9.1806654      733.45005     -28.540317      704.90973    
   2918000   279.7803       0.018708349    8.9174484      694.14265     -25.43932       668.70333    
   2919000   279.34706      0.018708349    16.914167      693.06776     -29.410997      663.65677    
   2920000   311.65802      0.018708349    19.431845      773.23214     -28.939553      744.29259    
   2921000   307.04041      0.018708349    8.2325197      761.77573     -30.93246       730.84327    
   2922000   294.79175      0.018708349    9.3635697      731.38645     -31.593022      699.79343    
   2923000   285.43122      0.018708349    11.148176      708.16273     -35.177778      672.98495    
   2924000   309.32325      0.018708349    12.549137      767.43952     -35.799604      731.63992    
   2925000   302.61814      0.018708349    12.78567       750.80394     -40.326785      710.47716    
   2926000   300.19441      0.018708349    9.5588842      744.7906      -38.810159      705.98044    
   2927000   290.796        0.018708349    9.5383912      721.4729      -37.945395      683.5275     
   2928000   281.66577      0.018708349    9.3323755      698.82055     -38.26163       660.55892    
   2929000   302.21114      0.018708349    14.923794      749.79416     -31.585802      718.20836    
   2930000   298.01597      0.018708349    4.1539949      739.38584     -34.065141      705.3207     
   2931000   299.99521      0.018708349    1.8324214      744.29639     -35.608345      708.68804    
   2932000   295.6168       0.018708349    9.185076       733.43344     -33.342879      700.09056    
   2933000   300.77936      0.018708349    17.323207      746.24187     -35.071355      711.17052    
   2934000   306.23393      0.018708349    9.599845       759.77483     -37.756357      722.01848    
   2935000   292.31989      0.018708349    2.9284825      725.25371     -41.436248      683.81747    
   2936000   300.57548      0.018708349    8.4121694      745.73606     -37.959953      707.77611    
   2937000   288.87224      0.018708349    18.738823      716.69999     -39.69384       677.00615    
   2938000   314.84948      0.018708349    15.55719       781.15024     -37.21445       743.93579    
   2939000   316.7824       0.018708349    7.6654861      785.94587     -35.922598      750.02328    
   2940000   288.94958      0.018708349    0.39976285     716.89188     -31.608524      685.28335    
   2941000   284.62303      0.018708349    16.491715      706.15759     -30.253117      675.90448    
   2942000   305.02351      0.018708349    11.712234      756.77173     -32.684828      724.0869     
   2943000   302.59417      0.018708349    1.6073973      750.74448     -35.769109      714.97537    
   2944000   305.10548      0.018708349    10.754086      756.9751      -38.470904      718.50419    
   2945000   302.52781      0.018708349    11.70315       750.57983     -34.028116      716.55172    
   2946000   297.18366      0.018708349    12.156386      737.32086     -32.090758      705.2301     
   2947000   302.4317       0.018708349    5.8435576      750.34138     -32.68768       717.6537     
   2948000   316.48408      0.018708349    10.345021      785.20573     -32.251981      752.95375    
   2949000   303.04667      0.018708349    9.6195473      751.86714     -32.532612      719.33453    
   2950000   295.6642       0.018708349    7.2172193      733.55104     -28.66677       704.88427    
   2951000   281.47896      0.018708349    11.647636      698.35707     -28.116976      670.24009    
   2952000   303.07338      0.018708349    15.477448      751.93341     -33.130588      718.80283    
   2953000   298.99481      0.018708349    10.011239      741.81436     -25.488133      716.32622    
   2954000   297.34548      0.018708349    5.005275       737.72234     -26.760307      710.96204    
   2955000   284.31619      0.018708349    14.452513      705.39631     -28.165545      677.23077    
   2956000   302.58747      0.018708349    14.288274      750.72784     -27.989828      722.73802    
   2957000   313.95498      0.018708349   -18.374936      778.93097     -33.206836      745.72413    
   2958000   296.92419      0.018708349    11.492468      736.67711     -31.199393      705.47772    
   2959000   289.83727      0.018708349    33.797606      719.09426     -34.598576      684.49568    
   2960000   301.05013      0.018708349    6.607804       746.91368     -30.904063      716.00962    
   2961000   288.81946      0.018708349    5.5120484      716.56905     -34.490529      682.07852    
   2962000   291.7089       0.018708349    13.215028      723.73783     -29.699105      694.03872    
   2963000   300.39477      0.018708349    12.637106      745.28772     -27.624671      717.66305    
   2964000   307.7592       0.018708349    9.7962264      763.55905     -24.758001      738.80105    
   2965000   293.79636      0.018708349    8.8713437      728.91687     -24.444047      704.47282    
   2966000   312.6347       0.018708349    11.205638      775.6553      -26.896316      748.75899    
   2967000   303.39231      0.018708349    12.248966      752.72469     -28.584291      724.1404     
   2968000   300.68087      0.018708349    9.098766       745.99752     -28.31638       717.68114    
   2969000   305.37904      0.018708349    8.2791383      757.65382     -26.257703      731.39612    
   2970000   284.8966       0.018708349    11.24581       706.83632     -25.902648      680.93367    
   2971000   302.24795      0.018708349    11.400875      749.88549     -26.511738      723.37375    
   2972000   302.05449      0.018708349    6.8546073      749.40551     -26.48483       722.92068    
   2973000   299.81304      0.018708349    7.5195331      743.84441     -29.636267      714.20814    
   2974000   302.87846      0.018708349    10.434181      751.4498      -29.887986      721.56181    
   2975000   301.68832      0.018708349    10.469071      748.49704     -29.097266      719.39977    
   2976000   299.67415      0.018708349    11.919344      743.49982     -27.546236      715.95358    
   2977000   299.05855      0.018708349    9.8302798      741.97251     -25.745098      716.22742    
   2978000   307.33612      0.018708349    9.9155074      762.50939     -29.780902      732.72849    
   2979000   317.42489      0.018708349    10.162921      787.5399      -35.077387      752.46252    
   2980000   288.62765      0.018708349    7.4965699      716.09316     -32.350648      683.74251    
   2981000   299.68396      0.018708349    15.089541      743.52416     -31.169961      712.3542     
   2982000   310.48528      0.018708349    10.955256      770.32253     -35.784065      734.53846    
   2983000   309.46485      0.018708349    10.269508      767.79081     -32.680823      735.10999    
   2984000   286.80253      0.018708349    6.5319001      711.56499     -32.307057      679.25793    
   2985000   298.91436      0.018708349    9.7662879      741.61477     -29.248339      712.36643    
   2986000   306.06684      0.018708349    10.932558      759.36027     -29.949992      729.41028    
   2987000   293.13083      0.018708349    9.2355312      727.26566     -32.36314       694.90252    
   2988000   304.44088      0.018708349    8.2058649      755.32622     -32.141516      723.18471    
   2989000   292.86818      0.018708349    11.289279      726.61403     -34.120601      692.49343    
   2990000   306.84943      0.018708349    12.170395      761.30189     -33.17645       728.12544    
   2991000   302.25647      0.018708349    6.2483288      749.90662     -33.126264      716.78036    
   2992000   287.09833      0.018708349    8.8947513      712.29887     -33.348536      678.95033    
   2993000   296.81633      0.018708349    10.335904      736.4095      -34.717097      701.69241    
   2994000   307.50946      0.018708349    9.792729       762.93944     -32.796398      730.14304    
   2995000   291.17424      0.018708349    9.6734619      722.41133     -33.395809      689.01552    
   2996000   303.31277      0.018708349    8.4665801      752.52735     -28.607068      723.92028    
   2997000   298.71071      0.018708349    10.977892      741.10949     -35.260266      705.84923    
   2998000   301.60328      0.018708349    11.569737      748.28605     -34.33905       713.947      
   2999000   293.47691      0.018708349    8.3944417      728.1243      -31.276709      696.84759    
   3000000   293.34271      0.018708349    3.8221655      727.79135     -33.543816      694.24753    
   3001000   301.22612      0.018708349    10.834756      747.35031     -28.785096      718.56522    
   3002000   295.85227      0.018708349    10.022733      734.01764     -30.710173      703.30746    
   3003000   295.49645      0.018708349    6.2173604      733.13484     -35.106811      698.02803    
   3004000   307.71442      0.018708349    1.5013362      763.44795     -36.913906      726.53404    
   3005000   303.94626      0.018708349    12.149449      754.09904     -35.298283      718.80075    
   3006000   301.15342      0.018708349    11.542327      747.16994     -36.10412       711.06582    
   3007000   304.29631      0.018708349    10.539072      754.96754     -42.283563      712.68398    
   3008000   309.71971      0.018708349    6.6123852      768.42313     -36.59195       731.83118    
   3009000   315.45761      0.018708349    10.155038      782.65904     -32.351648      750.30739    
   3010000   294.07111      0.018708349    10.262583      729.59854     -35.921612      693.67692    
   3011000   295.55696      0.018708349    10.063138      733.28496     -32.094972      701.18999    
   3012000   303.97746      0.018708349    9.6204468      754.17646     -36.543994      717.63247    
   3013000   301.27348      0.018708349    11.864618      747.46781     -38.767178      708.70063    
   3014000   305.61849      0.018708349    11.831669      758.24789     -32.730498      725.5174     
   3015000   291.95672      0.018708349    9.1917028      724.35267     -39.11014       685.24253    
   3016000   304.90843      0.018708349    10.267399      756.48623     -35.130468      721.35576    
   3017000   294.05216      0.018708349    12.496634      729.55151     -31.849322      697.70218    
   3018000   306.08503      0.018708349    10.774629      759.40541     -30.912138      728.49327    
   3019000   289.39927      0.018708349    8.7307084      718.00756     -33.386948      684.62061    
   3020000   294.44313      0.018708349    6.179617       730.52151     -28.181032      702.34048    
   3021000   300.19108      0.018708349    11.771031      744.78234     -28.917891      715.86444    
   3022000   297.78993      0.018708349    8.3123213      738.82504     -31.675018      707.15002    
   3023000   310.25496      0.018708349    11.229842      769.7511      -29.201893      740.54921    
   3024000   306.64657      0.018708349    7.6148981      760.7986      -34.603325      726.19527    
   3025000   311.89232      0.018708349    12.037566      773.81345     -33.3589        740.45455    
   3026000   302.77765      0.018708349    14.213567      751.1997      -31.991378      719.20832    
   3027000   301.84537      0.018708349    5.9068749      748.88668     -30.886016      718.00067    
   3028000   297.00243      0.018708349    10.739801      736.87122     -29.802219      707.069      
   3029000   313.24486      0.018708349    11.441721      777.16912     -36.542267      740.62686    
   3030000   293.29851      0.018708349    10.297455      727.6817      -35.741857      691.93984    
   3031000   296.58003      0.018708349    11.676748      735.82323     -33.402275      702.42096    
   3032000   304.8717       0.018708349    10.608495      756.3951      -33.721188      722.67391    
   3033000   314.02301      0.018708349    9.9150671      779.09975     -27.540233      751.55952    
   3034000   302.37153      0.018708349    8.8314958      750.19209     -30.654234      719.53786    
   3035000   285.28548      0.018708349    12.679791      707.80113     -30.258708      677.54242    
   3036000   300.44213      0.018708349    12.994803      745.4052      -24.934516      720.47068    
   3037000   301.32652      0.018708349    6.1929904      747.59939     -27.87449       719.7249     
   3038000   283.27052      0.018708349    5.1687575      702.80198     -27.798706      675.00327    
   3039000   302.11865      0.018708349    11.594423      749.56471     -32.184597      717.38011    
   3040000   313.42371      0.018708349    11.141013      777.61287     -28.937741      748.67512    
   3041000   294.84899      0.018708349    8.773319       731.52847     -29.51866       702.00981    
   3042000   294.51893      0.018708349    10.095871      730.70958     -33.692318      697.01726    
   3043000   309.41695      0.018708349    13.322883      767.67198     -31.480235      736.19174    
   3044000   298.14078      0.018708349    8.9677744      739.69549     -29.354271      710.34122    
   3045000   287.49568      0.018708349    8.5010251      713.2847      -28.879037      684.40567    
   3046000   313.96239      0.018708349    9.5481214      778.94934     -32.323407      746.62594    
   3047000   308.52042      0.018708349    12.44653       765.44767     -32.302666      733.14501    
   3048000   294.38785      0.018708349    8.9400423      730.38436     -31.431357      698.953      
   3049000   284.59727      0.018708349    9.9567503      706.09367     -32.221198      673.87247    
   3050000   302.78274      0.018708349    11.802336      751.21234     -35.60512       715.60722    
   3051000   305.02616      0.018708349    10.357297      756.77831     -37.683345      719.09496    
   3052000   301.69302      0.018708349    10.470953      748.50869     -34.069254      714.43944    
   3053000   282.71068      0.018708349    5.0362572      701.41298     -28.08656       673.32642    
   3054000   298.54812      0.018708349    10.123885      740.70612     -25.128259      715.57786    
   3055000   294.71127      0.018708349    11.84238       731.18679     -30.237045      700.94975    
   3056000   301.95495      0.018708349    10.388202      749.15855     -37.96213       711.19642    
   3057000   291.72539      0.018708349    6.2663258      723.77872     -38.51534       685.26338    
   3058000   303.73763      0.018708349    10.39053       753.58143     -30.446089      723.13534    
   3059000   312.26191      0.018708349    10.85991       774.7304      -28.696819      746.03358    
   3060000   296.3215       0.018708349    8.7136217      735.1818      -33.97134       701.21046    
   3061000   295.86081      0.018708349    6.8720848      734.03881     -33.594834      700.44398    
   3062000   305.09641      0.018708349    9.9793117      756.95259     -40.511456      716.44114    
   3063000   308.72342      0.018708349    11.494692      765.95131     -39.768231      726.18308    
   3064000   293.15695      0.018708349    9.6072561      727.33047     -37.163674      690.1668     
   3065000   301.27053      0.018708349    10.703444      747.46049     -31.412857      716.04763    
   3066000   312.49787      0.018708349    11.037266      775.31584     -33.122375      742.19346    
   3067000   294.6656       0.018708349    9.2832198      731.07347     -31.240713      699.83276    
   3068000   296.26436      0.018708349    7.7094559      735.04005     -36.099173      698.94088    
   3069000   304.60611      0.018708349    10.651196      755.73616     -38.863271      716.87289    
   3070000   307.31299      0.018708349    8.0457921      762.45201     -37.389099      725.06291    
   3071000   300.27316      0.018708349    11.64415       744.98598     -32.813669      712.17231    
   3072000   297.70166      0.018708349    10.126869      738.60603     -31.492532      707.1135     
   3073000   292.28522      0.018708349    7.9516779      725.16768     -26.817689      698.35       
   3074000   311.49374      0.018708349    12.843699      772.82456     -25.939918      746.88464    
   3075000   319.19742      0.018708349    11.335545      791.93759     -30.945166      760.99242    
   3076000   286.37842      0.018708349    10.068122      710.51276     -36.763181      673.74958    
   3077000   291.69742      0.018708349    7.3499222      723.70935     -34.58967       689.11968    
   3078000   311.60773      0.018708349    9.8210322      773.10736     -30.775476      742.33189    
   3079000   309.30426      0.018708349    11.64248       767.3924      -28.479012      738.91339    
   3080000   288.98034      0.018708349    9.2149688      716.96818     -27.534964      689.43322    
   3081000   295.83925      0.018708349    6.8353902      733.98534     -26.580492      707.40484    
   3082000   299.63562      0.018708349    6.7785319      743.40423     -31.866754      711.53748    
   3083000   316.3886       0.018708349    12.196258      784.96884     -30.894209      754.07463    
   3084000   307.14007      0.018708349    10.915545      762.02299     -35.140193      726.8828     
   3085000   299.50846      0.018708349    8.9672744      743.08875     -30.715683      712.37307    
   3086000   312.96844      0.018708349    10.280988      776.48331     -29.27454       747.20877    
   3087000   305.59504      0.018708349    10.422809      758.18972     -28.354058      729.83566    
   3088000   285.94396      0.018708349    9.5593351      709.43484     -26.637866      682.79697    
   3089000   295.01904      0.018708349    11.356701      731.95037     -26.253867      705.6965     
   3090000   314.12912      0.018708349    9.8954444      779.36301     -28.504122      750.85889    
   3091000   290.82466      0.018708349    7.0828044      721.544       -26.598562      694.94544    
   3092000   303.19843      0.018708349    11.082802      752.24366     -25.841087      726.40257    
   3093000   320.64138      0.018708349    9.7072984      795.5201      -24.113808      771.40629    
   3094000   301.19118      0.018708349    7.4544326      747.26361     -22.907808      724.3558     
   3095000   285.89047      0.018708349    10.532265      709.30214     -25.352407      683.94973    
   3096000   284.2837       0.018708349    9.5856493      705.31571     -29.774703      675.541      
   3097000   305.32981      0.018708349    11.873022      757.53167     -34.666253      722.86542    
   3098000   307.03833      0.018708349    12.30451       761.77055     -32.10752       729.66303    
   3099000   295.73554      0.018708349    6.0073485      733.72803     -31.661412      702.06662    
   3100000   297.55553      0.018708349    6.3318951      738.24347     -31.734028      706.50945    
   3101000   297.61613      0.018708349    8.4215436      738.39381     -29.17712       709.21669    
   3102000   301.81651      0.018708349    17.872186      748.81508     -27.899192      720.91589    
   3103000   295.76072      0.018708349    6.0073326      733.7905      -28.965872      704.82463    
   3104000   301.06415      0.018708349    2.9066403      746.94846     -27.279427      719.66904    
   3105000   304.10223      0.018708349    16.322291      754.48601     -29.918647      724.56737    
   3106000   317.23768      0.018708349    12.07216       787.07543     -23.566056      763.50937    
   3107000   296.18542      0.018708349    6.5414021      734.84419     -28.926403      705.91779    
   3108000   292.57225      0.018708349    18.216746      725.87983     -29.320307      696.55952    
   3109000   300.56513      0.018708349    14.054595      745.71036     -31.86099       713.84937    
   3110000   300.99329      0.018708349   -6.8265877      746.77264     -31.88603       714.88661    
   3111000   294.18152      0.018708349    10.791576      729.87247     -35.342094      694.53037    
   3112000   292.41856      0.018708349    29.295494      725.4985      -36.504691      688.99381    
   3113000   296.25889      0.018708349    8.8559783      735.02648     -36.714499      698.31198    
   3114000   311.19101      0.018708349    19.068707      772.07348     -35.091618      736.98186    
   3115000   300.72736      0.018708349    4.3070489      746.11286     -35.970549      710.14231    
   3116000   287.17926      0.018708349    16.558373      712.49967     -38.090012      674.40966    
   3117000   308.09226      0.018708349    13.433276      764.38538     -38.080583      726.3048     
   3118000   304.16929      0.018708349    0.52061414     754.6524      -35.489725      719.16267    
   3119000   293.54264      0.018708349    13.423557      728.28738     -36.197852      692.08953    
   3120000   301.14971      0.018708349    14.304587      747.16074     -33.541988      713.61875    
   3121000   302.11956      0.018708349   -1.1676937      749.56696     -29.622648      719.94431    
   3122000   298.43311      0.018708349    4.2110248      740.42077     -33.429145      706.99162    
   3123000   297.00188      0.018708349    14.208325      736.86984     -35.157089      701.71275    
   3124000   306.97644      0.018708349    17.045882      761.61701     -39.92835       721.68866    
   3125000   313.59938      0.018708349    4.9220149      778.0487      -37.674452      740.37424    
   3126000   286.82462      0.018708349    13.389948      711.61978     -39.717949      671.90183    
   3127000   296.45972      0.018708349    18.298761      735.52473     -39.061194      696.46354    
   3128000   295.25245      0.018708349    8.011988       732.52945     -41.425102      691.10435    
   3129000   305.27083      0.018708349    7.0782644      757.38534     -36.864306      720.52104    
   3130000   290.85811      0.018708349    15.10357       721.62698     -36.424151      685.20283    
   3131000   300.42338      0.018708349    21.959767      745.3587      -30.368262      714.99043    
   3132000   299.01435      0.018708349    10.025235      741.86285     -32.406832      709.45601    
   3133000   298.80177      0.018708349    15.995686      741.33542     -32.842042      708.49338    
   3134000   307.38086      0.018708349    11.443591      762.6204      -31.331835      731.28856    
   3135000   295.22158      0.018708349    4.2687578      732.45288     -31.059262      701.39361    
   3136000   288.70563      0.018708349    17.828016      716.28662     -28.07417       688.21245    
   3137000   310.71679      0.018708349    8.2394712      770.89693     -34.996889      735.90004    
   3138000   306.8285       0.018708349    5.4927248      761.24998     -28.888072      732.36191    
   3139000   295.93032      0.018708349    12.069815      734.21128     -31.14402       703.06726    
   3140000   300.14755      0.018708349    17.568873      744.67434     -28.494602      716.17974    
   3141000   305.20689      0.018708349    7.3687638      757.2267      -30.956542      726.27016    
   3142000   292.18868      0.018708349    6.6740034      724.92818     -31.017601      693.91058    
   3143000   298.72612      0.018708349    12.608654      741.14774     -28.494783      712.65295    
   3144000   308.96058      0.018708349    9.3770809      766.5397      -28.209656      738.33005    
   3145000   304.05099      0.018708349    9.7765588      754.35888     -28.933078      725.4258     
   3146000   289.47168      0.018708349    9.3178258      718.18721     -29.462269      688.72494    
   3147000   294.09744      0.018708349    14.765476      729.66386     -30.052328      699.61154    
   3148000   313.48589      0.018708349    11.883131      777.76712     -26.87096       750.89616    
   3149000   296.30154      0.018708349    9.0003458      735.13228     -29.636062      705.49621    
   3150000   285.84757      0.018708349    6.9357437      709.19571     -33.069994      676.12571    
   3151000   301.72351      0.018708349    12.19634       748.58434     -32.612797      715.97155    
   3152000   318.5816       0.018708349    19.619555      790.40974     -32.188734      758.22101    
   3153000   305.6694       0.018708349    13.777293      758.3742      -35.682308      722.69189    
   3154000   297.89285      0.018708349    4.7712207      739.08036     -31.822113      707.25825    
   3155000   292.47149      0.018708349    9.1905717      725.62984     -29.619321      696.01052    
   3156000   310.25725      0.018708349    14.403793      769.75678     -32.922535      736.83424    
   3157000   305.85072      0.018708349    4.9255357      758.82406     -33.644872      725.17919    
   3158000   294.88668      0.018708349    7.3816599      731.62198     -32.209428      699.41255    
   3159000   289.72395      0.018708349    12.516624      718.8131      -33.283181      685.52992    
   3160000   305.0431       0.018708349    10.667246      756.82035     -32.723941      724.09641    
   3161000   300.74181      0.018708349    10.90704       746.14873     -34.128241      712.02049    
   3162000   309.85623      0.018708349    9.8140849      768.76185     -28.432945      740.3289     
   3163000   293.64028      0.018708349    7.666454       728.52964     -29.271053      699.25859    
   3164000   304.25937      0.018708349    10.213237      754.87587     -26.477325      728.39855    
   3165000   311.16527      0.018708349    11.662902      772.00962     -29.836806      742.17282    
   3166000   291.21969      0.018708349    10.74162       722.52407     -28.250187      694.27388    
   3167000   302.91427      0.018708349    5.7575998      751.53865     -32.895667      718.64298    
   3168000   316.97867      0.018708349    10.554254      786.43283     -29.719371      756.71346    
   3169000   300.25367      0.018708349    10.752483      744.93764     -30.465398      714.47225    
   3170000   287.6093       0.018708349    10.919967      713.56661     -27.14806       686.41855    
   3171000   297.89118      0.018708349    8.4659166      739.07622     -30.359513      708.71671    
   3172000   300.63248      0.018708349    9.6517804      745.87746     -35.889555      709.98791    
   3173000   300.41544      0.018708349    12.709448      745.33899     -26.139765      719.19922    
   3174000   295.16689      0.018708349    8.9073395      732.3172      -36.137131      696.18007    
   3175000   294.86795      0.018708349    4.9634423      731.57552     -35.473062      696.10246    
   3176000   303.44333      0.018708349    5.2776714      752.85126     -29.245095      723.60616    
   3177000   302.67709      0.018708349    16.698865      750.95021     -28.83908       722.11113    
   3178000   302.75248      0.018708349    11.215677      751.13724     -28.307278      722.82997    
   3179000   305.33302      0.018708349    7.6019961      757.53964     -27.356801      730.18284    
   3180000   301.152        0.018708349    6.4272853      747.16641     -25.954537      721.21188    
   3181000   310.61029      0.018708349    12.004777      770.63268     -30.648597      739.98409    
   3182000   306.31756      0.018708349    19.776543      759.9823      -30.325959      729.65634    
   3183000   281.74947      0.018708349    10.563217      699.0282      -26.886073      672.14212    
   3184000   289.09743      0.018708349    4.4300093      717.2587      -30.962109      686.29659    
   3185000   309.30784      0.018708349    10.614985      767.40127     -33.098421      734.30285    
   3186000   293.25601      0.018708349    12.451148      727.57625     -29.562245      698.014      
   3187000   288.04339      0.018708349    8.9178768      714.64358     -26.575365      688.06822    
   3188000   291.83009      0.018708349    4.3325165      724.0385      -32.456706      691.58179    
   3189000   323.02954      0.018708349    9.1168795      801.4452      -27.958868      773.48634    
   3190000   307.99283      0.018708349    12.589254      764.1387      -30.562748      733.57595    
   3191000   295.32297      0.018708349    11.084715      732.70443     -31.707706      700.99672    
   3192000   301.22802      0.018708349    10.136291      747.35501     -28.142406      719.2126     
   3193000   302.70805      0.018708349    8.3691906      751.02702     -26.1247        724.90232    
   3194000   305.24267      0.018708349    10.623664      757.31547     -27.769471      729.546      
   3195000   298.92153      0.018708349    9.8173038      741.63256     -28.931585      712.70098    
   3196000   283.42693      0.018708349    9.7514707      703.19003     -28.023286      675.16674    
   3197000   293.43542      0.018708349    7.8364613      728.02136     -30.071879      697.94948    
   3198000   315.00592      0.018708349    10.975255      781.53837     -30.749016      750.78935    
   3199000   300.99448      0.018708349    11.531648      746.77561     -26.590391      720.18521    
   3200000   288.08053      0.018708349    9.8073295      714.73574     -27.225079      687.51066    
   3201000   293.85537      0.018708349    8.9836523      729.06328     -31.197171      697.86611    
   3202000   312.00018      0.018708349    5.8079117      774.08106     -33.950261      740.1308     
   3203000   309.84224      0.018708349    11.024695      768.72713     -28.287122      740.44001    
   3204000   289.1898       0.018708349    10.67665       717.48787     -29.752713      687.73516    
   3205000   285.89729      0.018708349    7.9576412      709.31906     -30.446983      678.87208    
   3206000   284.16088      0.018708349    7.6225836      705.01097     -31.670678      673.34029    
   3207000   315.96355      0.018708349    9.8505478      783.91427     -30.905265      753.009      
   3208000   300.82496      0.018708349    9.3098746      746.35502     -34.063295      712.29173    
   3209000   297.8427       0.018708349    8.6791851      738.95594     -33.603162      705.35277    
   3210000   312.53768      0.018708349    14.109822      775.4146      -30.127088      745.28751    
   3211000   288.92612      0.018708349    10.356508      716.83368     -27.960264      688.87342    
   3212000   297.74162      0.018708349    9.433523       738.70516     -26.804543      711.90061    
   3213000   302.59978      0.018708349    10.698489      750.75839     -30.6423        720.11609    
   3214000   310.24206      0.018708349    6.7256871      769.71909     -33.642129      736.07696    
   3215000   285.57455      0.018708349    9.6118835      708.51834     -31.27061       677.24773    
   3216000   295.48124      0.018708349    7.9226651      733.0971      -28.443866      704.65323    
   3217000   308.89169      0.018708349    8.4171716      766.3688      -31.255421      735.11338    
   3218000   314.50913      0.018708349    9.4487818      780.30581     -26.887385      753.41843    
   3219000   302.12053      0.018708349    12.106449      749.56937     -25.824589      723.74478    
   3220000   286.13823      0.018708349    8.3779337      709.91684     -26.132751      683.78409    
   3221000   316.79372      0.018708349    9.340995       785.97396     -24.06048       761.91348    
   3222000   300.35866      0.018708349    16.24215       745.19811     -25.435464      719.76265    
   3223000   293.46078      0.018708349    0.89062841     728.08428     -23.899446      704.18484    
   3224000   296.60054      0.018708349    9.4271994      735.87411     -28.947517      706.92659    
   3225000   303.87352      0.018708349    11.910252      753.91859     -30.045272      723.87332    
   3226000   298.37179      0.018708349    10.376691      740.26864     -31.829766      708.43888    
   3227000   293.8707       0.018708349    7.2080984      729.10132     -33.835526      695.26579    
   3228000   308.88337      0.018708349    6.2062475      766.34815     -37.369812      728.97834    
   3229000   305.26077      0.018708349    11.994897      757.36039     -36.487329      720.87306    
   3230000   290.70521      0.018708349    10.621998      721.24764     -39.712163      681.53548    
   3231000   301.37635      0.018708349   -6.3838646      747.72303     -32.903352      714.81968    
   3232000   315.99926      0.018708349    7.150643       784.00288     -34.721452      749.28143    
   3233000   296.37565      0.018708349    20.297309      735.31615     -31.841751      703.47439    
   3234000   293.27883      0.018708349    20.772536      727.63286     -30.660245      696.97261    
   3235000   297.77518      0.018708349    2.6093621      738.78843     -28.399186      710.38924    
   3236000   292.91525      0.018708349    5.3200322      726.73081     -26.520281      700.21053    
   3237000   302.81395      0.018708349    22.529975      751.28977     -23.104368      728.1854     
   3238000   309.4373       0.018708349    36.139099      767.72246     -25.282128      742.44033    
   3239000   292.05316      0.018708349    21.231453      724.59193     -27.360443      697.23149    
   3240000   287.05706      0.018708349   -0.34957493     712.19648     -28.699324      683.49716    
   3241000   305.69425      0.018708349    5.8878292      758.43586     -30.719002      727.71686    
   3242000   316.7505       0.018708349    14.703662      785.86671     -35.747126      750.11959    
   3243000   291.47919      0.018708349    13.975811      723.1679      -37.609064      685.55883    
   3244000   296.52709      0.018708349    11.642853      735.69189     -31.255907      704.43598    
   3245000   312.74201      0.018708349    1.3811344      775.92155     -32.692103      743.22945    
   3246000   297.94525      0.018708349    11.397343      739.21039     -27.564308      711.64608    
   3247000   279.90489      0.018708349    7.8283722      694.45175     -27.741273      666.71048    
   3248000   303.44483      0.018708349    8.0561255      752.85498     -30.34964       722.50534    
   3249000   313.27838      0.018708349    14.696895      777.2523      -24.350552      752.90175    
   3250000   295.81809      0.018708349    12.47918       733.93283     -28.472684      705.46014    
   3251000   291.29216      0.018708349    4.6231139      722.70387     -26.365614      696.33826    
   3252000   309.0508       0.018708349    9.0431978      766.76355     -27.031396      739.73216    
   3253000   307.69378      0.018708349    11.705133      763.39674     -28.555309      734.84143    
   3254000   288.44444      0.018708349    8.4390403      715.6386      -29.732314      685.90628    
   3255000   298.53299      0.018708349    10.30464       740.66857     -31.229316      709.43925    
   3256000   312.13465      0.018708349    11.542193      774.41467     -28.067246      746.34742    
   3257000   297.90854      0.018708349    8.8568249      739.1193      -31.492673      707.62662    
   3258000   287.73482      0.018708349    9.2381846      713.87802     -28.742968      685.13505    
   3259000   303.45557      0.018708349    12.408471      752.88162     -25.396287      727.48533    
   3260000   302.38199      0.018708349    10.212589      750.21806     -25.050399      725.16766    
   3261000   306.14528      0.018708349    10.251572      759.55488     -25.230508      734.32437    
   3262000   301.68816      0.018708349    8.107173       748.49665     -24.486479      724.01017    
   3263000   291.63281      0.018708349    8.5119428      723.54905     -26.306186      697.24286    
   3264000   297.74714      0.018708349    9.5416286      738.71887     -27.916461      710.80241    
   3265000   309.89399      0.018708349    11.205468      768.85554     -29.236712      739.61883    
   3266000   312.39666      0.018708349    11.308376      775.06474     -30.04924       745.0155     
   3267000   315.12428      0.018708349    5.6977311      781.83203     -22.626731      759.2053     
   3268000   297.30407      0.018708349    14.033853      737.61959     -27.467863      710.15173    
   3269000   303.04278      0.018708349    17.291624      751.85748     -30.015053      721.84243    
   3270000   304.97275      0.018708349    9.5112448      756.6458      -33.044105      723.6017     
   3271000   297.44685      0.018708349    8.1341874      737.97383     -30.074311      707.89952    
   3272000   302.08008      0.018708349    9.7392357      749.46901     -30.853514      718.6155     
   3273000   301.01372      0.018708349    11.259836      746.82334     -30.276242      716.5471     
   3274000   294.0443       0.018708349    9.7882399      729.53201     -30.868312      698.6637     
   3275000   304.67855      0.018708349    8.1843819      755.91588     -28.479267      727.43662    
   3276000   299.00793      0.018708349    9.1306867      741.84693     -29.275608      712.57132    
   3277000   297.28331      0.018708349    9.1146551      737.56809     -27.737452      709.83064    
   3278000   311.17193      0.018708349    10.705375      772.02615     -25.33705       746.6891     
   3279000   303.2064       0.018708349    12.072876      752.26343     -22.803174      729.46026    
   3280000   297.19667      0.018708349    10.198238      737.35312     -28.024867      709.32825    
   3281000   300.86137      0.018708349    5.4618074      746.44536     -32.467928      713.97743    
   3282000   304.08833      0.018708349    12.45897       754.45154     -30.987793      723.46374    
   3283000   295.50843      0.018708349    8.3903694      733.16455     -26.474421      706.69013    
   3284000   306.5912       0.018708349    9.0970092      760.66121     -26.664987      733.99622    
   3285000   287.08617      0.018708349    13.488691      712.26871     -25.285702      686.98301    
   3286000   294.23198      0.018708349    11.515249      729.99766     -27.110574      702.88709    
   3287000   295.77744      0.018708349    9.7325429      733.83197     -31.029243      702.80273    
   3288000   290.52556      0.018708349    7.3722379      720.80192     -28.527359      692.27456    
   3289000   296.36393      0.018708349    8.2569229      735.28709     -35.54781       699.73928    
   3290000   310.37048      0.018708349    12.7942        770.03771     -30.801402      739.23631    
   3291000   298.39819      0.018708349    10.917861      740.33413     -27.067944      713.26619    
   3292000   290.46322      0.018708349    10.187433      720.64725     -32.635821      688.01142    
   3293000   308.27439      0.018708349    8.467668       764.83727     -27.733232      737.10404    
   3294000   314.37076      0.018708349    10.546614      779.96252     -28.273512      751.68901    
   3295000   288.02552      0.018708349    9.7972801      714.59927     -28.969447      685.62982    
   3296000   295.71135      0.018708349    11.130853      733.66801     -27.67105       705.99696    
   3297000   315.28503      0.018708349    11.856966      782.23086     -29.524344      752.70652    
   3298000   303.7591       0.018708349    12.698046      753.6347      -29.977771      723.65693    
   3299000   295.2552       0.018708349    8.121243       732.53629     -29.718715      702.81758    
   3300000   311.72037      0.018708349    6.5066531      773.38682     -33.147245      740.23958    
   3301000   296.49558      0.018708349    15.739002      735.6137      -30.542006      705.07169    
   3302000   295.13337      0.018708349    9.7755504      732.23403     -30.829663      701.40437    
   3303000   302.56417      0.018708349    8.7192091      750.67005     -28.122322      722.54773    
   3304000   312.23556      0.018708349    12.414915      774.66503     -30.671024      743.99401    
   3305000   295.59782      0.018708349    10.407145      733.38634     -32.157961      701.22838    
   3306000   278.0674       0.018708349    9.621501       689.89287     -29.988722      659.90415    
   3307000   310.83875      0.018708349    10.732375      771.1995      -30.165428      741.03407    
   3308000   304.89405      0.018708349    11.020686      756.45055     -29.119226      727.33133    
   3309000   302.86001      0.018708349    11.60683       751.40404     -26.683774      724.72027    
   3310000   298.94068      0.018708349    8.0780928      741.68006     -25.159546      716.52051    
   3311000   306.09721      0.018708349    9.0233668      759.43563     -23.533583      735.90204    
   3312000   304.25417      0.018708349    10.678585      754.86299     -23.638439      731.22455    
   3313000   285.62341      0.018708349    10.290458      708.63954     -27.689861      680.94968    
   3314000   297.62913      0.018708349    8.338286       738.42607     -23.577774      714.8483     
   3315000   313.54509      0.018708349    11.287743      777.91402     -28.973738      748.94028    
   3316000   311.1211       0.018708349    12.094812      771.90002     -29.495579      742.40444    
   3317000   297.16225      0.018708349    10.583401      737.26774     -24.380826      712.88691    
   3318000   283.51591      0.018708349    11.143331      703.41079     -26.867323      676.54346    
   3319000   304.11351      0.018708349    10.211175      754.514       -29.154794      725.35921    
   3320000   300.59852      0.018708349    7.601074       745.79321     -25.472232      720.32098    
   3321000   290.32418      0.018708349    9.5045737      720.30229     -25.26949       695.0328     
   3322000   301.13443      0.018708349    14.101549      747.12282     -24.901438      722.22138    
   3323000   326.8314       0.018708349    12.088279      810.87772     -24.554692      786.32303    
   3324000   298.09906      0.018708349    7.8514337      739.59198     -29.598211      709.99377    
   3325000   296.40676      0.018708349    13.224687      735.39335     -26.928347      708.46501    
   3326000   310.1929       0.018708349    2.0416277      769.59714     -30.292258      739.30488    
   3327000   303.43033      0.018708349    8.4266905      752.81901     -24.589572      728.22943    
   3328000   300.09771      0.018708349    13.267057      744.55068     -24.313831      720.23685    
   3329000   312.63348      0.018708349    16.823384      775.65228     -24.933721      750.71856    
   3330000   294.76531      0.018708349    13.258313      731.32085     -26.482547      704.83831    
   3331000   310.83596      0.018708349   -2.3597899      771.19258     -31.324057      739.86852    
   3332000   299.12953      0.018708349    7.9988283      742.14861     -31.064257      711.08436    
   3333000   299.0503       0.018708349    17.260029      741.95203     -27.078382      714.87365    
   3334000   306.79289      0.018708349    14.668031      761.16162     -28.292783      732.86884    
   3335000   308.09453      0.018708349    7.3054015      764.39103     -27.124186      737.26685    
   3336000   305.01222      0.018708349    9.8532277      756.74374     -24.5858        732.15794    
   3337000   307.43557      0.018708349    14.377954      762.75612     -22.382734      740.37338    
   3338000   291.15416      0.018708349    11.144494      722.36151     -26.514944      695.84656    
   3339000   294.17612      0.018708349    2.6763807      729.85907     -31.969833      697.88923    
   3340000   303.87044      0.018708349    9.2602876      753.91094     -25.229631      728.68131    
   3341000   297.28829      0.018708349    9.4469907      737.58045     -26.895116      710.68533    
   3342000   305.59848      0.018708349    8.850897       758.19825     -28.226583      729.97166    
   3343000   298.33854      0.018708349    14.882128      740.18615     -26.433639      713.75251    
   3344000   285.44414      0.018708349    9.2734135      708.19477     -28.38138       679.81339    
   3345000   293.64234      0.018708349    11.496816      728.53474     -22.607131      705.92761    
   3346000   311.46639      0.018708349    11.823668      772.7567      -30.272676      742.48403    
   3347000   301.59771      0.018708349    10.894627      748.27222     -29.401669      718.87055    
   3348000   299.47016      0.018708349    10.352286      742.99373     -26.891321      716.1024     
   3349000   302.87399      0.018708349    8.1140731      751.43871     -23.888145      727.55057    
   3350000   297.65457      0.018708349    10.550383      738.48918     -21.701793      716.78739    
   3351000   306.98642      0.018708349    11.55361       761.64178     -23.778876      737.8629     
   3352000   286.586        0.018708349    10.403118      711.02777     -25.609606      685.41816    
   3353000   303.39319      0.018708349    11.870535      752.72687     -24.997595      727.72927    
   3354000   299.93157      0.018708349    6.3753722      744.1385      -24.843439      719.29506    
   3355000   301.40026      0.018708349    10.121491      747.78236     -27.182369      720.59999    
   3356000   297.50552      0.018708349    11.446068      738.11939     -29.146455      708.97294    
   3357000   303.39814      0.018708349    17.24143       752.73914     -27.197094      725.54205    
   3358000   290.51195      0.018708349    12.25385       720.76815     -29.117995      691.65015    
   3359000   288.16894      0.018708349    6.5385808      714.95509     -33.609509      681.34558    
   3360000   313.97799      0.018708349    7.7051912      778.98805     -34.865807      744.12224    
   3361000   303.3119       0.018708349    11.270301      752.5252      -28.667443      723.85775    
   3362000   287.56283      0.018708349    8.3148516      713.45132     -29.301156      684.15016    
   3363000   304.19603      0.018708349    10.160156      754.71873     -33.37698       721.34175    
   3364000   317.14815      0.018708349    10.058239      786.8533      -37.769619      749.08368    
   3365000   294.58426      0.018708349    6.6998057      730.87167     -38.699698      692.17198    
   3366000   290.79331      0.018708349    10.03897       721.46623     -30.641048      690.82518    
   3367000   308.97591      0.018708349    10.63128       766.57775     -31.510828      735.06693    
   3368000   308.7257       0.018708349    9.5498855      765.95698     -30.078025      735.87896    
   3369000   286.57612      0.018708349    9.4056985      711.00326     -31.631835      679.37143    
   3370000   290.33877      0.018708349    10.386854      720.33849     -30.744132      689.59436    
   3371000   307.32821      0.018708349    8.3915761      762.48975     -27.790381      734.69937    
   3372000   298.64694      0.018708349    8.8960607      740.9513      -29.399568      711.55173    
   3373000   288.49999      0.018708349    12.383137      715.77644     -31.777424      683.99901    
   3374000   305.77906      0.018708349    10.022786      758.64627     -31.031956      727.61432    
   3375000   302.12895      0.018708349    8.0741346      749.59025     -29.051822      720.53843    
   3376000   287.44406      0.018708349    8.7380736      713.15664     -33.410053      679.74659    
   3377000   290.628        0.018708349    11.936887      721.05609     -29.106133      691.94996    
   3378000   318.80075      0.018708349    11.267897      790.95345     -36.520432      754.43302    
   3379000   305.12838      0.018708349    10.156353      757.03192     -34.631237      722.40069    
   3380000   283.32502      0.018708349    6.9835555      702.93719     -31.350153      671.58703    
   3381000   296.79506      0.018708349    8.4859396      736.35672     -32.644347      703.71237    
   3382000   306.38315      0.018708349    10.131407      760.14505     -29.495843      730.64921    
   3383000   306.43199      0.018708349    10.372186      760.26621     -32.074058      728.19216    
   3384000   302.63028      0.018708349    12.111523      750.83406     -34.302728      716.53134    
   3385000   287.81475      0.018708349    9.9762363      714.07634     -32.889325      681.18701    
   3386000   311.75313      0.018708349    11.119288      773.46811     -31.813064      741.65505    
   3387000   303.3308       0.018708349    9.8815145      752.57209     -31.127353      721.44473    
   3388000   291.26132      0.018708349    11.002817      722.62737     -29.660383      692.96699    
   3389000   310.60186      0.018708349    10.064678      770.61178     -30.008786      740.603      
   3390000   312.76967      0.018708349    11.076284      775.99018     -31.16317       744.82701    
   3391000   301.31503      0.018708349    10.44437       747.5709      -30.892937      716.67796    
   3392000   285.82363      0.018708349    9.9629151      709.13631     -36.176309      672.96       
   3393000   296.47711      0.018708349    9.6917971      735.56788     -34.07468       701.4932     
   3394000   312.73355      0.018708349    10.666308      775.90055     -38.939634      736.96092    
   3395000   303.61689      0.018708349    10.250533      753.28187     -33.567893      719.71398    
   3396000   292.78839      0.018708349    8.891375       726.41607     -38.355753      688.06032    
   3397000   293.599        0.018708349    10.087731      728.42722     -32.319869      696.10735    
   3398000   316.59751      0.018708349    10.560558      785.48716     -34.755656      750.7315     
   3399000   287.63448      0.018708349    9.507432       713.62908     -32.813125      680.81596    
   3400000   291.07457      0.018708349    9.6321967      722.16402     -32.945903      689.21812    
   3401000   306.21789      0.018708349    9.9688467      759.73503     -32.853984      726.88105    
   3402000   305.32483      0.018708349    10.357255      757.51931     -34.800146      722.71916    
   3403000   287.96218      0.018708349    9.2952557      714.44211     -34.086187      680.35592    
   3404000   301.64097      0.018708349    11.780431      748.37957     -31.354559      717.02501    
   3405000   316.78938      0.018708349    10.215123      785.96318     -33.422902      752.54027    
   3406000   296.43267      0.018708349    9.4148685      735.45761     -39.781641      695.67597    
   3407000   289.96125      0.018708349    9.6604935      719.40186     -38.491142      680.91072    
   3408000   305.63085      0.018708349    9.5471565      758.27857     -36.604677      721.67389    
   3409000   306.15899      0.018708349    10.390688      759.58889     -41.577891      718.011      
   3410000   312.09272      0.018708349    5.8687754      774.31064     -35.194659      739.11598    
   3411000   291.39805      0.018708349    9.0899525      722.96661     -38.834221      684.13238    
   3412000   299.36412      0.018708349    11.352428      742.73063     -32.635412      710.09522    
   3413000   311.31001      0.018708349    10.580512      772.36871     -30.203507      742.1652     
   3414000   300.81164      0.018708349    9.1782385      746.32196     -37.426461      708.8955     
   3415000   294.57431      0.018708349    9.6906698      730.84699     -34.281114      696.56587    
   3416000   304.93519      0.018708349    10.726283      756.5526      -31.585268      724.96733    
   3417000   305.07337      0.018708349    8.8508637      756.89545     -29.213589      727.68186    
   3418000   284.96652      0.018708349    7.1373963      707.00979     -30.816714      676.19308    
   3419000   286.28699      0.018708349    6.9014804      710.28593     -29.073004      681.21292    
   3420000   307.73259      0.018708349    17.40669       763.49305     -27.756365      735.73668    
   3421000   304.08169      0.018708349    1.7190806      754.43507     -32.164177      722.27089    
   3422000   289.65995      0.018708349    7.1038066      718.65431     -31.070652      687.58366    
   3423000   281.64229      0.018708349    24.310101      698.76228     -32.315255      666.44702    
   3424000   303.75693      0.018708349    12.198103      753.6293      -31.642639      721.98667    
   3425000   318.14444      0.018708349    15.192599      789.32513     -28.447803      760.87732    
   3426000   300.95082      0.018708349    5.2864802      746.66728     -30.447832      716.21945    
   3427000   281.64171      0.018708349    18.73542       698.76084     -35.57728       663.18356    
   3428000   309.64203      0.018708349    9.3165417      768.23041     -35.474657      732.75575    
   3429000   304.08195      0.018708349    7.3426183      754.43569     -31.443225      722.99247    
   3430000   286.48358      0.018708349    10.628157      710.77366     -30.466925      680.30674    
   3431000   292.48527      0.018708349    15.089295      725.66401     -30.206992      695.45702    
   3432000   317.46251      0.018708349    11.501804      787.63324     -32.233149      755.40009    
   3433000   289.16309      0.018708349    3.5808448      717.4216      -39.032478      678.38913    
   3434000   298.20702      0.018708349    13.807009      739.85984     -37.951989      701.90785    
   3435000   301.24241      0.018708349    8.1563298      747.39073     -33.334564      714.05616    
   3436000   285.50559      0.018708349    6.7532763      708.34723     -34.250595      674.09663    
   3437000   301.49869      0.018708349    16.618516      748.02656     -34.988562      713.038      
   3438000   308.52726      0.018708349    6.962621       765.46464     -37.542332      727.92231    
   3439000   290.93307      0.018708349    6.8217178      721.81296     -39.778055      682.03491    
   3440000   305.22118      0.018708349    19.464216      757.26215     -39.943077      717.31907    
   3441000   309.0473       0.018708349    11.720398      766.75488     -36.952021      729.80285    
   3442000   297.46518      0.018708349    7.5563301      738.0193      -32.045789      705.97351    
   3443000   285.21707      0.018708349    8.7714028      707.63141     -30.052039      677.57937    
   3444000   293.72843      0.018708349    10.036921      728.74834     -30.598548      698.14979    
   3445000   314.60673      0.018708349    12.518741      780.54797     -30.913129      749.63484    
   3446000   300.42013      0.018708349   -3.4653867      745.35063     -31.417584      713.93304    
   3447000   278.13496      0.018708349    12.174222      690.0605      -31.975449      658.08505    
   3448000   282.00505      0.018708349    7.7124561      699.66229     -27.028042      672.63425    
   3449000   305.8911       0.018708349    11.378494      758.92426     -28.610892      730.31336    
   3450000   320.45193      0.018708349    8.7492701      795.05008     -32.222937      762.82714    
   3451000   289.38821      0.018708349    11.254664      717.98013     -31.864487      686.11564    
   3452000   296.52242      0.018708349    9.5310852      735.68029     -31.876898      703.80339    
   3453000   312.29197      0.018708349    9.9874401      774.80498     -34.607457      740.19753    
   3454000   307.01137      0.018708349    10.790965      761.70367     -31.980593      729.72308    
   3455000   299.13655      0.018708349    8.340915       742.16603     -28.230129      713.9359     
   3456000   295.73977      0.018708349    14.996395      733.73853     -30.04289       703.69564    
   3457000   301.66757      0.018708349    13.472426      748.44556     -26.254813      722.19074    
   3458000   310.43213      0.018708349    1.4190982      770.19067     -28.172995      742.01767    
   3459000   297.97051      0.018708349    7.9642591      739.27304     -26.201568      713.07147    
   3460000   296.44424      0.018708349    18.053165      735.48632     -28.039653      707.44667    
   3461000   308.20676      0.018708349    11.828042      764.66947     -31.403059      733.26641    
   3462000   305.17537      0.018708349    9.9960144      757.14851     -32.814284      724.33422    
   3463000   287.06152      0.018708349    9.6276365      712.20756     -30.235213      681.97234    
   3464000   284.47813      0.018708349    9.9484739      705.79809     -28.357164      677.44093    
   3465000   302.96815      0.018708349    11.341672      751.67234     -28.094886      723.57745    
   3466000   320.27176      0.018708349    10.054282      794.60306     -24.282661      770.3204     
   3467000   302.99211      0.018708349    11.23243       751.73177     -28.950021      722.78175    
   3468000   281.70626      0.018708349    10.078311      698.92099     -25.626541      673.29445    
   3469000   293.16633      0.018708349    8.1775583      727.35375     -31.214291      696.13946    
   3470000   304.07749      0.018708349    10.233573      754.42462     -37.406915      717.01771    
   3471000   302.46443      0.018708349    10.003826      750.4226      -38.454808      711.96779    
   3472000   296.31221      0.018708349    12.362571      735.15877     -37.797434      697.36134    
   3473000   300.87008      0.018708349    9.2537075      746.46696     -37.822217      708.64474    
   3474000   305.5142       0.018708349    10.345206      757.98914     -33.564154      724.42499    
   3475000   301.2982       0.018708349    9.2419277      747.52914     -33.918045      713.6111     
   3476000   292.03891      0.018708349    9.1225393      724.55659     -28.309186      696.24741    
   3477000   314.2784       0.018708349    12.025355      779.73337     -28.100152      751.63322    
   3478000   302.47807      0.018708349    8.4023108      750.45644     -28.727701      721.72873    
   3479000   280.94429      0.018708349    12.576476      697.03053     -33.419538      663.61099    
   3480000   317.56403      0.018708349    12.449331      787.88512     -30.808517      757.0766     
   3481000   313.5877       0.018708349    7.7426288      778.01973     -28.485107      749.53462    
   3482000   295.88174      0.018708349    6.1023496      734.09076     -27.643503      706.44726    
   3483000   290.25373      0.018708349    8.0537853      720.1275      -28.381309      691.74619    
   3484000   303.49419      0.018708349    14.68762       752.97745     -29.562242      723.41521    
   3485000   319.18445      0.018708349    5.9559117      791.90542     -23.397535      768.50789    
   3486000   294.45632      0.018708349    7.6335687      730.55424     -25.982228      704.57201    
   3487000   298.27799      0.018708349    10.063404      740.03593     -28.117895      711.91803    
   3488000   298.9075       0.018708349    12.406428      741.59775     -27.062465      714.53528    
   3489000   301.67655      0.018708349    10.942904      748.46785     -24.929108      723.53874    
   3490000   301.43646      0.018708349    4.6077813      747.87216     -27.952569      719.91959    
   3491000   302.50834      0.018708349    7.9997894      750.53154     -22.803442      727.7281     
   3492000   302.94302      0.018708349    10.246822      751.60999     -24.69898       726.91101    
   3493000   295.70976      0.018708349    10.093197      733.66406     -28.515688      705.14837    
   3494000   304.97384      0.018708349    13.460238      756.6485      -30.822621      725.82588    
   3495000   310.26143      0.018708349    12.179378      769.76715     -31.645781      738.12137    
   3496000   292.24234      0.018708349    7.8522326      725.0613      -33.928366      691.13294    
   3497000   298.95896      0.018708349    11.427432      741.72543     -32.653866      709.07156    
   3498000   299.18028      0.018708349    12.070027      742.27451     -30.180154      712.09436    
   3499000   303.23849      0.018708349    10.526063      752.34304     -28.406019      723.93702    
   3500000   302.62013      0.018708349    9.5130482      750.80889     -25.102201      725.70669    
   3501000   298.00181      0.018708349    9.292106       739.3507      -24.950302      714.40039    
   3502000   294.4762       0.018708349    10.371355      730.60358     -29.085166      701.51841    
   3503000   303.53468      0.018708349    8.6212547      753.07791     -30.114423      722.96349    
   3504000   307.84926      0.018708349    13.890004      763.7825      -31.692159      732.09034    
   3505000   294.72196      0.018708349    12.170147      731.21331     -33.806943      697.40637    
   3506000   294.07369      0.018708349    10.959316      729.60494     -33.477976      696.12697    
   3507000   302.89672      0.018708349    7.9763851      751.4951      -29.697933      721.79717    
   3508000   301.4191       0.018708349    0.5115717      747.82909     -27.623037      720.20606    
   3509000   298.11004      0.018708349    9.8220317      739.61923     -32.494101      707.12513    
   3510000   297.27582      0.018708349    9.5175034      737.54951     -36.163618      701.38589    
   3511000   298.8061       0.018708349    9.464184       741.34618     -32.736208      708.60998    
   3512000   304.80027      0.018708349    9.3609962      756.21786     -34.446401      721.77146    
   3513000   305.48402      0.018708349    10.446901      757.91427     -32.194078      725.7202     
   3514000   302.0913       0.018708349    8.1762417      749.49685     -34.347319      715.14953    
   3515000   299.63406      0.018708349    9.7781574      743.40036     -30.093786      713.30658    
   3516000   306.61594      0.018708349    11.032321      760.72259     -32.420987      728.30161    
   3517000   300.52872      0.018708349    10.49603       745.62003     -32.082961      713.53707    
   3518000   287.1554       0.018708349    9.7785547      712.44046     -30.918835      681.52163    
   3519000   311.88329      0.018708349    9.670859       773.79104     -29.846667      743.94437    
   3520000   314.05131      0.018708349    12.295767      779.16995     -25.054239      754.11571    
   3521000   291.11781      0.018708349    10.944371      722.2713      -28.924568      693.34674    
   3522000   296.09686      0.018708349    11.462516      734.62446     -26.776861      707.8476     
   3523000   306.39019      0.018708349    8.7071012      760.1625      -27.60035       732.56215    
   3524000   296.39452      0.018708349    9.9311155      735.36296     -29.584027      705.77894    
   3525000   300.26019      0.018708349    7.6131019      744.9538      -33.568184      711.38562    
   3526000   307.87545      0.018708349    10.135193      763.84748     -32.201585      731.64589    
   3527000   310.05292      0.018708349    12.989428      769.24984     -32.670543      736.57929    
   3528000   297.59433      0.018708349    9.4666937      738.33973     -30.206868      708.13286    
   3529000   289.5531       0.018708349    12.633433      718.38922     -25.311786      693.07743    
   3530000   305.3409       0.018708349    9.9935207      757.5592      -31.169625      726.38957    
   3531000   299.58823      0.018708349    9.0209684      743.28667     -31.948728      711.33794    
   3532000   303.10498      0.018708349    9.9814603      752.0118      -36.181323      715.83048    
   3533000   304.16881      0.018708349    12.50875       754.6512      -38.097384      716.55382    
   3534000   304.31999      0.018708349    9.8833015      755.02629     -34.63726       720.38904    
   3535000   281.89769      0.018708349    5.819345       699.39594     -34.118549      665.27739    
   3536000   307.23411      0.018708349    11.703634      762.25629     -35.768487      726.48781    
   3537000   305.68037      0.018708349    10.115255      758.40141     -34.427         723.97441    
   3538000   290.55841      0.018708349    6.4762424      720.88343     -28.999456      691.88397    
   3539000   311.45092      0.018708349    8.2793219      772.71831     -30.112567      742.60574    
   3540000   294.9334       0.018708349    10.728241      731.73789     -33.353486      698.3844     
   3541000   309.25677      0.018708349    15.623418      767.27456     -39.619561      727.655      
   3542000   291.54042      0.018708349    16.175852      723.31981     -36.087614      687.2322     
   3543000   296.15805      0.018708349    7.8515147      734.77628     -32.933365      701.84291    
   3544000   316.86238      0.018708349    7.4510753      786.14431     -31.121245      755.02306    
   3545000   315.38651      0.018708349    14.644523      782.48263     -32.768972      749.71366    
   3546000   293.08086      0.018708349    11.712953      727.14168     -30.806896      696.33478    
   3547000   288.43778      0.018708349    7.9025645      715.62208     -26.94482       688.67726    
   3548000   302.47451      0.018708349    3.2068843      750.4476      -32.902049      717.54555    
   3549000   309.39713      0.018708349    14.63047       767.6228      -28.634793      738.98801    
   3550000   303.85012      0.018708349    12.910722      753.86053     -30.57409       723.28645    
   3551000   287.64523      0.018708349    13.659544      713.65576     -26.96625       686.68951    
   3552000   286.84689      0.018708349    10.669348      711.67503     -30.203911      681.47112    
   3553000   303.77048      0.018708349    0.94210094     753.66293     -29.69188       723.97105    
   3554000   313.92549      0.018708349    18.637099      778.85779     -27.148485      751.70931    
   3555000   286.72002      0.018708349    12.407244      711.36027     -31.031734      680.32853    
   3556000   312.77564      0.018708349    8.3273817      776.00498     -32.122001      743.88298    
   3557000   317.3233       0.018708349    21.644591      787.28785     -32.339243      754.94861    
   3558000   290.15514      0.018708349    9.0859024      719.8829      -28.279721      691.60318    
   3559000   292.79847      0.018708349    9.1284266      726.44106     -30.715615      695.72545    
   3560000   310.56485      0.018708349    1.0256173      770.51995     -28.64412       741.87583    
   3561000   316.38141      0.018708349    9.13381        784.951       -29.274959      755.67604    
   3562000   292.92633      0.018708349    12.363287      726.7583      -25.448171      701.31012    
   3563000   295.10943      0.018708349    9.7687856      732.17463     -28.753372      703.42125    
   3564000   311.1994       0.018708349    4.7479832      772.0943      -30.061877      742.03242    
   3565000   292.70967      0.018708349    11.70757       726.22075     -27.967474      698.25328    
   3566000   282.28577      0.018708349    15.381186      700.35877     -29.238401      671.12037    
   3567000   303.39015      0.018708349    7.6503331      752.71932     -31.818394      720.90092    
   3568000   314.43254      0.018708349    4.5299566      780.1158      -30.669126      749.44668    
   3569000   302.19802      0.018708349    13.984765      749.76161     -28.048212      721.7134     
   3570000   285.53719      0.018708349    12.663601      708.42563     -29.760591      678.66504    
   3571000   305.98524      0.018708349    6.9614806      759.15782     -40.422847      718.73498    
   3572000   304.38801      0.018708349    11.137265      755.19505     -37.648721      717.54633    
   3573000   291.41873      0.018708349    11.590802      723.01789     -38.667775      684.35012    
   3574000   287.643        0.018708349    6.0609721      713.6502      -39.209253      674.44095    
   3575000   309.56801      0.018708349    8.4996983      768.04678     -38.540676      729.5061     
   3576000   311.8409       0.018708349    14.693712      773.68587     -30.669748      743.01612    
   3577000   288.95119      0.018708349    9.391516       716.89586     -32.693947      684.20191    
   3578000   303.98645      0.018708349    9.8590124      754.19876     -32.114506      722.08426    
   3579000   309.14645      0.018708349    10.373386      767.00086     -35.422071      731.57879    
   3580000   299.7072       0.018708349    16.094244      743.58182     -40.70788       702.87395    
   3581000   280.80526      0.018708349    11.470763      696.68558     -38.970626      657.71495    
   3582000   289.4288       0.018708349    9.0780548      718.08082     -39.54946       678.53136    
   3583000   305.75421      0.018708349    12.466882      758.58462     -38.615316      719.9693     
   3584000   303.23851      0.018708349    9.0092632      752.34309     -39.242419      713.10067    
   3585000   290.57587      0.018708349    10.441458      720.92675     -39.852756      681.07399    
   3586000   308.98133      0.018708349    10.432847      766.59121     -40.683933      725.90727    
   3587000   310.84802      0.018708349    8.5501457      771.22249     -39.14647       732.07602    
   3588000   297.50056      0.018708349    6.184747       738.10708     -36.792736      701.31434    
   3589000   295.41452      0.018708349    11.375457      732.93158     -39.536649      693.39493    
   3590000   310.24121      0.018708349    9.9328982      769.717       -34.62515       735.09185    
   3591000   294.69897      0.018708349    6.1828739      731.15627     -34.352001      696.80427    
   3592000   291.81705      0.018708349    10.325154      724.00615     -32.56534       691.44081    
   3593000   313.54571      0.018708349    10.944789      777.91554     -30.799162      747.11638    
   3594000   301.38401      0.018708349    5.2284807      747.74204     -27.211282      720.53076    
   3595000   289.84103      0.018708349    10.181912      719.10358     -27.442408      691.66118    
   3596000   294.03178      0.018708349    10.286931      729.50096     -28.791181      700.70978    
   3597000   306.42753      0.018708349    8.5327105      760.25516     -31.545112      728.71005    
   3598000   302.45608      0.018708349    10.277986      750.40186     -32.008363      718.3935     
   3599000   284.06507      0.018708349    15.790617      704.77327     -27.083986      677.68928    
   3600000   298.83751      0.018708349    8.7270462      741.42409     -34.669284      706.75481    
   3601000   306.52604      0.018708349    6.4922465      760.49956     -37.152011      723.34755    
   3602000   298.30975      0.018708349    7.5735483      740.11472     -33.195853      706.91887    
   3603000   301.91147      0.018708349    15.163663      749.05069     -33.254038      715.79665    
   3604000   302.28493      0.018708349    17.194081      749.97724     -36.94324       713.03399    
   3605000   293.25072      0.018708349    13.266106      727.56311     -35.679395      691.88372    
   3606000   298.67563      0.018708349   -7.474868       741.02247     -37.7962        703.22627    
   3607000   310.70298      0.018708349    8.7218083      770.86265     -36.692227      734.17042    
   3608000   305.28002      0.018708349    17.465209      757.40815     -31.778457      725.6297     
   3609000   288.69684      0.018708349    6.3806039      716.26482     -34.668553      681.59627    
   3610000   302.72711      0.018708349    7.0962998      751.0743      -34.542781      716.53152    
   3611000   298.41327      0.018708349    12.304506      740.37156     -36.349409      704.02215    
   3612000   303.92863      0.018708349    17.294464      754.05531     -33.851504      720.2038     
   3613000   296.23473      0.018708349    10.940981      734.96653     -34.180119      700.78641    
   3614000   293.05322      0.018708349    8.5583766      727.07311     -35.515427      691.55769    
   3615000   292.94177      0.018708349    8.8870388      726.7966      -31.8299        694.9667     
   3616000   302.98717      0.018708349    7.9474291      751.71952     -33.798526      717.921      
   3617000   288.00763      0.018708349    6.5286949      714.55486     -34.531603      680.02326    
   3618000   292.07909      0.018708349    8.5601084      724.65627     -31.877628      692.77864    
   3619000   297.79075      0.018708349    9.0664919      738.82705     -34.481849      704.3452     
   3620000   316.12416      0.018708349    9.8077735      784.31277     -34.474829      749.83794    
   3621000   303.92829      0.018708349    10.897023      754.05445     -29.614128      724.44033    
   3622000   289.27487      0.018708349    10.090459      717.69894     -27.116293      690.58265    
   3623000   280.00986      0.018708349    7.8978584      694.71219     -34.089259      660.62293    
   3624000   303.46363      0.018708349    7.6692477      752.90164     -35.742558      717.15908    
   3625000   305.35814      0.018708349    11.67376       757.60196     -36.680284      720.92168    
   3626000   283.47183      0.018708349    9.4296295      703.30143     -36.082754      667.21868    
   3627000   309.11857      0.018708349    9.3474823      766.9317      -32.967145      733.96456    
   3628000   296.07169      0.018708349    10.758827      734.56201     -36.706302      697.85571    
   3629000   310.58442      0.018708349    9.1765826      770.56851     -37.75452       732.81399    
   3630000   304.26169      0.018708349    6.9241423      754.88165     -34.968159      719.91349    
   3631000   280.13428      0.018708349    10.9898        695.02087     -30.967146      664.05373    
   3632000   298.34867      0.018708349    11.024303      740.21127     -30.747078      709.46419    
   3633000   322.48788      0.018708349    7.631493       800.10131     -30.793604      769.3077     
   3634000   302.17805      0.018708349    5.940773       749.71207     -28.926193      720.78588    
   3635000   295.03193      0.018708349    3.9681837      731.98235     -33.396674      698.58567    
   3636000   296.76772      0.018708349    10.99662       736.28889     -36.448587      699.8403     
   3637000   300.72691      0.018708349    15.911399      746.11176     -33.527929      712.58383    
   3638000   318.49315      0.018708349    3.9750361      790.19027     -27.658203      762.53207    
   3639000   293.26871      0.018708349    9.6411117      727.60775     -30.832976      696.77478    
   3640000   287.6516       0.018708349    16.311494      713.67156     -32.750914      680.92064    
   3641000   310.82285      0.018708349    17.642613      771.16005     -26.60206       744.55799    
   3642000   327.40401      0.018708349    13.331849      812.29837     -28.858054      783.44032    
   3643000   307.82553      0.018708349    4.4478129      763.72363     -27.748657      735.97498    
   3644000   289.148        0.018708349    14.969164      717.38416     -31.744903      685.63926    
   3645000   294.31893      0.018708349    27.463343      730.21338     -33.742519      696.47086    
   3646000   317.78672      0.018708349    14.382467      788.43761     -26.824739      761.61287    
   3647000   308.1126       0.018708349    5.4511381      764.43586     -26.777827      737.65803    
   3648000   283.86606      0.018708349   -2.7240141      704.27951     -29.451644      674.82787    
   3649000   297.41311      0.018708349    13.917604      737.89012     -24.609742      713.28038    
   3650000   300.46685      0.018708349    32.229273      745.46654     -21.043229      724.42331    
   3651000   297.98762      0.018708349    6.4456672      739.3155      -27.890053      711.42545    
   3652000   299.01197      0.018708349    0.4341815      741.85695     -27.789585      714.06737    
   3653000   305.20227      0.018708349   -1.4872774      757.21524     -29.083959      728.13128    
   3654000   302.41122      0.018708349    19.070623      750.29056     -29.077006      721.21355    
   3655000   310.05747      0.018708349   -0.21104083     769.26112     -29.730003      739.53111    
   3656000   290.58652      0.018708349   -0.67857345     720.95316     -29.492912      691.46024    
   3657000   290.55265      0.018708349    7.1384296      720.86913     -33.088957      687.78017    
   3658000   302.49272      0.018708349    31.47074       750.49279     -28.722121      721.77067    
   3659000   309.44131      0.018708349    13.100404      767.73242     -30.026484      737.70593    
   3660000   293.14696      0.018708349   -13.510551      727.30568     -33.056358      694.24933    
   3661000   301.00879      0.018708349    18.125215      746.81111     -31.406032      715.40507    
   3662000   317.19153      0.018708349    8.9527694      786.96093     -30.647723      756.3132     
   3663000   301.36905      0.018708349   -2.9727328      747.70493     -35.344709      712.36022    
   3664000   296.37219      0.018708349    18.48603       735.30757     -27.294357      708.01322    
   3665000   295.42786      0.018708349    18.959317      732.96465     -31.531835      701.43282    
   3666000   310.22167      0.018708349   -3.2375593      769.66852     -29.955247      739.71327    
   3667000   294.96127      0.018708349    10.336256      731.80704     -31.832194      699.97484    
   3668000   295.19984      0.018708349    15.124875      732.39893     -37.214205      695.18473    
   3669000   296.39629      0.018708349    10.938295      735.36737     -39.101001      696.26637    
   3670000   300.65421      0.018708349    4.6164768      745.93138     -39.185325      706.74605    
   3671000   293.7087       0.018708349    15.085974      728.69939     -36.39564       692.30375    
   3672000   293.44444      0.018708349    26.44577       728.04375     -37.588858      690.45489    
   3673000   291.20904      0.018708349    13.349833      722.49766     -39.920134      682.57753    
   3674000   306.64101      0.018708349    5.3107179      760.7848      -33.334037      727.45076    
   3675000   296.35192      0.018708349    12.284247      735.25729     -30.12379       705.1335     
   3676000   299.64238      0.018708349    11.629124      743.421       -31.47879       711.94221    
   3677000   308.40884      0.018708349    7.7838764      765.17084     -33.598863      731.57197    
   3678000   316.01205      0.018708349   -10.857091      784.0346      -35.624872      748.40972    
   3679000   294.43781      0.018708349    10.870772      730.50832     -29.852788      700.65553    
   3680000   298.26723      0.018708349    21.244593      740.00923     -28.249639      711.75959    
   3681000   313.26354      0.018708349    13.086781      777.21547     -24.083041      753.13243    
   3682000   307.91593      0.018708349    6.8795898      763.9479      -26.935103      737.0128     
   3683000   293.91695      0.018708349    10.949466      729.21606     -26.338006      702.87805    
   3684000   308.33307      0.018708349    9.5003307      764.98285     -29.27941       735.70344    
   3685000   301.6115       0.018708349    12.17197       748.30645     -27.719471      720.58698    
   3686000   298.69718      0.018708349    11.804079      741.07594     -27.967792      713.10815    
   3687000   294.20396      0.018708349    9.8626037      729.92813     -27.734291      702.19384    
   3688000   310.91611      0.018708349    10.952527      771.39143     -27.891503      743.49993    
   3689000   312.14807      0.018708349    12.759543      774.44797     -31.89665       742.55132    
   3690000   298.68761      0.018708349    11.317333      741.05221     -32.239093      708.81311    
   3691000   301.8175       0.018708349    5.9583478      748.81753     -33.851902      714.96562    
   3692000   304.31121      0.018708349    14.882562      755.00451     -32.500162      722.50435    
   3693000   295.36561      0.018708349    12.300845      732.81022     -29.5794        703.23082    
   3694000   305.99932      0.018708349    2.9179508      759.19275     -35.366218      723.82653    
   3695000   307.42955      0.018708349    11.159083      762.7412      -31.671464      731.06973    
   3696000   283.77743      0.018708349    14.151638      704.05963     -35.737498      668.32213    
   3697000   297.73134      0.018708349    3.4918713      738.67966     -32.474755      706.2049     
   3698000   311.41549      0.018708349    4.9685649      772.63041     -30.79049       741.83992    
   3699000   301.45031      0.018708349    11.437073      747.90652     -32.038548      715.86798    
   3700000   300.58663      0.018708349    16.417188      745.76371     -34.80389       710.95982    
   3701000   300.18526      0.018708349    9.3726799      744.7679      -33.32183       711.44606    
   3702000   313.87576      0.018708349    8.5089363      778.7344      -35.832716      742.90168    
   3703000   307.19475      0.018708349    16.487325      762.15865     -37.356069      724.80258    
   3704000   295.04799      0.018708349    10.935188      732.02221     -36.065308      695.9569     
   3705000   309.9191       0.018708349    2.3801315      768.91783     -32.764743      736.15308    
   3706000   305.87565      0.018708349    10.330899      758.88591     -32.821721      726.06419    
   3707000   298.05989      0.018708349    9.6718558      739.4948      -36.112784      703.38202    
   3708000   292.40198      0.018708349    7.3611443      725.45737     -34.884973      690.5724     
   3709000   301.02858      0.018708349    11.034948      746.86019     -33.161181      713.69901    
   3710000   307.7828       0.018708349    14.129728      763.6176      -32.284888      731.33272    
   3711000   301.44216      0.018708349    5.1689243      747.8863      -36.082767      711.80353    
   3712000   310.46501      0.018708349    8.6591087      770.27225     -29.797407      740.47484    
   3713000   306.79674      0.018708349    15.159268      761.17118     -27.139991      734.03118    
   3714000   304.73883      0.018708349    13.390135      756.06544     -29.890061      726.17537    
   3715000   293.05137      0.018708349    10.635251      727.06852     -30.358011      696.71051    
   3716000   293.2626       0.018708349    8.0107555      727.59259     -36.230647      691.36194    
   3717000   296.21527      0.018708349    7.9471328      734.91826     -36.332515      698.58574    
   3718000   296.1421       0.018708349    17.930084      734.73672     -32.997085      701.73963    
   3719000   300.57281      0.018708349    6.9803529      745.72944     -28.03112       717.69832    
   3720000   307.21829      0.018708349    7.430025       762.21705     -28.739817      733.47723    
   3721000   310.24619      0.018708349    11.367123      769.72936     -28.465153      741.26421    
   3722000   302.0774       0.018708349    12.14547       749.46234     -30.940575      718.52177    
   3723000   287.0703       0.018708349    9.3800559      712.22933     -31.547321      680.68201    
   3724000   294.16315      0.018708349    3.4507784      729.82689     -28.935278      700.89161    
   3725000   308.31346      0.018708349    9.7080832      764.9342      -28.60206       736.33214    
   3726000   298.86467      0.018708349    18.877777      741.49148     -31.621544      709.86993    
   3727000   287.86485      0.018708349    10.74125       714.20063     -25.61547       688.58516    
   3728000   294.8544       0.018708349    4.5810523      731.54189     -28.715841      702.82605    
   3729000   301.32101      0.018708349    2.9565355      747.58572     -26.763588      720.82213    
   3730000   313.41647      0.018708349    9.5457999      777.5949      -24.974229      752.62067    
   3731000   303.91441      0.018708349    15.748186      754.02002     -24.475597      729.54442    
   3732000   296.41457      0.018708349    10.2856        735.41272     -23.57471       711.83801    
   3733000   305.9197       0.018708349    10.097988      758.9952      -25.184241      733.81096    
   3734000   306.91823      0.018708349    9.9586611      761.47259     -26.499018      734.97358    
   3735000   304.8219       0.018708349    10.369778      756.27155     -26.224231      730.04731    
   3736000   291.83614      0.018708349    11.560006      724.0535      -23.218142      700.83536    
   3737000   296.28428      0.018708349    7.7800914      735.08946     -24.443869      710.64559    
   3738000   313.58251      0.018708349    10.609478      778.00686     -27.699222      750.30764    
   3739000   302.02378      0.018708349    10.966688      749.32933     -28.52152       720.80781    
   3740000   289.70419      0.018708349    5.9490257      718.76409     -31.081324      687.68276    
   3741000   297.19335      0.018708349    10.866058      737.34488     -30.539695      706.80519    
   3742000   298.07235      0.018708349    15.72619       739.52572     -28.756463      710.76926    
   3743000   316.1299       0.018708349    15.863869      784.32699     -32.014266      752.31272    
   3744000   292.76348      0.018708349    10.261829      726.35427     -36.01736       690.33691    
   3745000   293.90354      0.018708349    6.6878756      729.18278     -32.431544      696.75123    
   3746000   302.32752      0.018708349    8.5732016      750.08291     -29.304172      720.77874    
   3747000   312.73838      0.018708349    16.776742      775.91254     -26.967595      748.94494    
   3748000   307.35578      0.018708349    12.488152      762.55817     -34.338099      728.22007    
   3749000   296.99732      0.018708349    8.8349793      736.85853     -33.534734      703.3238     
   3750000   312.22467      0.018708349    9.3312773      774.638       -29.784372      744.85363    
   3751000   298.4566       0.018708349    13.437276      740.47906     -26.665517      713.81354    
   3752000   293.46484      0.018708349    4.8783189      728.09436     -25.586737      702.50762    
   3753000   297.59599      0.018708349    10.386049      738.34385     -25.417013      712.92684    
   3754000   296.37071      0.018708349    10.7691        735.3039      -26.332779      708.97112    
   3755000   304.19207      0.018708349    9.83504        754.70892     -21.797729      732.91119    
   3756000   303.31251      0.018708349    9.8482975      752.52669     -24.958018      727.56867    
   3757000   308.63314      0.018708349    18.691238      765.72732     -23.889344      741.83797    
   3758000   282.76208      0.018708349    13.185245      701.54051     -27.055316      674.4852     
   3759000   296.95717      0.018708349    3.7093157      736.75892     -29.010261      707.74866    
   3760000   301.18224      0.018708349    10.155206      747.24143     -29.065165      718.17626    
   3761000   300.23533      0.018708349    11.575613      744.89213     -30.087253      714.80488    
   3762000   307.52756      0.018708349    14.608008      762.98436     -35.530744      727.45361    
   3763000   304.11923      0.018708349    6.6772022      754.52819     -39.52377       715.00442    
   3764000   308.77469      0.018708349    6.3531034      766.07852     -39.506035      726.57248    
   3765000   300.02176      0.018708349    14.646985      744.36225     -36.632719      707.72953    
   3766000   300.06976      0.018708349    9.4235022      744.48134     -34.658727      709.82261    
   3767000   312.86648      0.018708349    4.7466225      776.23037     -29.448841      746.78153    
   3768000   301.64283      0.018708349    12.114985      748.38418     -32.745873      715.6383     
   3769000   277.57106      0.018708349    7.2587079      688.66145     -34.443435      654.21802    
   3770000   305.53141      0.018708349    9.2574922      758.03185     -35.448303      722.58355    
   3771000   312.47092      0.018708349    13.660649      775.24895     -32.02275       743.2262     
   3772000   293.82619      0.018708349    11.534191      728.99087     -33.479703      695.51117    
   3773000   293.12563      0.018708349    8.9464429      727.25277     -32.415745      694.83702    
   3774000   302.82714      0.018708349    8.3118192      751.32249     -36.745804      714.57668    
   3775000   302.45197      0.018708349    9.4184742      750.39168     -39.103573      711.2881     
   3776000   284.81489      0.018708349    7.4169045      706.63359     -37.192131      669.44145    
   3777000   286.38063      0.018708349    12.706154      710.51823     -36.925891      673.59234    
   3778000   306.58728      0.018708349    10.608739      760.6515      -37.634303      723.0172     
   3779000   296.36632      0.018708349    6.6354917      735.29302     -34.555749      700.73727    
   3780000   294.97008      0.018708349    7.1516774      731.82891     -38.544696      693.28422    
   3781000   299.99516      0.018708349    8.6026422      744.29626     -43.508365      700.7879     
   3782000   310.22932      0.018708349    17.815781      769.68749     -36.450888      733.2366     
   3783000   299.30527      0.018708349    5.7830203      742.58463     -32.722656      709.86197    
   3784000   306.46758      0.018708349    9.101801       760.35451     -33.524188      726.83032    
   3785000   296.13209      0.018708349    15.084224      734.71188     -33.856138      700.85574    
   3786000   301.85378      0.018708349    10.462095      748.90754     -36.244404      712.66314    
   3787000   297.51698      0.018708349    7.4697833      738.14782     -32.429891      705.71793    
   3788000   298.64083      0.018708349    3.4069703      740.93614     -30.339207      710.59693    
   3789000   296.80385      0.018708349    16.486745      736.37853     -36.65935       699.71918    
   3790000   312.632        0.018708349    14.935379      775.64861     -37.273884      738.37473    
   3791000   310.8116       0.018708349    9.3769551      771.13215     -34.935072      736.19708    
   3792000   303.71792      0.018708349    8.5615124      753.53252     -32.260569      721.27195    
   3793000   293.70739      0.018708349    12.871988      728.69613     -37.059323      691.6368     
   3794000   301.9594       0.018708349    11.05644       749.1696      -40.570485      708.59912    
   3795000   300.5302       0.018708349   -8.2755219      745.62371     -43.807736      701.81597    
   3796000   304.41023      0.018708349    9.0985506      755.25016     -45.980357      709.26981    
   3797000   302.07511      0.018708349    10.755494      749.45667     -38.509681      710.94699    
   3798000   304.63815      0.018708349    13.263536      755.81565     -38.741551      717.0741     
   3799000   298.10365      0.018708349    0.89278128     739.60337     -42.594993      697.00838    
   3800000   294.50857      0.018708349    5.0251451      730.68388     -39.825775      690.8581     
   3801000   297.54975      0.018708349    12.428589      738.22914     -36.422827      701.80631    
   3802000   292.16879      0.018708349    18.54923       724.87883     -39.912997      684.96583    
   3803000   318.98031      0.018708349    16.371573      791.39894     -40.365472      751.03346    
   3804000   310.55889      0.018708349    8.3109595      770.50517     -40.449054      730.05611    
   3805000   304.09261      0.018708349    6.8775591      754.46214     -41.922999      712.53914    
   3806000   290.2953       0.018708349    9.8950884      720.23065     -38.426941      681.80371    
   3807000   287.38332      0.018708349    10.007039      713.00595     -36.814425      676.19152    
   3808000   315.21292      0.018708349    8.8447913      782.05193     -36.827578      745.22436    
   3809000   306.08413      0.018708349    11.054765      759.40318     -33.99513       725.40805    
   3810000   292.53966      0.018708349    8.3213853      725.79895     -41.180398      684.61855    
   3811000   297.50746      0.018708349    10.364585      738.1242      -38.505453      699.61874    
   3812000   302.83165      0.018708349    10.326166      751.33366     -41.107791      710.22587    
   3813000   312.62478      0.018708349    8.6027306      775.63071     -41.897495      733.73321    
   3814000   293.5868       0.018708349    3.7960749      728.39695     -43.672999      684.72395    
   3815000   292.7686       0.018708349    8.5881829      726.36696     -41.221287      685.14567    
   3816000   296.60648      0.018708349    10.16778       735.88886     -40.319429      695.56943    
   3817000   326.43001      0.018708349    10.863814      809.88184     -40.754998      769.12684    
   3818000   303.18518      0.018708349    8.1094431      752.21078     -37.163948      715.04684    
   3819000   296.62926      0.018708349    9.9678638      735.94537     -37.437384      698.50799    
   3820000   295.34804      0.018708349    11.535987      732.76663     -32.712683      700.05395    
   3821000   301.28729      0.018708349    6.5633085      747.50207     -36.368913      711.13316    
   3822000   303.75172      0.018708349    7.3795898      753.6164      -33.047739      720.56866    
   3823000   299.54069      0.018708349    9.7178892      743.16872     -37.511231      705.65748    
   3824000   308.01839      0.018708349    14.830772      764.20211     -38.604853      725.59726    
   3825000   301.21627      0.018708349    6.2533827      747.32586     -35.467856      711.858      
   3826000   308.20126      0.018708349    7.7426769      764.65582     -38.244898      726.41092    
   3827000   304.0204       0.018708349    9.6757223      754.283       -36.211761      718.07124    
   3828000   300.38705      0.018708349    14.65678       745.26856     -35.255118      710.01345    
   3829000   303.83252      0.018708349    10.847813      753.81685     -36.141092      717.67576    
   3830000   303.75857      0.018708349    9.760198       753.63339     -33.577695      720.05569    
   3831000   306.98527      0.018708349    0.19352508     761.63891     -38.736061      722.90284    
   3832000   296.56386      0.018708349    8.0691471      735.78312     -38.087675      697.69545    
   3833000   289.63491      0.018708349    17.625684      718.59221     -32.609565      685.98264    
   3834000   305.94022      0.018708349    4.4551638      759.04611     -31.966726      727.07939    
   3835000   292.25316      0.018708349    4.0043936      725.08815     -32.985276      692.10287    
   3836000   299.46421      0.018708349    13.522168      742.97896     -36.980229      705.99873    
   3837000   308.60041      0.018708349    7.205546       765.64611     -35.947024      729.69909    
   3838000   310.83345      0.018708349    4.2851823      771.18635     -31.258777      739.92758    
   3839000   294.33561      0.018708349    5.1879847      730.25477     -29.882745      700.37202    
   3840000   295.13705      0.018708349    13.663015      732.24315     -27.205466      705.03769    
   3841000   298.62924      0.018708349    16.591646      740.90738     -31.093176      709.8142     
   3842000   311.50372      0.018708349    0.78694622     772.8493      -30.039309      742.80999    
   3843000   302.0511       0.018708349    9.486692       749.39711     -31.864109      717.533      
   3844000   299.80175      0.018708349    13.195967      743.81641     -32.436231      711.38018    
   3845000   282.74921      0.018708349    4.3819402      701.50858     -30.757313      670.75127    
   3846000   295.79425      0.018708349    10.915276      733.87368     -30.992945      702.88074    
   3847000   307.07011      0.018708349    12.662376      761.84941     -27.313326      734.53608    
   3848000   310.41595      0.018708349    13.547323      770.15053     -31.03914       739.11138    
   3849000   306.3197       0.018708349    2.7076832      759.98762     -25.661384      734.32623    
   3850000   294.9908       0.018708349    10.881772      731.88031     -29.235501      702.6448     
   3851000   321.18088      0.018708349    14.048282      796.85862     -26.018477      770.84014    
   3852000   296.97682      0.018708349    9.1802645      736.80769     -23.761742      713.04594    
   3853000   296.27194      0.018708349    6.8945703      735.05884     -28.311619      706.74722    
   3854000   288.66209      0.018708349    8.5957052      716.17861     -33.136678      683.04193    
   3855000   296.08218      0.018708349    12.629415      734.58805     -36.179637      698.40841    
   3856000   308.14253      0.018708349    12.507955      764.51012     -36.89039       727.61973    
   3857000   315.69216      0.018708349    5.0334766      783.24096     -36.311655      746.9293     
   3858000   285.01339      0.018708349    6.028256       707.12609     -31.383528      675.74256    
   3859000   296.89275      0.018708349    17.643371      736.59911     -28.285977      708.31313    
   3860000   310.60905      0.018708349    10.105276      770.62961     -32.811786      737.81782    
   3861000   305.92478      0.018708349    9.4915409      759.00781     -33.196         725.81181    
   3862000   286.04844      0.018708349    8.682164       709.69407     -33.645331      676.04874    
   3863000   297.75081      0.018708349    11.902437      738.72797     -31.770271      706.9577     
   3864000   303.23697      0.018708349    13.706469      752.33929     -28.891974      723.44731    
   3865000   311.27443      0.018708349    9.7530714      772.28043     -28.39434       743.88609    
   3866000   313.16932      0.018708349    1.367193       776.98171     -30.543373      746.43834    
   3867000   293.94562      0.018708349    10.619123      729.28719     -31.393653      697.89354    
   3868000   301.69874      0.018708349    9.9443332      748.52289     -32.087492      716.43539    
   3869000   296.52173      0.018708349    9.0996057      735.67859     -36.208135      699.47046    
   3870000   293.97856      0.018708349    10.020853      729.36891     -31.027838      698.34108    
   3871000   302.75761      0.018708349    8.6260401      751.14998     -32.969616      718.18036    
   3872000   298.38585      0.018708349    13.435901      740.30351     -30.365145      709.93837    
   3873000   297.48854      0.018708349    13.145607      738.07726     -28.69595       709.38131    
   3874000   287.43678      0.018708349    8.8445402      713.13858     -27.278306      685.86027    
   3875000   305.55732      0.018708349    11.574615      758.09614     -26.950881      731.14525    
   3876000   313.28304      0.018708349    10.720928      777.26386     -25.04654       752.21732    
   3877000   287.64967      0.018708349    8.6201262      713.66677     -23.964678      689.70209    
   3878000   294.99602      0.018708349    9.5567578      731.89325     -22.818042      709.0752     
   3879000   312.11896      0.018708349    10.344147      774.37574     -25.171413      749.20433    
   3880000   309.6854       0.018708349    11.119134      768.33801     -27.103123      741.23489    
   3881000   296.54201      0.018708349    9.7448534      735.7289      -28.192901      707.536      
   3882000   307.36526      0.018708349    15.119802      762.58168     -26.764926      735.81675    
   3883000   311.51338      0.018708349    8.4513944      772.87329     -33.146719      739.72657    
   3884000   309.95071      0.018708349    7.6622904      768.99625     -33.538356      735.4579     
   3885000   296.62564      0.018708349    10.746036      735.93638     -34.780793      701.15558    
   3886000   290.64193      0.018708349    8.6500491      721.09065     -28.245433      692.84522    
   3887000   310.15848      0.018708349    7.0917636      769.51175     -30.762723      738.74902    
   3888000   305.83577      0.018708349    10.695327      758.78698     -31.638572      727.14841    
   3889000   298.04292      0.018708349    10.431257      739.4527      -35.973607      703.47909    
   3890000   299.23799      0.018708349    8.1817685      742.41771     -36.45641       705.9613     
   3891000   300.48668      0.018708349    10.128727      745.51574     -34.460759      711.05498    
   3892000   301.96335      0.018708349    12.475786      749.17939     -39.683564      709.49583    
   3893000   295.39766      0.018708349    12.064071      732.88973     -35.108584      697.78115    
   3894000   279.44408      0.018708349    7.8579016      693.30847     -34.01461       659.29386    
   3895000   298.91803      0.018708349    7.9150421      741.62387     -36.827305      704.79656    
   3896000   311.20033      0.018708349    10.988282      772.09661     -34.943357      737.15325    
   3897000   299.7214       0.018708349    10.450531      743.61705     -39.327277      704.28978    
   3898000   292.68881      0.018708349    9.7177158      726.16901     -31.389054      694.77996    
   3899000   306.43251      0.018708349    10.335606      760.2675      -36.15476       724.11274    
   3900000   309.8369       0.018708349    10.376381      768.7139      -36.831241      731.88266    
   3901000   296.48242      0.018708349    9.8623151      735.58106     -31.945676      703.63539    
   3902000   303.37458      0.018708349    12.588586      752.68069     -33.811961      718.86873    
   3903000   298.31563      0.018708349    7.2727834      740.12931     -30.515736      709.61357    
   3904000   299.76812      0.018708349    9.808538       743.73297     -31.709324      712.02365    
   3905000   283.71617      0.018708349    5.1349954      703.90764     -30.222052      673.68559    
   3906000   290.20454      0.018708349    9.5501299      720.00545     -31.204968      688.80048    
   3907000   306.20361      0.018708349    9.2133053      759.69959     -33.055742      726.64385    
   3908000   293.87106      0.018708349    9.5987966      729.10219     -28.020113      701.08208    
   3909000   289.32074      0.018708349    7.0747292      717.81273     -30.706004      687.10673    
   3910000   306.58538      0.018708349    7.7898641      760.64678     -35.0836        725.56318    
   3911000   313.21827      0.018708349    14.098099      777.10316     -33.345675      743.75749    
   3912000   291.70095      0.018708349    14.677839      723.7181      -32.552375      691.16572    
   3913000   296.26136      0.018708349    9.6454628      735.03259     -35.267037      699.76556    
   3914000   305.19314      0.018708349    4.8054979      757.19259     -38.636318      718.55627    
   3915000   299.88539      0.018708349    1.1323022      744.02392     -39.389901      704.63402    
   3916000   306.77139      0.018708349    11.204876      761.10827     -36.499117      724.60915    
   3917000   298.06206      0.018708349    12.968938      739.50018     -34.070419      705.42976    
   3918000   289.76905      0.018708349    9.1115809      718.925       -34.705079      684.21992    
   3919000   305.56452      0.018708349    4.2709029      758.114       -37.187238      720.92677    
   3920000   306.40181      0.018708349    8.2540703      760.19133     -39.666942      720.52439    
   3921000   297.59469      0.018708349    14.805319      738.34062     -35.532275      702.80834    
   3922000   295.92233      0.018708349    8.918945       734.19147     -36.785763      697.40571    
   3923000   301.97809      0.018708349    8.3798292      749.21596     -34.552847      714.66311    
   3924000   302.41165      0.018708349    10.144195      750.29164     -36.423091      713.86855    
   3925000   290.63419      0.018708349    11.002515      721.07144     -30.789785      690.28165    
   3926000   289.14211      0.018708349    9.7150518      717.36955     -33.114554      684.255      
   3927000   308.63467      0.018708349    7.7662477      765.73112     -35.051563      730.67955    
   3928000   308.79797      0.018708349    12.164069      766.13628     -31.536455      734.59983    
   3929000   296.41246      0.018708349    11.988049      735.40747     -32.286412      703.12106    
   3930000   302.45919      0.018708349    10.726849      750.40959     -34.155332      716.25426    
   3931000   295.39421      0.018708349    7.7081932      732.88117     -31.667437      701.21374    
   3932000   289.12863      0.018708349    6.3742774      717.33609     -30.654577      686.68151    
   3933000   305.61904      0.018708349    8.6895978      758.24927     -34.641219      723.60806    
   3934000   313.59625      0.018708349    12.809758      778.04093     -36.423779      741.61716    
   3935000   298.81223      0.018708349    11.998372      741.36137     -32.550916      708.81045    
   3936000   280.08322      0.018708349    8.0169189      694.8942      -30.219705      664.67449    
   3937000   301.03199      0.018708349    9.0557897      746.86866     -31.544775      715.32389    
   3938000   308.53996      0.018708349    10.872068      765.49615     -30.305073      735.19108    
   3939000   296.72857      0.018708349    9.7169115      736.19175     -32.361108      703.83065    
   3940000   295.16574      0.018708349    8.9701517      732.31433     -35.971356      696.34298    
   3941000   302.02157      0.018708349    10.017518      749.32385     -28.630166      720.69368    
   3942000   304.03797      0.018708349    8.2868882      754.32659     -31.86859       722.458      
   3943000   305.64111      0.018708349    13.800774      758.30403     -26.172473      732.13155    
   3944000   288.18772      0.018708349    14.140536      715.00168     -26.969697      688.03198    
   3945000   290.03336      0.018708349    7.2111124      719.58077     -28.76652       690.81425    
   3946000   308.66752      0.018708349    8.3218169      765.81262     -25.479705      740.33292    
   3947000   302.22712      0.018708349    9.3882105      749.83382     -20.763276      729.07054    
   3948000   300.7944       0.018708349    12.362734      746.2792      -22.341733      723.93746    
   3949000   299.68768      0.018708349    13.70689       743.5334      -24.812514      718.72089    
   3950000   294.64968      0.018708349    5.9609235      731.03399     -28.779522      702.25447    
   3951000   300.10123      0.018708349    1.8310831      744.55943     -31.05252       713.50691    
   3952000   297.29028      0.018708349    13.766165      737.58537     -29.278425      708.30695    
   3953000   306.02092      0.018708349    11.209194      759.24633     -31.234106      728.01223    
   3954000   301.81258      0.018708349    17.405161      748.80533     -30.565196      718.24013    
   3955000   282.10656      0.018708349   -6.9334577      699.91415     -34.157524      665.75662    
   3956000   305.30398      0.018708349    9.5692267      757.46759     -31.67867       725.78892    
   3957000   304.73143      0.018708349    15.348026      756.04708     -30.190676      725.8564     
   3958000   295.94966      0.018708349    8.6307448      734.25927     -30.758448      703.50082    
   3959000   295.41473      0.018708349    4.0432851      732.9321      -30.674785      702.25731    
   3960000   307.31931      0.018708349    14.094524      762.46769     -29.120165      733.34752    
   3961000   292.85809      0.018708349    9.3925377      726.589       -26.505936      700.08307    
   3962000   308.61372      0.018708349    8.547766       765.67913     -31.730463      733.94867    
   3963000   303.8756       0.018708349    12.48216       753.92374     -30.907747      723.016      
   3964000   286.07971      0.018708349    8.3580574      709.77166     -27.169573      682.60209    
   3965000   297.4992       0.018708349    9.87076        738.10371     -28.871074      709.23264    
   3966000   305.27879      0.018708349    10.289304      757.40509     -27.687188      729.71791    
   3967000   297.2012       0.018708349    10.6327        737.36436     -28.42452       708.93984    
   3968000   302.7763       0.018708349    1.9790298      751.19635     -28.774772      722.42158    
   3969000   307.90235      0.018708349    11.161114      763.91422     -28.536196      735.37802    
   3970000   286.72027      0.018708349    13.742212      711.3609      -39.103813      672.25709    
   3971000   301.53376      0.018708349    2.577579       748.11358     -36.843607      711.26997    
   3972000   314.57145      0.018708349    16.082556      780.46043     -38.349342      742.11109    
   3973000   290.56873      0.018708349    14.037592      720.90904     -35.281028      685.62801    
   3974000   295.9557       0.018708349    9.5310494      734.27425     -34.04881       700.22544    
   3975000   297.9317       0.018708349    6.006932       739.17677     -36.342548      702.83422    
   3976000   302.56749      0.018708349    15.406854      750.67829     -36.832047      713.84625    
   3977000   303.94725      0.018708349    16.097048      754.10151     -30.640304      723.46121    
   3978000   289.71871      0.018708349    0.060183419    718.80011     -29.424855      689.37525    
   3979000   306.52146      0.018708349    6.1548881      760.48819     -29.532984      730.95521    
   3980000   302.81779      0.018708349    5.4873961      751.29929     -30.986509      720.31278    
   3981000   301.47281      0.018708349    16.773913      747.96235     -26.70188       721.26047    
   3982000   307.13588      0.018708349    12.223403      762.01259     -33.026814      728.98578    
   3983000   290.56783      0.018708349    2.5265847      720.90679     -32.359139      688.54765    
   3984000   298.7498       0.018708349    12.093273      741.2065      -34.95956       706.24694    
   3985000   292.49921      0.018708349    14.395791      725.69861     -31.241642      694.45697    
   3986000   289.52645      0.018708349    8.8525727      718.32311     -34.336784      683.98632    
   3987000   302.80157      0.018708349    1.6162331      751.25905     -34.51701       716.74204    
   3988000   306.72086      0.018708349    16.298801      760.98291     -31.981259      729.00165    
   3989000   299.04012      0.018708349    13.321793      741.92678     -34.613945      707.31284    
   3990000   293.73918      0.018708349   -1.2218116      728.77501     -34.130232      694.64478    
   3991000   305.64526      0.018708349    10.804862      758.31431     -36.242746      722.07157    
   3992000   304.90386      0.018708349    10.928317      756.47487     -40.787329      715.68754    
   3993000   293.74179      0.018708349    7.2836357      728.78148     -37.412088      691.36939    
   3994000   302.8144       0.018708349    8.4937909      751.29087     -35.779108      715.51176    
   3995000   305.91738      0.018708349    9.9926137      758.98946     -38.322459      720.667      
   3996000   301.03576      0.018708349    12.279256      746.87801     -35.738891      711.13912    
   3997000   299.44431      0.018708349    10.602041      742.92958     -33.995516      708.93406    
   3998000   302.04491      0.018708349    8.6388654      749.38176     -35.017571      714.36418    
   3999000   299.88841      0.018708349    9.0921988      744.03142     -33.258509      710.77291    
   4000000   300.84573      0.018708349    10.803223      746.40655     -32.701168      713.70538    
Loop time of 10619.3 on 1 procs for 4000000 steps with 1500 atoms

Performance: 8.136 ns/day, 2.950 hours/ns, 376.672 timesteps/s, 565.008 katom-step/s
99.3% CPU use with 1 MPI tasks x 1 OpenMP threads

MPI task timing breakdown:
Section |  min time  |  avg time  |  max time  |%varavg| %total
---------------------------------------------------------------
Pair    | 717.02     | 717.02     | 717.02     |   0.0 |  6.75
Bond    | 181.49     | 181.49     | 181.49     |   0.0 |  1.71
Kspace  | 8871.7     | 8871.7     | 8871.7     |   0.0 | 83.54
Neigh   | 0.04377    | 0.04377    | 0.04377    |   0.0 |  0.00
Comm    | 26.929     | 26.929     | 26.929     |   0.0 |  0.25
Output  | 0.12799    | 0.12799    | 0.12799    |   0.0 |  0.00
Modify  | 803.54     | 803.54     | 803.54     |   0.0 |  7.57
Other   |            | 18.5       |            |       |  0.17

Nlocal:           1500 ave        1500 max        1500 min
Histogram: 1 0 0 0 0 0 0 0 0 0
Nghost:           1142 ave        1142 max        1142 min
Histogram: 1 0 0 0 0 0 0 0 0 0
Neighs:              0 ave           0 max           0 min
Histogram: 1 0 0 0 0 0 0 0 0 0

Total # of neighbors = 0
Ave neighs/atom = 0
Ave special neighs/atom = 2
Neighbor list builds = 17626
Dangerous builds = 0
write_data	last_conf.data pair ij
System init for write_data ...
PPPM initialization ...
  using 12-bit tables for long-range coulomb (src/kspace.cpp:342)
  G vector (1/distance) = 0.16711723
  grid = 27 27 27
  stencil order = 5
  estimated absolute RMS force accuracy = 0.032994381
  estimated relative force accuracy = 9.9361597e-05
  using double precision FFTW3
  3d grid and FFT values/proc = 32768 19683
Generated 1 of 1 mixed pair_coeff terms from arithmetic mixing rule
Total wall time: 2:56:59
