LAMMPS (29 Aug 2024 - Update 1)
  using 1 OpenMP thread(s) per MPI task
package gpu 1 gpuID 0
# GCMC for CO2 molecular fluid, rigid/small/nvt dynamics
# Rigid CO2 TraPPE model
# [Potoff and J.I. Siepmann, Vapor-liquid equilibria of
# mixtures containing alkanes, carbon dioxide and
# nitrogen AIChE J., 47,1676-1682 (2001)].

# global model settings

units           real
atom_style      full
boundary        p p p
pair_style      lj/cut/coul/long  12
pair_modify     mix arithmetic shift yes
kspace_style    pppm 1.0e-4
bond_style      harmonic
angle_style     harmonic
neigh_modify    one 4000

# box, start molecules on simple cubic lattice
region          mbox block 0 ${lbox} 0 ${lbox} 0 ${lbox} units box
region          mbox block 0 129.8 0 ${lbox} 0 ${lbox} units box
region          mbox block 0 129.8 0 129.8 0 ${lbox} units box
region          mbox block 0 129.8 0 129.8 0 129.8 units box
create_box      2 mbox                                       bond/types 1                                angle/types 1                               extra/bond/per/atom 2                       extra/angle/per/atom 1                      extra/special/per/atom 2
Created orthogonal box = (0 0 0) to (129.8 129.8 129.8)
  1 by 1 by 1 MPI processor grid
molecule        co2mol ../CO2.txt
Read molecule template co2mol:
# CO2 molecule file. TraPPE model.
  1 molecules
  0 fragments
  3 atoms with max type 2
  2 bonds with max type 1
  1 angles with max type 1
  0 dihedrals with max type 0
  0 impropers with max type 0
create_atoms   	0 random ${nmols} 34578 mbox mol co2mol 464563 overlap 1.2
create_atoms   	0 random 500 34578 mbox mol co2mol 464563 overlap 1.2
Created 1500 atoms
  using lattice units in orthogonal box = (0 0 0) to (129.8 129.8 129.8)
  create_atoms CPU = 0.008 seconds

# rigid CO2 TraPPE model

pair_coeff      1   1  0.053649   2.800
pair_coeff      2   2  0.156973   3.050
bond_coeff      1       0       1.16
angle_coeff     1       0       180

# masses

mass 1 12.0107
mass 2 15.9994

write_data init_conf.data  pair ij
System init for write_data ...
PPPM initialization ...
  using 12-bit tables for long-range coulomb (src/kspace.cpp:342)
  G vector (1/distance) = 0.16409079
  grid = 27 27 27
  stencil order = 5
  estimated absolute RMS force accuracy = 0.036022981
  estimated relative force accuracy = 0.00010848214
  using double precision FFTW3
  3d grid and FFT values/proc = 32768 19683
Generated 1 of 1 mixed pair_coeff terms from arithmetic mixing rule

# MD settings

group           co2 type 1 2
1500 atoms in group co2
velocity       	all create 300 54654
timestep        0.25

# rigid constraints with thermostat
fix             myrigidnvt co2 rigid/nvt molecule temp 300 300 $(100*dt)
fix             myrigidnvt co2 rigid/nvt molecule temp 300 300 25
  500 rigid bodies with 1500 atoms

thermo 1000
thermo_style custom step temp density press ke pe etotal


variable    mvol equal vol
variable    mden equal density
variable	mtmp equal temp
variable    mpre equal press

fix mydat all ave/time 1 4000 4000 v_mtmp v_mden v_mpre file statistics.dat ## every 1ps

run 4000000 ## 1ns

CITE-CITE-CITE-CITE-CITE-CITE-CITE-CITE-CITE-CITE-CITE-CITE-CITE

Your simulation uses code contributions which should be cited:

- GPU package (short-range, long-range and three-body potentials): doi:10.1016/j.cpc.2010.12.021, doi:10.1016/j.cpc.2011.10.012, doi:10.1016/j.cpc.2013.08.002, doi:10.1016/j.commatsci.2014.10.068, doi:10.1016/j.cpc.2016.10.020, doi:10.3233/APC200086

@Article{Brown11,
 author = {W. M. Brown and P. Wang and S. J. Plimpton and A. N. Tharrington},
 title = {Implementing Molecular Dynamics on Hybrid High Performance Computers---Short Range Forces},
 journal = {Comput.\ Phys.\ Commun.},
 year =    2011,
 volume =  182,
 pages =   {898--911},
 doi =     {10.1016/j.cpc.2010.12.021}
}

@Article{Brown12,
 author = {W. M. Brown and A. Kohlmeyer and S. J. Plimpton and A. N. Tharrington},
 title = {Implementing Molecular Dynamics on Hybrid High Performance Computers - Particle-Particle Particle-Mesh},
 journal = {Comput.\ Phys.\ Commun.},
 year =    2012,
 volume =  183,
 doi =     {10.1016/j.cpc.2011.10.012},
 pages =   {449--459}
}

@Article{Brown13,
 author = {W. M. Brown and Y. Masako},
 title = {Implementing Molecular Dynamics on Hybrid High Performance Computers---Three-Body Potentials},
 journal = {Comput.\ Phys.\ Commun.},
 year =    2013,
 volume =  184,
 pages =   {2785--2793},
 doi =     {10.1016/j.cpc.2013.08.002},
}

@Article{Trung15,
 author = {T. D. Nguyen and S. J. Plimpton},
 title = {Accelerating Dissipative Particle Dynamics Simulations for Soft Matter Systems},
 journal = {Comput.\ Mater.\ Sci.},
 year =    2015,
 doi =     {10.1016/j.commatsci.2014.10.068},
 volume =  100,
 pages =   {173--180}
}

@Article{Trung17,
 author = {T. D. Nguyen},
 title = {{GPU}-Accelerated {T}ersoff Potentials for Massively Parallel
    Molecular Dynamics Simulations},
 journal = {Comput.\ Phys.\ Commun.},
 year =    2017,
 doi =     {10.1016/j.cpc.2016.10.020},
 volume =  212,
 pages =   {113--122}
}

@inproceedings{Nikolskiy19,
 author = {V. Nikolskiy and V. Stegailov},
 title = {{GPU} Acceleration of Four-Site Water Models in {LAMMPS}},
 booktitle = {Proceedings of the International Conference on Parallel
    Computing (ParCo 2019), Prague, Czech Republic},
 doi =     {10.3233/APC200086},
 year =    2019
}

CITE-CITE-CITE-CITE-CITE-CITE-CITE-CITE-CITE-CITE-CITE-CITE-CITE

PPPM initialization ...
  using 12-bit tables for long-range coulomb (src/kspace.cpp:342)
  G vector (1/distance) = 0.16409079
  grid = 27 27 27
  stencil order = 5
  estimated absolute RMS force accuracy = 0.036022981
  estimated relative force accuracy = 0.00010848214
  using double precision FFTW3
  3d grid and FFT values/proc = 32768 19683
Generated 1 of 1 mixed pair_coeff terms from arithmetic mixing rule
Per MPI rank memory allocation (min/avg/max) = 10.39 | 10.39 | 10.39 Mbytes
   Step          Temp         Density         Press          KinEng         PotEng         TotEng    
         0   307.41471      0.016708652   -195.29592      762.70438      47504.685      48267.389    
      1000   306.07152      0.016708652    12.473932      759.37189     -20.06527       739.30662    
      2000   316.17031      0.016708652    17.726945      784.42726     -21.372803      763.05446    
      3000   304.42207      0.016708652    13.98576       755.27956     -33.148065      722.13149    
      4000   287.28899      0.016708652   -19.176273      712.7719      -39.560076      673.21182    
      5000   296.66925      0.016708652    8.6222664      736.04458     -43.092241      692.95234    
      6000   313.70292      0.016708652    6.7911518      778.3056      -45.160038      733.14556    
      7000   306.37908      0.016708652    8.8208314      760.13494     -50.474583      709.66035    
      8000   313.52286      0.016708652    6.9781783      777.85886     -57.206588      720.65228    
      9000   293.22555      0.016708652    8.4400049      727.50066     -60.484407      667.01625    
     10000   285.48679      0.016708652    8.8606818      708.30059     -67.558382      640.74221    
     11000   300.90829      0.016708652    14.075127      746.56176     -68.472905      678.08886    
     12000   307.19739      0.016708652    8.3310098      762.16519     -62.099796      700.0654     
     13000   290.656        0.016708652    7.4456005      721.12556     -61.689777      659.43578    
     14000   294.66518      0.016708652    14.312498      731.07244     -65.450322      665.62212    
     15000   311.22045      0.016708652    9.2977933      772.1465      -64.068216      708.07829    
     16000   300.57888      0.016708652    2.4984518      745.74449     -69.627878      676.11661    
     17000   303.6513       0.016708652    7.4317676      753.36725     -68.131182      685.23606    
     18000   298.76546      0.016708652    7.7994845      741.24535     -69.155372      672.08997    
     19000   322.49326      0.016708652    9.0318199      800.11467     -74.653301      725.46137    
     20000   298.67496      0.016708652    6.7927967      741.02082     -78.884618      662.1362     
     21000   293.5444       0.016708652    9.4861724      728.29174     -79.717475      648.57426    
     22000   312.13575      0.016708652    9.1664034      774.41741     -80.926797      693.49061    
     23000   305.10622      0.016708652    8.0226643      756.97694     -80.760211      676.21673    
     24000   306.44272      0.016708652    9.8864486      760.29283     -77.876821      682.41601    
     25000   288.72251      0.016708652    8.0777928      716.3285      -78.43203       637.89647    
     26000   296.04015      0.016708652    8.8161504      734.48377     -80.938564      653.54521    
     27000   312.06627      0.016708652    10.224124      774.24501     -81.27641       692.9686     
     28000   311.88308      0.016708652    10.710281      773.79052     -85.181371      688.60915    
     29000   298.69437      0.016708652    7.7228         741.06896     -87.815659      653.2533     
     30000   289.82278      0.016708652    10.031147      719.0583      -95.388944      623.66936    
     31000   304.275        0.016708652    8.8899888      754.91466     -89.676652      665.23801    
     32000   295.17703      0.016708652    11.832764      732.34236     -87.637076      644.70528    
     33000   302.52237      0.016708652    8.8113443      750.56633     -92.221765      658.34456    
     34000   299.21646      0.016708652    7.3616149      742.36428     -95.335407      647.02887    
     35000   293.76545      0.016708652    11.216535      728.84019     -94.394177      634.44601    
     36000   316.11012      0.016708652    12.19784       784.27791     -100.67091      683.60701    
     37000   301.14267      0.016708652    8.758047       747.14327     -105.56541      641.57787    
     38000   294.865        0.016708652    8.7130852      731.5682      -107.06223      624.50597    
     39000   297.50296      0.016708652    11.845763      738.11305     -105.79524      632.31781    
     40000   311.75493      0.016708652    6.3448206      773.47258     -109.70409      663.7685     
     41000   305.9007       0.016708652    7.0006587      758.94806     -109.52019      649.42787    
     42000   298.23759      0.016708652    8.9717216      739.93569     -108.34108      631.59461    
     43000   303.92659      0.016708652    9.9177682      754.05024     -112.81224      641.23799    
     44000   295.79295      0.016708652    7.1302577      733.87045     -117.45947      616.41099    
     45000   286.66777      0.016708652    12.248513      711.23064     -114.33971      596.89093    
     46000   308.24593      0.016708652    10.734796      764.76665     -120.09402      644.67263    
     47000   297.43203      0.016708652    13.394772      737.93706     -114.95312      622.98394    
     48000   301.94869      0.016708652    8.5298228      749.14303     -115.3163       633.82673    
     49000   307.04669      0.016708652    5.9159966      761.79129     -117.66457      644.12672    
     50000   290.44799      0.016708652    2.5958001      720.60946     -122.68196      597.9275     
     51000   293.79809      0.016708652    10.91236       728.92116     -119.97519      608.94596    
     52000   307.50582      0.016708652    9.5553013      762.93041     -117.09212      645.83828    
     53000   312.87669      0.016708652    7.7282286      776.2557      -116.92318      659.33252    
     54000   289.70639      0.016708652    7.8578658      718.76953     -124.10081      594.66872    
     55000   294.09472      0.016708652    5.0580266      729.6571      -126.82229      602.83481    
     56000   304.30924      0.016708652    9.6024267      754.99961     -130.92648      624.07313    
     57000   306.55891      0.016708652    7.2528578      760.58111     -131.13023      629.45088    
     58000   287.8421       0.016708652    6.7333411      714.14419     -135.61941      578.52477    
     59000   298.57122      0.016708652    8.6311655      740.76343     -137.85552      602.90791    
     60000   299.73289      0.016708652    11.637443      743.64555     -129.83625      613.8093     
     61000   301.36625      0.016708652    8.6280064      747.69799     -128.57755      619.12044    
     62000   295.73335      0.016708652    8.2491035      733.72259     -123.88705      609.83554    
     63000   298.93671      0.016708652    6.7407759      741.67023     -128.70563      612.9646     
     64000   312.74155      0.016708652    11.112819      775.92041     -130.03942      645.881      
     65000   294.05802      0.016708652    8.1376068      729.56604     -135.02567      594.54037    
     66000   290.19374      0.016708652    8.6439773      719.97866     -134.08664      585.89202    
     67000   303.55831      0.016708652    10.228037      753.13655     -134.19952      618.93703    
     68000   308.58895      0.016708652    7.2517858      765.61768     -139.25051      626.36717    
     69000   298.95687      0.016708652    7.7045297      741.72024     -137.59804      604.12219    
     70000   299.11375      0.016708652    7.8862564      742.10946     -128.27669      613.83277    
     71000   297.73534      0.016708652    13.238938      738.68959     -127.51132      611.17826    
     72000   306.21138      0.016708652    0.53798239     759.71888     -137.05699      622.66189    
     73000   306.12266      0.016708652   -2.4549116      759.49875     -129.76669      629.73206    
     74000   289.43999      0.016708652    7.5755995      718.10859     -128.24545      589.86314    
     75000   300.44256      0.016708652    15.50105       745.40628     -138.75083      606.65545    
     76000   323.77355      0.016708652    8.9774371      803.29111     -130.42611      672.86499    
     77000   297.31979      0.016708652    5.6145375      737.65858     -129.58167      608.07691    
     78000   295.10684      0.016708652    1.0306232      732.1682      -136.59557      595.57263    
     79000   302.93426      0.016708652    10.605655      751.58826     -135.04691      616.54134    
     80000   298.6719       0.016708652    8.020464       741.01321     -132.60835      608.40486    
     81000   302.78533      0.016708652    8.5433232      751.21876     -127.43328      623.78548    
     82000   294.77939      0.016708652    12.757382      731.35578     -129.48619      601.86959    
     83000   294.43231      0.016708652    6.5980105      730.49467     -134.90757      595.5871     
     84000   300.41653      0.016708652    7.5244609      745.34169     -137.35911      607.98258    
     85000   312.1503       0.016708652    7.878857       774.4535      -140.73464      633.71886    
     86000   295.78609      0.016708652    9.0154447      733.85345     -142.56842      591.28504    
     87000   292.4203       0.016708652    10.774229      725.50283     -135.43945      590.06338    
     88000   299.59548      0.016708652    7.9403802      743.30464     -135.74699      607.55765    
     89000   305.26641      0.016708652    10.125968      757.37437     -134.34317      623.03119    
     90000   304.80747      0.016708652    10.027346      756.23574     -136.98635      619.24939    
     91000   303.44366      0.016708652    7.8645012      752.8521      -138.24865      614.60345    
     92000   282.56836      0.016708652    11.383089      701.05988     -140.29359      560.76629    
     93000   301.65084      0.016708652    7.9508836      748.40405     -141.22531      607.17873    
     94000   306.92835      0.016708652    8.8400412      761.49771     -142.41553      619.08218    
     95000   305.37521      0.016708652    12.562166      757.64432     -139.37781      618.26651    
     96000   285.55558      0.016708652    10.629361      708.47126     -134.34238      574.12887    
     97000   292.76263      0.016708652    6.8861041      726.35216     -135.11641      591.23574    
     98000   296.28125      0.016708652    6.3270743      735.08196     -134.43294      600.64902    
     99000   307.52463      0.016708652    11.565472      762.97707     -129.00507      633.972      
    100000   299.51887      0.016708652    6.7259388      743.11458     -140.01199      603.10259    
    101000   294.66831      0.016708652   -2.5286257      731.0802      -143.19259      587.8876     
    102000   300.38549      0.016708652    4.3405446      745.26468     -141.42725      603.83743    
    103000   301.84319      0.016708652    16.014689      748.88128     -137.66313      611.21815    
    104000   303.70702      0.016708652    8.3876319      753.50548     -141.05608      612.4494     
    105000   307.74407      0.016708652    4.4588884      763.52151     -141.89323      621.62828    
    106000   279.81016      0.016708652    10.903775      694.21671     -138.69048      555.52624    
    107000   306.17776      0.016708652    10.425666      759.63545     -133.73331      625.90214    
    108000   306.58067      0.016708652    7.8271557      760.63509     -141.34012      619.29497    
    109000   295.86134      0.016708652    5.9887659      734.04015     -144.28374      589.7564     
    110000   289.76542      0.016708652    6.2890666      718.91598     -141.92639      576.98959    
    111000   298.85254      0.016708652    4.7256701      741.4614      -142.45156      599.00984    
    112000   304.93709      0.016708652    7.7853261      756.55732     -141.48189      615.07543    
    113000   306.48684      0.016708652    8.5799255      760.40229     -139.31871      621.08358    
    114000   306.34656      0.016708652    8.0102886      760.05426     -138.59408      621.46018    
    115000   284.47768      0.016708652    7.5750791      705.79697     -133.25883      572.53814    
    116000   301.07566      0.016708652    5.2997415      746.97701     -144.41448      602.56253    
    117000   312.77315      0.016708652    9.3885367      775.99881     -142.07924      633.91957    
    118000   292.1486       0.016708652    9.9565559      724.82874     -144.76334      580.0654     
    119000   290.12909      0.016708652    2.5028854      719.81827     -141.66515      578.15312    
    120000   300.87137      0.016708652    7.5057456      746.47016     -142.67093      603.79923    
    121000   301.0576       0.016708652    13.955088      746.9322      -134.77432      612.15788    
    122000   302.97548      0.016708652    5.1013008      751.69052     -142.82064      608.86987    
    123000   317.11834      0.016708652    14.453561      786.77933     -134.46121      652.31812    
    124000   291.15334      0.016708652    17.418694      722.35946     -135.78061      586.57885    
    125000   294.81841      0.016708652    7.9397518      731.4526      -133.01716      598.43544    
    126000   317.30895      0.016708652    5.1811588      787.25225     -134.93798      652.31427    
    127000   296.54584      0.016708652    20.873319      735.73841     -134.23791      601.5005     
    128000   298.76353      0.016708652    11.309029      741.24056     -134.53505      606.70551    
    129000   307.91489      0.016708652    2.4420816      763.94533     -133.00117      630.94416    
    130000   308.30915      0.016708652    6.6384087      764.92351     -131.60262      633.32089    
    131000   299.70761      0.016708652    11.352885      743.58284     -139.58743      603.99541    
    132000   301.49984      0.016708652    11.879163      748.02942     -138.0124       610.01701    
    133000   286.3679       0.016708652    12.760246      710.48666     -137.33082      573.15584    
    134000   299.60739      0.016708652    6.0997799      743.3342      -136.05137      607.28283    
    135000   303.47661      0.016708652    5.7714573      752.93384     -133.56413      619.36972    
    136000   308.80993      0.016708652    9.4626963      766.16595     -139.26347      626.90248    
    137000   297.18573      0.016708652    9.7117029      737.326       -143.61544      593.71056    
    138000   292.02995      0.016708652    7.4431134      724.53436     -146.27347      578.26089    
    139000   313.28106      0.016708652    8.3807193      777.25895     -147.00426      630.25469    
    140000   309.69354      0.016708652    10.632057      768.35821     -148.45703      619.90118    
    141000   289.8901       0.016708652    9.9118129      719.22532     -147.98758      571.23774    
    142000   302.69139      0.016708652    4.4444034      750.98567     -139.20599      611.77969    
    143000   300.50389      0.016708652    7.2121409      745.55843     -131.96734      613.59109    
    144000   311.48745      0.016708652    8.3730989      772.80894     -132.42974      640.3792     
    145000   298.48026      0.016708652    7.3664587      740.53776     -128.19847      612.33929    
    146000   291.21923      0.016708652    9.0312717      722.52295     -128.16751      594.35544    
    147000   299.02369      0.016708652    10.449648      741.88601     -132.31592      609.5701     
    148000   311.695        0.016708652   -1.5969881      773.32388     -123.71852      649.60537    
    149000   287.98689      0.016708652   -4.2729373      714.50341     -126.176        588.32741    
    150000   291.12575      0.016708652    9.4242931      722.291       -126.14004      596.15097    
    151000   310.09885      0.016708652    8.2030352      769.36379     -126.10945      643.25434    
    152000   307.13217      0.016708652    11.003921      762.00338     -137.52874      624.47464    
    153000   296.74142      0.016708652    9.671251       736.22364     -131.87082      604.35281    
    154000   297.95053      0.016708652    12.807254      739.22348     -131.07642      608.14706    
    155000   288.44845      0.016708652    6.7255764      715.64856     -132.04989      583.59867    
    156000   319.15764      0.016708652    6.3957674      791.83891     -128.68979      663.14912    
    157000   310.36336      0.016708652    9.2247494      770.02006     -128.48353      641.53653    
    158000   294.622        0.016708652    10.443411      730.9653      -125.00044      605.96487    
    159000   292.99599      0.016708652    7.6556648      726.93112     -121.86462      605.06651    
    160000   296.04054      0.016708652    8.2333478      734.48474     -120.90932      613.57542    
    161000   311.48254      0.016708652    8.5908298      772.79677     -116.39587      656.4009     
    162000   307.50194      0.016708652    8.8698711      762.9208      -121.12798      641.79282    
    163000   288.08229      0.016708652    7.6397632      714.7401      -120.24393      594.49617    
    164000   300.49111      0.016708652    10.020862      745.52672     -128.60082      616.9259     
    165000   302.45031      0.016708652    10.634643      750.38756     -124.58287      625.80469    
    166000   300.45974      0.016708652    4.1703933      745.44889     -124.79955      620.64934    
    167000   291.05957      0.016708652    7.8859239      722.12682     -124.52877      597.59806    
    168000   305.76997      0.016708652    9.4204274      758.62372     -124.07892      634.5448     
    169000   307.23171      0.016708652    8.4766269      762.25035     -123.32158      638.92877    
    170000   294.16299      0.016708652    5.3230487      729.82648     -130.81318      599.01331    
    171000   296.08063      0.016708652    7.3889635      734.58419     -125.58234      609.00185    
    172000   298.53625      0.016708652    7.6533698      740.67666     -129.95153      610.72513    
    173000   311.21483      0.016708652    7.3007442      772.13258     -127.63102      644.50156    
    174000   293.20981      0.016708652    6.0969394      727.46162     -130.09463      597.36699    
    175000   295.04464      0.016708652    8.986976       732.01387     -120.71094      611.30293    
    176000   312.88363      0.016708652    9.2834171      776.27291     -125.87508      650.39783    
    177000   295.46337      0.016708652    9.315911       733.05277     -117.59337      615.4594     
    178000   290.37723      0.016708652    5.4837897      720.43391     -119.07584      601.35807    
    179000   309.33007      0.016708652    8.5689249      767.45643     -119.74739      647.70904    
    180000   297.24576      0.016708652    7.2467604      737.47493     -121.6967       615.77822    
    181000   299.19839      0.016708652    8.2559021      742.31944     -123.30193      619.01752    
    182000   292.49329      0.016708652    8.0058261      725.6839      -129.44208      596.24183    
    183000   280.54416      0.016708652   -2.4170667      696.0378      -125.5734       570.46439    
    184000   285.38508      0.016708652    4.9086809      708.04826     -120.63955      587.40871    
    185000   310.2411       0.016708652    11.802131      769.71671     -120.95024      648.76648    
    186000   319.96829      0.016708652   -3.6035099      793.85014     -116.51844      677.3317     
    187000   292.60561      0.016708652   -0.64605601     725.96259     -119.41257      606.55002    
    188000   303.73053      0.016708652    11.170782      753.56382     -115.86136      637.70247    
    189000   299.82238      0.016708652    10.27732       743.8676      -112.35673      631.51086    
    190000   301.739        0.016708652    8.5974809      748.62278     -111.06984      637.55295    
    191000   305.55084      0.016708652    6.0030601      758.08006     -111.84753      646.23253    
    192000   305.09232      0.016708652    8.712728       756.94246     -114.15998      642.78248    
    193000   297.48347      0.016708652    12.123564      738.06469     -104.51975      633.54494    
    194000   300.85131      0.016708652    5.2628091      746.42038     -115.10067      631.31972    
    195000   303.13468      0.016708652    7.1682659      752.0855      -107.60535      644.48015    
    196000   319.01565      0.016708652    10.328435      791.48661     -108.4306       683.05601    
    197000   305.68484      0.016708652    7.6574282      758.41252     -105.84042      652.5721     
    198000   299.33805      0.016708652    7.4275294      742.66594     -103.86757      638.79838    
    199000   301.82115      0.016708652    11.022843      748.82659     -104.13707      644.68953    
    200000   304.31621      0.016708652    9.4445113      755.01691     -108.30997      646.70693    
    201000   292.65268      0.016708652    3.5158426      726.07937     -110.79403      615.28534    
    202000   295.12374      0.016708652    7.5012969      732.21012     -106.88619      625.32393    
    203000   292.87141      0.016708652    7.8955635      726.62205     -113.03831      613.58374    
    204000   289.543        0.016708652    9.314266       718.36417     -106.90136      611.46281    
    205000   301.14152      0.016708652    8.1614936      747.14042     -99.193117      647.9473     
    206000   295.60904      0.016708652    8.7061734      733.41417     -105.12693      628.28724    
    207000   295.53884      0.016708652    10.823964      733.24        -105.34541      627.89459    
    208000   300.136        0.016708652    7.2809825      744.6457      -101.69952      642.94618    
    209000   316.78267      0.016708652    8.7489913      785.94653     -110.34378      675.60275    
    210000   297.29816      0.016708652    9.2452928      737.60494     -104.70891      632.89603    
    211000   291.09123      0.016708652    10.037366      722.20536     -102.28996      619.9154     
    212000   288.39354      0.016708652   -11.638458      715.51233     -95.829051      619.68328    
    213000   309.68614      0.016708652    3.9344794      768.33984     -92.812156      675.52769    
    214000   298.36134      0.016708652    12.385796      740.24271     -101.32412      638.91859    
    215000   295.49688      0.016708652   -0.13376892     733.1359      -101.98807      631.14783    
    216000   307.2629       0.016708652    2.6485964      762.32771     -94.27656       668.05115    
    217000   316.96299      0.016708652    14.033349      786.39391     -99.45413       686.93978    
    218000   318.60037      0.016708652    21.402363      790.4563      -104.65914      685.79717    
    219000   292.49084      0.016708652    12.016732      725.67783     -97.943748      627.73408    
    220000   298.07304      0.016708652    2.7013395      739.52743     -98.952184      640.57524    
    221000   318.03483      0.016708652    3.4128824      789.05318     -92.377787      696.67539    
    222000   298.78515      0.016708652    11.438356      741.29418     -100.4869       640.80728    
    223000   290.07625      0.016708652    4.7392719      719.68717     -101.94164      617.74553    
    224000   318.42891      0.016708652    3.6669907      790.03091     -102.40603      687.62488    
    225000   305.98556      0.016708652    21.425827      759.1586      -96.950674      662.20792    
    226000   286.81704      0.016708652    5.5821966      711.60098     -98.200422      613.40056    
    227000   307.19292      0.016708652    1.4405168      762.1541      -95.400448      666.75365    
    228000   306.55294      0.016708652    16.294867      760.56628     -87.660173      672.90611    
    229000   292.8899       0.016708652    10.169628      726.66793     -88.773585      637.89434    
    230000   287.87465      0.016708652    6.962681       714.22494     -85.209518      629.01542    
    231000   304.64161      0.016708652    5.6480433      755.82422     -89.388097      666.43612    
    232000   297.54416      0.016708652    8.5688189      738.21527     -90.59134       647.62393    
    233000   299.58385      0.016708652    9.5724055      743.27579     -85.735543      657.54024    
    234000   296.08357      0.016708652    7.3925239      734.59151     -88.336614      646.25489    
    235000   300.91152      0.016708652    8.8293425      746.56976     -83.883119      662.68664    
    236000   314.72868      0.016708652    10.209335      780.85053     -85.142105      695.70842    
    237000   314.26282      0.016708652    3.9241874      779.69471     -87.96329       691.73142    
    238000   300.268        0.016708652    8.6756916      744.97318     -83.502256      661.47093    
    239000   292.98304      0.016708652    7.1615028      726.899       -86.855544      640.04346    
    240000   304.7964       0.016708652    11.259117      756.20827     -83.683119      672.52515    
    241000   301.90424      0.016708652    8.1996286      749.03275     -85.505103      663.52765    
    242000   304.44482      0.016708652    6.4680559      755.33598     -82.988457      672.34752    
    243000   295.60029      0.016708652    6.2547779      733.39247     -77.663526      655.72894    
    244000   292.22064      0.016708652    17.11306       725.00746     -77.205562      647.80189    
    245000   306.69203      0.016708652    11.615046      760.91137     -73.18199       687.72938    
    246000   292.91294      0.016708652    3.9988299      726.72509     -72.935113      653.78997    
    247000   293.61809      0.016708652    10.6775        728.47457     -79.150723      649.32385    
    248000   318.92752      0.016708652    10.658739      791.26796     -76.000385      715.26757    
    249000   308.97201      0.016708652    6.490931       766.56806     -74.438973      692.12909    
    250000   293.0591       0.016708652    8.2904266      727.0877      -74.12425       652.96345    
    251000   283.20317      0.016708652    7.2534016      702.63486     -73.631155      629.00371    
    252000   304.93097      0.016708652    7.8776327      756.54215     -74.192127      682.35002    
    253000   306.74185      0.016708652    8.2874472      761.03498     -74.4946        686.54038    
    254000   303.24752      0.016708652    10.163871      752.36545     -69.405602      682.95985    
    255000   304.95026      0.016708652    9.3003971      756.59        -70.906752      685.68324    
    256000   308.39605      0.016708652    8.3241068      765.13911     -72.895152      692.24395    
    257000   308.53359      0.016708652   -0.45155572     765.48035     -78.846456      686.63389    
    258000   305.61744      0.016708652    8.1262358      758.24528     -76.582505      681.66278    
    259000   307.77118      0.016708652    15.120873      763.58877     -78.942123      684.64665    
    260000   301.88567      0.016708652    8.1466612      748.98668     -78.441346      670.54533    
    261000   305.25491      0.016708652    6.2445701      757.34584     -74.597667      682.74817    
    262000   296.92729      0.016708652    10.526966      736.68479     -78.14124       658.54355    
    263000   302.66755      0.016708652    12.492012      750.92653     -77.327136      673.59939    
    264000   295.68014      0.016708652    3.9269755      733.59058     -75.526495      658.06409    
    265000   305.3932       0.016708652    3.7185236      757.68895     -73.575906      684.11304    
    266000   305.69008      0.016708652    19.708531      758.42552     -72.089187      686.33634    
    267000   306.8051       0.016708652    17.997981      761.19191     -70.459708      690.7322     
    268000   295.07188      0.016708652    7.5451778      732.08148     -70.801775      661.2797     
    269000   298.04807      0.016708652   -1.2343224      739.46548     -65.963048      673.50244    
    270000   311.26321      0.016708652    9.8152883      772.25259     -64.6801        707.57249    
    271000   305.03381      0.016708652    24.648902      756.79729     -68.192804      688.60449    
    272000   288.20687      0.016708652    21.481083      715.04919     -66.111243      648.93794    
    273000   306.69008      0.016708652    0.73791295     760.90654     -71.314934      689.59161    
    274000   303.25433      0.016708652    0.12674718     752.38234     -72.098103      680.28424    
    275000   306.16734      0.016708652    15.192274      759.60962     -71.216354      688.39326    
    276000   305.68318      0.016708652    8.5539398      758.4084      -77.287562      681.12084    
    277000   296.96218      0.016708652    5.2901233      736.77134     -73.992671      662.77867    
    278000   299.71895      0.016708652   -1.7734159      743.61097     -74.011092      669.59988    
    279000   320.71236      0.016708652    6.2432633      795.6962      -78.533118      717.16309    
    280000   304.04475      0.016708652    13.977818      754.34342     -79.673831      674.66959    
    281000   284.28223      0.016708652    9.3745347      705.31204     -68.46767       636.84437    
    282000   309.36144      0.016708652    3.476376       767.53427     -71.515285      696.01898    
    283000   322.62719      0.016708652    7.0581183      800.44696     -70.588643      729.85832    
    284000   291.92453      0.016708652    22.135667      724.27281     -69.877646      654.39517    
    285000   290.62428      0.016708652    6.3040725      721.04685     -62.528086      658.51876    
    286000   307.54651      0.016708652   -4.6572826      763.03137     -67.533898      695.49748    
    287000   309.70359      0.016708652    8.1348788      768.38314     -65.447171      702.93597    
    288000   293.73525      0.016708652    14.386335      728.76525     -61.576703      667.18855    
    289000   300.46102      0.016708652    14.092803      745.45207     -62.432334      683.01973    
    290000   289.06432      0.016708652   -2.8898625      717.17656     -62.512234      654.66432    
    291000   305.93058      0.016708652   -12.574761      759.0222      -61.834848      697.18735    
    292000   300.09853      0.016708652    14.9671        744.55272     -57.998004      686.55471    
    293000   302.85273      0.016708652    2.1676495      751.38597     -64.981611      686.40436    
    294000   306.07935      0.016708652    9.4239758      759.39131     -68.82409       690.56722    
    295000   276.12419      0.016708652    9.6955301      685.07173     -72.182262      612.88946    
    296000   294.98684      0.016708652    15.729556      731.87049     -69.766281      662.10421    
    297000   299.85821      0.016708652    2.7542027      743.9565      -64.704705      679.25179    
    298000   296.8216       0.016708652   -5.4810637      736.42256     -66.73021       669.69235    
    299000   306.5519       0.016708652    16.224335      760.56372     -65.103603      695.46012    
    300000   304.85393      0.016708652    15.747392      756.35099     -66.356577      689.99442    
    301000   288.77993      0.016708652    5.9203598      716.47096     -65.893099      650.57786    
    302000   298.53351      0.016708652   -2.3825503      740.66987     -68.406348      672.26352    
    303000   311.15981      0.016708652    11.843951      771.99606     -66.154032      705.84202    
    304000   284.62868      0.016708652    15.478492      706.17161     -67.039156      639.13246    
    305000   306.63761      0.016708652    1.5124581      760.77637     -66.250104      694.52626    
    306000   319.04834      0.016708652    1.5791242      791.56771     -67.5222        724.04551    
    307000   291.81157      0.016708652    14.979687      723.99256     -72.641298      651.35126    
    308000   296.63093      0.016708652    9.0131236      735.94951     -72.737607      663.2119     
    309000   306.71422      0.016708652    7.0471764      760.96643     -66.983391      693.98304    
    310000   302.7504       0.016708652    8.4570757      751.13209     -55.604646      695.52744    
    311000   310.8389       0.016708652    2.4835347      771.19989     -57.794584      713.40531    
    312000   298.87745      0.016708652    11.166413      741.5232      -56.832399      684.6908     
    313000   293.6238       0.016708652    6.4629118      728.48875     -64.155718      664.33303    
    314000   318.31402      0.016708652    9.1875667      789.74586     -57.227258      732.5186     
    315000   305.26379      0.016708652    8.5046394      757.36787     -63.931563      693.43631    
    316000   290.76824      0.016708652    7.9539177      721.40402     -61.788994      659.61502    
    317000   286.90774      0.016708652    11.045384      711.826       -65.279035      646.54697    
    318000   306.0075       0.016708652    11.289435      759.21305     -62.198686      697.01436    
    319000   324.02755      0.016708652    10.75313       803.92129     -64.191676      739.72962    
    320000   299.06163      0.016708652    6.7480551      741.98014     -59.682361      682.29778    
    321000   288.08923      0.016708652    8.5677679      714.75733     -61.310372      653.44695    
    322000   303.10271      0.016708652    11.900353      752.00619     -60.143039      691.86315    
    323000   307.95685      0.016708652    10.048467      764.04944     -58.641162      705.40828    
    324000   302.05549      0.016708652    3.6948966      749.408       -55.450662      693.95734    
    325000   300.97597      0.016708652    9.6312935      746.72968     -57.858358      688.87132    
    326000   314.31342      0.016708652    9.9916846      779.82026     -55.352719      724.46754    
    327000   296.09344      0.016708652    9.1100431      734.616       -56.79413       677.82187    
    328000   281.09005      0.016708652    8.4598153      697.39216     -53.84747       643.54469    
    329000   301.61733      0.016708652    8.9635263      748.32091     -57.454042      690.86687    
    330000   308.8257       0.016708652    10.558448      766.20506     -57.596786      708.60828    
    331000   296.25353      0.016708652    10.955475      735.01318     -54.102117      680.91106    
    332000   297.98698      0.016708652    9.8644468      739.31391     -55.684634      683.62927    
    333000   290.97281      0.016708652    7.6065724      721.91157     -56.115415      665.79615    
    334000   296.3346       0.016708652    9.302304       735.21432     -51.69048       683.52384    
    335000   304.6273       0.016708652    8.9780234      755.78872     -55.412711      700.37601    
    336000   305.84564      0.016708652    14.903021      758.81148     -55.937263      702.87421    
    337000   286.72775      0.016708652    6.1319665      711.37945     -54.797561      656.58188    
    338000   302.25812      0.016708652    5.7883651      749.91072     -57.327225      692.58349    
    339000   311.05341      0.016708652    8.2082799      771.73209     -52.411577      719.32051    
    340000   311.72528      0.016708652    8.6413597      773.399       -49.177632      724.22137    
    341000   296.32803      0.016708652    11.242214      735.198       -52.009131      683.18887    
    342000   295.89462      0.016708652    10.235408      734.12271     -53.290455      680.83226    
    343000   304.29158      0.016708652    1.4949803      754.9558      -48.576819      706.37898    
    344000   305.58253      0.016708652    6.9727908      758.15867     -48.64058       709.51809    
    345000   301.6412       0.016708652    9.5577866      748.38014     -50.636283      697.74386    
    346000   295.57331      0.016708652    9.6809626      733.32553     -54.964788      678.36075    
    347000   295.8703       0.016708652    8.0034387      734.06236     -54.282858      679.7795     
    348000   294.69357      0.016708652    9.3069839      731.14287     -52.760836      678.38203    
    349000   290.85105      0.016708652    6.528749       721.60947     -54.788938      666.82053    
    350000   295.58836      0.016708652    8.7162802      733.36286     -50.410702      682.95216    
    351000   301.89838      0.016708652    12.61767       749.01819     -55.274839      693.74336    
    352000   314.14313      0.016708652    12.799721      779.39777     -54.237244      725.16052    
    353000   311.85035      0.016708652    8.2140459      773.7093      -60.72208       712.98722    
    354000   293.89073      0.016708652    7.3543445      729.15101     -50.842445      678.30857    
    355000   284.18133      0.016708652    4.7379929      705.06171     -50.693251      654.36846    
    356000   305.30254      0.016708652    10.34919       757.46402     -53.618582      703.84544    
    357000   308.8962       0.016708652    6.7587643      766.37999     -51.212864      715.16713    
    358000   292.58383      0.016708652    8.5999317      725.90856     -50.590545      675.31801    
    359000   292.92444      0.016708652    9.4796686      726.75362     -50.742182      676.01144    
    360000   303.62012      0.016708652    10.590796      753.28988     -48.828565      704.46132    
    361000   306.62442      0.016708652    8.058016       760.74364     -48.648246      712.09539    
    362000   285.87082      0.016708652    8.111879       709.25338     -48.625287      660.62809    
    363000   301.16689      0.016708652    11.008432      747.20336     -46.951015      700.25235    
    364000   319.76189      0.016708652    10.824016      793.33806     -50.952861      742.3852     
    365000   288.61457      0.016708652    4.8897334      716.0607      -48.60603       667.45467    
    366000   297.67665      0.016708652    9.7157276      738.54396     -46.28647       692.25749    
    367000   301.4069       0.016708652    9.2651789      747.79883     -43.467634      704.3312     
    368000   302.32411      0.016708652    7.7115903      750.07446     -45.692451      704.38201    
    369000   301.17407      0.016708652    7.4318002      747.22116     -49.590556      697.63061    
    370000   310.22413      0.016708652    9.9961649      769.67461     -50.599656      719.07495    
    371000   295.14945      0.016708652    8.6941598      732.27392     -52.185583      680.08834    
    372000   310.67319      0.016708652    11.14836       770.78876     -57.602542      713.18621    
    373000   312.32362      0.016708652    8.9188679      774.8835      -55.499014      719.38449    
    374000   288.50711      0.016708652    6.4572495      715.79409     -54.198754      661.59534    
    375000   294.13625      0.016708652    10.842422      729.76014     -56.913501      672.84664    
    376000   314.41302      0.016708652    11.192774      780.06738     -54.756758      725.31062    
    377000   307.43115      0.016708652    7.4785666      762.74515     -52.684172      710.06098    
    378000   296.38002      0.016708652    0.68243545     735.32701     -55.704266      679.62274    
    379000   294.47254      0.016708652    13.489925      730.59448     -55.036446      675.55803    
    380000   296.92235      0.016708652    8.8345084      736.67254     -58.303442      678.3691     
    381000   311.30369      0.016708652    8.3821955      772.35305     -57.531454      714.82159    
    382000   304.31668      0.016708652    7.0971886      755.01807     -55.402727      699.61534    
    383000   293.28356      0.016708652    12.865015      727.64459     -54.795669      672.84892    
    384000   307.23822      0.016708652    8.2267084      762.2665      -50.757562      711.50894    
    385000   299.17427      0.016708652    7.3469874      742.25962     -50.258302      692.00132    
    386000   295.36527      0.016708652    10.274139      732.80939     -48.620693      684.18869    
    387000   303.33902      0.016708652    9.4627043      752.59246     -52.933078      699.65939    
    388000   293.20322      0.016708652    6.5819646      727.44528     -49.958824      677.48645    
    389000   295.33985      0.016708652    7.5758349      732.74631     -51.792056      680.95425    
    390000   291.64443      0.016708652    11.519095      723.57786     -48.016553      675.56131    
    391000   300.07715      0.016708652    11.323551      744.49968     -52.878812      691.62087    
    392000   313.47663      0.016708652    2.2318044      777.74415     -52.395883      725.34826    
    393000   297.60378      0.016708652    7.216691       738.36318     -50.744187      687.61899    
    394000   294.78647      0.016708652    6.3968318      731.37335     -50.739385      680.63396    
    395000   316.84478      0.016708652    21.374065      786.10062     -53.414058      732.68656    
    396000   306.20622      0.016708652    10.619118      759.70608     -46.704099      713.00198    
    397000   305.47435      0.016708652    7.5616684      757.89028     -51.743653      706.14663    
    398000   290.80577      0.016708652    3.0964589      721.49712     -49.473983      672.02314    
    399000   299.73721      0.016708652    12.216822      743.65628     -52.053092      691.60319    
    400000   298.10484      0.016708652    18.60002       739.60633     -49.484166      690.12216    
    401000   309.43431      0.016708652    14.552344      767.71504     -45.200136      722.51491    
    402000   301.73555      0.016708652    11.000672      748.61421     -45.935319      702.67889    
    403000   304.71323      0.016708652    6.4145719      756.00193     -46.893395      709.10854    
    404000   311.72328      0.016708652    7.3586324      773.39404     -42.770215      730.62382    
    405000   301.42744      0.016708652    10.97075       747.84978     -48.303458      699.54632    
    406000   309.52993      0.016708652    13.377023      767.95229     -50.039181      717.91311    
    407000   307.91241      0.016708652    1.0527659      763.93917     -53.857999      710.08117    
    408000   290.10446      0.016708652   -0.1654891      719.75716     -48.216777      671.54038    
    409000   292.32509      0.016708652    9.9334225      725.26661     -49.716179      675.55043    
    410000   307.24598      0.016708652    10.947071      762.28574     -44.040124      718.24562    
    411000   300.14799      0.016708652    11.167738      744.67544     -46.32174       698.3537     
    412000   308.52853      0.016708652    7.9666763      765.46778     -46.784074      718.6837     
    413000   305.4568       0.016708652    7.5096917      757.84674     -44.245945      713.60079    
    414000   290.86179      0.016708652    11.160335      721.63611     -44.430826      677.20528    
    415000   300.8573       0.016708652    25.037549      746.43525     -43.422974      703.01227    
    416000   314.65137      0.016708652    6.571886       780.65872     -40.085167      740.57356    
    417000   293.16065      0.016708652    1.5984602      727.33966     -45.45587       681.88379    
    418000   294.30273      0.016708652    10.501827      730.17319     -48.942241      681.23095    
    419000   300.63112      0.016708652    10.251987      745.8741      -42.683383      703.19072    
    420000   318.56809      0.016708652    7.032034       790.37621     -42.089606      748.28661    
    421000   297.05308      0.016708652    8.1712848      736.99687     -43.324121      693.67275    
    422000   291.29974      0.016708652    12.397272      722.72267     -38.705131      684.01754    
    423000   302.49059      0.016708652    9.8935815      750.48749     -42.846943      707.64055    
    424000   312.2301       0.016708652    3.3431746      774.65148     -39.646641      735.00483    
    425000   296.47592      0.016708652   -7.5645814      735.56494     -41.93002       693.63492    
    426000   286.81991      0.016708652    6.715122       711.6081      -45.010201      666.5979     
    427000   295.89019      0.016708652    12.350672      734.11173     -49.102116      685.00961    
    428000   319.40391      0.016708652    13.570264      792.44992     -46.958177      745.49174    
    429000   304.41046      0.016708652   -0.064871833    755.25074     -48.91986       706.33088    
    430000   293.23738      0.016708652    9.4593731      727.53001     -47.164999      680.36501    
    431000   314.16947      0.016708652    14.431949      779.46312     -56.18824       723.27488    
    432000   305.17193      0.016708652    6.9287092      757.13997     -55.667981      701.47199    
    433000   291.90328      0.016708652    8.508885       724.22009     -52.601742      671.61835    
    434000   297.02384      0.016708652    8.9169438      736.92433     -55.175708      681.74862    
    435000   303.18154      0.016708652    9.4013761      752.20175     -48.821918      703.37983    
    436000   313.6165       0.016708652    8.912517       778.09119     -48.21447       729.87672    
    437000   299.75406      0.016708652    8.8778271      743.69809     -47.427074      696.27101    
    438000   295.96001      0.016708652    6.2448498      734.28493     -46.404634      687.8803     
    439000   306.41217      0.016708652    12.288584      760.21704     -44.900041      715.317      
    440000   299.17991      0.016708652    11.861163      742.27361     -41.45758       700.81603    
    441000   300.20203      0.016708652    7.7899916      744.80952     -46.673503      698.13601    
    442000   290.00565      0.016708652    5.0537505      719.51201     -51.741194      667.77081    
    443000   314.34392      0.016708652    11.032884      779.89592     -49.433975      730.46194    
    444000   308.83634      0.016708652    13.963373      766.23148     -50.295217      715.93626    
    445000   289.51436      0.016708652   -0.99058643     718.2931      -46.414156      671.87895    
    446000   295.04409      0.016708652    4.5811596      732.01251     -43.591167      688.42134    
    447000   315.76089      0.016708652    19.288442      783.41148     -45.50948       737.902      
    448000   303.47617      0.016708652    9.4348847      752.93275     -43.084383      709.84837    
    449000   289.81806      0.016708652   -5.9293761      719.04659     -44.653664      674.39293    
    450000   308.06912      0.016708652    2.8028308      764.32797     -44.244827      720.08315    
    451000   304.96076      0.016708652    32.823385      756.61604     -44.059307      712.55674    
    452000   291.54621      0.016708652    6.1655475      723.33417     -43.725745      679.60843    
    453000   301.60212      0.016708652    6.5966409      748.28318     -42.129288      706.15389    
    454000   312.0273       0.016708652    6.6283152      774.14832     -44.995273      729.15305    
    455000   300.74392      0.016708652    16.24678       746.15396     -43.003681      703.15028    
    456000   297.09226      0.016708652    15.81805       737.09409     -45.270215      691.82387    
    457000   286.52798      0.016708652   -3.884335       710.88383     -47.269767      663.61406    
    458000   307.90346      0.016708652    0.23780496     763.91698     -49.170472      714.7465     
    459000   299.83563      0.016708652    10.657469      743.90046     -48.137259      695.7632     
    460000   291.51662      0.016708652    14.706663      723.26078     -50.617915      672.64286    
    461000   299.66893      0.016708652    6.3250713      743.48688     -47.547318      695.93956    
    462000   328.61033      0.016708652    0.80238643     815.2913      -48.662652      766.62865    
    463000   302.7577       0.016708652    12.111913      751.1502      -48.451467      702.69873    
    464000   291.18911      0.016708652    3.176821       722.44821     -46.698993      675.74922    
    465000   300.73982      0.016708652    10.950115      746.14377     -47.232562      698.91121    
    466000   295.12165      0.016708652    15.876519      732.20496     -47.784291      684.42067    
    467000   304.27579      0.016708652    1.5032305      754.91662     -47.316702      707.59992    
    468000   310.99227      0.016708652    7.363148       771.5804      -48.900297      722.6801     
    469000   286.56884      0.016708652    15.691255      710.9852      -48.324721      662.66048    
    470000   299.07977      0.016708652    1.2183621      742.02516     -47.389579      694.63558    
    471000   301.53604      0.016708652   -2.4158022      748.11923     -45.335242      702.78399    
    472000   300.61413      0.016708652    30.748008      745.83195     -49.89984       695.93211    
    473000   291.26253      0.016708652    9.3582644      722.63038     -49.097067      673.53331    
    474000   298.37125      0.016708652   -1.8625482      740.2673      -39.17897       701.08833    
    475000   309.13176      0.016708652    9.2079244      766.96441     -36.547611      730.4168     
    476000   303.22926      0.016708652    12.921076      752.32014     -40.075923      712.24422    
    477000   301.30999      0.016708652    22.0735        747.5584      -43.500801      704.0576     
    478000   296.4124       0.016708652    7.2195745      735.40735     -43.71488       691.69247    
    479000   300.3672       0.016708652    4.736254       745.21931     -42.791139      702.42817    
    480000   317.05843      0.016708652    15.956451      786.6307      -41.10183       745.52887    
    481000   297.46377      0.016708652    10.030308      738.01582     -41.835624      696.18019    
    482000   293.1828       0.016708652    0.96765784     727.3946      -39.082482      688.31212    
    483000   322.83983      0.016708652    8.7301127      800.97452     -39.060448      761.91408    
    484000   301.27487      0.016708652    12.708926      747.47125     -38.343114      709.12814    
    485000   288.89487      0.016708652    8.7247703      716.75613     -35.018432      681.73769    
    486000   297.70123      0.016708652    8.0861636      738.60495     -40.506489      698.09846    
    487000   292.80597      0.016708652    11.736384      726.45967     -36.33618       690.12349    
    488000   304.77192      0.016708652    15.586387      756.14753     -36.949704      719.19782    
    489000   309.17212      0.016708652    14.565474      767.06456     -36.157504      730.90706    
    490000   297.60529      0.016708652    6.4391774      738.36693     -36.59581       701.77112    
    491000   308.62975      0.016708652    5.6999045      765.71891     -35.655169      730.06374    
    492000   289.15442      0.016708652    10.007923      717.40009     -34.714773      682.68532    
    493000   301.22187      0.016708652    13.2332        747.33975     -33.537564      713.80219    
    494000   308.0923       0.016708652    6.5946575      764.38548     -37.03357       727.35191    
    495000   294.31129      0.016708652    4.8257576      730.19442     -37.20519       692.98923    
    496000   294.21946      0.016708652    8.8668733      729.96658     -31.332303      698.63428    
    497000   301.55982      0.016708652    12.961748      748.17822     -30.166028      718.01219    
    498000   298.85115      0.016708652    7.8590557      741.45794     -30.094676      711.36326    
    499000   301.54708      0.016708652    8.5411889      748.14661     -31.573922      716.57268    
    500000   300.53791      0.016708652    14.166837      745.64284     -34.565226      711.07761    
    501000   305.56836      0.016708652    7.591775       758.12352     -32.537253      725.58627    
    502000   295.19776      0.016708652    10.510282      732.39379     -31.32893       701.06486    
    503000   294.44872      0.016708652    13.966103      730.53539     -30.677567      699.85782    
    504000   299.97498      0.016708652    14.007269      744.24619     -35.464622      708.78157    
    505000   297.12643      0.016708652    8.2028469      737.17886     -34.001089      703.17777    
    506000   303.60678      0.016708652    8.6357244      753.25679     -35.055797      718.20099    
    507000   306.04639      0.016708652    11.14899       759.30954     -37.442876      721.86666    
    508000   305.02063      0.016708652    4.3145795      756.7646      -34.862797      721.9018     
    509000   285.81031      0.016708652    7.9560806      709.10327     -34.876026      674.22724    
    510000   308.48997      0.016708652    12.246638      765.37211     -31.429784      733.94233    
    511000   311.08051      0.016708652    7.3259555      771.79932     -36.482791      735.31653    
    512000   307.31573      0.016708652    7.080932       762.4588      -40.725489      721.73331    
    513000   310.63609      0.016708652    8.009815       770.69669     -37.192593      733.5041     
    514000   295.21885      0.016708652    7.6955051      732.44611     -34.488434      697.95767    
    515000   297.71019      0.016708652    11.102005      738.62719     -37.761047      700.86614    
    516000   311.10202      0.016708652    7.8818906      771.8527      -36.896303      734.9564     
    517000   302.6064       0.016708652    8.4749665      750.77482     -36.344478      714.43034    
    518000   301.73052      0.016708652    13.346861      748.60174     -34.312724      714.28902    
    519000   296.77504      0.016708652    1.3791006      736.30705     -34.524997      701.78205    
    520000   291.28756      0.016708652    7.1369168      722.69246     -34.004268      688.68819    
    521000   292.10958      0.016708652    16.743946      724.73192     -33.357457      691.37446    
    522000   315.68315      0.016708652    14.897571      783.21861     -41.097237      742.12137    
    523000   299.08306      0.016708652    4.3514475      742.03332     -31.951354      710.08197    
    524000   289.30251      0.016708652    1.5900843      717.7675      -31.733529      686.03397    
    525000   292.50763      0.016708652    12.166096      725.71948     -34.521105      691.19838    
    526000   303.84338      0.016708652    11.448157      753.8438      -30.444723      723.39908    
    527000   318.2163       0.016708652    8.9141918      789.50341     -33.234532      756.26888    
    528000   304.29785      0.016708652    4.581069       754.97137     -32.493314      722.47805    
    529000   300.59216      0.016708652    3.1538725      745.77743     -33.611957      712.16547    
    530000   295.4691       0.016708652    9.7133         733.06699     -30.04902       703.01797    
    531000   300.12119      0.016708652    16.291047      744.60896     -37.309547      707.29941    
    532000   306.10456      0.016708652    13.570037      759.45386     -40.118217      719.33564    
    533000   312.51299      0.016708652    2.5477389      775.35335     -41.236852      734.1165     
    534000   307.29167      0.016708652    6.0050261      762.39909     -37.354737      725.04436    
    535000   291.15999      0.016708652    6.3395209      722.37595     -31.732542      690.64341    
    536000   288.16062      0.016708652    7.5321847      714.93445     -28.385934      686.54852    
    537000   304.74867      0.016708652    18.288383      756.08984     -28.940027      727.14981    
    538000   316.95154      0.016708652    2.1989184      786.36551     -30.15949       756.20602    
    539000   289.95075      0.016708652    7.8049267      719.3758      -29.033893      690.3419     
    540000   304.90437      0.016708652    13.809713      756.47616     -27.983126      728.49303    
    541000   317.85022      0.016708652    5.6235063      788.59516     -29.599449      758.99572    
    542000   294.47092      0.016708652    7.4944007      730.59048     -27.394442      703.19604    
    543000   296.18221      0.016708652    8.5597554      734.83623     -29.570428      705.2658     
    544000   300.11834      0.016708652    13.346665      744.60187     -31.698808      712.90307    
    545000   307.35858      0.016708652    15.775779      762.56511     -30.386438      732.17867    
    546000   290.41932      0.016708652    7.6134865      720.53834     -32.970442      687.5679     
    547000   282.39476      0.016708652    6.9168611      700.62919     -32.608986      668.0202     
    548000   300.85028      0.016708652    11.278428      746.41783     -30.928791      715.48904    
    549000   303.38837      0.016708652    9.4876063      752.7149      -33.288787      719.42611    
    550000   294.75664      0.016708652    7.1829579      731.29935     -34.210508      697.08884    
    551000   294.56936      0.016708652    11.79567       730.8347      -39.029749      691.80495    
    552000   319.07313      0.016708652    9.798157       791.62924     -35.756785      755.87246    
    553000   292.76394      0.016708652    7.2287464      726.3554      -37.208591      689.14681    
    554000   288.1415       0.016708652    7.8528756      714.887       -36.970155      677.91684    
    555000   300.75589      0.016708652    8.8466915      746.18366     -34.63727       711.54639    
    556000   305.67435      0.016708652    9.3786007      758.38649     -34.378604      724.00789    
    557000   294.45541      0.016708652    9.5674385      730.552       -29.20442       701.34758    
    558000   298.76223      0.016708652    8.8792816      741.23733     -36.42744       704.80989    
    559000   300.24299      0.016708652    8.5370901      744.91112     -34.549784      710.36134    
    560000   308.01689      0.016708652    8.8243285      764.19839     -35.195184      729.0032     
    561000   284.03515      0.016708652    8.031515       704.69905     -36.955237      667.74381    
    562000   294.34039      0.016708652    9.1777663      730.26662     -35.329097      694.93752    
    563000   306.62197      0.016708652    11.121404      760.73755     -30.258956      730.4786     
    564000   296.6452       0.016708652   -0.76803664     735.98491     -35.274426      700.71048    
    565000   296.24268      0.016708652    9.6864523      734.98625     -29.576768      705.40948    
    566000   297.6884       0.016708652    14.327233      738.57313     -29.412843      709.16029    
    567000   305.73427      0.016708652    7.0999593      758.53516     -25.806025      732.72914    
    568000   296.98729      0.016708652    8.2436062      736.83366     -27.357914      709.47574    
    569000   284.04696      0.016708652    8.2650676      704.72835     -32.075286      672.65306    
    570000   298.02645      0.016708652    10.15797       739.41183     -31.749558      707.66227    
    571000   320.55751      0.016708652    9.4041165      795.31201     -33.838539      761.47347    
    572000   300.14314      0.016708652    9.242291       744.66342     -30.398152      714.26526    
    573000   297.50567      0.016708652    6.9246083      738.11977     -31.465065      706.6547     
    574000   302.27136      0.016708652    8.8286215      749.94358     -29.464675      720.4789     
    575000   301.33796      0.016708652    9.2283091      747.62779     -29.964727      717.66306    
    576000   299.81147      0.016708652    8.3567117      743.84052     -30.105578      713.73494    
    577000   308.16599      0.016708652    10.558314      764.56832     -28.755986      735.81233    
    578000   303.04442      0.016708652    13.027121      751.86155     -28.535573      723.32598    
    579000   295.72149      0.016708652    8.4045743      733.69318     -29.605611      704.08757    
    580000   296.32666      0.016708652    7.9012812      735.19462     -25.496586      709.69804    
    581000   312.40723      0.016708652    6.3414415      775.09095     -23.791347      751.2996     
    582000   317.86898      0.016708652    10.374605      788.64171     -25.799399      762.84231    
    583000   290.22353      0.016708652    9.5422773      720.05259     -20.649335      699.40325    
    584000   293.60048      0.016708652    8.1938264      728.43088     -21.910213      706.52066    
    585000   306.58098      0.016708652    9.0107642      760.63586     -22.933652      737.70221    
    586000   306.3603       0.016708652    9.0439238      760.08834     -25.167984      734.92035    
    587000   293.42354      0.016708652    9.0091992      727.9919      -22.026527      705.96537    
    588000   311.48283      0.016708652    8.3750232      772.79748     -22.342969      750.45451    
    589000   308.59163      0.016708652    9.5399143      765.62433     -28.925303      736.69903    
    590000   289.89519      0.016708652    13.947426      719.23796     -28.679005      690.55895    
    591000   283.13256      0.016708652    8.5822993      702.4597      -30.075601      672.38409    
    592000   292.73958      0.016708652    4.3315969      726.29497     -32.210621      694.08435    
    593000   311.51429      0.016708652    8.6419153      772.87554     -30.386535      742.48901    
    594000   321.92561      0.016708652    8.4538699      798.70632     -28.461418      770.2449     
    595000   294.39121      0.016708652    8.8967105      730.39271     -26.187059      704.20565    
    596000   299.77293      0.016708652    8.3282881      743.7449      -30.704018      713.04088    
    597000   305.7306       0.016708652    9.6893133      758.52606     -35.82591       722.70015    
    598000   297.51849      0.016708652    14.234795      738.15157     -33.840164      704.31141    
    599000   294.13724      0.016708652    4.5922543      729.76259     -33.522621      696.23997    
    600000   316.30807      0.016708652    9.1112154      784.76904     -34.367796      750.40125    
    601000   302.13997      0.016708652    11.153744      749.6176      -27.735241      721.88236    
    602000   274.7319       0.016708652    2.7383259      681.61741     -25.458302      656.15911    
    603000   300.70805      0.016708652    6.3823191      746.06495     -30.64277       715.42218    
    604000   303.53088      0.016708652    7.9069176      753.06847     -30.537749      722.53073    
    605000   306.6796       0.016708652    9.5624613      760.88054     -30.95908       729.92146    
    606000   295.13994      0.016708652    17.867196      732.25032     -34.044117      698.2062     
    607000   293.65591      0.016708652    16.338777      728.56841     -31.240257      697.32815    
    608000   298.78375      0.016708652    1.5970826      741.29073     -31.471469      709.81926    
    609000   307.54087      0.016708652    22.160031      763.01738     -33.271708      729.74567    
    610000   294.22911      0.016708652    3.8082448      729.99054     -39.718109      690.27244    
    611000   300.99893      0.016708652    8.7839158      746.78664     -30.61593       716.17071    
    612000   293.88121      0.016708652    13.717097      729.12739     -30.039845      699.08755    
    613000   299.72043      0.016708652    6.4405452      743.61466     -27.290203      716.32446    
    614000   310.36558      0.016708652    7.3947483      770.02555     -27.643331      742.38222    
    615000   303.59807      0.016708652    8.6918123      753.23518     -28.484217      724.75096    
    616000   298.69227      0.016708652    9.3259598      741.06376     -29.208819      711.85494    
    617000   298.25161      0.016708652    10.370673      739.97046     -24.67483       715.29563    
    618000   301.51577      0.016708652    8.4905752      748.06895     -21.252719      726.81623    
    619000   308.99362      0.016708652    0.85814585     766.62168     -27.613594      739.00808    
    620000   297.39256      0.016708652    13.136844      737.83915     -23.730981      714.10817    
    621000   307.01687      0.016708652    9.4287613      761.7173      -31.496153      730.22115    
    622000   293.9128       0.016708652    6.9895739      729.20575     -31.558619      697.64713    
    623000   303.44329      0.016708652    7.6546697      752.85117     -31.821744      721.02943    
    624000   301.7048       0.016708652    8.9585968      748.53791     -35.972018      712.5659     
    625000   291.45407      0.016708652    8.0351948      723.10559     -30.562327      692.54326    
    626000   295.58589      0.016708652    10.488755      733.35675     -25.869665      707.48709    
    627000   305.10006      0.016708652    8.7822693      756.96165     -25.136715      731.82494    
    628000   304.5169       0.016708652    7.5200027      755.51481     -22.408434      733.10638    
    629000   291.03578      0.016708652    8.2815631      722.06779     -20.759014      701.30877    
    630000   298.90258      0.016708652    10.260238      741.58555     -22.354391      719.23116    
    631000   304.63975      0.016708652    9.230285       755.81963     -26.863008      728.95662    
    632000   302.13727      0.016708652    9.6394213      749.6109      -28.636851      720.97405    
    633000   305.37724      0.016708652    9.1388454      757.64936     -25.995862      731.6535     
    634000   297.00441      0.016708652    9.5989252      736.87612     -26.773029      710.10309    
    635000   300.92487      0.016708652    9.408497       746.60291     -25.514869      721.08804    
    636000   308.94704      0.016708652    9.9670787      766.50613     -26.080693      740.42543    
    637000   296.38786      0.016708652    8.2557336      735.34645     -29.340259      706.00619    
    638000   294.64546      0.016708652    7.4285285      731.02351     -33.209091      697.81442    
    639000   312.03586      0.016708652    8.7018866      774.16956     -31.940456      742.22911    
    640000   303.04851      0.016708652    8.3690209      751.87171     -24.986856      726.88486    
    641000   290.43852      0.016708652    9.0619928      720.58597     -27.549415      693.03656    
    642000   309.79387      0.016708652    9.0327319      768.60714     -32.466316      736.14082    
    643000   303.78433      0.016708652    10.654485      753.69729     -29.031871      724.66542    
    644000   291.20857      0.016708652    10.179054      722.4965      -26.747918      695.74858    
    645000   296.91496      0.016708652    8.3438632      736.6542      -27.127819      709.52638    
    646000   307.92739      0.016708652    9.0742113      763.97634     -28.447721      735.52862    
    647000   296.80157      0.016708652    9.3043212      736.37288     -29.050832      707.32204    
    648000   301.31999      0.016708652    9.6632295      747.58321     -28.788966      718.79424    
    649000   299.9079       0.016708652    9.8533133      744.07978     -30.669825      713.40995    
    650000   306.62573      0.016708652    6.2433052      760.74688     -31.668149      729.07873    
    651000   303.58188      0.016708652    9.3868944      753.195       -26.142084      727.05292    
    652000   295.88173      0.016708652    9.2340615      734.09073     -27.604366      706.48636    
    653000   290.37481      0.016708652    7.7808264      720.42791     -29.497173      690.93073    
    654000   315.48405      0.016708652    9.7465928      782.72462     -25.954726      756.7699     
    655000   298.09714      0.016708652    9.1867645      739.58723     -31.649363      707.93787    
    656000   288.53575      0.016708652    9.7376255      715.86516     -29.019175      686.84599    
    657000   310.32946      0.016708652    8.0331053      769.93594     -32.249094      737.68685    
    658000   313.33295      0.016708652    11.047286      777.38767     -27.600474      749.7872     
    659000   292.89736      0.016708652    9.3463088      726.68643     -31.85053       694.8359     
    660000   299.58194      0.016708652    9.1320082      743.27106     -34.095282      709.17578    
    661000   301.1741       0.016708652    8.9812066      747.22125     -29.778988      717.44226    
    662000   302.10065      0.016708652    6.8785175      749.52004     -29.718881      719.80115    
    663000   299.31829      0.016708652    10.533022      742.61692     -29.421963      713.19495    
    664000   324.13938      0.016708652    9.833738       804.19874     -26.84217       777.35657    
    665000   302.68423      0.016708652    7.5035215      750.96791     -27.512704      723.4552     
    666000   286.81459      0.016708652    8.3187899      711.59491     -27.029327      684.56558    
    667000   305.02131      0.016708652    9.7959234      756.76627     -29.204763      727.56151    
    668000   309.90089      0.016708652    10.178478      768.87265     -30.619096      738.25356    
    669000   294.52802      0.016708652    8.4432207      730.73213     -31.301161      699.43096    
    670000   291.03915      0.016708652    10.064284      722.07615     -26.278359      695.79779    
    671000   303.36114      0.016708652    8.9628903      752.64735     -33.563822      719.08353    
    672000   307.56725      0.016708652    6.991557       763.08283     -31.538115      731.54472    
    673000   292.21668      0.016708652    16.171647      724.99764     -26.598553      698.39909    
    674000   302.24912      0.016708652    15.04738       749.88839     -25.680583      724.20781    
    675000   299.54395      0.016708652    7.6642241      743.17681     -27.431367      715.74544    
    676000   283.97529      0.016708652    10.91874       704.55052     -26.559484      677.99104    
    677000   301.32467      0.016708652    15.309377      747.59482     -31.102673      716.49214    
    678000   301.40673      0.016708652    6.9770597      747.7984      -23.756909      724.04149    
    679000   294.62905      0.016708652    6.9957494      730.9828      -23.39489       707.58791    
    680000   300.65533      0.016708652    10.935576      745.93415     -23.590416      722.34373    
    681000   303.41977      0.016708652    4.3038876      752.7928      -28.190753      724.60205    
    682000   301.02305      0.016708652    9.5842092      746.84649     -31.063619      715.78287    
    683000   311.08638      0.016708652    13.802708      771.81389     -32.580392      739.2335     
    684000   311.69507      0.016708652    2.4652973      773.32407     -32.881559      740.44251    
    685000   291.22359      0.016708652    9.0433341      722.53375     -34.563817      687.96994    
    686000   300.53634      0.016708652    12.403449      745.63894     -29.68667       715.95227    
    687000   310.56785      0.016708652    11.488672      770.52739     -29.78742       740.73997    
    688000   303.5498       0.016708652    4.850271       753.11543     -26.609709      726.50572    
    689000   287.62605      0.016708652    8.6600144      713.60817     -32.712426      680.89574    
    690000   298.05878      0.016708652    11.107118      739.49206     -28.187324      711.30473    
    691000   315.39288      0.016708652    6.8048001      782.49843     -29.507803      752.99063    
    692000   300.64026      0.016708652   -0.16042284     745.89678     -34.855446      711.04134    
    693000   296.3265       0.016708652    7.9966895      735.19422     -31.370308      703.82392    
    694000   293.42393      0.016708652    17.701669      727.99286     -29.23485       698.75801    
    695000   311.49354      0.016708652    5.8054303      772.82405     -30.944627      741.87943    
    696000   294.77621      0.016708652    10.318485      731.3479      -32.70195       698.64595    
    697000   307.07285      0.016708652    16.146645      761.85622     -34.035712      727.8205     
    698000   301.3143       0.016708652    5.6917662      747.56909     -32.355595      715.21349    
    699000   308.60172      0.016708652    6.066677       765.64937     -34.947171      730.7022     
    700000   300.08459      0.016708652    13.569577      744.51814     -32.901394      711.61674    
    701000   304.42515      0.016708652    9.5148096      755.28719     -31.61947       723.66772    
    702000   305.64102      0.016708652   -0.042867447    758.30379     -30.972392      727.3314     
    703000   295.2337       0.016708652    12.330612      732.48295     -27.187667      705.29528    
    704000   317.99631      0.016708652    12.655441      788.9576      -24.474331      764.48327    
    705000   300.34157      0.016708652    5.1486639      745.15571     -26.753715      718.40199    
    706000   293.41861      0.016708652    7.8829686      727.97967     -25.409719      702.56995    
    707000   296.60164      0.016708652    10.057937      735.87684     -25.996622      709.88022    
    708000   316.24032      0.016708652    10.177529      784.60095     -27.695222      756.90572    
    709000   304.11133      0.016708652    3.2692617      754.50859     -26.153131      728.35546    
    710000   289.45401      0.016708652    12.97729       718.14339     -29.351464      688.79193    
    711000   301.76404      0.016708652    11.90286       748.6849      -29.736472      718.94843    
    712000   303.9175       0.016708652    9.3227649      754.02771     -32.186143      721.84156    
    713000   304.69629      0.016708652    5.2278636      755.9599      -30.161176      725.79873    
    714000   292.43773      0.016708652    5.8853952      725.54608     -29.642527      695.90355    
    715000   310.06144      0.016708652    15.056888      769.27098     -31.348701      737.92228    
    716000   315.70243      0.016708652    11.985605      783.26643     -28.618233      754.6482     
    717000   286.85371      0.016708652    7.433804       711.69196     -27.083457      684.6085     
    718000   283.26471      0.016708652    7.4975989      702.78755     -30.153079      672.63447    
    719000   303.04457      0.016708652    10.407251      751.86194     -31.720519      720.14142    
    720000   298.737        0.016708652    9.9502198      741.17474     -30.335779      710.83896    
    721000   303.16203      0.016708652    14.25761       752.15335     -38.10907       714.04428    
    722000   301.44675      0.016708652    7.0967404      747.89769     -34.562377      713.33531    
    723000   287.85359      0.016708652    2.5248235      714.1727      -30.090754      684.08195    
    724000   292.91833      0.016708652    13.412292      726.73844     -28.299457      698.43899    
    725000   285.76803      0.016708652    9.8027397      708.99837     -23.810243      685.18813    
    726000   306.10036      0.016708652    13.108144      759.44342     -26.71619       732.72723    
    727000   314.30178      0.016708652    7.8694796      779.79137     -26.966683      752.82469    
    728000   293.7381       0.016708652    8.0327449      728.77232     -28.660386      700.11194    
    729000   301.31393      0.016708652    12.387749      747.56817     -28.445932      719.12224    
    730000   302.48549      0.016708652    3.7628719      750.47484     -28.479487      721.99536    
    731000   301.99605      0.016708652    8.903277       749.26051     -23.546923      725.71359    
    732000   300.24976      0.016708652    7.7497867      744.92792     -29.205382      715.72254    
    733000   300.18947      0.016708652    12.610273      744.77835     -28.489109      716.28925    
    734000   306.12374      0.016708652    8.9066156      759.50144     -26.33317       733.16827    
    735000   300.30875      0.016708652    4.2316307      745.0743      -29.259374      715.81492    
    736000   300.52755      0.016708652    8.7420719      745.61714     -29.932206      715.68494    
    737000   306.79052      0.016708652    5.8335586      761.15574     -25.466944      735.6888     
    738000   306.43835      0.016708652    19.528619      760.28199     -28.645463      731.63653    
    739000   295.39625      0.016708652    11.287274      732.88624     -26.179518      706.70672    
    740000   301.01414      0.016708652    8.7344529      746.82437     -24.966472      721.8579     
    741000   289.68501      0.016708652    14.997817      718.71651     -23.719092      694.99742    
    742000   293.79945      0.016708652    7.4255993      728.92453     -25.94315       702.98138    
    743000   311.00241      0.016708652    5.2678213      771.60555     -22.811392      748.79416    
    744000   315.15685      0.016708652    9.3376361      781.91284     -26.526724      755.38611    
    745000   293.58015      0.016708652    19.537606      728.38043     -30.7445        697.63593    
    746000   285.12583      0.016708652   -1.891857       707.40504     -30.951637      676.4534     
    747000   304.13814      0.016708652    7.7349933      754.57512     -28.779264      725.79585    
    748000   294.26811      0.016708652    3.9195865      730.08729     -26.770207      703.31708    
    749000   296.525        0.016708652   -0.67327422     735.68671     -33.095646      702.59106    
    750000   303.12696      0.016708652    11.554762      752.06635     -26.344158      725.72219    
    751000   299.54866      0.016708652    21.61062       743.18848     -27.392837      715.79565    
    752000   301.24167      0.016708652    7.6216109      747.3889      -28.268269      719.12063    
    753000   299.70802      0.016708652   -3.1696854      743.58387     -33.964384      709.61949    
    754000   297.61646      0.016708652    13.523903      738.39463     -34.561995      703.83264    
    755000   282.72421      0.016708652    6.0778031      701.44657     -29.67412       671.77245    
    756000   308.03558      0.016708652    8.5692714      764.24476     -24.539831      739.70492    
    757000   287.82675      0.016708652    8.4522822      714.1061      -25.262366      688.84374    
    758000   289.6321       0.016708652    6.1264493      718.58522     -27.065498      691.51972    
    759000   307.62856      0.016708652    9.5649398      763.23495     -23.926411      739.30854    
    760000   298.11263      0.016708652    10.625186      739.62565     -26.320924      713.30473    
    761000   304.98434      0.016708652    8.4430693      756.67456     -32.369872      724.30469    
    762000   298.28682      0.016708652    9.4588934      740.05782     -23.624206      716.43361    
    763000   304.985        0.016708652    9.4550792      756.6762      -30.697806      725.97839    
    764000   300.14977      0.016708652    8.6959824      744.67984     -33.178858      711.50099    
    765000   285.08253      0.016708652    8.1368595      707.29762     -29.556492      677.74113    
    766000   304.79024      0.016708652    9.3547383      756.19299     -29.50771       726.68528    
    767000   308.06542      0.016708652    12.413092      764.31879     -24.016286      740.3025     
    768000   299.18829      0.016708652    8.4971199      742.29439     -23.915807      718.37858    
    769000   290.67898      0.016708652    8.6719619      721.18257     -22.641644      698.54093    
    770000   301.98325      0.016708652    9.1425972      749.22876     -21.664421      727.56434    
    771000   315.07047      0.016708652    7.6871253      781.69853     -25.599961      756.09857    
    772000   286.65946      0.016708652    6.2571335      711.21001     -28.555845      682.65417    
    773000   300.62312      0.016708652    11.473404      745.85424     -26.618079      719.23616    
    774000   310.10703      0.016708652    1.7044438      769.3841      -26.834426      742.54968    
    775000   294.42959      0.016708652    8.5808782      730.48792     -29.279931      701.20799    
    776000   297.43833      0.016708652    13.409582      737.95271     -29.020097      708.93261    
    777000   318.15329      0.016708652    10.438216      789.34709     -26.043876      763.30321    
    778000   301.92655      0.016708652    8.8306884      749.08809     -31.907825      717.18027    
    779000   281.64644      0.016708652    8.8183153      698.77259     -29.428159      669.34443    
    780000   295.72502      0.016708652    10.689917      733.70193     -31.226414      702.47551    
    781000   312.77355      0.016708652    8.5686771      775.99979     -24.884003      751.11579    
    782000   285.50742      0.016708652    5.0071305      708.35177     -25.327566      683.02421    
    783000   291.45664      0.016708652    12.588935      723.11196     -27.58209       695.52987    
    784000   302.15535      0.016708652    14.70216       749.65576     -28.963394      720.69237    
    785000   314.86089      0.016708652    9.7659698      781.17855     -27.747802      753.43074    
    786000   302.18785      0.016708652    3.4342014      749.73638     -30.453324      719.28306    
    787000   293.39341      0.016708652    9.2308203      727.91715     -30.055082      697.86207    
    788000   310.42         0.016708652    11.063231      770.16059     -29.041617      741.11897    
    789000   312.83867      0.016708652    2.6560106      776.16136     -28.29134       747.87002    
    790000   304.17188      0.016708652    1.5036813      754.65883     -29.435636      725.22319    
    791000   295.19663      0.016708652    16.119448      732.39097     -30.307434      702.08353    
    792000   294.01982      0.016708652    14.807043      729.47127     -25.962633      703.50864    
    793000   311.96325      0.016708652    10.472794      773.98943     -22.959506      751.02993    
    794000   302.03918      0.016708652    6.9581423      749.36752     -22.571508      726.79602    
    795000   293.15132      0.016708652    9.5971704      727.3165      -18.101819      709.21468    
    796000   298.28831      0.016708652    12.23118       740.06153     -20.532226      719.52931    
    797000   301.3201       0.016708652    8.8013018      747.58346     -19.562825      728.02064    
    798000   307.46035      0.016708652    9.1269905      762.8176      -18.724086      744.09351    
    799000   295.48389      0.016708652    1.9411773      733.10369     -19.533429      713.57026    
    800000   292.48466      0.016708652    4.707386       725.66251     -21.93679       703.72572    
    801000   296.14572      0.016708652    17.038716      734.74569     -21.529855      713.21584    
    802000   312.91677      0.016708652    9.9399031      776.35513     -23.114033      753.2411     
    803000   295.62199      0.016708652    2.7152054      733.4463      -25.788232      707.65807    
    804000   298.34325      0.016708652    11.760895      740.19783     -21.001863      719.19596    
    805000   307.1609       0.016708652    14.100153      762.07466     -21.315326      740.75933    
    806000   295.57679      0.016708652    9.3077087      733.33416     -30.00398       703.33018    
    807000   305.22477      0.016708652    3.2960656      757.27107     -27.536601      729.73447    
    808000   295.51606      0.016708652    7.6330663      733.18349     -23.368645      709.81484    
    809000   295.3459       0.016708652    12.658212      732.76131     -24.710517      708.05079    
    810000   294.31287      0.016708652    13.033131      730.19834     -19.092376      711.10596    
    811000   301.60398      0.016708652    13.192201      748.28779     -22.559137      725.72865    
    812000   305.0296       0.016708652    8.7849929      756.78684     -22.199174      734.58767    
    813000   303.85084      0.016708652    6.2193836      753.86231     -25.208285      728.65403    
    814000   293.98933      0.016708652    9.0127983      729.39562     -26.552089      702.84353    
    815000   298.29021      0.016708652    13.711676      740.06623     -27.228177      712.83806    
    816000   314.98765      0.016708652    7.4451748      781.49304     -30.367683      751.12536    
    817000   309.26382      0.016708652    3.5164947      767.29205     -30.562595      736.72946    
    818000   291.81778      0.016708652    9.6894813      724.00797     -24.632063      699.3759     
    819000   299.02549      0.016708652    9.8677505      741.89049     -25.533133      716.35735    
    820000   306.04973      0.016708652    8.4669353      759.31782     -26.883023      732.4348     
    821000   292.98096      0.016708652    7.7872352      726.89383     -25.759868      701.13396    
    822000   291.03732      0.016708652    8.7069786      722.07161     -22.272591      699.79902    
    823000   291.04815      0.016708652    9.2149521      722.09848     -23.006068      699.09242    
    824000   297.47121      0.016708652    11.834917      738.03426     -22.591351      715.44291    
    825000   297.28985      0.016708652    6.3219778      737.58431     -19.742335      717.84197    
    826000   303.12532      0.016708652    6.1203788      752.06228     -20.130443      731.93183    
    827000   312.80258      0.016708652    12.15614       776.07183     -24.757475      751.31435    
    828000   299.56938      0.016708652    10.950216      743.23988     -23.616967      719.62291    
    829000   298.90678      0.016708652    7.0908132      741.59595     -24.977882      716.61807    
    830000   306.74604      0.016708652    7.4293519      761.04537     -25.237818      735.80756    
    831000   310.46934      0.016708652    9.4029742      770.283       -28.470064      741.81293    
    832000   303.19012      0.016708652    7.4273542      752.22305     -27.745947      724.47711    
    833000   302.61308      0.016708652    10.044288      750.79139     -26.692333      724.09905    
    834000   303.67252      0.016708652    8.7798064      753.4199      -31.102566      722.31734    
    835000   298.64767      0.016708652    9.7689452      740.95311     -26.078582      714.87453    
    836000   295.56297      0.016708652    12.609983      733.29988     -22.995595      710.30429    
    837000   306.69799      0.016708652    8.5398278      760.92616     -20.409126      740.51703    
    838000   297.21764      0.016708652    15.015562      737.40516     -21.015844      716.38931    
    839000   296.67749      0.016708652    4.2420222      736.06503     -19.476471      716.58856    
    840000   315.28245      0.016708652    9.4766236      782.22444     -23.535939      758.6885     
    841000   293.12318      0.016708652    10.790349      727.24668     -22.451258      704.79542    
    842000   296.73335      0.016708652    2.4491986      736.20361     -27.292987      708.91062    
    843000   312.84519      0.016708652    12.321703      776.17754     -20.704182      755.47336    
    844000   305.2325       0.016708652    10.483039      757.29025     -25.632561      731.65769    
    845000   296.30503      0.016708652    8.2756535      735.14095     -28.356765      706.78419    
    846000   288.48221      0.016708652    2.1487128      715.73231     -26.004357      689.72795    
    847000   305.85502      0.016708652    10.567201      758.83473     -26.625893      732.20884    
    848000   309.89203      0.016708652    12.472742      768.85067     -26.047911      742.80276    
    849000   293.42472      0.016708652    9.6966127      727.99481     -28.407286      699.58753    
    850000   293.28134      0.016708652    6.060017       727.63909     -29.437932      698.20115    
    851000   305.02724      0.016708652    10.038873      756.78098     -25.741841      731.03914    
    852000   302.72353      0.016708652    5.9481433      751.06541     -26.497849      724.56756    
    853000   297.99486      0.016708652    8.3492443      739.33346     -24.518579      714.81488    
    854000   305.78082      0.016708652    8.7958314      758.65065     -25.200854      733.4498     
    855000   298.23085      0.016708652    8.9907167      739.91897     -31.624899      708.29407    
    856000   295.87704      0.016708652    8.6813506      734.07909     -29.377165      704.70192    
    857000   297.13043      0.016708652    8.5063222      737.18879     -26.854979      710.33381    
    858000   303.7586       0.016708652    10.238461      753.63346     -30.769206      722.86425    
    859000   295.26226      0.016708652    8.7879715      732.5538      -26.133788      706.42001    
    860000   301.27993      0.016708652    7.5822945      747.48381     -26.976752      720.50706    
    861000   295.47939      0.016708652    8.1839505      733.09252     -24.582198      708.51033    
    862000   299.04034      0.016708652    11.290621      741.92732     -26.249879      715.67744    
    863000   300.25817      0.016708652    5.1080164      744.94881     -24.520821      720.42799    
    864000   301.47196      0.016708652    8.8864826      747.96024     -18.871839      729.0884     
    865000   312.3572       0.016708652    12.250225      774.96682     -21.398647      753.56817    
    866000   300.21066      0.016708652    8.8739773      744.83093     -22.259769      722.57116    
    867000   298.42745      0.016708652    8.5938473      740.40672     -22.495139      717.91158    
    868000   294.0119       0.016708652    9.412127       729.45162     -20.08557       709.36605    
    869000   307.97745      0.016708652    9.6309217      764.10054     -22.490148      741.61039    
    870000   299.49954      0.016708652    8.21836        743.06662     -23.07868       719.98794    
    871000   283.49929      0.016708652    11.179319      703.36955     -21.471739      681.89781    
    872000   305.83101      0.016708652    10.332173      758.77518     -22.555472      736.21971    
    873000   320.2681       0.016708652    5.2623243      794.59397     -22.957909      771.63607    
    874000   288.37697      0.016708652   -0.58174594     715.47121     -27.850145      687.62107    
    875000   292.77891      0.016708652    11.43956       726.39254     -22.023476      704.36906    
    876000   307.37719      0.016708652    9.3684268      762.61129     -20.01891       742.59238    
    877000   303.21268      0.016708652    9.2687256      752.27901     -20.207134      732.07187    
    878000   299.35349      0.016708652    3.8185481      742.70426     -21.803466      720.9008     
    879000   304.56353      0.016708652    8.4000884      755.63051     -20.794834      734.83568    
    880000   297.28339      0.016708652    9.1745313      737.56829     -21.163283      716.40501    
    881000   299.59313      0.016708652    9.5509698      743.29882     -22.504858      720.79396    
    882000   295.12673      0.016708652    7.8924649      732.21755     -22.600591      709.61696    
    883000   302.41948      0.016708652    7.3501906      750.31105     -27.882464      722.42859    
    884000   301.11576      0.016708652    9.4780973      747.07651     -28.426403      718.65011    
    885000   290.78612      0.016708652    8.1184772      721.44838     -27.031688      694.41669    
    886000   302.19089      0.016708652    9.8142188      749.74393     -24.828506      724.91543    
    887000   307.34561      0.016708652    9.593022       762.53293     -26.308389      736.22454    
    888000   297.19903      0.016708652    10.377259      737.35899     -26.494076      710.86491    
    889000   291.80332      0.016708652    8.6898501      723.97207     -23.29162       700.68045    
    890000   295.17232      0.016708652    8.9971701      732.33066     -23.9798        708.35086    
    891000   313.67943      0.016708652    8.5066641      778.24732     -20.722255      757.52507    
    892000   308.96819      0.016708652    10.258923      766.55861     -24.09705       742.46156    
    893000   292.06638      0.016708652    10.15063       724.62474     -25.4874        699.13734    
    894000   293.00336      0.016708652    9.1553601      726.94942     -24.078105      702.87131    
    895000   304.64276      0.016708652    9.7169666      755.82707     -28.384009      727.44306    
    896000   305.67175      0.016708652    7.8608724      758.38004     -23.704452      734.67559    
    897000   301.54049      0.016708652    8.5537354      748.13027     -24.251257      723.87901    
    898000   279.74729      0.016708652    4.7410105      694.06073     -24.709971      669.35076    
    899000   293.16003      0.016708652    14.934557      727.33812     -23.92883       703.40929    
    900000   320.75574      0.016708652    15.410887      795.80383     -20.974488      774.82934    
    901000   308.04603      0.016708652    8.0858085      764.27069     -19.48977       744.78092    
    902000   294.38062      0.016708652    7.5744269      730.36644     -16.969103      713.39734    
    903000   292.34772      0.016708652    12.807573      725.32276     -20.543251      704.77951    
    904000   304.84642      0.016708652    9.8612078      756.33238     -25.990836      730.34154    
    905000   300.1248       0.016708652    10.0233        744.61791     -24.036313      720.5816     
    906000   301.55315      0.016708652    7.0577042      748.16168     -26.558758      721.60292    
    907000   297.38041      0.016708652    5.8632829      737.80898     -19.879057      717.92993    
    908000   300.03999      0.016708652    10.058376      744.40747     -24.954806      719.45267    
    909000   300.40177      0.016708652    10.470107      745.30508     -26.19065       719.11443    
    910000   308.7458       0.016708652    9.5494339      766.00685     -22.25786       743.74899    
    911000   293.44306      0.016708652    8.6250958      728.04033     -19.523942      708.51638    
    912000   300.41174      0.016708652    13.517407      745.32982     -21.472585      723.85723    
    913000   305.47798      0.016708652    7.5777502      757.89929     -23.356637      734.54265    
    914000   299.60176      0.016708652    6.5660623      743.32021     -27.576708      715.74351    
    915000   296.65275      0.016708652    8.4557116      736.00365     -29.324126      706.67952    
    916000   307.15997      0.016708652    8.3234522      762.07236     -24.771508      737.30085    
    917000   315.05813      0.016708652    9.7587297      781.66789     -24.645485      757.02241    
    918000   300.55451      0.016708652    9.9390721      745.68402     -20.770746      724.91327    
    919000   298.57401      0.016708652    7.134674       740.77035     -18.998068      721.77228    
    920000   297.8065       0.016708652    9.1463463      738.86615     -20.193481      718.67267    
    921000   300.27763      0.016708652    9.647967       744.99708     -17.579595      727.41749    
    922000   304.89356      0.016708652    8.0344115      756.44932     -22.549819      733.8995     
    923000   294.12941      0.016708652    8.5311872      729.74317     -18.698485      711.04468    
    924000   300.9007       0.016708652    11.057887      746.54293     -18.821035      727.72189    
    925000   324.31313      0.016708652    9.6176746      804.62981     -28.980515      775.6493     
    926000   304.26983      0.016708652    8.4246144      754.90183     -29.1071        725.79473    
    927000   293.06956      0.016708652    6.9591396      727.11366     -31.33034       695.78332    
    928000   291.3561       0.016708652    6.574392       722.86252     -32.526587      690.33593    
    929000   301.2759       0.016708652    10.858083      747.47381     -26.582228      720.89158    
    930000   317.41597      0.016708652    6.2823082      787.51777     -25.149566      762.3682     
    931000   297.39204      0.016708652    8.318185       737.83785     -27.333882      710.50396    
    932000   293.38024      0.016708652    8.5907129      727.88446     -26.954031      700.93043    
    933000   299.59031      0.016708652    10.789176      743.29181     -25.163901      718.12791    
    934000   297.83312      0.016708652    9.6089274      738.93217     -23.733053      715.19912    
    935000   302.19149      0.016708652    9.4779838      749.74541     -24.864755      724.88065    
    936000   304.45486      0.016708652    11.46452       755.3609      -26.395182      728.96571    
    937000   287.44058      0.016708652    3.9396014      713.14801     -27.520463      685.62755    
    938000   294.61998      0.016708652    2.5335315      730.9603      -28.510911      702.44939    
    939000   311.41687      0.016708652    6.5959255      772.63383     -29.34301       743.29082    
    940000   303.89989      0.016708652    12.746922      753.98401     -36.04593       717.93808    
    941000   297.32209      0.016708652    8.2708499      737.66431     -31.390772      706.27354    
    942000   313.11495      0.016708652    9.5747308      776.84682     -36.105389      740.74143    
    943000   304.83648      0.016708652    9.2864669      756.3077      -31.001884      725.30582    
    944000   299.19508      0.016708652    8.222466       742.31124     -24.210649      718.1006     
    945000   291.43195      0.016708652    8.4452553      723.05071     -22.807281      700.24343    
    946000   315.33349      0.016708652    10.69562       782.35109     -22.907909      759.44318    
    947000   306.27052      0.016708652    11.941021      759.86559     -22.780785      737.08481    
    948000   289.74234      0.016708652    5.4297695      718.85872     -21.190768      697.66795    
    949000   310.09984      0.016708652    7.9790082      769.36626     -27.418889      741.94737    
    950000   301.3061       0.016708652    11.430171      747.54873     -26.866243      720.68249    
    951000   298.58969      0.016708652    10.511578      740.80925     -27.416806      713.39245    
    952000   287.2928       0.016708652    9.2442063      712.78135     -23.639408      689.14194    
    953000   295.95799      0.016708652    6.0718868      734.27994     -28.872009      705.40793    
    954000   316.41664      0.016708652    7.8641373      785.03841     -27.247733      757.79067    
    955000   301.91218      0.016708652    11.426027      749.05245     -26.404767      722.64768    
    956000   289.44132      0.016708652    7.5577571      718.11189     -26.681708      691.43018    
    957000   306.00939      0.016708652    8.9635151      759.21774     -25.95944       733.2583     
    958000   301.37933      0.016708652    8.8013609      747.73042     -26.228232      721.50218    
    959000   296.18858      0.016708652    8.8466418      734.85203     -21.448327      713.4037     
    960000   296.77223      0.016708652    11.722567      736.30008     -22.144785      714.15529    
    961000   300.08157      0.016708652    10.207747      744.51066     -19.086746      725.42391    
    962000   292.59639      0.016708652    9.5497677      725.9397      -20.761179      705.17852    
    963000   305.49355      0.016708652    5.5440479      757.93791     -22.996754      734.94116    
    964000   307.77327      0.016708652    8.6481717      763.59396     -25.707959      737.886      
    965000   296.38431      0.016708652    10.624835      735.33764     -29.702565      705.63508    
    966000   297.26064      0.016708652    8.6694228      737.51184     -28.93866       708.57318    
    967000   300.95549      0.016708652    8.5678254      746.67887     -23.553821      723.12505    
    968000   297.34441      0.016708652    9.9135683      737.71967     -22.268837      715.45084    
    969000   305.93026      0.016708652    9.0257648      759.02141     -24.575607      734.4458     
    970000   290.78383      0.016708652    7.3972586      721.4427      -22.181069      699.26163    
    971000   307.36217      0.016708652    6.5921586      762.57401     -21.245326      741.32868    
    972000   308.16038      0.016708652    9.6721292      764.55439     -19.65692       744.89747    
    973000   306.95535      0.016708652    9.5543252      761.56469     -17.825948      743.73874    
    974000   289.52051      0.016708652    9.726924       718.30837     -22.13701       696.17136    
    975000   308.41241      0.016708652    8.334206       765.17968     -23.953927      741.22576    
    976000   301.52475      0.016708652    9.3623538      748.09122     -23.985286      724.10593    
    977000   297.11522      0.016708652    8.424851       737.15106     -23.037488      714.11357    
    978000   308.77371      0.016708652    10.096296      766.07608     -23.793791      742.28229    
    979000   292.09631      0.016708652    9.5515015      724.69899     -22.545135      702.15385    
    980000   297.41069      0.016708652    7.9007109      737.88413     -24.338955      713.54517    
    981000   301.2743       0.016708652    9.3571981      747.46985     -21.527115      725.94273    
    982000   299.04639      0.016708652    7.4684589      741.94234     -23.959469      717.98287    
    983000   298.70972      0.016708652    6.824712       741.10704     -25.30112       715.80592    
    984000   303.47592      0.016708652    7.8483274      752.93212     -21.892609      731.03951    
    985000   288.63695      0.016708652    8.0493369      716.11623     -25.082198      691.03403    
    986000   300.75712      0.016708652    8.2934482      746.18671     -22.755732      723.43098    
    987000   307.98529      0.016708652    11.330398      764.11999     -24.537787      739.5822     
    988000   290.1486       0.016708652    6.0097663      719.86668     -27.958423      691.90825    
    989000   291.6549       0.016708652    5.9211316      723.60385     -31.555085      692.04876    
    990000   305.92783      0.016708652    9.1038319      759.01537     -24.772908      734.24246    
    991000   306.29054      0.016708652    8.6603146      759.91528     -22.501305      737.41398    
    992000   291.80019      0.016708652    5.7754799      723.96431     -22.377104      701.5872     
    993000   300.0916       0.016708652    11.387013      744.53554     -25.615179      718.92037    
    994000   303.65015      0.016708652    8.4582022      753.3644      -28.0756        725.2888     
    995000   307.10681      0.016708652    9.4693394      761.94046     -27.278226      734.66224    
    996000   303.58966      0.016708652    8.4153595      753.21432     -27.44938       725.76494    
    997000   299.28676      0.016708652    6.3010819      742.5387      -26.130428      716.40827    
    998000   304.98111      0.016708652    11.177394      756.66654     -31.863506      724.80304    
    999000   304.07164      0.016708652    12.221163      754.41011     -29.349632      725.06048    
   1000000   305.42688      0.016708652    3.666422       757.77251     -29.097306      728.6752     
   1001000   306.18176      0.016708652    10.310139      759.64538     -23.157454      736.48792    
   1002000   286.81592      0.016708652    16.615328      711.59821     -23.482084      688.11612    
   1003000   295.90843      0.016708652    6.0408255      734.15697     -22.266514      711.89046    
   1004000   315.88768      0.016708652    4.9425161      783.72605     -29.689148      754.0369     
   1005000   304.20899      0.016708652    13.192937      754.75089     -23.435101      731.31579    
   1006000   286.30372      0.016708652    9.1485558      710.32741     -26.775018      683.5524     
   1007000   291.81201      0.016708652    8.4442288      723.99364     -31.159887      692.83375    
   1008000   302.85864      0.016708652    6.7766697      751.40065     -27.68781       723.71284    
   1009000   317.36593      0.016708652    11.308457      787.39361     -22.612967      764.78064    
   1010000   293.93397      0.016708652    16.37705       729.25829     -25.962114      703.29617    
   1011000   291.31084      0.016708652    8.9164478      722.75021     -25.134743      697.61547    
   1012000   294.75971      0.016708652    9.2708387      731.30697     -25.890322      705.41665    
   1013000   290.47788      0.016708652    8.0910196      720.68362     -26.728686      693.95493    
   1014000   297.52142      0.016708652    5.556124       738.15884     -23.52247       714.63637    
   1015000   320.17373      0.016708652    9.5700828      794.35984     -22.725142      771.6347     
   1016000   305.25039      0.016708652    9.2359556      757.33463     -19.697711      737.63692    
   1017000   302.11671      0.016708652    9.7726401      749.55988     -17.510355      732.04952    
   1018000   302.32666      0.016708652    9.2394018      750.08079     -20.301084      729.7797     
   1019000   285.0907       0.016708652    8.3574745      707.31788     -23.05362       684.26426    
   1020000   301.61687      0.016708652    9.1669556      748.31977     -23.989876      724.32989    
   1021000   295.50527      0.016708652    9.1202355      733.15672     -26.072648      707.08407    
   1022000   301.47615      0.016708652    9.9812709      747.97065     -24.929122      723.04153    
   1023000   291.68709      0.016708652    7.000449       723.68372     -27.134675      696.54904    
   1024000   285.93432      0.016708652    7.9022646      709.41094     -29.140654      680.27029    
   1025000   312.71136      0.016708652    9.5319003      775.8455      -28.119831      747.72567    
   1026000   307.11954      0.016708652    12.063935      761.97205     -27.358071      734.61398    
   1027000   305.2956       0.016708652    8.1759184      757.44681     -24.745802      732.70101    
   1028000   298.21845      0.016708652    7.28235        739.88819     -30.532758      709.35543    
   1029000   295.22489      0.016708652    9.495607       732.46108     -24.458349      708.00273    
   1030000   319.49595      0.016708652    10.822088      792.67826     -29.379172      763.29909    
   1031000   298.91126      0.016708652    7.0019526      741.60707     -25.856197      715.75088    
   1032000   293.31638      0.016708652    4.0578895      727.72603     -21.382475      706.34355    
   1033000   306.08682      0.016708652    12.250541      759.40983     -23.221002      736.18883    
   1034000   304.52858      0.016708652    14.532337      755.5438      -21.398016      734.14578    
   1035000   304.64468      0.016708652    14.111757      755.83185     -21.21204       734.61981    
   1036000   307.19383      0.016708652    5.1338179      762.15635     -20.903841      741.25251    
   1037000   297.46373      0.016708652    5.3955342      738.01571     -19.383989      718.63172    
   1038000   299.7203       0.016708652    9.8545224      743.61434     -22.318214      721.29612    
   1039000   290.60621      0.016708652    13.718627      721.00201     -19.330246      701.67176    
   1040000   296.25085      0.016708652    14.46977       735.00652     -20.099552      714.90697    
   1041000   305.11265      0.016708652    11.711747      756.9929      -18.982682      738.01021    
   1042000   304.2208       0.016708652    11.473447      754.7802      -25.110195      729.67       
   1043000   306.33018      0.016708652    12.535068      760.01361     -24.812529      735.20108    
   1044000   300.78195      0.016708652    0.9075455      746.2483      -25.242443      721.00585    
   1045000   300.76037      0.016708652    5.8220373      746.19476     -27.25235       718.94241    
   1046000   295.24321      0.016708652    12.973207      732.50655     -24.528087      707.97846    
   1047000   303.92103      0.016708652    6.9471017      754.03645     -26.837895      727.19856    
   1048000   288.66031      0.016708652    7.0464806      716.17418     -25.584137      690.59004    
   1049000   288.94558      0.016708652    9.1109728      716.88195     -27.364385      689.51757    
   1050000   300.95584      0.016708652    17.605819      746.67974     -22.552722      724.12701    
   1051000   302.79473      0.016708652    4.0472437      751.24208     -26.172809      725.06927    
   1052000   299.61698      0.016708652    6.3653129      743.358       -23.288858      720.06914    
   1053000   289.40851      0.016708652    10.514188      718.0305      -29.325227      688.70527    
   1054000   296.27311      0.016708652    16.575195      735.06175     -25.921361      709.14039    
   1055000   299.3687       0.016708652    9.0865912      742.74199     -23.99005       718.75194    
   1056000   302.38017      0.016708652   -2.5754541      750.21353     -25.53089       724.68264    
   1057000   297.39631      0.016708652    11.078417      737.84844     -25.976379      711.87206    
   1058000   299.7162       0.016708652    10.341061      743.60416     -32.318126      711.28603    
   1059000   293.12011      0.016708652    7.68696        727.23908     -26.457016      700.78207    
   1060000   305.84582      0.016708652    9.2282013      758.81191     -27.589382      731.22253    
   1061000   305.18023      0.016708652    10.333087      757.16057     -24.294233      732.86634    
   1062000   298.51225      0.016708652    9.331201       740.61711     -27.263441      713.35367    
   1063000   289.70027      0.016708652    9.7921956      718.75435     -23.496049      695.2583     
   1064000   299.63104      0.016708652    9.5590914      743.39287     -24.16815       719.22472    
   1065000   294.95966      0.016708652    8.779114       731.80306     -25.481165      706.32189    
   1066000   292.3662       0.016708652    7.7739713      725.36861     -26.878897      698.48971    
   1067000   295.51835      0.016708652    10.064656      733.18917     -27.061672      706.1275     
   1068000   299.29964      0.016708652    13.379496      742.57067     -26.161449      716.40922    
   1069000   293.60858      0.016708652    10.865744      728.45099     -25.601535      702.84945    
   1070000   310.5105       0.016708652    2.0685445      770.3851      -25.63959       744.74551    
   1071000   293.3938       0.016708652    8.9879063      727.9181      -24.602243      703.31585    
   1072000   292.79196      0.016708652    14.942819      726.42492     -28.101842      698.32308    
   1073000   311.33234      0.016708652    10.610639      772.42411     -29.359554      743.06456    
   1074000   305.58212      0.016708652    4.533773       758.15766     -29.259347      728.89831    
   1075000   289.13855      0.016708652    6.6258558      717.36071     -23.363271      693.99744    
   1076000   295.99248      0.016708652    13.831821      734.36549     -27.683945      706.68155    
   1077000   300.38046      0.016708652    13.71224       745.2522      -25.065561      720.18664    
   1078000   305.86857      0.016708652    7.0417517      758.86836     -28.700394      730.16797    
   1079000   293.86517      0.016708652    5.2216359      729.0876      -26.860047      702.22755    
   1080000   291.99223      0.016708652    22.769528      724.44076     -26.679873      697.76089    
   1081000   309.07191      0.016708652    12.375356      766.81593     -26.24201       740.57392    
   1082000   308.13168      0.016708652    7.314299       764.48318     -27.178118      737.30507    
   1083000   289.05187      0.016708652    10.323419      717.14565     -25.677551      691.4681     
   1084000   301.54928      0.016708652    14.296563      748.15206     -23.42496       724.7271     
   1085000   313.65278      0.016708652    10.004155      778.18119     -22.61497       755.56622    
   1086000   294.7826       0.016708652    7.4270742      731.36376     -22.703285      708.66048    
   1087000   296.55397      0.016708652    18.963628      735.75857     -20.016021      715.74255    
   1088000   300.60623      0.016708652    8.4285229      745.81234     -26.057894      719.75445    
   1089000   293.48433      0.016708652    3.1401181      728.14272     -27.558043      700.58468    
   1090000   296.302        0.016708652    11.442727      735.13343     -29.714258      705.41917    
   1091000   298.00222      0.016708652    12.473357      739.35173     -30.989236      708.36249    
   1092000   310.96267      0.016708652    10.811087      771.50696     -29.114422      742.39254    
   1093000   314.38695      0.016708652    8.4895258      780.00268     -27.743191      752.25949    
   1094000   292.39876      0.016708652    9.035857       725.44938     -26.979249      698.47013    
   1095000   296.03668      0.016708652    10.869284      734.47516     -26.845184      707.62998    
   1096000   291.57756      0.016708652    7.3941108      723.41197     -23.914806      699.49717    
   1097000   308.40741      0.016708652    8.8731284      765.16728     -27.377285      737.78999    
   1098000   302.99599      0.016708652    9.5026064      751.7414      -29.988162      721.75323    
   1099000   287.84194      0.016708652    8.04334        714.14378     -27.84086       686.30292    
   1100000   305.02042      0.016708652    10.948978      756.76407     -28.227213      728.53686    
   1101000   319.91915      0.016708652    9.8601216      793.72824     -24.725696      769.00254    
   1102000   291.97355      0.016708652    5.3690605      724.39443     -27.542303      696.85213    
   1103000   293.04224      0.016708652    10.572298      727.04588     -21.695372      705.35051    
   1104000   303.58098      0.016708652    8.7578398      753.19277     -28.412114      724.78066    
   1105000   303.76256      0.016708652    7.6865544      753.64329     -29.572867      724.07042    
   1106000   296.80502      0.016708652    7.6415184      736.38144     -28.974233      707.4072     
   1107000   281.89187      0.016708652    7.6617331      699.38149     -29.125613      670.25587    
   1108000   304.83357      0.016708652    8.4874858      756.30048     -32.226624      724.07386    
   1109000   304.77192      0.016708652    10.66804       756.14753     -30.781516      725.36601    
   1110000   298.58811      0.016708652    8.0830558      740.80534     -32.749375      708.05596    
   1111000   295.17353      0.016708652    8.0561449      732.33366     -35.22855       697.10511    
   1112000   300.93187      0.016708652    7.8180306      746.62027     -30.711583      715.90868    
   1113000   328.58397      0.016708652    9.8453126      815.2259      -30.239492      784.98641    
   1114000   295.94419      0.016708652    8.6781354      734.2457      -33.109057      701.13664    
   1115000   290.65811      0.016708652    8.6500264      721.13079     -31.077308      690.05349    
   1116000   310.89359      0.016708652    13.366281      771.33557     -30.276001      741.05957    
   1117000   312.08773      0.016708652    3.1083063      774.29826     -30.766485      743.53177    
   1118000   300.39366      0.016708652    9.4926769      745.28495     -29.290198      715.99475    
   1119000   296.13762      0.016708652    12.702856      734.7256      -25.698752      709.02684    
   1120000   299.83183      0.016708652    8.7065566      743.89103     -23.902811      719.98822    
   1121000   291.2223       0.016708652    5.0839816      722.53054     -25.190335      697.34021    
   1122000   299.44932      0.016708652    9.9399435      742.94202     -23.66172       719.2803     
   1123000   293.57651      0.016708652    8.8706965      728.37142     -27.258917      701.11251    
   1124000   302.55942      0.016708652    8.9446977      750.65825     -31.426808      719.23144    
   1125000   299.7669       0.016708652    5.9570999      743.72995     -26.678189      717.05176    
   1126000   301.54759      0.016708652    9.5234747      748.14789     -25.265029      722.88286    
   1127000   298.70653      0.016708652    9.5704397      741.09914     -26.790466      714.30867    
   1128000   314.52648      0.016708652    6.3709118      780.34887     -21.670921      758.67795    
   1129000   297.45621      0.016708652    9.2587433      737.99705     -22.410286      715.58676    
   1130000   295.68175      0.016708652    12.352866      733.59457     -23.663672      709.9309     
   1131000   307.72751      0.016708652    10.244566      763.48045     -24.181662      739.29878    
   1132000   304.59556      0.016708652    9.7940859      755.70997     -25.769294      729.94068    
   1133000   303.9486       0.016708652    8.8628428      754.10485     -23.427664      730.67719    
   1134000   302.25048      0.016708652    9.0987069      749.89178     -25.846365      724.04542    
   1135000   299.67532      0.016708652    8.8434657      743.50273     -24.710027      718.79271    
   1136000   286.76792      0.016708652    8.0418446      711.47913     -20.66511       690.81402    
   1137000   320.09512      0.016708652    9.7072777      794.16481     -23.498803      770.66601    
   1138000   303.7106       0.016708652    8.5419959      753.51437     -26.621835      726.89253    
   1139000   283.56071      0.016708652    8.887271       703.52194     -28.48416       675.03778    
   1140000   306.18188      0.016708652    12.989184      759.64567     -27.588173      732.0575     
   1141000   304.44239      0.016708652    7.3752408      755.32997     -23.838631      731.49134    
   1142000   283.6248       0.016708652    9.1122369      703.68096     -24.528363      679.15259    
   1143000   295.62084      0.016708652    8.2797398      733.44345     -22.855858      710.5876     
   1144000   296.55657      0.016708652    12.172562      735.76503     -25.30931       710.45572    
   1145000   313.80613      0.016708652    10.889819      778.56167     -26.798143      751.76353    
   1146000   311.869        0.016708652    8.4424481      773.7556      -25.159372      748.59623    
   1147000   285.30115      0.016708652    3.0907054      707.84001     -25.778609      682.0614     
   1148000   300.56459      0.016708652    10.370508      745.70904     -26.353727      719.35531    
   1149000   311.97646      0.016708652    9.3058525      774.0222      -29.497778      744.52442    
   1150000   302.29027      0.016708652    6.7138011      749.99049     -27.419558      722.57094    
   1151000   297.96393      0.016708652    9.419749       739.25672     -30.982473      708.27425    
   1152000   319.68626      0.016708652    10.635655      793.15042     -27.339433      765.81098    
   1153000   298.83882      0.016708652    9.0212977      741.42735     -28.842222      712.58513    
   1154000   300.17481      0.016708652    11.167054      744.74197     -25.223263      719.5187     
   1155000   302.42902      0.016708652    3.4597357      750.33473     -25.29067       725.04406    
   1156000   298.94337      0.016708652    6.8265043      741.68674     -26.295289      715.39145    
   1157000   305.8373       0.016708652    15.397538      758.79077     -24.04547       734.7453     
   1158000   296.56059      0.016708652    8.4832191      735.775       -27.775614      707.99939    
   1159000   302.41569      0.016708652    7.3080207      750.30166     -28.585331      721.71633    
   1160000   294.11482      0.016708652    7.8161696      729.70697     -31.802578      697.9044     
   1161000   315.71564      0.016708652    13.07371       783.2992      -28.893029      754.40617    
   1162000   299.41778      0.016708652    10.810299      742.86377     -26.764813      716.09895    
   1163000   289.97507      0.016708652    7.3038837      719.43615     -24.460889      694.97526    
   1164000   301.43577      0.016708652    7.2198565      747.87045     -24.303859      723.56659    
   1165000   308.15484      0.016708652    7.8826955      764.54065     -27.182878      737.35777    
   1166000   298.70895      0.016708652    15.332652      741.10513     -25.824878      715.28025    
   1167000   288.33524      0.016708652    2.203492       715.36767     -27.83967       687.528      
   1168000   314.5216       0.016708652    9.7581638      780.33675     -24.977299      755.35945    
   1169000   297.87079      0.016708652    15.133323      739.02565     -24.704547      714.32111    
   1170000   298.99133      0.016708652   -5.231243       741.80572     -22.004806      719.80092    
   1171000   303.24692      0.016708652    13.327026      752.36396     -25.729291      726.63467    
   1172000   287.4968       0.016708652    17.506354      713.28748     -29.906078      683.3814     
   1173000   298.52167      0.016708652    16.415905      740.6405      -27.823143      712.81735    
   1174000   298.81643      0.016708652    5.2779045      741.3718      -25.846596      715.5252     
   1175000   306.50719      0.016708652    12.77443       760.45279     -27.188663      733.26413    
   1176000   299.12269      0.016708652    18.802752      742.13164     -31.209251      710.92239    
   1177000   291.22635      0.016708652    5.6171969      722.54061     -36.919338      685.62127    
   1178000   298.22843      0.016708652    4.3889683      739.91295     -33.189537      706.72341    
   1179000   308.51198      0.016708652    6.1489784      765.42672     -29.703273      735.72344    
   1180000   305.43174      0.016708652    17.77776       757.78457     -31.851319      725.93325    
   1181000   295.13377      0.016708652    9.9961717      732.23501     -27.969893      704.26512    
   1182000   282.87859      0.016708652    1.811887       701.82958     -29.780449      672.04913    
   1183000   304.06574      0.016708652    4.8365031      754.39548     -29.526709      724.86877    
   1184000   307.76641      0.016708652    21.32913       763.57695     -30.204749      733.3722     
   1185000   289.801        0.016708652    7.318208       719.00426     -27.918945      691.08531    
   1186000   292.98077      0.016708652    8.1781872      726.89336     -25.986336      700.90702    
   1187000   310.35103      0.016708652    11.797603      769.98946     -26.235136      743.75432    
   1188000   296.24142      0.016708652    9.4722724      734.98313     -29.528855      705.45427    
   1189000   286.58182      0.016708652    8.4749943      711.01739     -25.445823      685.57156    
   1190000   308.83053      0.016708652    9.0111759      766.21705     -23.905705      742.31134    
   1191000   295.35276      0.016708652    8.5183353      732.77834     -24.410241      708.3681     
   1192000   299.52685      0.016708652    9.5600737      743.13438     -26.496635      716.63774    
   1193000   302.01338      0.016708652    8.1324066      749.30353     -27.53171       721.77182    
   1194000   304.94873      0.016708652    9.9109776      756.58619     -23.070954      733.51524    
   1195000   320.73262      0.016708652    9.3703686      795.74647     -22.840842      772.90562    
   1196000   288.36928      0.016708652    5.3877949      715.45213     -21.515347      693.93679    
   1197000   294.56099      0.016708652    15.451758      730.81393     -22.499797      708.31414    
   1198000   305.91518      0.016708652    9.6128391      758.984       -24.652476      734.33152    
   1199000   304.85249      0.016708652    1.004987       756.34743     -24.490335      731.85709    
   1200000   296.32541      0.016708652    8.8889897      735.19152     -23.028328      712.16319    
   1201000   306.37419      0.016708652    17.838257      760.1228      -27.852571      732.27023    
   1202000   310.80721      0.016708652    12.768157      771.12126     -26.326746      744.79452    
   1203000   298.00203      0.016708652   -3.1854105      739.35126     -25.430997      713.92027    
   1204000   293.28787      0.016708652    11.47931       727.65528     -25.286025      702.36926    
   1205000   304.4223       0.016708652    4.1715629      755.28013     -22.572221      732.70791    
   1206000   304.77844      0.016708652    5.0064225      756.16371     -21.700503      734.4632     
   1207000   303.06687      0.016708652    4.0226199      751.91725     -21.615382      730.30187    
   1208000   278.42983      0.016708652    8.335527       690.79207     -25.229934      665.56214    
   1209000   293.36647      0.016708652    12.282403      727.8503      -24.401531      703.44877    
   1210000   309.14312      0.016708652    11.753627      766.99261     -20.735206      746.2574     
   1211000   309.36417      0.016708652    8.977454       767.54103     -23.2562        744.28483    
   1212000   297.8136       0.016708652    9.6342243      738.88375     -27.693896      711.18986    
   1213000   297.83093      0.016708652    7.4124294      738.92675     -29.985546      708.9412     
   1214000   297.46461      0.016708652    10.214026      738.01789     -31.871567      706.14632    
   1215000   303.92939      0.016708652    9.3266366      754.05718     -31.147274      722.90991    
   1216000   299.22178      0.016708652    8.4411113      742.37749     -34.872432      707.50506    
   1217000   281.78072      0.016708652    7.6686465      699.10573     -30.066204      669.03952    
   1218000   309.60257      0.016708652    9.7027854      768.1325      -28.606731      739.52577    
   1219000   302.94843      0.016708652    9.3277773      751.6234      -27.359122      724.26428    
   1220000   301.53098      0.016708652    9.0025774      748.10667     -27.477056      720.62961    
   1221000   308.00647      0.016708652    8.4679421      764.17255     -27.081793      737.09075    
   1222000   291.83078      0.016708652    7.8382832      724.04021     -27.546448      696.49376    
   1223000   289.66276      0.016708652    8.9810434      718.6613      -25.998438      692.66286    
   1224000   297.69357      0.016708652    12.178599      738.58596     -23.483598      715.10236    
   1225000   316.03683      0.016708652    13.221791      784.09608     -23.676362      760.41972    
   1226000   299.35661      0.016708652    8.7237752      742.71201     -23.8529        718.85911    
   1227000   297.85923      0.016708652    6.7323136      738.99695     -21.672988      717.32396    
   1228000   302.31488      0.016708652    8.6403642      750.05155     -23.282085      726.76947    
   1229000   293.72841      0.016708652    8.4991362      728.74827     -24.219683      704.52859    
   1230000   316.01915      0.016708652    8.6940132      784.05223     -27.368715      756.68351    
   1231000   304.58139      0.016708652    7.9762758      755.67483     -26.410601      729.26423    
   1232000   287.14055      0.016708652    9.7870651      712.40362     -26.711095      685.69253    
   1233000   302.27517      0.016708652    9.6066624      749.95303     -31.351779      718.60125    
   1234000   315.15959      0.016708652    5.9396144      781.91964     -30.416172      751.50346    
   1235000   314.64863      0.016708652    8.8204475      780.65192     -31.671426      748.98049    
   1236000   296.51435      0.016708652    10.120071      735.66028     -31.376027      704.28426    
   1237000   288.4559       0.016708652    8.7119124      715.66704     -33.769354      681.89768    
   1238000   318.34014      0.016708652    8.5821777      789.81067     -35.054951      754.75571    
   1239000   291.61246      0.016708652    8.8659471      723.49856     -28.881528      694.61703    
   1240000   294.38556      0.016708652    8.5054135      730.37868     -30.332248      700.04644    
   1241000   300.51927      0.016708652    10.450557      745.59659     -31.507203      714.08939    
   1242000   297.382        0.016708652    7.1331511      737.81293     -27.59213       710.2208     
   1243000   296.30162      0.016708652    9.2825061      735.13248     -22.219548      712.91293    
   1244000   296.11424      0.016708652    8.7951667      734.66758     -26.239048      708.42854    
   1245000   291.28097      0.016708652    9.974654       722.67613     -25.782138      696.89399    
   1246000   303.8163       0.016708652    8.4602453      753.77662     -27.95306       725.82356    
   1247000   299.05886      0.016708652    8.9371875      741.97326     -24.180532      717.79273    
   1248000   307.34214      0.016708652    9.7059493      762.52432     -19.839536      742.68479    
   1249000   300.74687      0.016708652    9.0641295      746.16128     -25.019583      721.1417     
   1250000   295.41024      0.016708652    8.8553169      732.92095     -23.993         708.92795    
   1251000   285.3698       0.016708652    8.2132046      708.01033     -22.257075      685.75326    
   1252000   305.25888      0.016708652    12.036713      757.3557      -23.214518      734.14118    
   1253000   298.11604      0.016708652    7.8668969      739.63412     -18.688904      720.94522    
   1254000   289.37048      0.016708652    7.9225985      717.93614     -22.961765      694.97437    
   1255000   301.63194      0.016708652    13.277669      748.35716     -24.644687      723.71247    
   1256000   305.92784      0.016708652    9.2032434      759.01539     -26.192083      732.82331    
   1257000   304.66482      0.016708652    8.4167233      755.88182     -25.474953      730.40686    
   1258000   306.93664      0.016708652    1.6796242      761.51826     -26.466044      735.05222    
   1259000   295.82097      0.016708652    5.8294095      733.93998     -26.879843      707.06014    
   1260000   296.44097      0.016708652    8.8629775      735.47821     -28.497265      706.98094    
   1261000   289.25386      0.016708652    21.760285      717.64681     -31.481842      686.16497    
   1262000   304.58792      0.016708652    10.946474      755.69103     -30.856225      724.8348     
   1263000   297.15809      0.016708652    5.1679075      737.25741     -24.354892      712.90251    
   1264000   308.16254      0.016708652    12.498415      764.55977     -25.223645      739.33612    
   1265000   296.07932      0.016708652    9.0768164      734.58097     -24.028969      710.552      
   1266000   298.81993      0.016708652    10.367956      741.38049     -28.474008      712.90649    
   1267000   309.46555      0.016708652    9.0544627      767.79255     -25.677353      742.1152     
   1268000   308.91111      0.016708652    9.0768926      766.41698     -31.814737      734.60224    
   1269000   287.17268      0.016708652    5.090724       712.48333     -26.962577      685.52075    
   1270000   295.82223      0.016708652    11.464835      733.9431      -30.801436      703.14166    
   1271000   306.63436      0.016708652    12.222115      760.7683      -28.959646      731.80865    
   1272000   293.03697      0.016708652    4.6728119      727.0328      -28.474706      698.5581     
   1273000   290.28648      0.016708652    9.0913957      720.20877     -25.295719      694.91305    
   1274000   317.77779      0.016708652    8.8774932      788.41545     -29.404196      759.01126    
   1275000   301.4876       0.016708652    8.0469604      747.99905     -26.990778      721.00827    
   1276000   292.43019      0.016708652    8.5304682      725.52736     -29.266491      696.26086    
   1277000   297.07318      0.016708652    9.7113139      737.04675     -26.076065      710.97069    
   1278000   304.94525      0.016708652    10.929405      756.57756     -27.746588      728.83098    
   1279000   309.78294      0.016708652    5.7751894      768.58002     -27.895663      740.68436    
   1280000   295.01147      0.016708652    7.5616135      731.93159     -27.241288      704.69031    
   1281000   290.56715      0.016708652    8.0972724      720.9051      -22.809296      698.0958     
   1282000   304.38386      0.016708652    10.2963        755.18475     -23.322886      731.86186    
   1283000   300.91855      0.016708652    6.1924951      746.58722     -28.074904      718.51231    
   1284000   306.041        0.016708652    8.9474864      759.29617     -25.480294      733.81587    
   1285000   299.19555      0.016708652    9.8836057      742.3124      -26.59407       715.71833    
   1286000   308.22376      0.016708652    6.9444168      764.71165     -24.761333      739.95032    
   1287000   312.36092      0.016708652    8.4692662      774.97605     -27.786692      747.18936    
   1288000   298.06638      0.016708652    9.1944315      739.51092     -29.701788      709.80913    
   1289000   306.01602      0.016708652    10.181821      759.23417     -33.235695      725.99847    
   1290000   312.66285      0.016708652    7.5050321      775.72514     -34.527587      741.19756    
   1291000   299.65548      0.016708652    9.0204616      743.45351     -28.736539      714.71697    
   1292000   300.75483      0.016708652    10.075213      746.18102     -28.911074      717.26994    
   1293000   301.32365      0.016708652    9.0168392      747.59228     -29.816468      717.77582    
   1294000   310.00109      0.016708652    8.7042463      769.12125     -32.702492      736.41876    
   1295000   294.82311      0.016708652    8.514563       731.46425     -26.146456      705.3178     
   1296000   291.87142      0.016708652    10.322732      724.14103     -30.41692       693.72411    
   1297000   311.9555       0.016708652    8.7478973      773.9702      -27.423149      746.54705    
   1298000   302.60713      0.016708652    8.8324978      750.77663     -24.343694      726.43293    
   1299000   300.72124      0.016708652    10.157728      746.09769     -29.631181      716.4665     
   1300000   293.94818      0.016708652    8.3887022      729.29354     -28.339434      700.9541     
   1301000   311.2998       0.016708652    10.885046      772.34337     -23.577972      748.7654     
   1302000   291.43206      0.016708652    3.7417426      723.05097     -22.134643      700.91632    
   1303000   301.53323      0.016708652    6.861641       748.11227     -23.566869      724.5454     
   1304000   297.4433       0.016708652    8.8226639      737.96503     -27.250954      710.71407    
   1305000   291.5122       0.016708652    17.114011      723.2498      -20.014524      703.23527    
   1306000   302.05797      0.016708652    8.5211898      749.41414     -25.878298      723.53584    
   1307000   302.2164       0.016708652    6.9327815      749.80721     -28.174572      721.63264    
   1308000   292.90583      0.016708652    16.881508      726.70744     -25.681144      701.0263     
   1309000   303.1424       0.016708652    13.743634      752.10466     -25.79806       726.3066     
   1310000   309.28058      0.016708652    7.5447003      767.33365     -23.457394      743.87625    
   1311000   291.99832      0.016708652    3.9001875      724.45588     -28.472436      695.98344    
   1312000   293.41794      0.016708652    9.8921183      727.978       -23.579567      704.39844    
   1313000   299.00422      0.016708652    9.5503534      741.83772     -24.178488      717.65923    
   1314000   308.24213      0.016708652    8.4647515      764.75723     -23.701118      741.05611    
   1315000   291.60591      0.016708652    7.3604422      723.4823      -27.868783      695.61352    
   1316000   284.96525      0.016708652    7.7238905      707.00665     -29.996797      677.00985    
   1317000   298.23778      0.016708652    13.555664      739.93616     -26.838775      713.09738    
   1318000   299.38173      0.016708652    0.3528309      742.77434     -23.623203      719.15113    
   1319000   296.45512      0.016708652    9.2151375      735.51333     -23.736515      711.77682    
   1320000   299.66054      0.016708652    10.710647      743.46606     -21.452107      722.01395    
   1321000   299.01699      0.016708652    7.5323891      741.86939     -25.217584      716.65181    
   1322000   287.97405      0.016708652    8.1338274      714.47155     -27.335583      687.13596    
   1323000   308.7189       0.016708652    11.691051      765.94011     -28.108765      737.83134    
   1324000   304.84676      0.016708652    9.3711069      756.3332      -26.662493      729.67071    
   1325000   286.37089      0.016708652    7.5836542      710.49406     -26.501911      683.99215    
   1326000   300.86296      0.016708652    8.1980592      746.44929     -33.389471      713.05982    
   1327000   287.6176       0.016708652    13.437815      713.58719     -31.011064      682.57613    
   1328000   290.89283      0.016708652    24.190999      721.71314     -30.618912      691.09423    
   1329000   306.25631      0.016708652    7.1235691      759.83035     -26.877378      732.95297    
   1330000   303.93495      0.016708652   -2.2011337      754.071       -26.08456       727.98644    
   1331000   290.97357      0.016708652    6.6507065      721.91346     -27.008982      694.90448    
   1332000   286.3466       0.016708652    9.6081856      710.4338      -28.489451      681.94435    
   1333000   301.42504      0.016708652    13.819297      747.84382     -27.850032      719.99379    
   1334000   304.29942      0.016708652    8.8960334      754.97526     -29.73634       725.23892    
   1335000   305.08134      0.016708652    9.7839245      756.91521     -27.005348      729.90986    
   1336000   294.83719      0.016708652    8.5319714      731.4992      -27.524287      703.97491    
   1337000   305.30521      0.016708652    8.2220897      757.47063     -25.450866      732.01976    
   1338000   306.08847      0.016708652    9.2096036      759.41394     -23.711848      735.70209    
   1339000   308.09591      0.016708652    7.1902427      764.39444     -27.548577      736.84586    
   1340000   293.49958      0.016708652    8.6000452      728.18056     -24.00571       704.17485    
   1341000   292.18469      0.016708652    16.789025      724.91827     -24.583928      700.33434    
   1342000   316.18834      0.016708652    5.23506        784.47199     -28.263763      756.20822    
   1343000   302.40057      0.016708652    7.0535185      750.26416     -23.338805      726.92536    
   1344000   287.94931      0.016708652    1.6341718      714.41017     -26.666936      687.74323    
   1345000   288.42799      0.016708652    13.734225      715.59779     -24.655416      690.94238    
   1346000   292.74408      0.016708652    11.088363      726.30614     -30.64463       695.66151    
   1347000   314.08123      0.016708652    11.419909      779.24418     -34.865371      744.37881    
   1348000   300.41405      0.016708652    8.853333       745.33554     -31.391783      713.94375    
   1349000   299.8993       0.016708652    5.0040271      744.05844     -32.993258      711.06518    
   1350000   290.09984      0.016708652    6.6882784      719.7457      -33.024666      686.72104    
   1351000   303.52395      0.016708652    8.8918163      753.05128     -32.86388       720.1874     
   1352000   314.88206      0.016708652    14.980313      781.23106     -36.774538      744.45652    
   1353000   294.59982      0.016708652    4.9920767      730.91027     -32.344679      698.56559    
   1354000   294.77472      0.016708652    12.521534      731.3442      -34.021438      697.32276    
   1355000   311.34327      0.016708652    9.8640438      772.45124     -32.863022      739.58822    
   1356000   291.95928      0.016708652    6.1937902      724.35903     -38.338344      686.02069    
   1357000   295.77793      0.016708652    9.0111613      733.8332      -31.256321      702.57688    
   1358000   313.47683      0.016708652    7.9681979      777.74467     -31.888195      745.85647    
   1359000   309.66528      0.016708652    4.5537483      768.2881      -29.640905      738.6472     
   1360000   284.89339      0.016708652    5.6718278      706.82835     -29.160642      677.66771    
   1361000   292.26116      0.016708652    9.357719       725.10798     -32.437606      692.67038    
   1362000   310.39269      0.016708652    9.0623073      770.09282     -30.963301      739.12952    
   1363000   296.57941      0.016708652    12.84379       735.82168     -26.395349      709.42633    
   1364000   293.57541      0.016708652    6.1978091      728.36868     -28.200231      700.16845    
   1365000   294.51536      0.016708652    10.922576      730.70072     -25.292211      705.40851    
   1366000   294.95793      0.016708652    9.4117995      731.79876     -28.648522      703.15023    
   1367000   306.14911      0.016708652    8.893636       759.56438     -23.679816      735.88457    
   1368000   305.74528      0.016708652    8.0006333      758.56246     -26.591049      731.97141    
   1369000   308.62036      0.016708652    11.461547      765.69562     -31.192945      734.50268    
   1370000   288.91002      0.016708652    7.6535753      716.79373     -35.225209      681.56853    
   1371000   305.18031      0.016708652    9.6930887      757.16076     -33.869606      723.29115    
   1372000   320.61755      0.016708652    8.7904336      795.46098     -34.572868      760.88811    
   1373000   296.56329      0.016708652    9.0367456      735.78169     -32.089786      703.69191    
   1374000   296.66925      0.016708652    8.4466816      736.04459     -32.935038      703.10955    
   1375000   313.71794      0.016708652    8.2129174      778.34286     -32.021521      746.32134    
   1376000   310.07255      0.016708652    8.8068224      769.29854     -37.118822      732.17971    
   1377000   322.86255      0.016708652    16.819955      801.03088     -30.452505      770.57837    
   1378000   284.49885      0.016708652    12.156217      705.84949     -32.655532      673.19395    
   1379000   300.45118      0.016708652    7.3380991      745.42766     -33.986706      711.44096    
   1380000   314.56332      0.016708652    8.5420838      780.44027     -30.36731       750.07296    
   1381000   307.35447      0.016708652    15.990423      762.55492     -29.508655      733.04627    
   1382000   296.14613      0.016708652    9.6788229      734.7467      -29.232839      705.51386    
   1383000   308.12332      0.016708652   -0.78911067     764.46245     -23.303751      741.1587     
   1384000   303.46554      0.016708652    11.959723      752.90637     -26.822126      726.08425    
   1385000   287.40935      0.016708652    9.5295283      713.07052     -28.154444      684.91608    
   1386000   311.16836      0.016708652    6.3751845      772.01728     -30.835296      741.18199    
   1387000   307.22695      0.016708652    19.29389       762.23853     -28.491319      733.74721    
   1388000   291.77691      0.016708652    6.7047648      723.90656     -26.348774      697.55779    
   1389000   294.82727      0.016708652    2.2042981      731.47459     -31.401233      700.07335    
   1390000   323.09623      0.016708652    8.1362065      801.61066     -26.475875      775.13479    
   1391000   294.15454      0.016708652    12.3411        729.80551     -25.999933      703.80558    
   1392000   295.4526       0.016708652    3.6828189      733.02604     -29.920809      703.10523    
   1393000   296.33282      0.016708652    0.88579016     735.20989     -27.130585      708.0793     
   1394000   296.33373      0.016708652    9.2979453      735.21216     -28.666872      706.54528    
   1395000   293.97118      0.016708652    14.169956      729.3506      -29.122448      700.22815    
   1396000   295.03444      0.016708652    3.6536077      731.98857     -22.759472      709.2291     
   1397000   303.19902      0.016708652    2.1704538      752.24512     -25.001434      727.24368    
   1398000   319.892        0.016708652    6.3557578      793.66086     -25.370473      768.29039    
   1399000   298.66822      0.016708652    10.975796      741.00409     -27.640348      713.36375    
   1400000   292.96839      0.016708652    9.8015154      726.86265     -28.132195      698.73045    
   1401000   313.51394      0.016708652    1.523008       777.83673     -28.26674       749.56999    
   1402000   311.70061      0.016708652    1.2028949      773.3378      -29.382983      743.95481    
   1403000   297.65284      0.016708652    23.366021      738.48489     -26.815822      711.66907    
   1404000   293.05448      0.016708652    11.719115      727.07625     -26.884976      700.19127    
   1405000   308.4857       0.016708652   -7.1305097      765.36152     -28.250842      737.11068    
   1406000   299.08095      0.016708652    11.363201      742.02808     -32.330287      709.6978     
   1407000   291.21853      0.016708652    10.94856       722.52121     -28.918605      693.6026     
   1408000   294.22328      0.016708652    18.993674      729.97606     -29.642233      700.33383    
   1409000   297.79256      0.016708652    9.0141944      738.83155     -26.74701       712.08454    
   1410000   305.93155      0.016708652    3.8271848      759.02462     -24.302826      734.7218     
   1411000   307.57884      0.016708652    9.6051589      763.11158     -23.269638      739.84195    
   1412000   297.73812      0.016708652    20.713547      738.69649     -27.789739      710.90675    
   1413000   301.10695      0.016708652    9.1262518      747.05464     -28.258164      718.79647    
   1414000   313.80469      0.016708652   -0.017689314    778.55809     -27.743558      750.81453    
   1415000   307.94981      0.016708652    10.674959      764.03197     -28.014271      736.0177     
   1416000   312.20578      0.016708652    9.8839146      774.59114     -24.689333      749.90181    
   1417000   304.44132      0.016708652    8.7614759      755.32731     -29.572485      725.75482    
   1418000   306.81863      0.016708652    8.7883363      761.22547     -25.993386      735.23209    
   1419000   295.07267      0.016708652    7.7885884      732.08342     -29.529821      702.5536     
   1420000   313.99092      0.016708652    7.7082704      779.02013     -29.473627      749.5465     
   1421000   305.29693      0.016708652    10.588582      757.4501      -30.042814      727.40729    
   1422000   292.50671      0.016708652    12.228347      725.71722     -30.928186      694.78904    
   1423000   294.82393      0.016708652    3.3136576      731.46629     -26.895212      704.57108    
   1424000   301.60025      0.016708652    9.7617365      748.27852     -28.681261      719.59726    
   1425000   295.8936       0.016708652    12.024972      734.12017     -28.472911      705.64725    
   1426000   296.31403      0.016708652    7.0761697      735.16327     -31.498993      703.66427    
   1427000   296.92806      0.016708652    8.8288929      736.6867      -27.61624       709.07046    
   1428000   297.03598      0.016708652    12.928201      736.95446     -23.244218      713.71024    
   1429000   302.80356      0.016708652    10.538908      751.26398     -25.616945      725.64703    
   1430000   296.33247      0.016708652    8.1636992      735.20902     -22.222506      712.98652    
   1431000   295.04171      0.016708652    5.9973103      732.00661     -19.671189      712.33542    
   1432000   304.09361      0.016708652    9.0284748      754.46462     -24.800866      729.66375    
   1433000   298.04023      0.016708652    10.540091      739.44604     -28.431389      711.01465    
   1434000   301.80864      0.016708652    8.5080488      748.79556     -27.145536      721.65002    
   1435000   291.65971      0.016708652    5.0812384      723.61577     -29.679815      693.93596    
   1436000   303.79824      0.016708652    6.4328557      753.73181     -29.779101      723.95271    
   1437000   309.46482      0.016708652    8.2270232      767.79076     -29.499405      738.29135    
   1438000   302.82411      0.016708652    14.149175      751.31497     -31.717448      719.59752    
   1439000   294.74399      0.016708652    12.886799      731.26795     -28.732953      702.535      
   1440000   290.20472      0.016708652    2.1728107      720.0059      -30.752197      689.2537     
   1441000   307.767        0.016708652    7.5049326      763.5784      -30.699235      732.87917    
   1442000   295.43006      0.016708652    15.498424      732.97013     -30.046415      702.92371    
   1443000   276.13581      0.016708652    12.164833      685.10057     -28.760554      656.34001    
   1444000   302.77176      0.016708652    3.2013128      751.18509     -27.53523       723.64986    
   1445000   316.68704      0.016708652    3.9313757      785.70927     -34.542948      751.16633    
   1446000   297.27971      0.016708652    20.494668      737.55914     -30.218798      707.34035    
   1447000   287.98789      0.016708652    13.601904      714.50588     -32.802176      681.70371    
   1448000   318.69712      0.016708652    1.4571191      790.69634     -28.824559      761.87178    
   1449000   307.41782      0.016708652    20.688338      762.71208     -30.341492      732.37059    
   1450000   282.40131      0.016708652    17.598227      700.64542     -25.489222      675.1562     
   1451000   309.39607      0.016708652    2.7320298      767.62019     -31.441658      736.17853    
   1452000   311.98368      0.016708652    8.6780993      774.0401      -30.845442      743.19466    
   1453000   296.21613      0.016708652    20.68163       734.92037     -29.504162      705.41621    
   1454000   302.283        0.016708652    13.256162      749.97245     -29.497115      720.47534    
   1455000   301.95514      0.016708652    0.79555951     749.15903     -28.027319      721.13171    
   1456000   311.41858      0.016708652    8.7179861      772.63809     -22.925344      749.71275    
   1457000   304.53213      0.016708652    8.0966641      755.55261     -30.786157      724.76646    
   1458000   298.11369      0.016708652    13.128708      739.62828     -31.304622      708.32366    
   1459000   293.15713      0.016708652    9.1678247      727.33092     -30.890336      696.44059    
   1460000   288.2441       0.016708652    6.6276795      715.14156     -24.047356      691.0942     
   1461000   300.68955      0.016708652    6.4306145      746.01907     -21.763177      724.25589    
   1462000   328.01953      0.016708652    17.892143      813.8255      -20.78793       793.03757    
   1463000   310.68674      0.016708652    10.001242      770.82237     -30.531602      740.29077    
   1464000   279.34284      0.016708652    6.8163756      693.05728     -26.179381      666.87789    
   1465000   305.03493      0.016708652    8.2248466      756.80007     -27.904667      728.8954     
   1466000   309.05955      0.016708652    9.9027723      766.78528     -29.026998      737.75828    
   1467000   290.58421      0.016708652    8.89099        720.94744     -32.440677      688.50676    
   1468000   299.76708      0.016708652    8.0490746      743.73038     -30.445613      713.28477    
   1469000   306.57352      0.016708652    8.0365192      760.61736     -31.288454      729.3289     
   1470000   305.44159      0.016708652    11.271909      757.80901     -26.662514      731.1465     
   1471000   294.26863      0.016708652    6.1903601      730.08858     -26.559632      703.52895    
   1472000   301.40689      0.016708652    8.1094347      747.7988      -29.722031      718.07677    
   1473000   301.76345      0.016708652    11.831234      748.68343     -28.572301      720.11113    
   1474000   295.33002      0.016708652    7.6470602      732.72191     -28.387075      704.33484    
   1475000   300.21524      0.016708652    8.6903206      744.84228     -26.200487      718.64179    
   1476000   303.25877      0.016708652    9.3092605      752.39337     -26.805095      725.58827    
   1477000   304.44894      0.016708652    8.7983566      755.3462      -23.302533      732.04367    
   1478000   307.42862      0.016708652    8.2657145      762.73889     -26.198478      736.54041    
   1479000   302.34694      0.016708652    10.43855       750.13109     -26.839696      723.29139    
   1480000   294.19815      0.016708652    7.826396       729.91373     -30.551466      699.36227    
   1481000   308.77776      0.016708652    8.1083332      766.08614     -27.475328      738.61081    
   1482000   303.91581      0.016708652    9.3881965      754.0235      -25.97566       728.04784    
   1483000   284.16818      0.016708652    7.9253994      705.0291      -25.069482      679.95962    
   1484000   295.70576      0.016708652    9.1969767      733.65414     -24.1648        709.48934    
   1485000   312.46541      0.016708652    12.289838      775.23529     -22.557602      752.67769    
   1486000   296.74588      0.016708652    7.6855341      736.2347      -24.136745      712.09795    
   1487000   295.35046      0.016708652    3.6861711      732.77263     -24.806352      707.96627    
   1488000   306.90989      0.016708652    18.254178      761.45189     -27.033121      734.41876    
   1489000   308.00191      0.016708652    10.000615      764.16122     -27.655088      736.50614    
   1490000   292.76974      0.016708652    8.6655852      726.3698      -27.624226      698.74558    
   1491000   306.40788      0.016708652    12.266829      760.20639     -26.617858      733.58853    
   1492000   314.50582      0.016708652    11.512603      780.29761     -31.199967      749.09765    
   1493000   299.43518      0.016708652    7.1404518      742.90693     -28.875619      714.03131    
   1494000   303.11804      0.016708652    7.7123039      752.04422     -26.125319      725.9189     
   1495000   300.44048      0.016708652    8.5746285      745.40111     -27.643054      717.75805    
   1496000   305.07216      0.016708652    9.6680353      756.89243     -27.539526      729.3529     
   1497000   293.95517      0.016708652    6.7218035      729.31089     -30.770999      698.53989    
   1498000   294.40492      0.016708652    9.6655596      730.42673     -26.937711      703.48902    
   1499000   315.81082      0.016708652    9.6385463      783.53535     -29.076581      754.45877    
   1500000   302.04388      0.016708652    14.545794      749.37919     -31.48637       717.89282    
   1501000   293.1561       0.016708652    10.429607      727.32837     -32.086317      695.24206    
   1502000   306.21926      0.016708652    8.8937839      759.73843     -33.344332      726.39409    
   1503000   306.95509      0.016708652    9.4244319      761.56403     -32.968421      728.59561    
   1504000   291.86497      0.016708652    8.9887686      724.12503     -30.136014      693.98901    
   1505000   299.10028      0.016708652    8.386652       742.07604     -26.272449      715.80359    
   1506000   312.93239      0.016708652    8.2069095      776.39389     -28.257719      748.13617    
   1507000   304.18968      0.016708652    9.5299786      754.70299     -31.290544      723.41245    
   1508000   299.80142      0.016708652    8.6726693      743.81559     -27.541452      716.27414    
   1509000   303.51886      0.016708652    8.7472514      753.03866     -26.767995      726.27066    
   1510000   292.50634      0.016708652    12.79197       725.7163      -28.357823      697.35848    
   1511000   302.23508      0.016708652    9.4929673      749.85356     -28.931014      720.92255    
   1512000   314.509        0.016708652    9.5085824      780.30551     -28.359141      751.94636    
   1513000   291.76729      0.016708652    6.6421653      723.88268     -27.178141      696.70454    
   1514000   282.89414      0.016708652    7.1198539      701.86815     -24.97164       676.89651    
   1515000   301.76581      0.016708652    11.18167       748.68928     -28.629228      720.06005    
   1516000   315.37557      0.016708652    9.4007267      782.45547     -25.646124      756.80935    
   1517000   291.78046      0.016708652    3.5210454      723.91537     -27.088308      696.82706    
   1518000   290.88753      0.016708652    9.5885342      721.69997     -27.769469      693.9305     
   1519000   306.3818       0.016708652    11.517089      760.14169     -30.323689      729.818      
   1520000   314.00401      0.016708652   -0.39864483     779.05261     -28.80927       750.24334    
   1521000   292.96751      0.016708652    8.8324315      726.86046     -28.824061      698.0364     
   1522000   292.65896      0.016708652    18.204608      726.09496     -28.260432      697.83453    
   1523000   299.26599      0.016708652    7.4668858      742.48716     -29.960545      712.52662    
   1524000   286.62931      0.016708652    7.0775277      711.13522     -27.083253      684.05197    
   1525000   294.37767      0.016708652    8.3393077      730.35912     -25.97729       704.38183    
   1526000   302.95605      0.016708652    11.059309      751.6423      -28.247169      723.39513    
   1527000   297.83148      0.016708652    4.4555222      738.92812     -31.234683      707.69343    
   1528000   299.08422      0.016708652    8.984324       742.03621     -28.156308      713.8799     
   1529000   303.3359       0.016708652    12.670878      752.58472     -27.264659      725.32006    
   1530000   307.00123      0.016708652    5.6889816      761.67852     -30.309808      731.36871    
   1531000   296.47264      0.016708652    7.2511036      735.55679     -27.520219      708.03657    
   1532000   293.43831      0.016708652    8.7469788      728.02853     -28.702815      699.32572    
   1533000   281.22274      0.016708652    11.771883      697.72137     -28.758487      668.96288    
   1534000   300.85989      0.016708652    1.4282495      746.44167     -24.806407      721.63527    
   1535000   297.96374      0.016708652    7.8300939      739.25626     -29.237233      710.01903    
   1536000   296.78122      0.016708652    9.0666671      736.32239     -26.175787      710.1466     
   1537000   292.12294      0.016708652    10.684584      724.76507     -25.044701      699.72037    
   1538000   305.27298      0.016708652    9.2693994      757.39068     -28.669978      728.7207     
   1539000   299.90699      0.016708652    3.8118106      744.0775      -28.683007      715.3945     
   1540000   293.35167      0.016708652    8.4462         727.81358     -29.539579      698.274      
   1541000   291.60218      0.016708652    9.7484237      723.47306     -36.837083      686.63597    
   1542000   291.06971      0.016708652    11.387588      722.15198     -32.667771      689.48421    
   1543000   303.96487      0.016708652    9.3005444      754.14521     -29.614187      724.53103    
   1544000   318.85623      0.016708652    8.1946472      791.09108     -26.02981       765.06127    
   1545000   305.68799      0.016708652    9.1996737      758.42032     -29.774453      728.64587    
   1546000   292.02434      0.016708652    5.7644931      724.52043     -27.489335      697.03109    
   1547000   298.26442      0.016708652    7.9807143      740.00225     -30.86006       709.14219    
   1548000   292.65788      0.016708652    10.23801       726.09227     -28.624501      697.46777    
   1549000   292.59742      0.016708652    7.7043374      725.94227     -25.839008      700.10327    
   1550000   310.49423      0.016708652    7.8797586      770.34475     -27.903365      742.44138    
   1551000   299.43121      0.016708652    12.637975      742.89709     -25.163394      717.7337     
   1552000   297.42593      0.016708652    7.5735006      737.92193     -31.32502       706.59691    
   1553000   306.4931       0.016708652    9.4154028      760.41782     -27.722216      732.6956     
   1554000   294.44794      0.016708652    15.179646      730.53345     -35.769753      694.7637     
   1555000   291.82499      0.016708652    8.5308796      724.02585     -36.551162      687.47468    
   1556000   299.55341      0.016708652    8.5350726      743.20027     -36.94996       706.25031    
   1557000   294.53032      0.016708652    8.6699572      730.73785     -35.187706      695.55014    
   1558000   298.57808      0.016708652    9.4426502      740.78044     -34.762584      706.01785    
   1559000   305.61031      0.016708652    8.653696       758.22761     -37.395664      720.83195    
   1560000   293.80632      0.016708652    8.013711       728.94157     -33.491969      695.4496     
   1561000   299.3959       0.016708652    10.10312       742.80948     -29.885574      712.92391    
   1562000   295.60936      0.016708652    14.275533      733.41497     -32.726639      700.68833    
   1563000   300.92515      0.016708652    7.1128119      746.60358     -31.994538      714.60904    
   1564000   310.26347      0.016708652    9.4374204      769.77222     -30.95913       738.81309    
   1565000   295.16931      0.016708652    8.4016883      732.32318     -35.48813       696.83506    
   1566000   296.20564      0.016708652    8.1970499      734.89436     -35.390077      699.50428    
   1567000   308.4986       0.016708652    9.2563472      765.39353     -32.095094      733.29843    
   1568000   313.33896      0.016708652    8.3958362      777.4026      -30.029186      747.37341    
   1569000   297.54779      0.016708652    8.3990188      738.22427     -28.375302      709.84897    
   1570000   298.42627      0.016708652    9.0469103      740.40379     -25.848412      714.55538    
   1571000   299.11353      0.016708652    9.2042295      742.10891     -23.767354      718.34156    
   1572000   306.7468       0.016708652    8.4711897      761.04727     -25.172586      735.87468    
   1573000   323.15446      0.016708652    9.7969651      801.75513     -29.214462      772.54067    
   1574000   299.29021      0.016708652    10.306556      742.54726     -25.053215      717.49404    
   1575000   285.08415      0.016708652    8.5704632      707.30164     -29.567834      677.73381    
   1576000   299.60799      0.016708652    8.5914215      743.33569     -33.066389      710.2693     
   1577000   308.78542      0.016708652    10.147919      766.10513     -27.008686      739.09644    
   1578000   307.46605      0.016708652    11.878702      762.83173     -27.301682      735.53005    
   1579000   296.77467      0.016708652    6.5331223      736.30613     -32.309666      703.99646    
   1580000   299.77568      0.016708652    6.2441222      743.75173     -32.32548       711.42625    
   1581000   297.27717      0.016708652    11.561044      737.55284     -33.090374      704.46247    
   1582000   283.82604      0.016708652    17.598612      704.18022     -31.039576      673.14065    
   1583000   305.25456      0.016708652    11.340507      757.34499     -30.492837      726.85215    
   1584000   305.99399      0.016708652    7.5707351      759.17952     -31.23136       727.94816    
   1585000   285.37328      0.016708652    6.4196326      708.01898     -33.219674      674.7993     
   1586000   299.53602      0.016708652    9.1144528      743.15712     -30.49746       712.65966    
   1587000   303.84646      0.016708652    16.022291      753.85145     -31.500199      722.35125    
   1588000   316.12999      0.016708652    11.120773      784.32723     -32.04752       752.27971    
   1589000   291.87384      0.016708652    3.3780131      724.14703     -27.583201      696.56383    
   1590000   305.76698      0.016708652    14.741894      758.6163      -26.259042      732.35725    
   1591000   314.84752      0.016708652    6.8812295      781.14538     -27.369149      753.77624    
   1592000   296.71909      0.016708652    5.4851327      736.16824     -28.099856      708.06838    
   1593000   285.50444      0.016708652    3.5297302      708.34438     -27.881631      680.46275    
   1594000   305.4757       0.016708652    11.500236      757.89363     -24.295686      733.59794    
   1595000   320.12974      0.016708652    9.0667183      794.25071     -25.35311       768.8976     
   1596000   308.90629      0.016708652    8.8829776      766.40501     -21.748865      744.65615    
   1597000   301.45397      0.016708652    4.5081088      747.9156      -24.044356      723.87124    
   1598000   300.66486      0.016708652    19.982504      745.9578      -22.956248      723.00155    
   1599000   302.74182      0.016708652    15.471893      751.1108      -27.232306      723.87849    
   1600000   306.56407      0.016708652    7.8377698      760.5939      -29.480674      731.11323    
   1601000   297.66262      0.016708652   -2.4888519      738.50917     -33.682994      704.82618    
   1602000   290.38144      0.016708652    17.137964      720.44436     -24.307414      696.13694    
   1603000   296.49212      0.016708652    26.372047      735.60512     -25.306778      710.29834    
   1604000   308.85098      0.016708652    4.2157174      766.26779     -26.164307      740.10349    
   1605000   298.45441      0.016708652    8.9902001      740.47361     -31.478427      708.99518    
   1606000   288.32968      0.016708652    24.131357      715.35388     -28.664412      686.68947    
   1607000   297.50409      0.016708652    15.093326      738.11585     -27.157393      710.95846    
   1608000   305.64913      0.016708652   -7.8983328      758.32393     -32.976222      725.34771    
   1609000   300.96434      0.016708652    8.0517737      746.70082     -31.45866       715.24216    
   1610000   297.19524      0.016708652    24.048273      737.34959     -30.794435      706.55516    
   1611000   302.72336      0.016708652   -3.4052837      751.06501     -30.558367      720.50664    
   1612000   297.43291      0.016708652    1.6200864      737.93926     -25.357258      712.582      
   1613000   300.9208       0.016708652    20.677938      746.59281     -28.894318      717.69849    
   1614000   315.41428      0.016708652   -7.5103073      782.55152     -32.592928      749.9586     
   1615000   309.21609      0.016708652   -23.667775      767.17364     -33.224752      733.94888    
   1616000   294.09594      0.016708652    17.981385      729.66013     -34.093554      695.56657    
   1617000   299.62855      0.016708652    23.548531      743.38668     -38.102945      705.28374    
   1618000   296.79833      0.016708652    6.6603561      736.36483     -29.035489      707.32934    
   1619000   314.04296      0.016708652   -0.73877106     779.14924     -30.010414      749.13882    
   1620000   292.80009      0.016708652    9.7141583      726.44509     -30.132823      696.31227    
   1621000   288.34675      0.016708652    25.197988      715.39624     -31.007623      684.38862    
   1622000   297.85425      0.016708652    12.725526      738.98459     -32.373421      706.61117    
   1623000   303.03484      0.016708652   -5.4471056      751.8378      -32.060103      719.7777     
   1624000   297.45498      0.016708652    6.5700753      737.99401     -32.362044      705.63197    
   1625000   311.72215      0.016708652    27.273393      773.39125     -33.095487      740.29576    
   1626000   300.80282      0.016708652    5.6906224      746.30009     -33.571226      712.72886    
   1627000   288.50441      0.016708652   -10.200278      715.78738     -36.370546      679.41684    
   1628000   304.07248      0.016708652    11.514215      754.41219     -36.474736      717.93746    
   1629000   317.86762      0.016708652    7.4354451      788.63833     -34.93465       753.70368    
   1630000   291.92004      0.016708652    4.4907181      724.26166     -31.851023      692.41063    
   1631000   290.53759      0.016708652    7.4092431      720.83178     -32.075846      688.75594    
   1632000   307.19112      0.016708652    15.018408      762.14965     -34.810833      727.33881    
   1633000   302.12694      0.016708652    7.5707718      749.58527     -30.975606      718.60966    
   1634000   306.65346      0.016708652    3.2786133      760.81569     -30.881699      729.93399    
   1635000   286.72062      0.016708652    5.3138708      711.36176     -32.399206      678.96255    
   1636000   316.47288      0.016708652    11.039531      785.17793     -34.804729      750.3732     
   1637000   297.74075      0.016708652    5.3824922      738.703       -31.208791      707.49421    
   1638000   292.37082      0.016708652    11.406887      725.38007     -32.012601      693.36747    
   1639000   312.04967      0.016708652    11.870947      774.20384     -30.004965      744.19887    
   1640000   301.7803       0.016708652    6.611421       748.72525     -32.828058      715.89719    
   1641000   286.37594      0.016708652    8.3104223      710.5066      -29.199183      681.30742    
   1642000   305.88881      0.016708652    8.6220048      758.91858     -27.142914      731.77566    
   1643000   309.43829      0.016708652    9.767234       767.72493     -27.654392      740.07054    
   1644000   291.26978      0.016708652    11.905274      722.64834     -29.844498      692.80384    
   1645000   300.14073      0.016708652    6.4206869      744.65743     -26.456952      718.20048    
   1646000   312.91367      0.016708652    10.665864      776.34745     -28.892071      747.45538    
   1647000   294.93969      0.016708652    9.5120933      731.7535      -31.399583      700.35392    
   1648000   301.0663       0.016708652    8.2302009      746.95378     -33.213973      713.73981    
   1649000   306.42391      0.016708652    8.4011424      760.24617     -27.125247      733.12092    
   1650000   301.69811      0.016708652    10.958592      748.52132     -25.616949      722.90437    
   1651000   295.14294      0.016708652    8.9802213      732.25777     -31.146028      701.11174    
   1652000   295.68545      0.016708652    6.0373329      733.60376     -31.78752       701.81624    
   1653000   308.10686      0.016708652    8.7320546      764.42162     -33.003881      731.41774    
   1654000   299.29167      0.016708652    10.17266       742.55089     -28.783558      713.76733    
   1655000   287.75085      0.016708652    9.7032907      713.91779     -27.003226      686.91456    
   1656000   290.9513       0.016708652    7.9472751      721.8582      -25.268292      696.5899     
   1657000   301.82628      0.016708652    8.6027197      748.83932     -24.371822      724.4675     
   1658000   313.97964      0.016708652    10.430889      778.99214     -23.373073      755.61907    
   1659000   294.4175       0.016708652    10.153338      730.45793     -29.844023      700.61391    
   1660000   299.78803      0.016708652    8.7547045      743.78237     -26.255079      717.52729    
   1661000   307.19018      0.016708652    8.632916       762.1473      -22.927777      739.21952    
   1662000   319.79943      0.016708652    10.359596      793.43121     -23.10185       770.32936    
   1663000   306.35289      0.016708652    10.701053      760.06996     -18.208728      741.86123    
   1664000   296.80139      0.016708652    8.3595237      736.37244     -24.81947       711.55297    
   1665000   292.16126      0.016708652    10.117002      724.86014     -23.879229      700.98091    
   1666000   297.99247      0.016708652    10.365683      739.32754     -20.094876      719.23266    
   1667000   316.62272      0.016708652    10.227474      785.54969     -27.512702      758.03698    
   1668000   292.33043      0.016708652    5.2379104      725.27985     -27.434929      697.84492    
   1669000   295.71187      0.016708652    6.9692995      733.66931     -28.479863      705.18945    
   1670000   295.25957      0.016708652    12.846408      732.54714     -24.895627      707.65151    
   1671000   296.34561      0.016708652    14.316875      735.24163     -24.014586      711.22704    
   1672000   304.14706      0.016708652    8.0012614      754.59723     -27.718194      726.87904    
   1673000   292.7882       0.016708652    9.8890481      726.41559     -25.916017      700.49957    
   1674000   299.24141      0.016708652    11.407658      742.4262      -26.190333      716.23586    
   1675000   300.32799      0.016708652    6.7377772      745.12202     -24.885115      720.23691    
   1676000   279.58809      0.016708652    8.041384       693.66576     -27.675201      665.99056    
   1677000   300.18127      0.016708652    12.722982      744.75801     -27.647722      717.11028    
   1678000   312.24155      0.016708652    9.7072279      774.67989     -27.916467      746.76342    
   1679000   288.19185      0.016708652    3.5723859      715.01193     -27.082713      687.92921    
   1680000   294.36767      0.016708652    12.3688        730.3343      -30.443465      699.89083    
   1681000   300.89412      0.016708652    17.604219      746.52662     -32.158866      714.36775    
   1682000   313.87326      0.016708652    3.574887       778.7282      -26.645982      752.08222    
   1683000   297.43537      0.016708652    8.532004       737.94535     -24.625768      713.31958    
   1684000   288.2105       0.016708652    9.0809686      715.05819     -22.898643      692.15954    
   1685000   310.9073       0.016708652    10.339248      771.36958     -25.710514      745.65907    
   1686000   309.8206       0.016708652    9.2546282      768.67345     -24.948778      743.72467    
   1687000   291.21012      0.016708652    9.2533496      722.50035     -24.351855      698.14849    
   1688000   295.30353      0.016708652    8.6623455      732.6562      -26.272302      706.38389    
   1689000   326.75935      0.016708652    7.3354221      810.69895     -25.421832      785.27712    
   1690000   303.79463      0.016708652    10.073131      753.72286     -22.504918      731.21794    
   1691000   296.69136      0.016708652    8.988232       736.09945     -24.607191      711.49226    
   1692000   282.34424      0.016708652    9.3246791      700.50384     -25.319985      675.18385    
   1693000   301.0799       0.016708652    6.7482578      746.98754     -26.370164      720.61738    
   1694000   296.90808      0.016708652    8.7900142      736.63713     -28.304174      708.33295    
   1695000   310.62743      0.016708652    10.180567      770.67521     -25.711441      744.96377    
   1696000   292.81147      0.016708652    10.988835      726.47333     -26.525279      699.94805    
   1697000   295.31997      0.016708652    7.0620475      732.69698     -24.67869       708.01829    
   1698000   317.19707      0.016708652    13.249568      786.97468     -23.409091      763.56559    
   1699000   304.25501      0.016708652    12.586966      754.86506     -22.53146       732.3336     
   1700000   301.66889      0.016708652   -20.182678      748.44882     -23.05053       725.39829    
   1701000   293.80462      0.016708652    16.230629      728.93736     -24.96569       703.97167    
   1702000   289.89803      0.016708652    6.0685091      719.245       -28.07776       691.16724    
   1703000   298.65827      0.016708652    2.6941356      740.9794      -30.626579      710.35282    
   1704000   312.16555      0.016708652    18.448699      774.49133     -27.64115       746.85018    
   1705000   292.67636      0.016708652    18.874489      726.13811     -26.406281      699.73183    
   1706000   303.15042      0.016708652    5.8040848      752.12456     -31.029413      721.09514    
   1707000   309.25692      0.016708652    5.558464       767.27494     -28.599499      738.67544    
   1708000   300.41085      0.016708652    14.896462      745.32761     -31.985497      713.34211    
   1709000   301.73129      0.016708652    10.074518      748.60364     -29.901115      718.70253    
   1710000   302.83042      0.016708652    7.9902877      751.33063     -29.185439      722.14519    
   1711000   305.77459      0.016708652    8.419174       758.6352      -28.935906      729.69929    
   1712000   311.70343      0.016708652    5.8153614      773.3448      -30.586348      742.75846    
   1713000   296.09727      0.016708652    9.4907475      734.62549     -25.275904      709.34958    
   1714000   296.66299      0.016708652    8.963317       736.02907     -26.301968      709.7271     
   1715000   300.19664      0.016708652    7.9520071      744.79613     -29.564619      715.23151    
   1716000   305.34198      0.016708652    9.409          757.56188     -34.141312      723.42057    
   1717000   305.02551      0.016708652    9.8342538      756.77671     -31.755926      725.02078    
   1718000   309.29975      0.016708652    9.2510132      767.38122     -32.604128      734.77709    
   1719000   290.06005      0.016708652    8.4772347      719.64698     -30.854112      688.79286    
   1720000   304.63466      0.016708652    7.4885517      755.80699     -29.462228      726.34476    
   1721000   308.53923      0.016708652    12.129314      765.49433     -29.413833      736.08049    
   1722000   282.26935      0.016708652    10.966408      700.31804     -23.647972      676.67007    
   1723000   296.85295      0.016708652    6.9346509      736.50035     -24.916375      711.58398    
   1724000   304.90743      0.016708652    10.633301      756.48373     -23.502723      732.981      
   1725000   301.25887      0.016708652    10.822917      747.43155     -25.04712       722.38443    
   1726000   291.96398      0.016708652    5.2018177      724.37069     -22.720383      701.65031    
   1727000   289.89148      0.016708652    5.7878192      719.22876     -24.837565      694.3912     
   1728000   307.62255      0.016708652    6.4107665      763.22002     -26.794858      736.42516    
   1729000   309.90035      0.016708652    16.683687      768.87131     -30.0327        738.83861    
   1730000   294.26845      0.016708652    5.54741        730.08813     -31.225656      698.86247    
   1731000   299.18472      0.016708652    6.9891403      742.28553     -32.58066       709.70487    
   1732000   312.37276      0.016708652    13.016421      775.00543     -31.478388      743.52705    
   1733000   307.483        0.016708652    9.6714023      762.8738      -31.340156      731.53364    
   1734000   299.8946       0.016708652    10.250137      744.04678     -32.260469      711.78631    
   1735000   297.39071      0.016708652    7.3047725      737.83454     -28.94548       708.88906    
   1736000   295.43391      0.016708652    7.0552224      732.97967     -29.281345      703.69833    
   1737000   298.72483      0.016708652    9.0163431      741.14454     -27.687517      713.45702    
   1738000   302.88503      0.016708652    9.8347795      751.46612     -23.824063      727.64206    
   1739000   299.69957      0.016708652    11.070369      743.56289     -28.240149      715.32274    
   1740000   290.49972      0.016708652    8.362903       720.73782     -26.500192      694.23762    
   1741000   300.68511      0.016708652    9.1276142      746.00805     -25.951131      720.05692    
   1742000   292.06313      0.016708652    5.9852172      724.61667     -26.117711      698.49896    
   1743000   285.62169      0.016708652    8.3176033      708.63528     -30.135396      678.49989    
   1744000   281.48127      0.016708652    8.1096495      698.3628      -33.725715      664.63708    
   1745000   312.50715      0.016708652    7.6985382      775.33886     -31.303098      744.03576    
   1746000   314.51268      0.016708652    8.9055599      780.31463     -33.632085      746.68255    
   1747000   293.79936      0.016708652    13.18155       728.92431     -31.980633      696.94368    
   1748000   289.944        0.016708652    8.2883406      719.35905     -28.24908       691.10997    
   1749000   305.29788      0.016708652    9.2663209      757.45246     -27.53002       729.92244    
   1750000   309.23135      0.016708652    9.4330699      767.2115      -28.846256      738.36524    
   1751000   289.63697      0.016708652    9.8749385      718.59731     -28.893253      689.70406    
   1752000   304.52365      0.016708652    8.7108933      755.53157     -30.4003        725.13127    
   1753000   300.60604      0.016708652    8.2882577      745.81186     -32.233757      713.5781     
   1754000   300.76969      0.016708652    8.9427041      746.21789     -30.582754      715.63514    
   1755000   308.57043      0.016708652    11.592933      765.57173     -29.56537       736.00636    
   1756000   306.61612      0.016708652    15.443622      760.72303     -34.423882      726.29915    
   1757000   290.89035      0.016708652    10.484385      721.70699     -31.198252      690.50873    
   1758000   289.7361       0.016708652    8.6635044      718.84324     -31.481181      687.36206    
   1759000   295.91697      0.016708652    8.8967076      734.17815     -36.490601      697.68755    
   1760000   300.29133      0.016708652    10.429293      745.03106     -36.301438      708.72962    
   1761000   309.79424      0.016708652    8.7630991      768.60804     -35.182521      733.42552    
   1762000   294.35436      0.016708652    7.6704688      730.30128     -40.410436      689.89084    
   1763000   289.70885      0.016708652    8.7800495      718.77565     -33.956565      684.81909    
   1764000   296.51961      0.016708652    9.1092353      735.67333     -35.91049       699.76284    
   1765000   318.16575      0.016708652    10.286328      789.378       -29.816993      759.561      
   1766000   313.6765       0.016708652    8.5218789      778.24004     -33.773274      744.46676    
   1767000   295.37841      0.016708652    9.4737028      732.84197     -31.884778      700.95719    
   1768000   299.87526      0.016708652    10.398999      743.9988      -30.625691      713.37311    
   1769000   331.12702      0.016708652    9.8272679      821.53526     -31.025034      790.51022    
   1770000   292.08867      0.016708652    6.8573379      724.68004     -33.066043      691.614      
   1771000   293.40982      0.016708652    10.392474      727.95784     -35.31038       692.64746    
   1772000   306.19449      0.016708652    10.370173      759.67697     -34.859725      724.81724    
   1773000   302.1542       0.016708652    1.7745838      749.6529      -30.525513      719.12739    
   1774000   301.32963      0.016708652    11.636155      747.60712     -30.155688      717.45143    
   1775000   290.40628      0.016708652    13.390882      720.50598     -29.150892      691.35509    
   1776000   317.15167      0.016708652    9.679569       786.86205     -28.296561      758.56549    
   1777000   307.97807      0.016708652    7.8329792      764.10208     -29.669424      734.43265    
   1778000   297.95124      0.016708652    5.1104882      739.22525     -25.020809      714.20444    
   1779000   283.53876      0.016708652    10.413151      703.46748     -26.354875      677.11261    
   1780000   291.96421      0.016708652    14.402065      724.37126     -30.829529      693.54173    
   1781000   311.15379      0.016708652    8.6987261      771.98112     -29.132435      742.84868    
   1782000   306.11476      0.016708652    8.0617808      759.47917     -31.307323      728.17185    
   1783000   285.6934       0.016708652    9.4212785      708.8132      -32.084137      676.72906    
   1784000   304.89508      0.016708652    9.3446776      756.45311     -32.714087      723.73902    
   1785000   306.90979      0.016708652    9.1455244      761.45166     -34.076662      727.37499    
   1786000   293.72037      0.016708652    7.6397729      728.72834     -31.455099      697.27324    
   1787000   296.92021      0.016708652    6.7928532      736.66722     -31.771823      704.8954     
   1788000   305.35321      0.016708652    8.0664133      757.58972     -36.451472      721.13825    
   1789000   317.00809      0.016708652    11.043123      786.50581     -39.5756        746.93021    
   1790000   291.98213      0.016708652    10.365658      724.41572     -41.792739      682.62298    
   1791000   286.24417      0.016708652    1.7695401      710.17966     -37.174431      673.00523    
   1792000   302.86341      0.016708652    9.2068094      751.41247     -34.924571      716.4879     
   1793000   301.02092      0.016708652    11.086405      746.84119     -33.230441      713.61075    
   1794000   290.22116      0.016708652    5.1433385      720.04669     -36.157701      683.88899    
   1795000   295.22147      0.016708652    4.3251078      732.45261     -34.60284       697.84977    
   1796000   294.69325      0.016708652    5.3394531      731.14208     -38.446957      692.69512    
   1797000   303.65713      0.016708652    14.997053      753.38171     -40.801678      712.58004    
   1798000   311.08464      0.016708652    14.145639      771.80956     -39.589738      732.21982    
   1799000   292.36961      0.016708652    0.53343347     725.37705     -38.6846        686.69245    
   1800000   299.66516      0.016708652   -3.2806424      743.47752     -35.938888      707.53863    
   1801000   294.53627      0.016708652    13.411698      730.75259     -35.31456       695.43803    
   1802000   292.3694       0.016708652    10.168943      725.37655     -32.504634      692.87192    
   1803000   303.81755      0.016708652    7.4172604      753.77972     -33.793389      719.98633    
   1804000   294.94787      0.016708652    9.0722635      731.7738      -33.379062      698.39473    
   1805000   288.96961      0.016708652    11.875148      716.94156     -28.648891      688.29267    
   1806000   302.96251      0.016708652    3.1438938      751.65833     -29.618095      722.04024    
   1807000   306.69987      0.016708652    12.753113      760.93083     -34.148036      726.78279    
   1808000   297.67888      0.016708652    14.145359      738.54952     -32.855753      705.69376    
   1809000   292.48283      0.016708652    9.2719491      725.65797     -35.932351      689.72562    
   1810000   301.21567      0.016708652    3.2262137      747.32438     -32.298239      715.02614    
   1811000   315.64582      0.016708652    0.57812086     783.12599     -29.090418      754.03557    
   1812000   302.6231       0.016708652    10.611687      750.81625     -34.86739       715.94886    
   1813000   290.58025      0.016708652    12.505364      720.93761     -28.55639       692.38122    
   1814000   292.1408       0.016708652    10.079124      724.80939     -28.425341      696.38405    
   1815000   302.94277      0.016708652    6.8959297      751.60936     -27.001432      724.60792    
   1816000   302.43812      0.016708652    8.8684659      750.35731     -29.255631      721.10168    
   1817000   301.80528      0.016708652    8.6420832      748.78723     -32.897544      715.88968    
   1818000   297.2178       0.016708652    10.384964      737.40557     -30.040953      707.36461    
   1819000   295.84039      0.016708652    7.2353126      733.98816     -33.313391      700.67477    
   1820000   297.38605      0.016708652    8.0495074      737.823       -31.845407      705.97759    
   1821000   291.53595      0.016708652    9.6912577      723.30872     -32.214489      691.09423    
   1822000   290.15482      0.016708652    8.8411736      719.88211     -31.584119      688.29799    
   1823000   303.3399       0.016708652    8.2727812      752.59466     -36.763507      715.83116    
   1824000   299.71795      0.016708652    9.4008357      743.60849     -38.364958      705.24354    
   1825000   292.23826      0.016708652    8.2181744      725.05118     -33.871401      691.17978    
   1826000   293.89988      0.016708652    8.9963237      729.1737      -34.831177      694.34252    
   1827000   316.32675      0.016708652    14.385902      784.8154      -33.098462      751.71693    
   1828000   312.81986      0.016708652    7.6325204      776.11469     -32.603051      743.51164    
   1829000   297.62411      0.016708652    5.0227652      738.41363     -33.356906      705.05672    
   1830000   289.54327      0.016708652    1.1136639      718.36483     -34.53134       683.83349    
   1831000   298.33889      0.016708652    13.647321      740.18701     -36.659013      703.528      
   1832000   309.13841      0.016708652    13.95024       766.98093     -37.665344      729.31558    
   1833000   302.49447      0.016708652    1.7772413      750.49712     -39.501648      710.99547    
   1834000   297.00832      0.016708652    7.41053        736.88583     -39.658229      697.2276     
   1835000   290.87314      0.016708652    10.383847      721.66428     -36.015444      685.64884    
   1836000   292.8069       0.016708652    14.092593      726.462       -32.472977      693.98902    
   1837000   298.96827      0.016708652    2.6814831      741.74852     -33.100051      708.64846    
   1838000   295.21176      0.016708652    4.6449181      732.4285      -33.106188      699.32231    
   1839000   295.15711      0.016708652    11.443976      732.29291     -27.499737      704.79318    
   1840000   303.83301      0.016708652    10.90627       753.81809     -33.09444       720.72365    
   1841000   299.95027      0.016708652    8.5969985      744.18488     -33.012262      711.17262    
   1842000   282.11311      0.016708652    4.9887351      699.93041     -38.378745      661.55166    
   1843000   301.76561      0.016708652    9.6323351      748.6888      -44.095637      704.59317    
   1844000   301.72642      0.016708652    10.005905      748.59156     -33.804227      714.78733    
   1845000   298.86319      0.016708652    9.0345035      741.48782     -35.139487      706.34834    
   1846000   299.62033      0.016708652    6.323402       743.36629     -31.696602      711.66969    
   1847000   298.25342      0.016708652    2.8534369      739.97495     -34.673056      705.3019     
   1848000   311.33404      0.016708652    9.2799022      772.42832     -32.984753      739.44357    
   1849000   299.88761      0.016708652    18.04697       744.02943     -33.911556      710.11787    
   1850000   304.43946      0.016708652    11.071588      755.3227      -34.726593      720.59611    
   1851000   300.63004      0.016708652    6.1977517      745.87141     -34.361399      711.51001    
   1852000   295.27562      0.016708652    10.388106      732.58696     -34.106005      698.48096    
   1853000   302.36619      0.016708652    9.6082491      750.17886     -35.584232      714.59463    
   1854000   301.8147       0.016708652    7.2121329      748.81059     -29.1027        719.70789    
   1855000   295.10595      0.016708652    8.8218219      732.166       -30.299864      701.86614    
   1856000   301.79009      0.016708652    10.442116      748.74952     -27.874761      720.87476    
   1857000   311.50514      0.016708652    10.055723      772.85283     -29.190163      743.66266    
   1858000   282.65704      0.016708652    8.2819075      701.2799      -27.142038      674.13786    
   1859000   292.26346      0.016708652    7.1300519      725.11369     -26.02551       699.08818    
   1860000   310.71982      0.016708652    6.792119       770.90443     -25.096804      745.80763    
   1861000   304.41043      0.016708652    15.362833      755.25068     -25.982185      729.26849    
   1862000   291.96759      0.016708652    11.37444       724.37964     -27.609675      696.76997    
   1863000   300.22481      0.016708652    8.9389305      744.86602     -33.016466      711.84955    
   1864000   309.26036      0.016708652    8.3766341      767.28348     -31.372053      735.91143    
   1865000   296.15996      0.016708652    10.027405      734.78102     -36.000785      698.78023    
   1866000   286.72303      0.016708652    14.893124      711.36775     -30.223218      681.14453    
   1867000   305.28283      0.016708652    4.2350677      757.41511     -31.569749      725.84536    
   1868000   318.22629      0.016708652    14.135814      789.52821     -28.119039      761.40917    
   1869000   291.51758      0.016708652    9.81116        723.26315     -29.263772      693.99938    
   1870000   300.32474      0.016708652    8.005784       745.11395     -25.650596      719.46335    
   1871000   319.40373      0.016708652    9.89152        792.44945     -25.675065      766.77439    
   1872000   301.58247      0.016708652    8.5930189      748.23442     -30.90641       717.32801    
   1873000   290.86433      0.016708652    8.6261251      721.64243     -29.503099      692.13933    
   1874000   310.80974      0.016708652    9.3222162      771.12754     -25.887464      745.24008    
   1875000   314.27507      0.016708652    6.3559668      779.72512     -28.296784      751.42833    
   1876000   294.85767      0.016708652    7.7242883      731.55001     -27.744937      703.80507    
   1877000   292.59858      0.016708652    11.659666      725.94513     -27.22316       698.72197    
   1878000   309.66725      0.016708652    11.177917      768.29298     -25.573046      742.71994    
   1879000   317.04626      0.016708652    9.7689138      786.6005      -24.157496      762.44301    
   1880000   297.75474      0.016708652    9.6154321      738.73771     -24.601591      714.13612    
   1881000   289.90228      0.016708652    9.1939968      719.25556     -26.917572      692.33799    
   1882000   299.61509      0.016708652    12.027312      743.3533      -24.080067      719.27323    
   1883000   311.91499      0.016708652    7.8830747      773.86969     -26.338051      747.53164    
   1884000   295.31075      0.016708652    6.7688617      732.67412     -24.247893      708.42623    
   1885000   298.23498      0.016708652    10.996332      739.9292      -26.825554      713.10364    
   1886000   312.51141      0.016708652    10.546425      775.34941     -24.753585      750.59583    
   1887000   292.97038      0.016708652    2.365185       726.86759     -24.176573      702.69101    
   1888000   294.88034      0.016708652    4.8376206      731.60626     -25.580857      706.0254     
   1889000   302.78402      0.016708652    12.426855      751.21551     -29.448792      721.76672    
   1890000   300.96898      0.016708652    11.634456      746.71233     -28.872598      717.83973    
   1891000   306.54405      0.016708652   -1.6167417      760.54423     -27.556057      732.98818    
   1892000   300.45597      0.016708652    6.5876031      745.43955     -22.788415      722.65114    
   1893000   295.33824      0.016708652    11.897936      732.74232     -22.811046      709.93127    
   1894000   302.76965      0.016708652    11.156509      751.17985     -28.212675      722.96717    
   1895000   296.98605      0.016708652    3.7717647      736.83059     -31.050052      705.78053    
   1896000   303.02394      0.016708652    3.5140565      751.81076     -31.650093      720.16066    
   1897000   302.03577      0.016708652    11.74573       749.35907     -30.06156       719.29751    
   1898000   305.24159      0.016708652    11.21972       757.31281     -30.81882       726.49399    
   1899000   303.6039       0.016708652    8.9435267      753.24964     -28.853444      724.3962     
   1900000   293.88896      0.016708652    8.6627073      729.1466      -28.295117      700.85149    
   1901000   298.62233      0.016708652    8.6154311      740.89024     -28.848801      712.04144    
   1902000   313.80906      0.016708652    10.775485      778.56893     -28.755721      749.8132     
   1903000   299.83583      0.016708652    12.449636      743.90095     -27.54795       716.353      
   1904000   292.20709      0.016708652    10.73208       724.97384     -30.221159      694.75268    
   1905000   302.58501      0.016708652    7.7506574      750.72175     -32.0129        718.70885    
   1906000   297.96122      0.016708652    10.992672      739.25        -29.963945      709.28606    
   1907000   288.40669      0.016708652    7.2921625      715.54496     -29.491485      686.05347    
   1908000   315.22904      0.016708652    6.3111501      782.09193     -25.97153       756.1204     
   1909000   307.0626       0.016708652    10.723998      761.83077     -29.939358      731.89141    
   1910000   289.40236      0.016708652    11.524464      718.01523     -30.505494      687.50973    
   1911000   295.67669      0.016708652    6.9761119      733.58202     -26.906103      706.67592    
   1912000   305.67774      0.016708652    3.9589624      758.39489     -28.021477      730.37342    
   1913000   315.01925      0.016708652    18.811565      781.57143     -30.753081      750.81835    
   1914000   289.34044      0.016708652    8.0919501      717.86162     -32.995881      684.86574    
   1915000   308.60224      0.016708652   -0.012746052    765.65067     -32.397344      733.25332    
   1916000   301.62252      0.016708652    14.840112      748.33379     -32.324904      716.00888    
   1917000   296.94821      0.016708652    18.332145      736.73669     -31.500354      705.23634    
   1918000   285.92596      0.016708652    6.4510178      709.39018     -28.239111      681.15107    
   1919000   288.595        0.016708652    2.0918078      716.01214     -30.950759      685.06138    
   1920000   303.28978      0.016708652    0.52779691     752.47031     -34.673116      717.79719    
   1921000   308.37332      0.016708652    20.797148      765.08272     -28.246847      736.83587    
   1922000   288.78381      0.016708652    18.966316      716.48058     -33.715738      682.76485    
   1923000   298.90369      0.016708652    7.268204       741.5883      -33.689692      707.89861    
   1924000   312.00384      0.016708652   -5.3394271      774.09012     -33.086854      741.00327    
   1925000   294.42469      0.016708652    17.144348      730.47577     -32.353555      698.12221    
   1926000   292.79157      0.016708652    13.537404      726.42395     -27.650602      698.77335    
   1927000   294.65753      0.016708652    1.4263333      731.05346     -33.07649       697.97697    
   1928000   314.58707      0.016708652    9.1577674      780.4992      -27.89706       752.60214    
   1929000   306.2606       0.016708652    9.9250567      759.84099     -25.733128      734.10786    
   1930000   288.03693      0.016708652    7.4929706      714.62756     -30.332995      684.29457    
   1931000   295.30923      0.016708652    8.0856104      732.67034     -33.579828      699.09051    
   1932000   313.75655      0.016708652    8.2939638      778.43866     -32.93775       745.50091    
   1933000   295.98179      0.016708652    13.79996       734.33897     -31.349106      702.98986    
   1934000   300.54055      0.016708652    8.0829747      745.6494      -31.054154      714.59525    
   1935000   312.13827      0.016708652    5.4525108      774.42364     -34.585423      739.83822    
   1936000   312.03016      0.016708652    9.7027083      774.15543     -32.069733      742.0857     
   1937000   304.90123      0.016708652    8.9517073      756.46837     -32.070581      724.39779    
   1938000   289.80519      0.016708652    8.2548656      719.01467     -31.502234      687.51243    
   1939000   295.2306       0.016708652    9.5594949      732.47525     -31.990059      700.4852     
   1940000   300.16067      0.016708652    8.9257844      744.7069      -33.953325      710.75358    
   1941000   308.90943      0.016708652    7.9149006      766.41282     -30.065133      736.34769    
   1942000   290.69911      0.016708652    13.453621      721.23251     -27.755783      693.47673    
   1943000   299.07809      0.016708652    17.000175      742.02099     -31.574385      710.44661    
   1944000   309.34745      0.016708652    15.54807       767.49954     -34.157312      733.34223    
   1945000   307.70627      0.016708652    8.5971246      763.42775     -28.6827        734.74505    
   1946000   296.73779      0.016708652    3.1443374      736.21465     -29.932236      706.28241    
   1947000   284.52997      0.016708652    4.2836792      705.9267      -27.599127      678.32758    
   1948000   302.43677      0.016708652    9.0088729      750.35396     -31.960545      718.39342    
   1949000   317.19738      0.016708652    9.6572919      786.97544     -31.783497      755.19195    
   1950000   296.432        0.016708652    8.6727623      735.45597     -28.740801      706.71517    
   1951000   284.92709      0.016708652    10.845871      706.91196     -28.395255      678.5167     
   1952000   304.74343      0.016708652    9.4898332      756.07685     -28.729915      727.34693    
   1953000   304.25441      0.016708652    8.7969159      754.86358     -26.14436       728.71922    
   1954000   299.99888      0.016708652    8.0066734      744.30549     -25.439429      718.86606    
   1955000   290.45234      0.016708652    9.3336897      720.62027     -27.144668      693.4756     
   1956000   299.87113      0.016708652    9.9627144      743.98854     -31.133315      712.85522    
   1957000   303.7522       0.016708652    10.390552      753.61758     -32.315327      721.30225    
   1958000   306.72841      0.016708652    7.2407312      761.00164     -23.532486      737.46915    
   1959000   293.37557      0.016708652    4.208231       727.87288     -26.969993      700.90289    
   1960000   297.80974      0.016708652    15.318504      738.87418     -29.975786      708.89839    
   1961000   313.63124      0.016708652    6.8264533      778.12775     -30.672505      747.45525    
   1962000   281.04469      0.016708652    10.000203      697.27963     -32.320381      664.95925    
   1963000   304.02518      0.016708652    16.227277      754.29486     -33.777612      720.51724    
   1964000   309.43675      0.016708652    7.629673       767.72111     -33.861638      733.85947    
   1965000   301.66699      0.016708652   -2.8712381      748.44411     -40.737242      707.70687    
   1966000   292.24642      0.016708652    9.9503166      725.07141     -32.414255      692.65716    
   1967000   319.05561      0.016708652    10.898197      791.58577     -28.872821      762.71295    
   1968000   311.70655      0.016708652    9.469634       773.35255     -30.316231      743.03632    
   1969000   293.72713      0.016708652    8.5312577      728.74512     -27.892326      700.85279    
   1970000   298.40102      0.016708652    7.9180747      740.34117     -30.567648      709.77352    
   1971000   302.53999      0.016708652    7.7573466      750.61006     -32.039283      718.57078    
   1972000   298.23905      0.016708652    8.809193       739.9393      -32.40976       707.52954    
   1973000   293.68608      0.016708652    10.946879      728.64327     -31.211274      697.43199    
   1974000   297.92668      0.016708652    8.9801212      739.16431     -26.041338      713.12297    
   1975000   306.15196      0.016708652    7.6925256      759.57146     -28.11739       731.45407    
   1976000   312.66808      0.016708652    10.819348      775.73812     -27.981397      747.75673    
   1977000   291.99543      0.016708652    8.7896112      724.44871     -26.58345       697.86526    
   1978000   309.499        0.016708652    8.5114928      767.87555     -27.880417      739.99513    
   1979000   314.00268      0.016708652    8.3735724      779.04931     -27.428715      751.6206     
   1980000   297.84159      0.016708652    9.1110754      738.9532      -25.813469      713.13973    
   1981000   299.32981      0.016708652    9.2453399      742.64552     -27.603569      715.04195    
   1982000   296.2113       0.016708652    9.4276696      734.90839     -28.483679      706.42471    
   1983000   301.80756      0.016708652    7.6925405      748.79288     -26.848071      721.94481    
   1984000   294.01436      0.016708652    8.4637049      729.45774     -28.342185      701.11555    
   1985000   300.24483      0.016708652    12.96541       744.9157      -28.568166      716.34754    
   1986000   306.27086      0.016708652    0.98246738     759.86646     -28.593739      731.27272    
   1987000   299.82175      0.016708652    9.9557078      743.86601     -29.846387      714.01963    
   1988000   303.06083      0.016708652    12.952214      751.90227     -31.035486      720.86678    
   1989000   297.30948      0.016708652    10.326648      737.63302     -29.897039      707.73598    
   1990000   311.62273      0.016708652    8.6262376      773.14457     -26.876976      746.2676     
   1991000   290.25422      0.016708652    6.5040846      720.12872     -28.884942      691.24378    
   1992000   301.82393      0.016708652    15.604307      748.83349     -28.152573      720.68092    
   1993000   309.64957      0.016708652    9.1064911      768.24913     -26.784885      741.46425    
   1994000   298.54276      0.016708652    8.7255056      740.69281     -25.754302      714.93851    
   1995000   311.70113      0.016708652    9.3008204      773.33909     -25.528814      747.81027    
   1996000   302.36443      0.016708652    8.5264699      750.17448     -26.549286      723.62519    
   1997000   303.63411      0.016708652    9.5778185      753.32458     -25.318937      728.00565    
   1998000   306.73156      0.016708652    10.141497      761.00946     -25.579023      735.43044    
   1999000   305.58865      0.016708652    5.205803       758.17385     -27.84436       730.32949    
   2000000   305.02063      0.016708652    10.263628      756.76459     -26.722239      730.04235    
   2001000   287.00613      0.016708652    11.675988      712.07013     -28.055353      684.01478    
   2002000   292.7601       0.016708652    6.5570114      726.34588     -26.082012      700.26387    
   2003000   311.76962      0.016708652    7.6265245      773.50903     -27.422982      746.08605    
   2004000   302.7451       0.016708652    11.721576      751.11894     -27.16485       723.95409    
   2005000   291.58025      0.016708652    9.506122       723.41865     -24.639099      698.77955    
   2006000   310.38867      0.016708652    7.7017985      770.08284     -28.501657      741.58118    
   2007000   303.97194      0.016708652    10.729548      754.16277     -30.378255      723.78452    
   2008000   294.3221       0.016708652    12.253914      730.22124     -27.992582      702.22866    
   2009000   297.08402      0.016708652    8.8199141      737.07364     -32.175828      704.89781    
   2010000   304.24165      0.016708652    6.7157792      754.83193     -29.422761      725.40917    
   2011000   310.96378      0.016708652    8.9573837      771.50972     -27.838452      743.67126    
   2012000   297.09813      0.016708652    9.2284047      737.10865     -26.973862      710.13479    
   2013000   293.28742      0.016708652    7.5859141      727.65418     -30.81742       696.83676    
   2014000   300.47412      0.016708652    9.5274139      745.48458     -34.018182      711.4664     
   2015000   321.63893      0.016708652    9.5244715      797.99505     -31.715017      766.28003    
   2016000   302.99825      0.016708652    8.6762443      751.74701     -31.104439      720.64257    
   2017000   297.77106      0.016708652    8.7577813      738.7782      -29.392295      709.3859     
   2018000   299.27816      0.016708652    8.7906831      742.51737     -30.726028      711.79134    
   2019000   307.48479      0.016708652    7.9040048      762.87823     -37.381451      725.49678    
   2020000   304.22626      0.016708652    9.5685507      754.79375     -31.923828      722.86992    
   2021000   297.68847      0.016708652    9.8972313      738.57331     -33.45971       705.1136     
   2022000   322.06694      0.016708652    7.0377885      799.05695     -33.073804      765.98315    
   2023000   288.6363       0.016708652    8.3473634      716.11461     -29.783179      686.33143    
   2024000   298.62632      0.016708652    9.1699399      740.90014     -29.69906       711.20108    
   2025000   309.48099      0.016708652    9.0547856      767.83086     -30.320033      737.51083    
   2026000   294.35906      0.016708652    9.0515058      730.31294     -28.406007      701.90693    
   2027000   290.92698      0.016708652    8.2329322      721.79786     -29.665425      692.13244    
   2028000   295.13767      0.016708652    8.6862411      732.2447      -30.224967      702.01974    
   2029000   310.5107       0.016708652    13.885965      770.3856      -29.180111      741.20548    
   2030000   302.21481      0.016708652    10.933016      749.80327     -27.173635      722.62964    
   2031000   294.36249      0.016708652    9.469666       730.32145     -30.329553      699.9919     
   2032000   279.91185      0.016708652    3.4381768      694.46901     -32.756714      661.7123     
   2033000   314.44014      0.016708652    10.173029      780.13466     -27.562312      752.57235    
   2034000   302.44496      0.016708652    8.6709981      750.37429     -32.310289      718.064      
   2035000   293.17453      0.016708652    0.34187509     727.3741      -28.253663      699.12044    
   2036000   307.72234      0.016708652    11.080277      763.4676      -30.908998      732.5586     
   2037000   298.80957      0.016708652    11.447854      741.35477     -26.536438      714.81833    
   2038000   297.82232      0.016708652    7.2246293      738.90537     -26.091298      712.81408    
   2039000   316.58043      0.016708652    16.739513      785.44477     -24.724371      760.7204     
   2040000   300.47135      0.016708652    9.6031341      745.4777      -28.106373      717.37133    
   2041000   288.46017      0.016708652    10.369994      715.67763     -31.278557      684.39908    
   2042000   301.14732      0.016708652    7.1180207      747.15481     -29.988031      717.16677    
   2043000   313.09253      0.016708652    9.7861416      776.7912      -30.266314      746.52488    
   2044000   308.44014      0.016708652    11.012517      765.24849     -33.178136      732.07035    
   2045000   294.96529      0.016708652    10.7529        731.81703     -26.027793      705.78923    
   2046000   306.66679      0.016708652    6.2909517      760.84876     -26.767062      734.08169    
   2047000   309.16438      0.016708652    8.9735383      767.04536     -36.805379      730.23998    
   2048000   280.03374      0.016708652    9.7812786      694.77143     -33.569019      661.20241    
   2049000   290.6692       0.016708652    7.9545566      721.1583      -36.386175      684.77213    
   2050000   303.39538      0.016708652    9.8995245      752.73231     -37.703422      715.02889    
   2051000   313.43281      0.016708652    9.0074042      777.63545     -34.318319      743.31713    
   2052000   301.87256      0.016708652    8.8560898      748.95414     -32.741573      716.21257    
   2053000   293.37993      0.016708652    8.3464598      727.88368     -34.327058      693.55663    
   2054000   313.0726       0.016708652    12.597109      776.74175     -32.115976      744.62577    
   2055000   315.39436      0.016708652    8.6896063      782.5021      -29.628957      752.87315    
   2056000   299.7306       0.016708652    8.2161824      743.63988     -29.894155      713.74573    
   2057000   292.64432      0.016708652    7.8618142      726.05862     -30.863627      695.19499    
   2058000   288.01137      0.016708652    9.1197146      714.56414     -26.58511       687.97903    
   2059000   316.00781      0.016708652    9.7529283      784.02409     -29.225397      754.7987     
   2060000   299.37881      0.016708652    8.5033398      742.76708     -33.961434      708.80565    
   2061000   293.24041      0.016708652    9.3911806      727.53755     -28.233444      699.3041     
   2062000   315.99601      0.016708652    9.8563552      783.99481     -28.092515      755.90229    
   2063000   302.19834      0.016708652    9.0920056      749.7624      -28.549006      721.2134     
   2064000   291.04277      0.016708652    10.176689      722.08514     -31.596041      690.4891     
   2065000   314.83905      0.016708652    8.1854436      781.12435     -30.898771      750.22558    
   2066000   301.64465      0.016708652    6.8517584      748.3887      -30.210159      718.17854    
   2067000   307.47251      0.016708652    18.408835      762.84778     -28.479832      734.36794    
   2068000   300.90411      0.016708652    17.458424      746.55138     -29.696338      716.85504    
   2069000   290.05328      0.016708652   -0.70352732     719.63017     -27.87011       691.76006    
   2070000   298.03939      0.016708652    13.732496      739.44394     -28.892534      710.55141    
   2071000   306.42299      0.016708652    14.390644      760.24388     -29.8038        730.44008    
   2072000   299.75979      0.016708652    8.843488       743.7123      -28.750542      714.96176    
   2073000   293.9194       0.016708652    6.6115445      729.22213     -25.05011       704.17202    
   2074000   303.6702       0.016708652    4.7521005      753.41413     -29.983374      723.43076    
   2075000   298.74725      0.016708652    11.276482      741.20016     -27.104805      714.09536    
   2076000   303.29954      0.016708652    9.0881255      752.49451     -30.869374      721.62514    
   2077000   304.21544      0.016708652    8.3916429      754.76688     -31.091566      723.67532    
   2078000   296.74778      0.016708652    8.7945756      736.23943     -27.637802      708.60162    
   2079000   307.4415       0.016708652    10.706         762.77083     -26.705503      736.06533    
   2080000   300.39731      0.016708652    7.9035597      745.29401     -30.381495      714.91252    
   2081000   296.85569      0.016708652    10.247358      736.50715     -31.160206      705.34695    
   2082000   314.66571      0.016708652    8.7953104      780.6943      -29.639464      751.05484    
   2083000   296.6824       0.016708652    10.747764      736.07722     -30.631546      705.44568    
   2084000   291.55007      0.016708652    5.4580771      723.34376     -30.03153       693.31223    
   2085000   310.36706      0.016708652    9.0838418      770.02922     -31.878606      738.15062    
   2086000   298.90967      0.016708652    14.106776      741.60314     -30.453121      711.15002    
   2087000   292.53189      0.016708652    6.2612987      725.77969     -31.371712      694.40798    
   2088000   291.39223      0.016708652    9.2862991      722.95216     -26.383132      696.56903    
   2089000   305.78479      0.016708652    9.9640482      758.6605      -26.242181      732.41832    
   2090000   300.59546      0.016708652    9.4530761      745.78563     -29.142228      716.6434     
   2091000   290.9865       0.016708652    8.5521218      721.94554     -33.798789      688.14675    
   2092000   283.12798      0.016708652    8.6098933      702.44833     -31.684023      670.76431    
   2093000   315.60314      0.016708652    9.0573585      783.02009     -32.756645      750.26345    
   2094000   306.30227      0.016708652    5.0179601      759.94438     -34.936797      725.00758    
   2095000   289.671        0.016708652    8.3051717      718.68173     -32.710473      685.97125    
   2096000   295.22634      0.016708652    9.2278507      732.46469     -34.260306      698.20438    
   2097000   321.95385      0.016708652    11.854227      798.77637     -30.860766      767.91561    
   2098000   314.32806      0.016708652    9.1098423      779.85657     -31.471014      748.38556    
   2099000   301.19575      0.016708652    6.3900351      747.27495     -33.024051      714.2509     
   2100000   289.83178      0.016708652    8.6293739      719.08063     -35.297249      683.78338    
   2101000   313.37479      0.016708652    10.109044      777.4915      -37.097431      740.39407    
   2102000   299.5377       0.016708652    5.8283674      743.1613      -38.188558      704.97274    
   2103000   299.63538      0.016708652    10.364145      743.40364     -32.445886      710.95776    
   2104000   311.69428      0.016708652    10.805224      773.32209     -35.197267      738.12483    
   2105000   302.77029      0.016708652    7.7911109      751.18144     -31.996637      719.18481    
   2106000   301.066        0.016708652    4.5448466      746.95304     -29.837055      717.11599    
   2107000   295.04007      0.016708652    9.6576569      732.00254     -29.258186      702.74435    
   2108000   311.48693      0.016708652    9.8790409      772.80765     -32.095396      740.71226    
   2109000   303.07278      0.016708652    8.4522453      751.93192     -29.79154       722.14038    
   2110000   295.56446      0.016708652    7.9099331      733.30356     -33.457323      699.84624    
   2111000   290.14671      0.016708652    9.058906       719.86199     -34.352861      685.50913    
   2112000   305.0187       0.016708652    12.788874      756.7598      -35.399875      721.35992    
   2113000   308.81055      0.016708652    12.204396      766.16748     -36.783626      729.38385    
   2114000   305.06654      0.016708652    10.002358      756.87849     -28.714846      728.16364    
   2115000   293.90389      0.016708652    6.2780222      729.18366     -33.590187      695.59347    
   2116000   300.36228      0.016708652    9.3013302      745.20709     -32.467184      712.73991    
   2117000   313.04881      0.016708652    16.926044      776.68273     -30.45854       746.22419    
   2118000   299.28112      0.016708652    6.0469626      742.5247      -26.235228      716.28947    
   2119000   284.35638      0.016708652    9.0297356      705.49602     -26.305834      679.19019    
   2120000   305.71846      0.016708652    11.869849      758.49592     -28.669826      729.82609    
   2121000   322.98284      0.016708652    4.9861001      801.32932     -29.240541      772.08878    
   2122000   303.23352      0.016708652    7.9912852      752.33073     -29.065397      723.26533    
   2123000   298.0887       0.016708652    8.6044141      739.56628     -26.469625      713.09665    
   2124000   287.20225      0.016708652    8.2282553      712.5567      -26.563717      685.99298    
   2125000   290.27278      0.016708652    8.1378496      720.17478     -24.700349      695.47443    
   2126000   309.56448      0.016708652    8.9561678      768.03801     -28.403307      739.6347     
   2127000   295.85247      0.016708652    10.082818      734.01814     -26.304087      707.71405    
   2128000   296.01144      0.016708652    7.7136793      734.41253     -29.917242      704.49529    
   2129000   314.09082      0.016708652    8.2913882      779.26799     -28.520085      750.7479     
   2130000   300.28684      0.016708652    10.818688      745.01993     -30.573616      714.44632    
   2131000   286.71268      0.016708652    8.7305317      711.34207     -28.965386      682.37669    
   2132000   301.23724      0.016708652    6.4220641      747.37791     -27.934412      719.4435     
   2133000   297.54921      0.016708652    8.2205971      738.22778     -30.982878      707.24491    
   2134000   302.97485      0.016708652    9.3737191      751.68894     -32.34199       719.34695    
   2135000   303.96532      0.016708652    9.2409483      754.14635     -30.052544      724.0938     
   2136000   306.40352      0.016708652    8.2681869      760.19558     -26.914846      733.28074    
   2137000   297.64154      0.016708652    8.7156646      738.45687     -27.137037      711.31983    
   2138000   307.25673      0.016708652    9.2143373      762.31241     -28.74887       733.56354    
   2139000   296.29603      0.016708652    7.835142       735.11861     -35.523571      699.59504    
   2140000   295.10104      0.016708652    6.2015952      732.15382     -35.981307      696.17251    
   2141000   303.08912      0.016708652    7.6561028      751.97246     -33.21878       718.75368    
   2142000   303.05008      0.016708652    12.889802      751.8756      -29.607609      722.26799    
   2143000   289.47888      0.016708652    12.498175      718.20508     -34.746154      683.45893    
   2144000   294.39956      0.016708652    8.4723866      730.41342     -33.435622      696.9778     
   2145000   304.36722      0.016708652    5.5772727      755.14347     -30.126212      725.01726    
   2146000   310.6337       0.016708652    7.5162909      770.69077     -33.014666      737.6761     
   2147000   304.21763      0.016708652    11.558123      754.77232     -35.039306      719.73301    
   2148000   292.99773      0.016708652    5.6312099      726.93543     -33.444664      693.49077    
   2149000   296.86701      0.016708652    8.8573984      736.53522     -31.845989      704.68923    
   2150000   307.21009      0.016708652    8.766944       762.19671     -30.011953      732.18476    
   2151000   304.93448      0.016708652    9.7419699      756.55084     -29.445925      727.10492    
   2152000   288.23061      0.016708652    9.8851251      715.10809     -27.979019      687.12907    
   2153000   301.38647      0.016708652    8.8607424      747.74813     -30.481985      717.26615    
   2154000   304.54296      0.016708652    7.5981622      755.57949     -32.837643      722.74185    
   2155000   302.7045       0.016708652    8.3931607      751.0182      -26.216367      724.80183    
   2156000   305.29632      0.016708652    7.355547       757.44858     -29.191307      728.25727    
   2157000   294.30679      0.016708652    10.442334      730.18327     -25.152638      705.03063    
   2158000   291.58712      0.016708652    9.0771433      723.43568     -27.317918      696.11777    
   2159000   325.04825      0.016708652    9.5405512      806.45367     -28.061325      778.39234    
   2160000   295.43528      0.016708652    10.722593      732.98307     -26.337955      706.64511    
   2161000   283.67612      0.016708652    4.0574798      703.80826     -27.541916      676.26635    
   2162000   300.50578      0.016708652    8.1616093      745.56312     -25.290076      720.27304    
   2163000   306.95135      0.016708652    9.2565673      761.55477     -31.338303      730.21646    
   2164000   308.88307      0.016708652    10.030978      766.34742     -27.267557      739.07986    
   2165000   292.27899      0.016708652    8.2119096      725.15224     -29.677778      695.47446    
   2166000   284.57909      0.016708652    8.0415739      706.04857     -28.626852      677.42172    
   2167000   294.67219      0.016708652    11.137483      731.08983     -27.066969      704.02286    
   2168000   311.0064       0.016708652    9.5833309      771.61545     -27.248605      744.36684    
   2169000   298.93549      0.016708652    10.742704      741.6672      -24.334821      717.33238    
   2170000   286.75856      0.016708652    8.4071689      711.45588     -25.566489      685.8894     
   2171000   306.8727       0.016708652    9.2062651      761.35964     -25.950973      735.40866    
   2172000   299.79665      0.016708652    7.2047736      743.80374     -29.002174      714.80157    
   2173000   288.88235      0.016708652    6.8773959      716.72508     -30.447997      686.27708    
   2174000   293.1077       0.016708652    10.595546      727.20828     -28.574652      698.63362    
   2175000   318.14012      0.016708652    13.269564      789.3144      -24.348222      764.96617    
   2176000   305.22152      0.016708652    10.620673      757.263       -28.291706      728.97129    
   2177000   291.69811      0.016708652   -0.75320247     723.71106     -29.381853      694.32921    
   2178000   300.31448      0.016708652    10.04534       745.08849     -30.617023      714.47147    
   2179000   305.11493      0.016708652    15.303438      756.99855     -34.28149       722.71706    
   2180000   309.76321      0.016708652    16.399205      768.53106     -34.816208      733.71486    
   2181000   309.49745      0.016708652    10.502623      767.87171     -31.519156      736.35256    
   2182000   297.1336       0.016708652    8.8127162      737.19665     -28.557311      708.63934    
   2183000   292.77039      0.016708652    10.815742      726.37141     -27.611436      698.75997    
   2184000   304.68249      0.016708652    12.832564      755.92566     -28.504474      727.42119    
   2185000   300.20259      0.016708652    8.0963662      744.81091     -30.31222       714.49869    
   2186000   290.55557      0.016708652    3.1432322      720.87638     -30.737057      690.13932    
   2187000   296.86234      0.016708652    4.4146977      736.52364     -30.4194        706.10424    
   2188000   305.02001      0.016708652    11.971451      756.76305     -30.458688      726.30437    
   2189000   306.37838      0.016708652    6.3447787      760.13321     -28.720318      731.4129     
   2190000   309.01577      0.016708652    6.5846798      766.67664     -26.179282      740.49736    
   2191000   298.37932      0.016708652    1.1704663      740.28731     -22.899171      717.38814    
   2192000   290.94015      0.016708652    13.041485      721.83052     -24.258809      697.57171    
   2193000   311.54056      0.016708652    4.0995749      772.94071     -25.73169       747.20902    
   2194000   299.41431      0.016708652    5.3057452      742.85517     -28.240277      714.61489    
   2195000   301.73226      0.016708652    9.2098337      748.60605     -25.443894      723.16216    
   2196000   306.98408      0.016708652    13.832623      761.63596     -29.230859      732.4051     
   2197000   305.60345      0.016708652    8.0909903      758.21058     -32.576046      725.63454    
   2198000   300.94314      0.016708652    8.3766291      746.64823     -32.517298      714.13093    
   2199000   288.62309      0.016708652    7.9146534      716.08184     -30.354796      685.72705    
   2200000   303.21701      0.016708652    6.9515646      752.28976     -31.432994      720.85676    
   2201000   311.47137      0.016708652    9.1926689      772.76906     -31.479664      741.2894     
   2202000   300.81835      0.016708652    10.026334      746.33862     -25.998589      720.34003    
   2203000   283.8416       0.016708652    8.1371485      704.21883     -25.239079      678.97975    
   2204000   295.49505      0.016708652    8.9033017      733.13136     -25.422798      707.70856    
   2205000   300.4381       0.016708652    9.7136192      745.39521     -26.657171      718.73804    
   2206000   320.83256      0.016708652    6.2421022      795.99443     -29.67463       766.3198     
   2207000   296.67798      0.016708652    7.6441543      736.06624     -30.539483      705.52676    
   2208000   281.43236      0.016708652    9.898936       698.24144     -26.474251      671.76719    
   2209000   313.05412      0.016708652    15.981263      776.69589     -26.276686      750.41921    
   2210000   317.16125      0.016708652    11.097513      786.8858      -30.720391      756.16541    
   2211000   309.05932      0.016708652    3.2114282      766.78469     -29.941159      736.84353    
   2212000   291.11059      0.016708652    7.0279975      722.25339     -33.911675      688.34171    
   2213000   287.06125      0.016708652    7.3262574      712.20687     -32.757173      679.4497     
   2214000   304.5849       0.016708652    10.753959      755.68354     -28.6296        727.05394    
   2215000   302.18563      0.016708652    4.3608228      749.73087     -24.997052      724.73382    
   2216000   294.00959      0.016708652    5.3241839      729.4459      -28.639565      700.80633    
   2217000   297.15925      0.016708652    12.07823       737.26028     -23.70796       713.55232    
   2218000   314.74115      0.016708652    10.258704      780.88146     -25.789107      755.09235    
   2219000   300.83939      0.016708652    6.797664       746.39081     -25.728419      720.6624     
   2220000   283.51026      0.016708652    2.5147673      703.39676     -28.198309      675.19845    
   2221000   303.86678      0.016708652    10.358082      753.90185     -27.757862      726.14399    
   2222000   297.62286      0.016708652    9.5255442      738.41053     -26.349509      712.06102    
   2223000   298.46037      0.016708652    8.083594       740.4884      -24.969699      715.5187     
   2224000   307.78786      0.016708652    8.1305085      763.63017     -27.577875      736.0523     
   2225000   297.88531      0.016708652    14.247369      739.06167     -28.24653       710.81514    
   2226000   296.82887      0.016708652    8.9468864      736.4406      -30.955241      705.48536    
   2227000   297.68075      0.016708652    3.2716797      738.55415     -29.956251      708.5979     
   2228000   281.73997      0.016708652   -0.16373399     699.00462     -35.25882       663.7458     
   2229000   304.02594      0.016708652    4.3913391      754.29674     -32.986613      721.31013    
   2230000   305.40726      0.016708652    9.9941825      757.72383     -30.554193      727.16963    
   2231000   303.62786      0.016708652    8.6142085      753.30909     -27.19424       726.11485    
   2232000   296.55869      0.016708652    7.4525196      735.77029     -26.373659      709.39663    
   2233000   298.53162      0.016708652    11.813637      740.66517     -24.252024      716.41315    
   2234000   306.91469      0.016708652    13.398346      761.46382     -25.360923      736.1029     
   2235000   296.23179      0.016708652    8.4855175      734.95923     -23.554963      711.40427    
   2236000   294.77639      0.016708652    7.986011       731.34834     -27.322241      704.0261     
   2237000   301.26017      0.016708652    9.0438654      747.43478     -28.110652      719.32413    
   2238000   303.23946      0.016708652    12.701196      752.34545     -28.447703      723.89775    
   2239000   305.12314      0.016708652    9.1884614      757.01891     -23.832158      733.18675    
   2240000   292.92651      0.016708652    8.1643651      726.75876     -23.747043      703.01172    
   2241000   298.31966      0.016708652    8.7949357      740.1393      -24.6273        715.512      
   2242000   291.78727      0.016708652    8.5192721      723.93227     -28.461036      695.47123    
   2243000   302.15374      0.016708652    7.6699418      749.65176     -27.325819      722.32594    
   2244000   299.72875      0.016708652    7.563083       743.6353      -31.612033      712.02327    
   2245000   305.1934       0.016708652    13.181919      757.19324     -31.379828      725.81341    
   2246000   312.31985      0.016708652    15.59584       774.87416     -31.535833      743.33833    
   2247000   292.82416      0.016708652    6.4121746      726.50481     -27.981681      698.52313    
   2248000   302.82228      0.016708652    9.4991892      751.31041     -23.822385      727.48803    
   2249000   302.50223      0.016708652    13.354218      750.51638     -20.420332      730.09605    
   2250000   306.74403      0.016708652    8.5989607      761.0404      -22.601464      738.43893    
   2251000   297.47001      0.016708652    10.459364      738.0313      -23.321174      714.71012    
   2252000   277.78011      0.016708652    5.9055679      689.18011     -21.947931      667.23218    
   2253000   297.54089      0.016708652    7.3254974      738.20715     -22.763226      715.44392    
   2254000   318.55809      0.016708652    11.615736      790.3514      -28.246879      762.10452    
   2255000   292.42863      0.016708652    11.361966      725.5235      -30.464239      695.05926    
   2256000   292.03971      0.016708652    9.1090969      724.55857     -29.408721      695.14985    
   2257000   310.18489      0.016708652    8.9623495      769.57725     -29.944406      739.63285    
   2258000   295.95245      0.016708652    8.8044761      734.26618     -26.640923      707.62526    
   2259000   299.64352      0.016708652    7.8805547      743.42383     -27.931992      715.49183    
   2260000   302.39112      0.016708652    7.1332225      750.2407      -32.210876      718.02983    
   2261000   307.50353      0.016708652    9.3349861      762.92474     -32.319778      730.60496    
   2262000   302.81112      0.016708652    10.542786      751.28274     -31.174014      720.10873    
   2263000   299.50045      0.016708652    2.4896034      743.06886     -28.949312      714.11955    
   2264000   293.09135      0.016708652    4.0208407      727.16771     -34.109492      693.05822    
   2265000   299.03024      0.016708652    13.191844      741.90226     -33.716692      708.18557    
   2266000   299.14152      0.016708652    9.7987391      742.17835     -28.41554       713.76281    
   2267000   302.8675       0.016708652    9.1241215      751.42262     -29.272256      722.15036    
   2268000   300.81714      0.016708652    6.8430609      746.33562     -31.323892      715.01173    
   2269000   302.81292      0.016708652    7.7914805      751.2872      -30.412097      720.87511    
   2270000   301.04633      0.016708652    6.7521926      746.90423     -33.385057      713.51917    
   2271000   298.81611      0.016708652    11.182064      741.371       -30.02177       711.34923    
   2272000   300.86832      0.016708652    8.4212212      746.46258     -25.610132      720.85245    
   2273000   294.58427      0.016708652    8.9156643      730.87168     -23.004693      707.86699    
   2274000   301.83596      0.016708652    11.303703      748.86334     -20.657893      728.20544    
   2275000   296.30621      0.016708652    9.9533352      735.14388     -24.26433       710.87955    
   2276000   304.86181      0.016708652    8.2626698      756.37056     -24.180081      732.19048    
   2277000   304.07445      0.016708652    10.290261      754.41709     -27.536481      726.88061    
   2278000   304.05904      0.016708652    10.136566      754.37887     -23.93226       730.44661    
   2279000   301.19203      0.016708652    9.3720866      747.26572     -24.433917      722.8318     
   2280000   297.58495      0.016708652    7.4495359      738.31645     -25.93593       712.38052    
   2281000   315.23671      0.016708652    9.1538709      782.11096     -28.840873      753.27009    
   2282000   309.02086      0.016708652    8.4444864      766.68928     -28.896498      737.79278    
   2283000   291.80876      0.016708652    12.300453      723.98559     -28.241958      695.74363    
   2284000   300.06835      0.016708652    2.0662641      744.47785     -26.820718      717.65713    
   2285000   312.27906      0.016708652    10.42171       774.77297     -24.887801      749.88516    
   2286000   295.68436      0.016708652    13.102262      733.60105     -25.525435      708.07561    
   2287000   292.06606      0.016708652    6.0539528      724.62394     -23.894652      700.72928    
   2288000   307.50524      0.016708652    4.6167845      762.92898     -25.290301      737.63867    
   2289000   306.64063      0.016708652    13.962488      760.78386     -23.075259      737.7086     
   2290000   294.54607      0.016708652    8.2588422      730.77692     -22.541548      708.23537    
   2291000   301.10726      0.016708652   -1.4980798      747.05541     -24.852838      722.20257    
   2292000   309.42745      0.016708652    10.078401      767.69804     -23.927377      743.77066    
   2293000   299.75209      0.016708652    8.0200622      743.69321     -23.551922      720.14128    
   2294000   290.18475      0.016708652   -15.365381      719.95637     -22.943928      697.01244    
   2295000   310.24626      0.016708652    4.4425218      769.72951     -25.723896      744.00562    
   2296000   318.66767      0.016708652    21.950368      790.62326     -23.300635      767.32263    
   2297000   296.3077       0.016708652    9.2323939      735.14757     -20.564632      714.58294    
   2298000   294.38798      0.016708652    2.9681833      730.38468     -21.351532      709.03315    
   2299000   312.65001      0.016708652    8.1569897      775.6933      -17.522478      758.17082    
   2300000   302.9107       0.016708652    13.156413      751.5298      -19.989356      731.54044    
   2301000   298.19011      0.016708652    7.5491628      739.81788     -23.062007      716.75588    
   2302000   307.56019      0.016708652    7.6417469      763.0653      -21.019689      742.04562    
   2303000   308.59609      0.016708652    15.731501      765.6354      -26.656765      738.97863    
   2304000   302.5946       0.016708652    12.816938      750.74554     -22.681166      728.06438    
   2305000   290.46962      0.016708652    1.4812963      720.66313     -23.402373      697.26076    
   2306000   310.90074      0.016708652    4.9344742      771.3533      -29.446943      741.90636    
   2307000   310.951        0.016708652    9.8740031      771.47799     -33.174834      738.30316    
   2308000   290.73538      0.016708652    10.748643      721.3225      -30.934304      690.38819    
   2309000   309.47303      0.016708652    2.0756694      767.81112     -31.776002      736.03511    
   2310000   310.8108       0.016708652    11.146534      771.13015     -30.702862      740.42729    
   2311000   293.36851      0.016708652    11.57301       727.85537     -29.26414       698.59123    
   2312000   294.25417      0.016708652    5.7663703      730.05271     -32.349223      697.70349    
   2313000   307.25386      0.016708652    7.9081088      762.3053      -30.2374        732.0679     
   2314000   301.43073      0.016708652    10.975459      747.85796     -28.911363      718.9466     
   2315000   295.91294      0.016708652    9.4774712      734.16815     -25.831365      708.33679    
   2316000   291.34872      0.016708652    7.9065723      722.8442      -25.218806      697.62539    
   2317000   302.00931      0.016708652    9.5363086      749.29342     -22.806687      726.48674    
   2318000   313.91682      0.016708652    8.1481104      778.83629     -23.951214      754.88508    
   2319000   287.28251      0.016708652    9.8042235      712.75582     -26.27669       686.47913    
   2320000   295.34381      0.016708652    8.9269186      732.75614     -32.131699      700.62444    
   2321000   308.41642      0.016708652    8.2022221      765.18963     -29.074368      736.11526    
   2322000   308.61106      0.016708652    9.8138663      765.67255     -25.220537      740.45202    
   2323000   291.32017      0.016708652    6.5537274      722.77338     -27.376393      695.39698    
   2324000   298.61131      0.016708652    8.3810018      740.86289     -28.461184      712.40171    
   2325000   305.05491      0.016708652    11.547114      756.84964     -27.797715      729.05192    
   2326000   304.20813      0.016708652    11.731958      754.74876     -33.013544      721.73521    
   2327000   298.2202       0.016708652    3.7638089      739.89253     -28.170406      711.72212    
   2328000   299.76859      0.016708652    8.9916511      743.73414     -29.309828      714.42431    
   2329000   305.21349      0.016708652    10.468326      757.24307     -27.234821      730.00825    
   2330000   312.67906      0.016708652    8.4765949      775.76537     -24.096633      751.66874    
   2331000   285.36089      0.016708652    9.7666108      707.98824     -22.837284      685.15096    
   2332000   290.98693      0.016708652    5.7394729      721.94659     -24.818771      697.12781    
   2333000   309.49628      0.016708652    9.2385321      767.86879     -23.290778      744.57802    
   2334000   302.04721      0.016708652    10.298802      749.38745     -24.721891      724.66556    
   2335000   297.40114      0.016708652    8.7605347      737.86042     -27.397556      710.46286    
   2336000   296.30841      0.016708652    8.9394033      735.14932     -27.315748      707.83358    
   2337000   316.45105      0.016708652    11.19248       785.12378     -26.843038      758.28074    
   2338000   292.44838      0.016708652    10.49288       725.57249     -20.663683      704.90881    
   2339000   278.93774      0.016708652    6.3442287      692.05223     -24.640493      667.41173    
   2340000   302.40858      0.016708652    8.225383       750.28402     -23.702212      726.58181    
   2341000   315.7466       0.016708652    9.8718685      783.37603     -24.457019      758.91901    
   2342000   292.66944      0.016708652    11.242543      726.12095     -25.357814      700.76314    
   2343000   286.01191      0.016708652    10.641067      709.60344     -22.31678       687.28666    
   2344000   301.91971      0.016708652    4.3490201      749.07112     -25.341146      723.72998    
   2345000   313.493        0.016708652    11.345051      777.78476     -23.810184      753.97458    
   2346000   301.53901      0.016708652    9.9050745      748.1266      -29.223082      718.90351    
   2347000   288.03194      0.016708652    4.2428975      714.61519     -24.236686      690.37851    
   2348000   301.54093      0.016708652    10.830982      748.13137     -24.614276      723.51709    
   2349000   309.60714      0.016708652    11.472742      768.14386     -23.589056      744.5548     
   2350000   294.37558      0.016708652    8.3737228      730.35394     -28.054187      702.29975    
   2351000   291.16702      0.016708652    5.657653       722.39341     -26.347549      696.04587    
   2352000   299.94481      0.016708652    8.5368251      744.17133     -25.525102      718.64623    
   2353000   314.231        0.016708652    10.725689      779.61577     -23.731522      755.88425    
   2354000   290.90295      0.016708652    9.3518623      721.73824     -31.469452      690.26879    
   2355000   285.97847      0.016708652    8.2636163      709.52046     -35.165086      674.35538    
   2356000   300.55712      0.016708652    5.3813505      745.6905      -31.831853      713.85865    
   2357000   308.1375       0.016708652    11.52531       764.49762     -26.252769      738.24485    
   2358000   293.46401      0.016708652    9.1356942      728.09229     -25.869058      702.22324    
   2359000   291.73767      0.016708652    9.2878117      723.80919     -26.570869      697.23832    
   2360000   315.4015       0.016708652    9.8221466      782.51982     -26.289928      756.22989    
   2361000   301.22243      0.016708652    9.2207473      747.34115     -27.436817      719.90433    
   2362000   301.23112      0.016708652    8.9795341      747.36272     -26.018158      721.34456    
   2363000   284.50347      0.016708652    7.3660934      705.86094     -28.881442      676.9795     
   2364000   294.48027      0.016708652    13.809953      730.61365     -30.085443      700.52821    
   2365000   309.05         0.016708652    10.49469       766.76157     -28.749543      738.01203    
   2366000   311.27958      0.016708652    7.0484155      772.29322     -27.741233      744.55199    
   2367000   295.30151      0.016708652    1.8773741      732.6512      -24.234771      708.41643    
   2368000   287.25808      0.016708652    12.059421      712.69522     -24.860492      687.83472    
   2369000   308.98785      0.016708652    8.4905089      766.60738     -24.24373       742.36365    
   2370000   309.68319      0.016708652    2.6299205      768.33254     -21.717193      746.61535    
   2371000   295.10304      0.016708652    4.0565943      732.15878     -26.260647      705.89813    
   2372000   290.87017      0.016708652    10.625972      721.65691     -22.206597      699.45031    
   2373000   306.2265       0.016708652    18.113959      759.75639     -25.771102      733.98528    
   2374000   310.02533      0.016708652    4.3865867      769.1814      -23.151273      746.03013    
   2375000   294.80851      0.016708652   -2.5221944      731.42803     -26.595394      704.83263    
   2376000   283.08436      0.016708652    8.8426112      702.34009     -27.669758      674.67033    
   2377000   304.30833      0.016708652    9.1560902      754.99735     -29.913883      725.08346    
   2378000   307.46029      0.016708652    8.4994789      762.81744     -28.570352      734.24709    
   2379000   299.46425      0.016708652    5.6809302      742.97905     -25.419339      717.55972    
   2380000   297.27285      0.016708652    10.218364      737.54214     -22.786699      714.75544    
   2381000   308.23379      0.016708652    12.743228      764.73653     -25.168375      739.56816    
   2382000   311.07863      0.016708652    9.1764628      771.79466     -25.43357       746.36109    
   2383000   287.78534      0.016708652    6.6638995      714.00335     -29.019035      684.98432    
   2384000   307.59676      0.016708652    10.968057      763.15604     -21.065347      742.09069    
   2385000   307.20526      0.016708652    8.4103818      762.18473     -20.125674      742.05906    
   2386000   296.11554      0.016708652    3.8423004      734.67081     -21.685289      712.98552    
   2387000   295.28031      0.016708652    9.2025599      732.59858     -23.66507       708.93351    
   2388000   291.81724      0.016708652    10.719845      724.00661     -23.909068      700.09755    
   2389000   315.10076      0.016708652    9.8137638      781.77367     -25.869497      755.90417    
   2390000   309.83778      0.016708652    9.2491852      768.71607     -24.806078      743.90999    
   2391000   300.75505      0.016708652    7.4320832      746.18156     -24.83689       721.34467    
   2392000   291.35341      0.016708652    9.1791539      722.85584     -23.681803      699.17403    
   2393000   301.55142      0.016708652    9.3175575      748.15739     -24.16995       723.98744    
   2394000   304.97991      0.016708652    9.2552587      756.66358     -24.545163      732.11841    
   2395000   297.30873      0.016708652    7.3810904      737.63116     -25.124414      712.50675    
   2396000   291.68525      0.016708652    7.2908238      723.67915     -24.602306      699.07684    
   2397000   296.13306      0.016708652    9.9523665      734.71428     -20.123658      714.59062    
   2398000   318.23594      0.016708652    14.208552      789.55214     -21.958055      767.59408    
   2399000   313.8689       0.016708652    6.5622269      778.71739     -23.464816      755.25258    
   2400000   294.64436      0.016708652    6.0360497      731.02077     -25.263141      705.75763    
   2401000   298.8382       0.016708652    9.4287256      741.42582     -27.476258      713.94957    
   2402000   291.4437       0.016708652    10.152757      723.07985     -26.868922      696.21093    
   2403000   295.43619      0.016708652    11.102826      732.98534     -27.597948      705.38739    
   2404000   314.95685      0.016708652   -0.41806782     781.41662     -31.555162      749.86146    
   2405000   292.30906      0.016708652    1.7200884      725.22685     -32.754172      692.47267    
   2406000   289.91652      0.016708652    8.410469       719.29088     -29.005067      690.28581    
   2407000   305.66668      0.016708652    18.252696      758.36746     -26.047205      732.32025    
   2408000   314.23609      0.016708652    4.5386209      779.62841     -26.361208      753.2672     
   2409000   286.03723      0.016708652    10.727711      709.66626     -26.282761      683.3835     
   2410000   289.67448      0.016708652    11.926303      718.69036     -20.548272      698.14209    
   2411000   305.10736      0.016708652    13.982181      756.97978     -24.281157      732.69862    
   2412000   306.53734      0.016708652    8.030747       760.52758     -25.226491      735.30109    
   2413000   291.75104      0.016708652    10.813816      723.84238     -26.736684      697.10569    
   2414000   301.21426      0.016708652    14.458169      747.32088     -24.608625      722.71226    
   2415000   313.56649      0.016708652   -0.38317804     777.9671      -21.836833      756.13027    
   2416000   301.66897      0.016708652    7.055379       748.44903     -24.589599      723.85943    
   2417000   299.51229      0.016708652    12.570348      743.09824     -31.728572      711.36967    
   2418000   302.31734      0.016708652    12.355435      750.05765     -31.025147      719.0325     
   2419000   301.23231      0.016708652    8.9086589      747.36567     -29.391562      717.9741     
   2420000   301.07102      0.016708652    9.1212788      746.96551     -28.253716      718.71179    
   2421000   290.95414      0.016708652    11.00076       721.86523     -30.057583      691.80765    
   2422000   296.15801      0.016708652    7.2394403      734.77619     -25.785167      708.99102    
   2423000   302.14012      0.016708652    8.9487708      749.61798     -29.456745      720.16123    
   2424000   307.27928      0.016708652    14.481098      762.36837     -30.582639      731.78573    
   2425000   285.21831      0.016708652    10.793561      707.63448     -25.543733      682.09075    
   2426000   293.35805      0.016708652    8.0445083      727.82942     -24.547112      703.2823     
   2427000   298.60095      0.016708652    9.5892859      740.83719     -25.977493      714.8597     
   2428000   301.7458       0.016708652    9.120686       748.63965     -26.867471      721.77218    
   2429000   296.51096      0.016708652    5.7565453      735.65186     -29.830939      705.82092    
   2430000   307.40451      0.016708652    14.371522      762.67906     -28.677352      734.0017     
   2431000   297.80136      0.016708652    10.994987      738.85338     -26.755993      712.09739    
   2432000   299.41477      0.016708652    8.3299335      742.85631     -26.508236      716.34807    
   2433000   304.27461      0.016708652    9.8480253      754.91369     -23.986812      730.92688    
   2434000   296.38774      0.016708652    8.8527924      735.34615     -22.349768      712.99639    
   2435000   297.75137      0.016708652    8.8277806      738.72936     -23.526471      715.20289    
   2436000   304.31696      0.016708652    9.0499124      755.01877     -26.401684      728.61709    
   2437000   300.26442      0.016708652    12.102595      744.9643      -29.984167      714.98013    
   2438000   301.00617      0.016708652    9.3634709      746.80461     -29.867298      716.93731    
   2439000   308.36854      0.016708652    10.23958       765.07086     -26.439079      738.63178    
   2440000   302.11601      0.016708652    6.5401493      749.55814     -33.522269      716.03587    
   2441000   292.12772      0.016708652    6.4863922      724.77691     -33.088866      691.68805    
   2442000   298.54835      0.016708652    7.4526466      740.70668     -31.177807      709.52887    
   2443000   302.5293       0.016708652    6.7566847      750.58354     -30.702953      719.88059    
   2444000   310.4852       0.016708652    10.369909      770.32235     -26.53999       743.78236    
   2445000   302.08062      0.016708652    9.4257211      749.47035     -31.226868      718.24348    
   2446000   293.33007      0.016708652    9.8371546      727.75998     -29.70058       698.0594     
   2447000   291.11158      0.016708652    8.672467       722.25584     -23.902764      698.35308    
   2448000   277.15646      0.016708652    8.7459508      687.63281     -25.669883      661.96292    
   2449000   307.5245       0.016708652    9.431671       762.97677     -24.811338      738.16543    
   2450000   304.28305      0.016708652    7.8875269      754.93464     -26.488646      728.44599    
   2451000   283.76184      0.016708652    8.9811109      704.02095     -30.279904      673.74104    
   2452000   289.42956      0.016708652    16.930593      718.08272     -25.687973      692.39475    
   2453000   311.26712      0.016708652    8.3355708      772.26231     -29.929851      742.33246    
   2454000   296.52856      0.016708652    8.7223432      735.69554     -26.730109      708.96543    
   2455000   294.46548      0.016708652    8.6672653      730.57698     -31.021075      699.55591    
   2456000   313.68683      0.016708652    9.4098851      778.26567     -30.767775      747.4979     
   2457000   303.18428      0.016708652    8.6102794      752.20856     -33.829625      718.37893    
   2458000   299.59112      0.016708652    8.9436597      743.29382     -33.74833       709.54549    
   2459000   287.63335      0.016708652    12.683468      713.62627     -36.901126      676.72514    
   2460000   309.06255      0.016708652    7.6714372      766.79271     -32.132242      734.66047    
   2461000   293.44992      0.016708652    8.3828271      728.05733     -29.864949      698.19239    
   2462000   296.01132      0.016708652    8.8929455      734.41226     -31.236624      703.17563    
   2463000   299.73928      0.016708652    11.738106      743.66142     -31.829469      711.83195    
   2464000   312.475        0.016708652    8.3015206      775.25909     -30.714693      744.54439    
   2465000   314.89083      0.016708652    9.0624398      781.25282     -29.312981      751.93984    
   2466000   284.26816      0.016708652    8.5427403      705.27714     -28.011382      677.26576    
   2467000   292.66541      0.016708652    9.5320361      726.11096     -23.169377      702.94158    
   2468000   312.76874      0.016708652    10.427414      775.98787     -27.030228      748.95764    
   2469000   306.3445       0.016708652    5.6579586      760.04914     -29.669667      730.37947    
   2470000   292.32614      0.016708652    10.528914      725.26922     -25.107486      700.16174    
   2471000   308.12854      0.016708652    10.525326      764.47541     -24.506473      739.96893    
   2472000   307.10001      0.016708652    8.8372697      761.9236      -23.499626      738.42397    
   2473000   286.25759      0.016708652    7.8860026      710.21297     -22.37393       687.83904    
   2474000   294.58629      0.016708652    14.122607      730.8767      -31.440678      699.43602    
   2475000   310.35482      0.016708652    12.083929      769.99886     -32.113266      737.8856     
   2476000   299.01925      0.016708652    8.9305392      741.87501     -29.890954      711.98406    
   2477000   306.54618      0.016708652    7.3762024      760.54951     -32.239145      728.31037    
   2478000   300.24919      0.016708652    7.6846784      744.92653     -28.589033      716.33749    
   2479000   300.92643      0.016708652    12.267484      746.60677     -34.513459      712.09331    
   2480000   305.37668      0.016708652    10.812913      757.64795     -33.114794      724.53316    
   2481000   298.7829       0.016708652    5.9897568      741.28862     -38.443575      702.84505    
   2482000   302.92697      0.016708652    8.9139373      751.57017     -30.778129      720.79204    
   2483000   302.53205      0.016708652    13.21626       750.59036     -29.236409      721.35396    
   2484000   300.16065      0.016708652    8.9602859      744.70685     -30.833208      713.87364    
   2485000   301.28902      0.016708652    5.7721662      747.50637     -32.518864      714.9875     
   2486000   295.38848      0.016708652    9.248684       732.86697     -31.229565      701.6374     
   2487000   310.11139      0.016708652    9.1179754      769.39491     -34.457238      734.93767    
   2488000   309.71583      0.016708652    7.9303393      768.41351     -30.777466      737.63604    
   2489000   287.99415      0.016708652    6.9879528      714.52142     -31.687949      682.83347    
   2490000   298.33922      0.016708652    12.025146      740.18783     -26.621036      713.5668     
   2491000   307.82791      0.016708652    9.6074493      763.72954     -27.838355      735.89119    
   2492000   296.34651      0.016708652    4.2413048      735.24387     -26.425908      708.81796    
   2493000   293.90072      0.016708652    14.018485      729.17578     -29.270974      699.90481    
   2494000   313.7202       0.016708652    10.124455      778.34847     -28.013073      750.3354     
   2495000   302.07477      0.016708652    4.7181327      749.45583     -27.169305      722.28652    
   2496000   297.71636      0.016708652    10.317703      738.64249     -27.208462      711.43403    
   2497000   310.80187      0.016708652    8.968603       771.108       -32.085479      739.02252    
   2498000   297.62506      0.016708652    7.9700454      738.41599     -34.255754      704.16023    
   2499000   304.43779      0.016708652    10.816947      755.31856     -30.850178      724.46838    
   2500000   305.3736       0.016708652    8.4963664      757.64031     -30.379322      727.26099    
   2501000   302.89025      0.016708652    9.7220309      751.47907     -31.199224      720.27984    
   2502000   296.35609      0.016708652    7.7809632      735.26763     -35.83185       699.43578    
   2503000   300.47252      0.016708652    8.3580945      745.48061     -35.320594      710.16002    
   2504000   302.20146      0.016708652    13.345589      749.77016     -35.056754      714.71341    
   2505000   293.6745       0.016708652    10.495286      728.61453     -39.352922      689.2616     
   2506000   305.42373      0.016708652    7.7744524      757.76468     -37.516161      720.24852    
   2507000   291.59622      0.016708652    8.8900104      723.45825     -38.006582      685.45167    
   2508000   297.18978      0.016708652    10.757037      737.33604     -36.094008      701.24203    
   2509000   285.18785      0.016708652    8.7902061      707.55891     -35.027005      672.53191    
   2510000   300.01903      0.016708652    12.435636      744.3555      -38.360246      705.99525    
   2511000   292.04696      0.016708652   -6.9527368      724.57657     -31.790043      692.78652    
   2512000   300.81958      0.016708652    9.0756267      746.34167     -26.967025      719.37465    
   2513000   306.35834      0.016708652    20.668439      760.08348     -28.513102      731.57038    
   2514000   299.62603      0.016708652    14.299073      743.38044     -31.596126      711.78431    
   2515000   286.39564      0.016708652    7.2755117      710.55548     -28.598334      681.95714    
   2516000   305.86414      0.016708652    1.1602659      758.85736     -29.42967       729.42769    
   2517000   317.32087      0.016708652    8.4393309      787.28183     -28.309461      758.97237    
   2518000   295.27637      0.016708652    28.437335      732.58881     -29.92468       702.66413    
   2519000   291.79639      0.016708652    6.990828       723.95488     -30.255038      693.69985    
   2520000   310.52052      0.016708652    3.8638819      770.40996     -29.254645      741.15531    
   2521000   309.44881      0.016708652    21.224626      767.75102     -28.093302      739.65772    
   2522000   289.59849      0.016708652    14.219224      718.50184     -28.233221      690.26862    
   2523000   296.23036      0.016708652    0.29022318     734.95569     -29.479434      705.47626    
   2524000   312.14604      0.016708652    11.364457      774.44293     -29.416775      745.02615    
   2525000   293.91608      0.016708652    13.283582      729.2139      -28.76274       700.45116    
   2526000   293.58472      0.016708652    11.950783      728.39179     -28.161185      700.2306     
   2527000   291.83907      0.016708652    5.8118606      724.06078     -28.513155      695.54763    
   2528000   310.98998      0.016708652    9.6801089      771.57472     -30.049251      741.52547    
   2529000   302.3622       0.016708652    9.7682369      750.16895     -25.916151      724.2528     
   2530000   295.90954      0.016708652    8.7305731      734.15973     -30.145126      704.0146     
   2531000   285.87889      0.016708652    6.2902482      709.2734      -34.092513      675.18089    
   2532000   319.34268      0.016708652    8.1607468      792.29798     -32.665963      759.63202    
   2533000   304.09099      0.016708652    9.4452107      754.45813     -31.92546       722.53267    
   2534000   287.39374      0.016708652    8.3555424      713.0318      -31.839289      681.19251    
   2535000   306.86297      0.016708652    11.8498        761.33548     -31.341043      729.99443    
   2536000   300.84914      0.016708652    9.5488151      746.41501     -28.578915      717.8361     
   2537000   305.79048      0.016708652    8.7587892      758.6746      -30.212314      728.46228    
   2538000   283.06226      0.016708652    7.5765567      702.28527     -31.764374      670.5209     
   2539000   298.46208      0.016708652    11.21001       740.49265     -28.939617      711.55303    
   2540000   311.88818      0.016708652    8.643013       773.80316     -29.863214      743.93995    
   2541000   296.46104      0.016708652    7.7327345      735.528       -29.205383      706.32262    
   2542000   296.3433       0.016708652    9.2745647      735.23589     -32.77645       702.45944    
   2543000   307.87461      0.016708652    9.0580527      763.8454      -30.454521      733.39088    
   2544000   298.5819       0.016708652    8.3180253      740.78992     -28.570777      712.21914    
   2545000   305.33531      0.016708652    9.0395402      757.54533     -28.720129      728.8252     
   2546000   297.2337       0.016708652    11.254652      737.44501     -32.524948      704.92007    
   2547000   288.92463      0.016708652    6.692962       716.82997     -34.863025      681.96694    
   2548000   310.18831      0.016708652    7.1898163      769.58574     -32.884932      736.7008     
   2549000   318.09997      0.016708652    13.051408      789.2148      -28.224371      760.99043    
   2550000   291.4989       0.016708652    13.360074      723.21681     -29.755903      693.46091    
   2551000   289.33172      0.016708652    9.3280209      717.83996     -28.505935      689.33403    
   2552000   313.64608      0.016708652    10.848514      778.16457     -28.885307      749.27926    
   2553000   311.51306      0.016708652    5.1825914      772.8725      -30.29742       742.57508    
   2554000   288.18745      0.016708652    7.2829652      715.00102     -34.227666      680.77335    
   2555000   298.61901      0.016708652    8.637779       740.88198     -30.575844      710.30614    
   2556000   319.20541      0.016708652    9.8729558      791.95743     -30.370134      761.58729    
   2557000   304.23436      0.016708652    9.4206915      754.81385     -30.107846      724.706      
   2558000   299.44163      0.016708652    11.113338      742.92295     -33.107241      709.81571    
   2559000   298.51196      0.016708652    8.486462       740.6164      -32.953135      707.66326    
   2560000   318.30925      0.016708652    9.0346234      789.73401     -28.300327      761.43369    
   2561000   289.23061      0.016708652    7.5655583      717.58912     -32.271676      685.31745    
   2562000   297.72735      0.016708652    10.153804      738.66977     -29.719666      708.9501     
   2563000   308.87883      0.016708652    11.203468      766.33688     -27.499902      738.83698    
   2564000   299.00047      0.016708652    7.1845173      741.82842     -32.406327      709.42209    
   2565000   292.60042      0.016708652    8.2103739      725.94972     -38.278381      687.67134    
   2566000   312.24711      0.016708652    13.832871      774.69368     -38.039583      736.6541     
   2567000   311.38589      0.016708652    7.6969419      772.55698     -38.091065      734.46591    
   2568000   299.39788      0.016708652    8.764161       742.8144      -35.286425      707.52797    
   2569000   291.56301      0.016708652    10.707279      723.37586     -34.144361      689.2315     
   2570000   289.37561      0.016708652    10.620683      717.94886     -35.56118       682.38768    
   2571000   317.32591      0.016708652    11.311155      787.29433     -31.808262      755.48607    
   2572000   307.58042      0.016708652    7.3251372      763.1155      -36.954247      726.16126    
   2573000   290.79406      0.016708652    4.9435419      721.46809     -34.490537      686.97755    
   2574000   288.22521      0.016708652    9.6968711      715.0947      -35.3734        679.7213     
   2575000   310.87182      0.016708652    8.431956       771.28157     -35.994493      735.28707    
   2576000   298.2471       0.016708652    9.5341722      739.95927     -34.23697       705.7223     
   2577000   291.26379      0.016708652    8.8558275      722.6335      -31.732433      690.90107    
   2578000   304.02071      0.016708652    9.9281462      754.28376     -35.738958      718.54481    
   2579000   302.5157       0.016708652    6.6348557      750.54979     -31.122924      719.42686    
   2580000   302.58572      0.016708652    8.3173968      750.72351     -31.688552      719.03496    
   2581000   295.48561      0.016708652    9.7302489      733.10795     -30.995237      702.11272    
   2582000   303.84164      0.016708652    9.1777019      753.83949     -32.526014      721.31348    
   2583000   298.42474      0.016708652    7.402008       740.4         -31.58982       708.81018    
   2584000   300.08749      0.016708652    12.951592      744.52533     -27.547638      716.97769    
   2585000   298.47841      0.016708652    9.0840409      740.53317     -28.813687      711.71949    
   2586000   286.82116      0.016708652    6.3366717      711.61121     -27.519633      684.09158    
   2587000   298.10655      0.016708652    7.329176       739.61056     -27.225089      712.38547    
   2588000   287.12287      0.016708652    7.9688517      712.35976     -30.110043      682.24971    
   2589000   300.64846      0.016708652    9.3796631      745.91712     -30.121994      715.79513    
   2590000   305.10858      0.016708652    7.1468704      756.9828      -34.300891      722.68191    
   2591000   302.05458      0.016708652   -0.042311255    749.40574     -33.025241      716.3805     
   2592000   306.71792      0.016708652    9.0982163      760.97563     -32.182198      728.79343    
   2593000   297.92284      0.016708652    8.2729755      739.15477     -34.384541      704.77023    
   2594000   286.32116      0.016708652    7.8515036      710.37069     -33.687499      676.68319    
   2595000   295.01599      0.016708652    9.1397524      731.9428      -34.375829      697.56697    
   2596000   309.26702      0.016708652    9.6799272      767.30001     -34.038434      733.26157    
   2597000   297.2595       0.016708652    8.8183299      737.50902     -33.867587      703.64143    
   2598000   293.05183      0.016708652    6.5721708      727.06966     -30.469769      696.59989    
   2599000   299.16735      0.016708652    11.450473      742.24244     -30.71567       711.52677    
   2600000   316.93292      0.016708652    8.6836303      786.31931     -31.317192      755.00212    
   2601000   291.4654       0.016708652    6.0778658      723.13369     -29.66549       693.4682     
   2602000   300.13745      0.016708652    17.964069      744.6493      -31.01559       713.63371    
   2603000   291.22855      0.016708652    7.147827       722.54607     -28.823875      693.72219    
   2604000   302.28519      0.016708652    2.4906152      749.9779      -28.535466      721.44243    
   2605000   302.04684      0.016708652    10.182663      749.38654     -31.677005      717.70953    
   2606000   294.39052      0.016708652    21.579494      730.39098     -34.903015      695.48797    
   2607000   301.11071      0.016708652    10.035944      747.06397     -34.223201      712.84077    
   2608000   297.72555      0.016708652    1.4470467      738.66529     -33.536839      705.12845    
   2609000   287.79343      0.016708652    15.666287      714.02342     -29.777001      684.24642    
   2610000   305.935        0.016708652    13.113898      759.03318     -30.568166      728.46501    
   2611000   300.29219      0.016708652    3.5034984      745.03319     -31.09478       713.93841    
   2612000   290.22536      0.016708652    2.0805061      720.05711     -29.228331      690.82878    
   2613000   311.36239      0.016708652    13.018481      772.49866     -31.258413      741.24025    
   2614000   305.21396      0.016708652    1.6705491      757.24424     -33.888636      723.35561    
   2615000   292.27373      0.016708652    7.1873056      725.13917     -31.295091      693.84408    
   2616000   297.09968      0.016708652    12.720044      737.11249     -29.904687      707.20781    
   2617000   305.88317      0.016708652    19.99527       758.90456     -31.271717      727.63285    
   2618000   296.97132      0.016708652    6.8666377      736.79403     -29.176998      707.61703    
   2619000   293.93571      0.016708652    1.2954353      729.26259     -24.747484      704.51511    
   2620000   286.97439      0.016708652    6.9244076      711.99136     -27.944633      684.04673    
   2621000   313.99275      0.016708652    21.103995      779.02468     -23.631739      755.39294    
   2622000   305.36465      0.016708652    4.5082598      757.61812     -21.69956       735.91856    
   2623000   288.29759      0.016708652    6.0622489      715.27427     -26.408363      688.86591    
   2624000   292.43501      0.016708652    10.253314      725.53933     -25.212396      700.32694    
   2625000   305.96231      0.016708652    7.3281009      759.10093     -29.008351      730.09258    
   2626000   302.41961      0.016708652    13.110147      750.31138     -27.188202      723.12318    
   2627000   291.11482      0.016708652    8.1565301      722.26389     -31.570325      690.69356    
   2628000   299.685        0.016708652    9.6830606      743.52675     -32.180079      711.34667    
   2629000   327.69157      0.016708652    9.8091639      813.01181     -33.166497      779.84531    
   2630000   294.13916      0.016708652    6.7647892      729.76735     -33.495443      696.27191    
   2631000   294.48007      0.016708652    9.508206       730.61317     -31.973356      698.63982    
   2632000   304.54826      0.016708652    9.4623233      755.59263     -35.052899      720.53973    
   2633000   298.68293      0.016708652    9.616037       741.04058     -28.904761      712.13582    
   2634000   292.85721      0.016708652    8.4116235      726.58681     -30.568294      696.01852    
   2635000   307.92667      0.016708652    9.5061859      763.97456     -27.431411      736.54315    
   2636000   304.31556      0.016708652    10.85157       755.01528     -30.073688      724.94159    
   2637000   307.85972      0.016708652    9.5422758      763.80844     -28.653789      735.15465    
   2638000   306.36948      0.016708652    7.7320192      760.11113     -28.70319       731.40794    
   2639000   306.98559      0.016708652    8.8497114      761.63971     -27.785348      733.85436    
   2640000   297.6071       0.016708652    9.2969032      738.37142     -28.811894      709.55952    
   2641000   297.73267      0.016708652    10.729458      738.68297     -24.189063      714.4939     
   2642000   300.21207      0.016708652    9.0945025      744.83441     -27.829564      717.00485    
   2643000   287.50398      0.016708652    8.0156468      713.3053      -28.113615      685.19168    
   2644000   298.76965      0.016708652    8.5335749      741.25575     -31.050692      710.20505    
   2645000   307.85816      0.016708652    7.9214833      763.80458     -30.698922      733.10566    
   2646000   289.37995      0.016708652    8.8976014      717.95964     -30.75243       687.20721    
   2647000   295.33504      0.016708652    11.241867      732.73437     -24.467393      708.26697    
   2648000   302.80545      0.016708652    9.3865269      751.26866     -22.599761      728.6689     
   2649000   293.56375      0.016708652    8.2453199      728.33975     -22.150111      706.18964    
   2650000   288.39432      0.016708652    8.700075       715.51426     -23.30695       692.20731    
   2651000   305.69685      0.016708652    14.198713      758.44232     -21.553204      736.88911    
   2652000   308.76292      0.016708652    11.353334      766.04931     -20.962793      745.08652    
   2653000   301.37621      0.016708652    9.9646746      747.72268     -23.757185      723.96549    
   2654000   309.26162      0.016708652    8.9756468      767.28661     -24.98601       742.3006     
   2655000   295.84992      0.016708652    9.4702006      734.01182     -30.523069      703.48875    
   2656000   294.80608      0.016708652    11.576276      731.42201     -30.448815      700.9732     
   2657000   304.15893      0.016708652    9.4956205      754.62669     -31.839693      722.787      
   2658000   302.21294      0.016708652    7.8613922      749.79864     -28.970115      720.82852    
   2659000   300.0285       0.016708652    6.2228897      744.37898     -27.535077      716.8439     
   2660000   285.76333      0.016708652    8.8524899      708.98671     -29.14759       679.83912    
   2661000   309.50086      0.016708652    10.486856      767.88017     -30.722448      737.15773    
   2662000   300.86569      0.016708652    8.7818896      746.45607     -28.213125      718.24295    
   2663000   302.04613      0.016708652    8.7753262      749.38478     -24.945274      724.4395     
   2664000   294.75732      0.016708652    6.2930761      731.30103     -23.868369      707.43267    
   2665000   307.42668      0.016708652    8.2294769      762.73407     -24.480602      738.25347    
   2666000   320.86829      0.016708652    11.654362      796.08307     -28.71137       767.3717     
   2667000   308.5848       0.016708652    10.951786      765.60739     -28.630742      736.97665    
   2668000   289.22105      0.016708652    10.436346      717.56539     -30.45347       687.11192    
   2669000   290.87515      0.016708652    3.6891082      721.66926     -30.146223      691.52304    
   2670000   295.45025      0.016708652    8.4987689      733.02022     -27.604082      705.41614    
   2671000   311.84456      0.016708652    7.4233769      773.69496     -30.178282      743.51668    
   2672000   309.83615      0.016708652    14.104103      768.71204     -29.805074      738.90697    
   2673000   286.68753      0.016708652    3.4518143      711.27966     -34.693071      676.58659    
   2674000   308.93851      0.016708652    5.5067494      766.48496     -34.005933      732.47903    
   2675000   309.27528      0.016708652    21.814844      767.32049     -26.946171      740.37432    
   2676000   291.95896      0.016708652    7.9503771      724.35823     -30.045165      694.31307    
   2677000   295.33244      0.016708652    6.2848438      732.72792     -30.594595      702.13333    
   2678000   307.57795      0.016708652    17.833186      763.10938     -32.038974      731.0704     
   2679000   300.62858      0.016708652    13.227485      745.86779     -30.56004       715.30775    
   2680000   289.82451      0.016708652    0.12719064     719.06259     -33.702385      685.36021    
   2681000   296.14947      0.016708652    8.4142245      734.755       -30.178479      704.57652    
   2682000   303.4275       0.016708652    12.144349      752.81199     -30.55735       722.25464    
   2683000   292.44741      0.016708652    0.2417939      725.57009     -31.517618      694.05247    
   2684000   301.57447      0.016708652    9.3444408      748.21458     -32.488197      715.72639    
   2685000   293.70917      0.016708652    11.131213      728.70054     -26.185426      702.51511    
   2686000   301.78822      0.016708652    8.2588753      748.74489     -25.810461      722.93443    
   2687000   295.35455      0.016708652    1.9831085      732.78279     -27.901139      704.88165    
   2688000   312.68919      0.016708652    6.6254049      775.79049     -31.238429      744.55206    
   2689000   300.97012      0.016708652    10.929191      746.71515     -33.622851      713.0923     
   2690000   298.89626      0.016708652    11.176366      741.56986     -33.107303      708.46256    
   2691000   316.67864      0.016708652    8.1565415      785.68845     -32.295947      753.3925     
   2692000   297.32676      0.016708652    7.4334273      737.6759      -25.616828      712.05907    
   2693000   295.47941      0.016708652    14.694973      733.09256     -26.860023      706.23253    
   2694000   294.75336      0.016708652    5.5889045      731.29122     -25.807383      705.48384    
   2695000   303.24058      0.016708652   -0.8234415      752.34825     -28.726531      723.62172    
   2696000   315.57627      0.016708652    5.664551       782.95342     -29.850282      753.10314    
   2697000   294.37026      0.016708652    12.471818      730.34073     -32.358795      697.98193    
   2698000   294.19529      0.016708652    7.9192041      729.90662     -29.661994      700.24463    
   2699000   320.56737      0.016708652    5.6894868      795.33647     -32.872317      762.46415    
   2700000   310.91514      0.016708652    10.642813      771.38903     -30.864376      740.52465    
   2701000   299.63648      0.016708652    12.7827        743.40638     -31.167956      712.23842    
   2702000   297.57588      0.016708652    10.912461      738.29396     -30.203079      708.09089    
   2703000   301.30808      0.016708652    9.8727878      747.55366     -25.500585      722.05308    
   2704000   301.64475      0.016708652    5.4532315      748.38894     -29.721745      718.6672     
   2705000   298.02081      0.016708652    8.98074        739.39784     -29.483128      709.91471    
   2706000   292.88937      0.016708652    12.994084      726.66661     -32.002722      694.66389    
   2707000   308.58072      0.016708652    7.8600784      765.59728     -31.129214      734.46806    
   2708000   304.18822      0.016708652    5.2363212      754.69936     -30.362882      724.33648    
   2709000   302.03524      0.016708652    15.632319      749.35775     -28.32613       721.03162    
   2710000   300.80339      0.016708652    12.94324       746.3015      -27.783701      718.5178     
   2711000   302.06254      0.016708652    8.5284121      749.42548     -30.455833      718.96965    
   2712000   304.8392       0.016708652    0.095263381    756.31447     -31.433558      724.88091    
   2713000   299.10781      0.016708652    8.3634398      742.09473     -31.842746      710.25199    
   2714000   295.88761      0.016708652    15.242884      734.10533     -34.105285      700.00004    
   2715000   292.7071       0.016708652    3.6913974      726.21439     -33.718923      692.49547    
   2716000   306.79716      0.016708652    7.2090007      761.17222     -29.843878      731.32834    
   2717000   305.72786      0.016708652    9.5014297      758.51925     -26.579051      731.9402     
   2718000   295.68725      0.016708652    8.8677934      733.60821     -30.998274      702.60993    
   2719000   300.698        0.016708652    8.7172528      746.04002     -26.107203      719.93281    
   2720000   307.5638       0.016708652    8.9608746      763.07426     -25.952157      737.1221     
   2721000   309.07003      0.016708652    10.21351       766.81126     -28.579197      738.23207    
   2722000   304.55884      0.016708652    10.765113      755.61888     -28.19464       727.42424    
   2723000   278.82534      0.016708652    6.3305891      691.77335     -29.533583      662.23976    
   2724000   294.28851      0.016708652    9.062511       730.13791     -24.138545      705.99936    
   2725000   308.69477      0.016708652    10.130167      765.88023     -25.300757      740.57948    
   2726000   305.93414      0.016708652    9.1985966      759.03104     -29.170855      729.86018    
   2727000   294.42766      0.016708652    6.7128044      730.48313     -33.439212      697.04392    
   2728000   296.94131      0.016708652    6.5815826      736.71957     -35.799119      700.92046    
   2729000   305.30188      0.016708652    12.998699      757.46237     -28.687355      728.77502    
   2730000   303.70479      0.016708652    12.554911      753.49995     -30.907766      722.59218    
   2731000   300.75649      0.016708652    3.817926       746.18514     -30.93017       715.25497    
   2732000   307.26849      0.016708652    11.433222      762.3416      -27.22764       735.11396    
   2733000   303.70012      0.016708652    8.5472108      753.48836     -28.320726      725.16764    
   2734000   294.37602      0.016708652    2.3730757      730.35502     -22.753268      707.60175    
   2735000   304.14708      0.016708652    10.12693       754.5973      -23.49773       731.09957    
   2736000   301.06111      0.016708652    11.060398      746.94092     -23.014879      723.92604    
   2737000   304.07783      0.016708652    11.240474      754.42547     -22.980862      731.44461    
   2738000   298.73823      0.016708652    5.1202413      741.17779     -26.645396      714.5324     
   2739000   297.14109      0.016708652    10.741056      737.21524     -25.756121      711.45912    
   2740000   309.71485      0.016708652    10.867751      768.41109     -25.743953      742.66714    
   2741000   297.13858      0.016708652    4.7538618      737.20901     -24.546075      712.66294    
   2742000   307.53731      0.016708652    6.8132087      763.00854     -26.218353      736.79019    
   2743000   302.6688       0.016708652    7.9848402      750.92962     -22.545515      728.38411    
   2744000   305.89695      0.016708652    18.397219      758.93876     -27.467556      731.4712     
   2745000   303.04577      0.016708652    9.0854287      751.8649      -30.455574      721.40933    
   2746000   297.05561      0.016708652    7.888775       737.00316     -29.051543      707.95162    
   2747000   300.05721      0.016708652    3.7020631      744.4502      -28.802298      715.6479     
   2748000   294.93169      0.016708652    8.1919862      731.73366     -25.609911      706.12375    
   2749000   287.93528      0.016708652    11.152314      714.37536     -25.730843      688.64452    
   2750000   311.27951      0.016708652    10.876628      772.29304     -22.82387       749.46917    
   2751000   317.26986      0.016708652    5.8382495      787.15526     -30.383376      756.77188    
   2752000   293.76117      0.016708652    8.8577753      728.82957     -25.057359      703.77221    
   2753000   299.24929      0.016708652    11.847007      742.44575     -26.290865      716.15488    
   2754000   306.1076       0.016708652    10.241227      759.46139     -24.123047      735.33835    
   2755000   298.86498      0.016708652    5.5874479      741.49225     -25.730999      715.76125    
   2756000   287.23514      0.016708652    4.9557861      712.6383      -24.716438      687.92186    
   2757000   301.70091      0.016708652    14.790988      748.52828     -25.665967      722.86231    
   2758000   319.64927      0.016708652    6.0134696      793.05865     -26.807826      766.25083    
   2759000   294.60403      0.016708652    6.1537021      730.92072     -27.395649      703.52508    
   2760000   287.79685      0.016708652    12.17862       714.03191     -27.840817      686.19109    
   2761000   301.91779      0.016708652    10.073632      749.06637     -25.170602      723.89577    
   2762000   307.70798      0.016708652   -0.72930682     763.43198     -27.076502      736.35548    
   2763000   290.18036      0.016708652    10.117077      719.94548     -28.923793      691.02169    
   2764000   303.33115      0.016708652    11.217486      752.57294     -28.618943      723.954      
   2765000   301.71177      0.016708652    8.9823401      748.55521     -28.492781      720.06242    
   2766000   295.81278      0.016708652    3.9815391      733.91966     -29.454618      704.46505    
   2767000   296.96526      0.016708652    9.174627       736.77899     -30.597589      706.1814     
   2768000   315.0498       0.016708652    14.139525      781.64724     -29.162505      752.48473    
   2769000   302.41824      0.016708652    5.1602404      750.30798     -31.131418      719.17656    
   2770000   295.62696      0.016708652    6.6895627      733.45863     -27.668429      705.7902     
   2771000   303.82153      0.016708652    19.172211      753.78958     -28.346296      725.44329    
   2772000   308.98495      0.016708652    13.565515      766.60019     -25.285709      741.31448    
   2773000   299.63882      0.016708652    4.3776479      743.41217     -23.421984      719.99019    
   2774000   309.1393       0.016708652    3.4860331      766.98314     -21.567548      745.41559    
   2775000   287.36473      0.016708652    9.0169234      712.95981     -23.811647      689.14817    
   2776000   297.92253      0.016708652    13.365665      739.15402     -28.178346      710.97567    
   2777000   307.32574      0.016708652    12.20561       762.48364     -23.812406      738.67123    
   2778000   316.10103      0.016708652    8.2191139      784.25536     -28.257793      755.99756    
   2779000   294.82978      0.016708652    8.9090365      731.4808      -26.766535      704.71427    
   2780000   275.76613      0.016708652    8.6124491      684.18338     -26.304823      657.87856    
   2781000   312.62981      0.016708652    7.263168       775.64318     -25.581741      750.06144    
   2782000   311.74571      0.016708652    16.083664      773.4497      -28.090456      745.35924    
   2783000   291.35925      0.016708652    10.50069       722.87033     -28.863196      694.00714    
   2784000   273.49028      0.016708652    5.19089        678.53691     -26.906939      651.62997    
   2785000   301.50217      0.016708652    8.6294998      748.0352      -27.17534       720.85986    
   2786000   302.03203      0.016708652    8.7637626      749.3498      -29.3922        719.9576     
   2787000   303.55993      0.016708652    5.2107895      753.14056     -31.21269       721.92787    
   2788000   296.30806      0.016708652    17.99894       735.14847     -29.26184       705.88663    
   2789000   295.37247      0.016708652    6.0377537      732.82723     -34.89055       697.93668    
   2790000   320.52721      0.016708652    3.2429187      795.23684     -27.744272      767.49257    
   2791000   293.31401      0.016708652    12.106214      727.72014     -27.283904      700.43624    
   2792000   291.35265      0.016708652    11.374587      722.85395     -27.962594      694.89135    
   2793000   287.92936      0.016708652    11.892019      714.36068     -31.697071      682.66361    
   2794000   307.57309      0.016708652    5.7199566      763.0973      -25.250617      737.84669    
   2795000   315.7194       0.016708652    16.402591      783.30854     -26.506788      756.80176    
   2796000   300.28847      0.016708652    10.533158      745.02398     -27.25885       717.76513    
   2797000   286.70621      0.016708652    5.9635641      711.32602     -25.897228      685.42879    
   2798000   306.94662      0.016708652    4.8009295      761.54302     -24.012528      737.53049    
   2799000   324.78501      0.016708652    10.162209      805.80056     -24.71326       781.0873     
   2800000   290.0667       0.016708652    10.120694      719.66348     -21.808851      697.85463    
   2801000   292.15833      0.016708652    4.9356479      724.85288     -24.004978      700.8479     
   2802000   306.72083      0.016708652    6.8891826      760.98283     -23.936244      737.04659    
   2803000   301.13608      0.016708652    16.607444      747.1269      -25.782605      721.3443     
   2804000   286.13033      0.016708652    10.811295      709.89725     -26.692467      683.20478    
   2805000   302.13151      0.016708652    5.1147681      749.59661     -27.216266      722.38035    
   2806000   308.25066      0.016708652    6.4696671      764.77837     -29.540248      735.23812    
   2807000   297.89267      0.016708652    14.478029      739.07993     -25.291167      713.78876    
   2808000   286.56794      0.016708652    8.6117726      710.98295     -25.280813      685.70213    
   2809000   297.76065      0.016708652    9.1583947      738.75237     -23.317932      715.43444    
   2810000   302.77953      0.016708652    11.919776      751.20437     -25.702877      725.50149    
   2811000   301.92141      0.016708652    8.8422281      749.07535     -22.588045      726.4873     
   2812000   295.8226       0.016708652    7.3133948      733.94402     -26.285424      707.6586     
   2813000   299.6156       0.016708652    11.780636      743.35457     -23.45774       719.89683    
   2814000   308.67878      0.016708652    10.108778      765.84057     -26.81224       739.02833    
   2815000   293.87809      0.016708652    10.025979      729.11963     -27.505138      701.61449    
   2816000   281.30202      0.016708652    7.744313       697.91806     -29.315553      668.60251    
   2817000   300.24631      0.016708652    11.830167      744.91938     -28.304609      716.61477    
   2818000   309.62671      0.016708652    9.0076989      768.1924      -27.632879      740.55952    
   2819000   302.97446      0.016708652    9.2568483      751.68798     -23.265427      728.42255    
   2820000   292.05998      0.016708652    8.863217       724.60887     -25.778889      698.82998    
   2821000   294.01708      0.016708652    7.391163       729.46449     -26.169453      703.29504    
   2822000   316.21209      0.016708652    9.3968796      784.5309      -25.917376      758.61352    
   2823000   305.28896      0.016708652    12.893948      757.43032     -23.994716      733.4356     
   2824000   287.82167      0.016708652    8.4057122      714.0935      -24.022919      690.07058    
   2825000   301.15502      0.016708652    5.743021       747.17391     -24.637725      722.53619    
   2826000   306.39427      0.016708652    10.700589      760.17262     -26.56734       733.60528    
   2827000   305.98816      0.016708652    9.10455        759.16507     -21.900111      737.26496    
   2828000   297.90002      0.016708652    8.3298981      739.09816     -24.465648      714.63251    
   2829000   305.76177      0.016708652    8.1293237      758.60339     -29.936022      728.66737    
   2830000   307.70601      0.016708652    10.148422      763.4271      -26.602738      736.82436    
   2831000   301.63206      0.016708652    10.206874      748.35744     -28.964663      719.39278    
   2832000   294.62501      0.016708652    5.4773952      730.97278     -25.98177       704.99101    
   2833000   293.8922       0.016708652    5.4739205      729.15466     -29.857916      699.29674    
   2834000   314.45449      0.016708652    14.034579      780.17025     -24.843148      755.3271     
   2835000   319.69541      0.016708652    13.897977      793.17312     -30.882163      762.29095    
   2836000   292.47883      0.016708652    8.1866062      725.64803     -28.907508      696.74052    
   2837000   297.20076      0.016708652    9.1533288      737.36328     -27.475185      709.88809    
   2838000   314.22643      0.016708652    7.5306535      779.60444     -26.80902       752.79542    
   2839000   313.62776      0.016708652    9.0768207      778.11912     -28.074239      750.04488    
   2840000   302.91003      0.016708652    13.670189      751.52813     -30.56814       720.95999    
   2841000   289.32777      0.016708652    9.9217457      717.83018     -32.410625      685.41956    
   2842000   302.73512      0.016708652    7.4573677      751.09418     -30.805631      720.28855    
   2843000   308.27466      0.016708652    9.265284       764.83793     -26.950064      737.88787    
   2844000   301.87375      0.016708652    16.486593      748.9571      -31.515227      717.44187    
   2845000   292.53788      0.016708652    11.582028      725.79456     -29.835873      695.95868    
   2846000   300.74643      0.016708652    6.9235227      746.16019     -26.564235      719.59595    
   2847000   303.04979      0.016708652    7.7794175      751.87488     -30.578744      721.29614    
   2848000   304.74693      0.016708652    8.739393       756.08555     -29.716571      726.36897    
   2849000   301.85375      0.016708652    11.056534      748.90746     -30.277759      718.6297     
   2850000   302.12233      0.016708652    9.5309103      749.57382     -23.132702      726.44112    
   2851000   292.18302      0.016708652    8.7985034      724.91413     -28.172644      696.74149    
   2852000   297.21416      0.016708652    9.0251352      737.39653     -31.079458      706.31707    
   2853000   309.45112      0.016708652    9.0115015      767.75677     -30.743246      737.01352    
   2854000   307.78341      0.016708652    7.0451387      763.61914     -33.087137      730.532      
   2855000   298.88974      0.016708652    8.034108       741.55368     -31.984152      709.56952    
   2856000   294.08232      0.016708652    12.85021       729.62635     -28.782571      700.84378    
   2857000   298.29539      0.016708652    8.9006921      740.07909     -30.001444      710.07764    
   2858000   313.82313      0.016708652    7.1936157      778.60383     -26.809752      751.79408    
   2859000   307.37596      0.016708652    6.3903849      762.60824     -31.439209      731.16903    
   2860000   294.68304      0.016708652    10.355792      731.11675     -27.788126      703.32863    
   2861000   305.99055      0.016708652    13.483144      759.17099     -30.911167      728.25982    
   2862000   289.75299      0.016708652    9.0763136      718.88515     -26.937552      691.9476     
   2863000   296.89844      0.016708652    5.8340557      736.61321     -28.94485       707.66836    
   2864000   295.4596       0.016708652    8.5246365      733.0434      -28.349805      704.69359    
   2865000   305.82387      0.016708652    16.838993      758.75746     -31.51498       727.24248    
   2866000   310.07465      0.016708652    10.551825      769.30375     -26.765837      742.53791    
   2867000   289.0413       0.016708652   -2.6219084      717.11943     -28.157058      688.96237    
   2868000   287.962        0.016708652    8.0471881      714.44167     -32.273491      682.16818    
   2869000   297.51371      0.016708652    12.040515      738.13973     -26.841375      711.29835    
   2870000   317.19918      0.016708652    7.2922155      786.9799      -27.259495      759.72041    
   2871000   306.02324      0.016708652    5.604096       759.2521      -25.845839      733.40626    
   2872000   288.95445      0.016708652    10.730296      716.90396     -26.343499      690.56046    
   2873000   289.38964      0.016708652    9.570143       717.98368     -26.578871      691.40481    
   2874000   314.13004      0.016708652    9.173679       779.3653      -24.677022      754.68828    
   2875000   312.75866      0.016708652    10.994201      775.96287     -25.582062      750.3808     
   2876000   291.33909      0.016708652    8.1633875      722.8203      -24.658649      698.16165    
   2877000   299.17914      0.016708652    8.0086053      742.27169     -27.510492      714.76119    
   2878000   305.27011      0.016708652    8.3610697      757.38357     -31.955518      725.42805    
   2879000   294.84993      0.016708652    8.8218261      731.53079     -33.69391       697.83688    
   2880000   297.29726      0.016708652    8.4290015      737.60269     -32.434134      705.16856    
   2881000   313.00628      0.016708652    8.6806561      776.57721     -38.590628      737.98658    
   2882000   296.74189      0.016708652    8.3491066      736.22481     -30.157034      706.06777    
   2883000   309.13417      0.016708652    11.482216      766.97039     -31.823541      735.14684    
   2884000   310.42352      0.016708652    9.5455504      770.16931     -31.26171       738.90759    
   2885000   304.33365      0.016708652    8.2819417      755.06018     -35.802598      719.25759    
   2886000   288.87671      0.016708652    9.1854119      716.71108     -36.693582      680.0175     
   2887000   304.04105      0.016708652    9.6357545      754.33423     -35.061325      719.2729     
   2888000   310.57108      0.016708652    9.4008693      770.53541     -38.80765       731.72776    
   2889000   299.43438      0.016708652    7.3663359      742.90495     -40.783809      702.12114    
   2890000   291.5728       0.016708652    8.3975703      723.40015     -39.22288       684.17727    
   2891000   316.45328      0.016708652    12.340468      785.1293      -38.327638      746.80166    
   2892000   306.23688      0.016708652    10.675496      759.78214     -34.082501      725.69964    
   2893000   296.03729      0.016708652    5.1275966      734.47668     -32.621969      701.85471    
   2894000   295.29302      0.016708652    9.4954735      732.63012     -32.551444      700.07867    
   2895000   309.82055      0.016708652    9.7347352      768.67332     -34.337532      734.33579    
   2896000   300.78888      0.016708652    7.309602       746.26549     -32.832227      713.43327    
   2897000   298.66739      0.016708652    11.181066      741.00202     -29.292007      711.71001    
   2898000   303.85425      0.016708652    13.585681      753.87077     -29.329732      724.54104    
   2899000   302.09302      0.016708652    8.000807       749.5011      -29.061694      720.43941    
   2900000   282.26169      0.016708652    8.3080282      700.29904     -28.121638      672.1774     
   2901000   308.23486      0.016708652    10.601486      764.73918     -29.895135      734.84404    
   2902000   306.80586      0.016708652    10.142938      761.19379     -24.414585      736.77921    
   2903000   286.9825       0.016708652    13.222011      712.01149     -26.588414      685.42307    
   2904000   299.72961      0.016708652    6.4470208      743.63742     -27.309205      716.32821    
   2905000   307.19553      0.016708652    3.2342297      762.16058     -28.424942      733.73564    
   2906000   313.83018      0.016708652    10.677738      778.62132     -28.969608      749.65172    
   2907000   297.95139      0.016708652    12.165675      739.22562     -25.354241      713.87138    
   2908000   297.47856      0.016708652    8.6124235      738.05251     -27.865978      710.18653    
   2909000   304.03003      0.016708652    7.3999576      754.30689     -28.728126      725.57877    
   2910000   305.33627      0.016708652    9.8873132      757.54769     -34.931326      722.61637    
   2911000   296.25089      0.016708652    9.4241271      735.00664     -33.101666      701.90497    
   2912000   290.52739      0.016708652    7.5532428      720.80645     -32.899559      687.90689    
   2913000   298.22101      0.016708652    9.6461976      739.89455     -29.737347      710.1572     
   2914000   300.7824       0.016708652    8.540227       746.24942     -26.256361      719.99306    
   2915000   293.32334      0.016708652    8.2836636      727.74328     -27.47495       700.26833    
   2916000   295.72886      0.016708652    10.407499      733.71145     -28.82896       704.88249    
   2917000   304.5079       0.016708652    9.2845329      755.4925      -30.063038      725.42947    
   2918000   309.71086      0.016708652    6.9798361      768.40117     -34.483473      733.9177     
   2919000   298.99772      0.016708652    8.7731856      741.82158     -33.258349      708.56323    
   2920000   293.11113      0.016708652    9.2659727      727.2168      -34.059054      693.15775    
   2921000   305.49678      0.016708652    12.26747       757.94592     -36.928917      721.01701    
   2922000   303.32048      0.016708652    8.7478513      752.54647     -37.024188      715.52228    
   2923000   295.77808      0.016708652    8.7976652      733.83357     -37.960423      695.87314    
   2924000   289.22168      0.016708652    5.2997597      717.56695     -35.218008      682.34894    
   2925000   312.55467      0.016708652    9.1342808      775.45676     -32.566245      742.89051    
   2926000   307.16085      0.016708652    10.043548      762.07454     -31.109198      730.96534    
   2927000   288.70001      0.016708652    9.3735274      716.27267     -33.364849      682.90782    
   2928000   305.07111      0.016708652    9.9375553      756.88984     -33.083482      723.80636    
   2929000   292.43002      0.016708652    8.8368349      725.52693     -34.025637      691.5013     
   2930000   308.83666      0.016708652    9.0737618      766.23226     -33.82197       732.41029    
   2931000   299.52088      0.016708652    7.4068547      743.11957     -29.637294      713.48227    
   2932000   301.06564      0.016708652    8.9074531      746.95216     -34.368577      712.58358    
   2933000   300.42072      0.016708652    9.1484583      745.3521      -35.667368      709.68473    
   2934000   297.45313      0.016708652    7.4485945      737.98942     -34.696905      703.29251    
   2935000   293.03203      0.016708652    9.6060422      727.02054     -35.682641      691.3379     
   2936000   305.28071      0.016708652    10.861894      757.40987     -37.583546      719.82632    
   2937000   303.1031       0.016708652    11.453621      752.00715     -35.190549      716.8166     
   2938000   299.92514      0.016708652    0.80503881     744.12253     -30.384115      713.73842    
   2939000   302.00478      0.016708652   -1.8587202      749.28219     -29.53031       719.75188    
   2940000   294.14651      0.016708652    13.031171      729.78559     -28.248249      701.53734    
   2941000   302.16293      0.016708652    11.982346      749.67456     -30.069323      719.60524    
   2942000   318.14192      0.016708652    10.096396      789.31887     -26.894268      762.42461    
   2943000   294.64473      0.016708652    5.2711707      731.02169     -27.097988      703.9237     
   2944000   294.51274      0.016708652    8.8021213      730.69423     -26.154394      704.53984    
   2945000   284.77013      0.016708652    11.711444      706.52254     -29.35998       677.16257    
   2946000   312.49056      0.016708652    8.2097437      775.29769     -27.710824      747.58687    
   2947000   305.75365      0.016708652    7.3100944      758.58324     -30.976318      727.60692    
   2948000   275.44824      0.016708652    0.23024511     683.39468     -28.66804       654.72663    
   2949000   296.01675      0.016708652    7.493719       734.42571     -31.488918      702.9368     
   2950000   303.23823      0.016708652    13.770434      752.3424      -33.914001      718.42839    
   2951000   303.69984      0.016708652    9.6959611      753.48768     -31.745743      721.74193    
   2952000   307.97207      0.016708652    8.3770355      764.08719     -29.175415      734.91177    
   2953000   306.29289      0.016708652    8.0895998      759.92111     -31.289017      728.6321     
   2954000   283.6342       0.016708652    9.0575816      703.70426     -31.387133      672.31713    
   2955000   313.77679      0.016708652    4.5692268      778.48885     -34.988491      743.50036    
   2956000   301.68595      0.016708652    12.862488      748.49117     -33.457626      715.03354    
   2957000   301.13358      0.016708652    8.5436803      747.12072     -37.793088      709.32764    
   2958000   322.3754       0.016708652    7.5469825      799.82226     -40.22604       759.59622    
   2959000   296.91205      0.016708652    9.3441655      736.64699     -30.737595      705.9094     
   2960000   293.67371      0.016708652    9.9860119      728.61257     -25.12108       703.49149    
   2961000   297.17005      0.016708652    8.3090511      737.28707     -34.221523      703.06555    
   2962000   308.34561      0.016708652    7.0475272      765.01395     -35.035154      729.97879    
   2963000   297.72896      0.016708652    9.5651798      738.67375     -36.437324      702.23643    
   2964000   290.73032      0.016708652    7.4928467      721.30994     -34.192266      687.11768    
   2965000   297.67036      0.016708652    10.28783       738.52838     -31.938655      706.58972    
   2966000   294.84084      0.016708652    8.7358334      731.50824     -31.923139      699.5851     
   2967000   300.43414      0.016708652    5.1984254      745.38538     -31.212389      714.17299    
   2968000   299.11512      0.016708652    7.9069248      742.11285     -31.257278      710.85557    
   2969000   289.89161      0.016708652    12.639331      719.22908     -31.579671      687.64941    
   2970000   300.50389      0.016708652    5.4507326      745.55842     -35.781402      709.77702    
   2971000   291.68192      0.016708652    9.5384551      723.67088     -33.658251      690.01262    
   2972000   301.93652      0.016708652    7.4649285      749.11282     -34.545184      714.56764    
   2973000   295.84435      0.016708652    8.971479       733.998       -35.983695      698.0143     
   2974000   306.70761      0.016708652    9.6397417      760.95002     -33.956885      726.99314    
   2975000   298.19769      0.016708652    10.259803      739.83669     -29.103155      710.73353    
   2976000   290.47385      0.016708652    8.3110812      720.67362     -31.699808      688.97381    
   2977000   293.46459      0.016708652    8.0932373      728.09374     -29.56109       698.53265    
   2978000   319.35396      0.016708652    10.671058      792.32597     -29.230921      763.09505    
   2979000   293.18941      0.016708652    8.1629777      727.411       -34.947767      692.46323    
   2980000   297.07432      0.016708652    9.6627127      737.04958     -29.391202      707.65838    
   2981000   298.08489      0.016708652    9.1329277      739.55683     -29.091475      710.46536    
   2982000   326.92951      0.016708652    9.2843154      811.12113     -34.191596      776.92954    
   2983000   300.18537      0.016708652    6.2333674      744.76817     -31.095433      713.67273    
   2984000   287.65297      0.016708652    10.874263      713.67496     -34.047363      679.62759    
   2985000   300.28828      0.016708652    9.4006887      745.0235      -37.373381      707.65012    
   2986000   295.43821      0.016708652    9.0730948      732.99034     -37.491835      695.4985     
   2987000   300.46367      0.016708652    3.7821668      745.45864     -35.971936      709.48671    
   2988000   299.94593      0.016708652    8.4053059      744.17413     -26.624817      717.54931    
   2989000   314.5181       0.016708652    10.810351      780.32807     -33.308288      747.01978    
   2990000   296.83593      0.016708652    11.439282      736.45812     -32.352759      704.10536    
   2991000   295.9444       0.016708652    5.0483476      734.24622     -29.872903      704.37331    
   2992000   313.55385      0.016708652    7.830345       777.93574     -28.434845      749.50089    
   2993000   306.66949      0.016708652    12.053883      760.85546     -29.579249      731.27621    
   2994000   293.17108      0.016708652    7.9626341      727.36553     -30.316417      697.04911    
   2995000   315.69608      0.016708652    10.090724      783.25067     -24.194334      759.05633    
   2996000   299.19833      0.016708652    10.50887       742.3193      -29.105477      713.21383    
   2997000   288.18974      0.016708652    9.0151979      715.00669     -24.466058      690.54063    
   2998000   294.00725      0.016708652    2.4731598      729.44009     -22.037         707.40309    
   2999000   317.11403      0.016708652    16.207033      786.76865     -25.205598      761.56305    
   3000000   300.52333      0.016708652    14.806617      745.60667     -29.92895       715.67772    
   3001000   300.05051      0.016708652    9.4038846      744.43358     -27.362708      717.07087    
   3002000   290.14625      0.016708652    3.6897175      719.86085     -30.384237      689.47661    
   3003000   310.72078      0.016708652    8.4473715      770.90681     -30.48169       740.42512    
   3004000   302.78716      0.016708652    10.371782      751.2233      -28.809311      722.41399    
   3005000   299.00146      0.016708652    9.9284441      741.83086     -29.213818      712.61705    
   3006000   288.90653      0.016708652    8.8574967      716.78506     -31.803474      684.98158    
   3007000   298.35         0.016708652    5.2156941      740.21457     -30.294204      709.92037    
   3008000   312.34853      0.016708652    9.0652668      774.94532     -31.140868      743.80445    
   3009000   301.09997      0.016708652    9.3173528      747.03732     -29.070639      717.96668    
   3010000   303.36296      0.016708652    8.0906586      752.65186     -26.274843      726.37702    
   3011000   293.4878       0.016708652    8.1803831      728.15131     -24.018796      704.13252    
   3012000   309.44904      0.016708652    5.1531454      767.75159     -19.532345      748.21925    
   3013000   300.64087      0.016708652    11.5721        745.8983      -25.512834      720.38546    
   3014000   292.52884      0.016708652    8.6604607      725.77211     -25.541619      700.23049    
   3015000   302.19126      0.016708652    6.9547433      749.74486     -24.558208      725.18665    
   3016000   313.7201       0.016708652    12.438653      778.34823     -26.173588      752.17464    
   3017000   292.56618      0.016708652    11.164179      725.86476     -26.90005       698.96471    
   3018000   295.48315      0.016708652    5.2179007      733.10184     -36.926942      696.1749     
   3019000   307.94698      0.016708652    9.5771056      764.02496     -33.110318      730.91464    
   3020000   311.07361      0.016708652    9.1915126      771.7822      -33.205705      738.5765     
   3021000   299.18642      0.016708652    7.826865       742.28976     -31.513954      710.77581    
   3022000   295.66185      0.016708652    8.6243058      733.54519     -28.745374      704.79981    
   3023000   303.56342      0.016708652    12.470318      753.14921     -29.846058      723.30315    
   3024000   310.94121      0.016708652    8.565308       771.45372     -35.602454      735.85127    
   3025000   301.32027      0.016708652    7.351798       747.58389     -31.877561      715.70633    
   3026000   291.55744      0.016708652    10.622161      723.36203     -34.097998      689.26404    
   3027000   302.64904      0.016708652    9.7660126      750.8806      -33.007401      717.8732     
   3028000   311.78005      0.016708652    8.7354676      773.53491     -30.208386      743.32652    
   3029000   289.51934      0.016708652    5.7591427      718.30546     -30.946928      687.35853    
   3030000   295.19803      0.016708652    11.243635      732.39444     -27.953716      704.44072    
   3031000   311.01333      0.016708652    9.3004016      771.63263     -25.253513      746.37912    
   3032000   311.24112      0.016708652    6.4170203      772.19779     -27.527173      744.67062    
   3033000   289.13791      0.016708652    10.019363      717.35913     -28.50932       688.84981    
   3034000   313.8317       0.016708652    12.104917      778.62511     -27.587992      751.03712    
   3035000   308.36369      0.016708652    6.1743118      765.05881     -26.647316      738.4115     
   3036000   298.75431      0.016708652    8.6284872      741.21769     -27.693976      713.52371    
   3037000   306.62622      0.016708652    9.8550443      760.74811     -28.64969       732.09842    
   3038000   303.17599      0.016708652    2.1332398      752.188       -28.561477      723.62652    
   3039000   301.51724      0.016708652    4.8405105      748.07258     -29.754053      718.31852    
   3040000   299.17255      0.016708652    11.13869       742.25534     -26.030972      716.22437    
   3041000   302.28534      0.016708652    8.8978466      749.97827     -29.588752      720.38952    
   3042000   308.15795      0.016708652    10.821913      764.54836     -30.504313      734.04405    
   3043000   300.68308      0.016708652    9.7571384      746.00301     -33.376402      712.62661    
   3044000   301.87092      0.016708652    8.1898734      748.95007     -34.106342      714.84373    
   3045000   298.82861      0.016708652    5.9114053      741.40202     -30.465355      710.93666    
   3046000   304.7313       0.016708652    10.559398      756.04675     -27.424928      728.62183    
   3047000   297.59155      0.016708652    8.7941782      738.33283     -24.819073      713.51376    
   3048000   273.94076      0.016708652    8.4189996      679.65458     -25.873914      653.78067    
   3049000   299.55127      0.016708652    9.509543       743.19496     -21.992003      721.20296    
   3050000   306.60539      0.016708652    8.9406685      760.69643     -25.503129      735.1933     
   3051000   297.04843      0.016708652    8.6252073      736.98535     -25.629891      711.35546    
   3052000   297.9436       0.016708652    8.8317804      739.20628     -25.41674       713.78954    
   3053000   312.22184      0.016708652    10.278256      774.631       -22.904628      751.72637    
   3054000   304.1083       0.016708652    7.035402       754.50108     -20.213825      734.28725    
   3055000   298.20843      0.016708652    15.935454      739.86334     -23.334033      716.52931    
   3056000   320.9652       0.016708652    16.593603      796.32351     -22.519419      773.80409    
   3057000   297.69812      0.016708652    3.3345733      738.59725     -24.836604      713.76064    
   3058000   296.46755      0.016708652    9.8208652      735.54416     -24.643062      710.9011     
   3059000   322.45225      0.016708652    17.728404      800.01293     -26.118101      773.89483    
   3060000   304.09174      0.016708652    7.4138923      754.46        -25.27323       729.18676    
   3061000   300.02727      0.016708652    1.1329541      744.37593     -23.890672      720.48526    
   3062000   291.00874      0.016708652    9.6057019      722.00071     -24.592382      697.40833    
   3063000   306.99679      0.016708652    9.8205869      761.66749     -22.451549      739.21594    
   3064000   322.91788      0.016708652    10.386609      801.16816     -22.139192      779.02897    
   3065000   298.01653      0.016708652    8.2117256      739.38722     -30.233964      709.15325    
   3066000   298.96004      0.016708652    9.0909294      741.72811     -26.939064      714.78905    
   3067000   323.02258      0.016708652    10.210996      801.42793     -29.783565      771.64436    
   3068000   299.20604      0.016708652    0.24708615     742.33843     -29.190258      713.14818    
   3069000   287.96437      0.016708652    6.3930955      714.44755     -28.044066      686.40349    
   3070000   293.19503      0.016708652    9.9533673      727.42494     -26.302796      701.12215    
   3071000   311.10455      0.016708652    12.616829      771.85897     -33.516271      738.3427     
   3072000   303.27512      0.016708652    8.0247118      752.43392     -32.941117      719.49281    
   3073000   276.72984      0.016708652    9.1098185      686.57437     -33.490302      653.08407    
   3074000   298.61883      0.016708652    11.040265      740.88154     -35.611559      705.26998    
   3075000   309.63825      0.016708652    9.5171292      768.22103     -31.554236      736.66679    
   3076000   306.42679      0.016708652    8.3518943      760.25331     -30.81452       729.43879    
   3077000   282.86252      0.016708652    8.1286613      701.78972     -39.141902      662.64782    
   3078000   294.61855      0.016708652    11.464949      730.95674     -35.362949      695.5938     
   3079000   301.8242       0.016708652    10.698267      748.83415     -27.224561      721.60959    
   3080000   298.63556      0.016708652    6.3542846      740.92306     -25.9978        714.92526    
   3081000   301.25212      0.016708652    13.56546       747.4148      -20.23594       727.17886    
   3082000   303.43067      0.016708652    12.001874      752.81986     -21.474456      731.34541    
   3083000   306.35959      0.016708652    6.9454297      760.08658     -27.372845      732.71374    
   3084000   296.35725      0.016708652    7.3663776      735.27052     -27.021368      708.24915    
   3085000   288.45804      0.016708652    12.123147      715.67235     -23.77225       691.9001     
   3086000   317.99774      0.016708652    17.090362      788.96115     -24.055222      764.90593    
   3087000   297.14927      0.016708652    4.6279023      737.23553     -22.466089      714.76944    
   3088000   287.73351      0.016708652    7.8437692      713.87476     -25.569227      688.30554    
   3089000   294.04657      0.016708652    7.7955932      729.53764     -23.303599      706.23404    
   3090000   318.17604      0.016708652    11.355129      789.40352     -28.509437      760.89409    
   3091000   295.2285       0.016708652    7.6500514      732.47004     -25.293905      707.17614    
   3092000   296.22338      0.016708652    8.0914801      734.93838     -28.975112      705.96327    
   3093000   312.36622      0.016708652    17.034516      774.9892      -22.920673      752.06852    
   3094000   301.1973       0.016708652    13.811995      747.2788      -22.34994       724.92886    
   3095000   312.03219      0.016708652   -11.812166      774.16045     -25.703258      748.4572     
   3096000   292.32494      0.016708652    9.2643854      725.26624     -25.022257      700.24398    
   3097000   300.64201      0.016708652   -3.4239469      745.90111     -21.304765      724.59635    
   3098000   300.57358      0.016708652    16.429941      745.73133     -24.789286      720.94204    
   3099000   302.5429       0.016708652    7.656324       750.61727     -23.94945       726.66782    
   3100000   281.97025      0.016708652    7.6605411      699.57596     -22.128866      677.44709    
   3101000   316.81308      0.016708652    9.3084836      786.02198     -22.149121      763.87286    
   3102000   302.66291      0.016708652    9.0616461      750.91503     -23.570786      727.34424    
   3103000   294.35872      0.016708652    12.583637      730.3121      -28.850053      701.46204    
   3104000   295.37632      0.016708652   -1.153858       732.83678     -28.330287      704.5065     
   3105000   313.93807      0.016708652    2.5345749      778.88902     -22.417529      756.47149    
   3106000   296.72121      0.016708652    20.110713      736.17349     -19.055758      717.11774    
   3107000   291.1868       0.016708652    7.431645       722.44247     -22.181413      700.26106    
   3108000   302.17355      0.016708652    6.9939433      749.70091     -24.050642      725.65027    
   3109000   310.32062      0.016708652    8.1495066      769.914       -26.068512      743.84549    
   3110000   298.38494      0.016708652    0.55553486     740.30125     -26.404689      713.89656    
   3111000   303.11345      0.016708652    9.6811688      752.03283     -26.617385      725.41545    
   3112000   301.17363      0.016708652    11.407313      747.22007     -29.879324      717.34075    
   3113000   308.51642      0.016708652   -4.9524887      765.43775     -32.982719      732.45503    
   3114000   304.58194      0.016708652    15.874397      755.67619     -30.938738      724.73745    
   3115000   293.62895      0.016708652    23.987088      728.50152     -26.500028      702.00149    
   3116000   307.5899       0.016708652    7.3075243      763.13902     -24.546056      738.59296    
   3117000   298.16198      0.016708652    5.9890779      739.74808     -27.218013      712.53007    
   3118000   303.83464      0.016708652    1.8421063      753.82212     -25.08019       728.74193    
   3119000   295.62994      0.016708652    13.198402      733.46604     -24.502712      708.96333    
   3120000   289.08494      0.016708652    11.930218      717.2277      -28.010507      689.21719    
   3121000   305.97744      0.016708652    2.7613636      759.13846     -25.136341      734.00212    
   3122000   304.16374      0.016708652    4.6069306      754.63862     -28.686054      725.95257    
   3123000   309.70698      0.016708652    31.060866      768.39155     -27.448674      740.94287    
   3124000   297.78608      0.016708652    11.585741      738.81548     -29.459639      709.35584    
   3125000   290.75028      0.016708652    8.4463999      721.35945     -23.418817      697.94063    
   3126000   296.04043      0.016708652    7.6990111      734.48447     -28.155301      706.32917    
   3127000   307.94949      0.016708652    2.6326808      764.03117     -23.396755      740.63441    
   3128000   314.74669      0.016708652    12.259971      780.89521     -24.164929      756.73028    
   3129000   307.46382      0.016708652    12.15247       762.8262      -28.587767      734.23843    
   3130000   284.30774      0.016708652    10.127185      705.37534     -26.922622      678.45272    
   3131000   304.91778      0.016708652    2.7996919      756.50941     -32.419583      724.08983    
   3132000   312.25899      0.016708652    10.053108      774.72317     -31.802251      742.92092    
   3133000   302.56185      0.016708652    14.427325      750.66428     -32.04312       718.62116    
   3134000   285.20264      0.016708652    6.757748       707.59561     -27.84254       679.75307    
   3135000   295.29438      0.016708652    3.4273329      732.6335      -27.845607      704.78789    
   3136000   312.96377      0.016708652    3.8513007      776.47175     -25.307283      751.16446    
   3137000   300.88646      0.016708652    11.637329      746.5076      -25.513435      720.99417    
   3138000   290.98345      0.016708652    15.695172      721.93795     -25.803292      696.13466    
   3139000   303.88121      0.016708652    8.7693205      753.93766     -24.533916      729.40374    
   3140000   312.58612      0.016708652    8.8639954      775.53478     -27.162675      748.37211    
   3141000   301.70492      0.016708652    11.011136      748.53821     -25.562926      722.97529    
   3142000   296.1948       0.016708652    10.179637      734.86746     -26.039758      708.82771    
   3143000   293.158        0.016708652    9.1780536      727.33307     -28.731088      698.60198    
   3144000   296.05067      0.016708652    7.4293774      734.50988     -26.483762      708.02612    
   3145000   298.84344      0.016708652    6.534579       741.43882     -27.837931      713.60089    
   3146000   299.90516      0.016708652    15.467547      744.07297     -25.593025      718.47995    
   3147000   299.80638      0.016708652    7.2602993      743.82789     -29.87148       713.95641    
   3148000   306.69218      0.016708652    11.683667      760.91175     -26.563813      734.34794    
   3149000   283.77591      0.016708652    12.105805      704.05586     -23.877482      680.17838    
   3150000   299.54945      0.016708652    7.190289       743.19044     -26.10025       717.09019    
   3151000   313.72335      0.016708652    6.4700585      778.35629     -26.321203      752.03508    
   3152000   298.77092      0.016708652    9.8279915      741.25889     -22.040465      719.21843    
   3153000   284.73489      0.016708652    6.6144491      706.43511     -23.832016      682.60309    
   3154000   318.20483      0.016708652    8.0397829      789.47496     -21.717577      767.75738    
   3155000   302.13403      0.016708652    12.198599      749.60285     -21.72973       727.87312    
   3156000   281.9034       0.016708652    8.8186222      699.4101      -26.018093      673.392      
   3157000   294.33551      0.016708652    8.8806028      730.25451     -25.608242      704.64627    
   3158000   301.53389      0.016708652    9.882635       748.11389     -27.481959      720.63193    
   3159000   311.46135      0.016708652    8.0269385      772.74419     -29.229059      743.51514    
   3160000   299.26377      0.016708652    8.3348192      742.48165     -31.799713      710.68194    
   3161000   281.86098      0.016708652    8.4758253      699.30487     -29.377347      669.92753    
   3162000   297.19674      0.016708652    14.007514      737.35331     -28.878209      708.47511    
   3163000   316.91176      0.016708652    11.589209      786.2668      -31.203243      755.06356    
   3164000   284.69771      0.016708652    1.154198       706.34287     -32.48157       673.8613     
   3165000   285.81939      0.016708652    13.579276      709.12579     -30.421426      678.70436    
   3166000   300.98352      0.016708652    14.962659      746.74841     -29.766794      716.98161    
   3167000   309.74718      0.016708652    7.4221815      768.4913      -27.465171      741.02613    
   3168000   300.42567      0.016708652    5.4479229      745.36437     -27.587731      717.77664    
   3169000   294.74554      0.016708652    6.8601519      731.2718      -28.528571      702.74323    
   3170000   296.04622      0.016708652    12.950949      734.49883     -30.158437      704.34039    
   3171000   294.28657      0.016708652    10.776827      730.13309     -28.729938      701.40315    
   3172000   296.37587      0.016708652    9.6556223      735.31671     -27.081151      708.23556    
   3173000   298.53237      0.016708652    1.2980054      740.66703     -27.230789      713.43624    
   3174000   295.96598      0.016708652    10.350485      734.29975     -34.676151      699.6236     
   3175000   300.081        0.016708652    12.845254      744.50922     -35.756701      708.75252    
   3176000   310.33994      0.016708652    1.007122       769.96194     -30.638646      739.3233     
   3177000   302.40438      0.016708652    8.3462296      750.27361     -32.99631       717.2773     
   3178000   299.03098      0.016708652    9.8006926      741.90411     -32.912333      708.99178    
   3179000   299.25626      0.016708652    10.775422      742.46303     -27.370581      715.09244    
   3180000   317.36874      0.016708652    6.5399611      787.40059     -29.591239      757.80935    
   3181000   306.28652      0.016708652    8.669802       759.9053      -28.851539      731.05376    
   3182000   286.10055      0.016708652    8.831491       709.82335     -32.810748      677.0126     
   3183000   287.97858      0.016708652    10.264437      714.48279     -30.227311      684.25548    
   3184000   313.7113       0.016708652    11.170735      778.32638     -30.130234      748.19615    
   3185000   301.73703      0.016708652    8.501442       748.61789     -37.980969      710.63692    
   3186000   290.15258      0.016708652    8.9970562      719.87654     -32.626643      687.24989    
   3187000   307.93913      0.016708652    8.1349878      764.00548     -31.432814      732.57267    
   3188000   308.82159      0.016708652    9.654273       766.19488     -30.350861      735.84402    
   3189000   296.99919      0.016708652    9.2669421      736.86317     -28.090469      708.7727     
   3190000   289.42549      0.016708652    8.3562513      718.07261     -28.338158      689.73445    
   3191000   296.61711      0.016708652    5.9534126      735.91523     -29.54404       706.37119    
   3192000   323.8772       0.016708652    9.9047589      803.54825     -27.279968      776.26828    
   3193000   297.26812      0.016708652    9.339944       737.53039     -28.291235      709.23916    
   3194000   295.66615      0.016708652    9.4288387      733.55587     -27.839698      705.71618    
   3195000   285.00018      0.016708652    5.5508502      707.09331     -33.840414      673.2529     
   3196000   309.42312      0.016708652    10.713568      767.68729     -28.408975      739.27831    
   3197000   300.06101      0.016708652    8.4911532      744.45964     -29.993187      714.46645    
   3198000   301.77514      0.016708652    6.4954236      748.71245     -30.484197      718.22825    
   3199000   301.33933      0.016708652    9.3967286      747.63118     -26.875388      720.75579    
   3200000   297.14932      0.016708652    8.8831879      737.23565     -28.731103      708.50455    
   3201000   306.49088      0.016708652    7.9384286      760.41232     -26.75245       733.65987    
   3202000   293.13226      0.016708652    9.0867115      727.26922     -28.070929      699.19829    
   3203000   303.88385      0.016708652    13.613214      753.94421     -30.861288      723.08292    
   3204000   303.4724       0.016708652    10.372653      752.92338     -30.082904      722.84048    
   3205000   296.11855      0.016708652    8.2709619      734.67828     -28.980975      705.69731    
   3206000   300.32858      0.016708652    6.6007165      745.12348     -27.235588      717.8879     
   3207000   301.76634      0.016708652    10.162572      748.6906      -28.578013      720.11259    
   3208000   293.03408      0.016708652    9.2990898      727.02563     -24.417046      702.60858    
   3209000   311.28678      0.016708652    11.558079      772.31109     -24.986321      747.32477    
   3210000   303.08982      0.016708652    9.6216885      751.9742      -25.03817       726.93603    
   3211000   293.85766      0.016708652    9.6186967      729.06895     -24.622738      704.44621    
   3212000   290.94451      0.016708652    7.339734       721.84135     -27.156857      694.68449    
   3213000   299.95192      0.016708652    8.2138087      744.18898     -25.690084      718.49889    
   3214000   298.05167      0.016708652    9.5419161      739.47441     -24.188267      715.28614    
   3215000   309.58682      0.016708652    12.483052      768.09343     -24.18578       743.90765    
   3216000   301.60613      0.016708652    3.0478376      748.29313     -25.87603       722.4171     
   3217000   305.34994      0.016708652    12.820087      757.58161     -27.936424      729.64519    
   3218000   304.9354       0.016708652    8.9009978      756.55314     -28.233635      728.3195     
   3219000   301.14422      0.016708652    7.3759739      747.14711     -29.957072      717.19003    
   3220000   315.16257      0.016708652    7.8725967      781.92703     -25.620131      756.30689    
   3221000   304.65076      0.016708652    8.5699531      755.84693     -27.15541       728.69152    
   3222000   286.63808      0.016708652    9.5265073      711.15698     -23.849949      687.30703    
   3223000   295.02572      0.016708652    12.409277      731.96694     -26.842022      705.12492    
   3224000   315.41812      0.016708652    10.344805      782.56104     -30.512562      752.04848    
   3225000   300.54869      0.016708652    8.7594958      745.66957     -26.571237      719.09834    
   3226000   297.86415      0.016708652    6.7856472      739.00917     -30.96689       708.04228    
   3227000   285.60727      0.016708652    15.326913      708.59951     -31.620692      676.97882    
   3228000   307.74272      0.016708652    13.430318      763.51818     -33.304819      730.21336    
   3229000   299.75311      0.016708652   -1.2910949      743.69572     -29.72619       713.96953    
   3230000   290.67172      0.016708652    7.3924337      721.16456     -27.878062      693.2865     
   3231000   302.90912      0.016708652    9.7954687      751.52588     -24.749702      726.77618    
   3232000   321.77509      0.016708652    9.7720308      798.33286     -20.568581      777.76428    
   3233000   306.08993      0.016708652    1.9239084      759.41756     -23.059221      736.35834    
   3234000   291.01534      0.016708652    7.2640056      722.01708     -23.650468      698.36661    
   3235000   293.34246      0.016708652    13.178242      727.79073     -23.392144      704.39859    
   3236000   314.19799      0.016708652    10.104477      779.53387     -21.367497      758.16637    
   3237000   306.90584      0.016708652    2.4195867      761.44186     -23.377019      738.06484    
   3238000   282.23907      0.016708652    9.5921524      700.24292     -25.118903      675.12401    
   3239000   306.61862      0.016708652    10.728145      760.72925     -27.368783      733.36046    
   3240000   304.59459      0.016708652    8.7241963      755.70757     -23.427147      732.28042    
   3241000   293.24099      0.016708652    6.7930241      727.53899     -27.84241       699.69657    
   3242000   286.05502      0.016708652    7.9570178      709.7104      -30.661472      679.04893    
   3243000   300.86007      0.016708652    10.228513      746.44213     -21.746372      724.69576    
   3244000   311.34368      0.016708652    9.0298175      772.45226     -27.811732      744.64053    
   3245000   308.55995      0.016708652    7.6268194      765.54575     -30.626327      734.91942    
   3246000   283.67348      0.016708652    6.4538859      703.80171     -29.079152      674.72256    
   3247000   289.14799      0.016708652    4.3378391      717.38414     -25.408935      691.9752     
   3248000   315.13284      0.016708652    3.5027184      781.85326     -30.176415      751.67684    
   3249000   301.50721      0.016708652    8.7114086      748.0477      -30.442876      717.60482    
   3250000   295.48573      0.016708652    10.372519      733.10824     -31.329087      701.77916    
   3251000   307.82485      0.016708652    7.7699543      763.72194     -33.943004      729.77894    
   3252000   316.83974      0.016708652    8.2711045      786.08813     -33.906038      752.18209    
   3253000   300.36615      0.016708652    9.3216191      745.2167      -33.885852      711.33085    
   3254000   289.94025      0.016708652    9.6562273      719.34976     -29.812992      689.53677    
   3255000   300.45346      0.016708652    2.6812257      745.43332     -29.308808      716.12451    
   3256000   313.94031      0.016708652    10.309561      778.89455     -27.470772      751.42378    
   3257000   290.72041      0.016708652    8.4420991      721.28534     -26.534267      694.75108    
   3258000   293.13293      0.016708652    8.7939179      727.27088     -28.220389      699.05049    
   3259000   312.72427      0.016708652    8.9551077      775.87755     -30.220975      745.65657    
   3260000   310.16217      0.016708652    9.2514778      769.5209      -29.180943      740.33995    
   3261000   299.58767      0.016708652    8.3764772      743.28526     -31.377265      711.90799    
   3262000   283.86911      0.016708652    8.6366333      704.28709     -30.388275      673.89882    
   3263000   304.89374      0.016708652    10.410581      756.44978     -37.432161      719.01762    
   3264000   313.29456      0.016708652    9.6528403      777.29243     -34.951249      742.34118    
   3265000   302.08508      0.016708652    10.121627      749.48141     -38.139684      711.34173    
   3266000   285.40723      0.016708652    10.826429      708.10321     -32.620142      675.48307    
   3267000   293.40573      0.016708652    11.016077      727.94771     -33.377932      694.56978    
   3268000   298.64824      0.016708652    7.4991411      740.9545      -33.704738      707.24977    
   3269000   303.9001       0.016708652    8.6290194      753.98452     -31.838319      722.1462     
   3270000   308.34007      0.016708652    7.0868193      765.00022     -29.811864      735.18835    
   3271000   303.9371       0.016708652    8.904669       754.07631     -31.232521      722.84379    
   3272000   293.65276      0.016708652    11.719968      728.5606      -27.688246      700.87235    
   3273000   287.2019       0.016708652    7.1714845      712.55583     -26.205495      686.35034    
   3274000   298.75355      0.016708652    9.4039261      741.2158      -25.698903      715.5169     
   3275000   316.58593      0.016708652    10.312106      785.45843     -22.2348        763.22363    
   3276000   301.94931      0.016708652    3.7549462      749.14455     -27.064928      722.07963    
   3277000   289.23138      0.016708652    8.6480782      717.59102     -26.671668      690.91936    
   3278000   306.1058       0.016708652    8.6778176      759.45692     -37.102725      722.35419    
   3279000   303.18541      0.016708652    15.396335      752.21136     -30.875892      721.33546    
   3280000   297.97944      0.016708652    5.4487957      739.2952      -33.833077      705.46213    
   3281000   304.48342      0.016708652    0.51960492     755.43176     -33.414091      722.01767    
   3282000   313.36805      0.016708652    18.020766      777.47477     -35.423342      742.05142    
   3283000   308.61412      0.016708652    11.759676      765.68014     -26.038422      739.64171    
   3284000   289.26269      0.016708652    4.7946784      717.66872     -25.575335      692.09338    
   3285000   296.38763      0.016708652    3.998656       735.34587     -26.325025      709.02084    
   3286000   305.823        0.016708652    9.2539212      758.75528     -28.969001      729.78628    
   3287000   294.10412      0.016708652    8.9794259      729.68043     -28.847041      700.83339    
   3288000   305.6725       0.016708652    5.6666703      758.38189     -24.631559      733.75033    
   3289000   304.468        0.016708652    11.225197      755.39351     -25.76162       729.63189    
   3290000   302.07868      0.016708652    13.495299      749.46554     -25.21974       724.2458     
   3291000   298.64514      0.016708652    5.501284       740.94682     -21.272409      719.67441    
   3292000   297.65481      0.016708652    8.0381129      738.48979     -20.509713      717.98008    
   3293000   315.27048      0.016708652    14.925288      782.19474     -22.092112      760.10263    
   3294000   305.01847      0.016708652    9.5877998      756.75923     -19.493591      737.26564    
   3295000   297.94831      0.016708652    7.6043349      739.21798     -23.440828      715.77715    
   3296000   302.21583      0.016708652    7.668268       749.80582     -28.733977      721.07184    
   3297000   300.20289      0.016708652    10.505459      744.81164     -27.261708      717.54994    
   3298000   295.58224      0.016708652    7.2652223      733.34769     -26.903936      706.44375    
   3299000   303.07209      0.016708652    4.4149118      751.93021     -22.574665      729.35554    
   3300000   301.06056      0.016708652    8.4980276      746.93956     -23.987805      722.95175    
   3301000   294.1783       0.016708652    9.8516868      729.86448     -22.434231      707.43025    
   3302000   306.31251      0.016708652    8.6614847      759.96977     -21.737462      738.23231    
   3303000   295.02949      0.016708652    9.9940197      731.9763      -22.236204      709.7401     
   3304000   302.65366      0.016708652    8.8487475      750.89207     -21.315932      729.57614    
   3305000   301.14358      0.016708652    8.9759395      747.14553     -19.803063      727.34247    
   3306000   280.40769      0.016708652    8.1126094      695.6992      -19.605014      676.09419    
   3307000   304.37363      0.016708652    8.8777055      755.15937     -27.397908      727.76146    
   3308000   303.15543      0.016708652    10.14171       752.13697     -19.721463      732.4155     
   3309000   298.01085      0.016708652    10.131282      739.37313     -22.772782      716.60035    
   3310000   292.69112      0.016708652    9.9698989      726.17475     -24.172314      702.00243    
   3311000   297.1024       0.016708652    5.6123695      737.11923     -20.347578      716.77166    
   3312000   293.13875      0.016708652    8.0180214      727.28533     -21.471033      705.8143     
   3313000   305.70444      0.016708652    9.4288672      758.46114     -24.358163      734.10297    
   3314000   311.94194      0.016708652    4.1082122      773.93655     -24.898531      749.03802    
   3315000   292.61781      0.016708652    9.7380052      725.99286     -22.252852      703.74001    
   3316000   301.77866      0.016708652    9.9648196      748.72117     -25.654786      723.06639    
   3317000   302.62594      0.016708652    8.4777075      750.82329     -23.830894      726.99239    
   3318000   294.24225      0.016708652    8.294863       730.02314     -26.61973       703.40341    
   3319000   293.39803      0.016708652    8.804196       727.9286      -24.684942      703.24366    
   3320000   306.59135      0.016708652    8.7364481      760.66158     -25.250447      735.41114    
   3321000   295.31544      0.016708652    4.904091       732.68574     -26.12749       706.55825    
   3322000   308.19541      0.016708652    8.8133066      764.6413      -25.915527      738.72577    
   3323000   307.3777       0.016708652    11.775079      762.61254     -25.086318      737.52622    
   3324000   303.49269      0.016708652    5.7826999      752.97373     -29.709019      723.26471    
   3325000   299.75599      0.016708652    7.6756393      743.70288     -28.746267      714.95661    
   3326000   294.87973      0.016708652    10.369573      731.60475     -26.231327      705.37342    
   3327000   313.81714      0.016708652    9.5847325      778.58898     -30.321329      748.26765    
   3328000   303.72955      0.016708652    12.117454      753.56138     -30.196469      723.36491    
   3329000   300.28236      0.016708652    6.8663423      745.00882     -26.162238      718.84658    
   3330000   298.95859      0.016708652    18.516201      741.72451     -29.082947      712.64157    
   3331000   299.4928       0.016708652    12.720198      743.0499      -23.394649      719.65525    
   3332000   303.49613      0.016708652    0.5163077      752.98226     -21.824342      731.15792    
   3333000   302.25534      0.016708652    7.6968998      749.90384     -23.698742      726.20509    
   3334000   295.8904       0.016708652    12.805606      734.11224     -25.528027      708.58422    
   3335000   281.71697      0.016708652    6.8561997      698.94758     -32.373219      666.57436    
   3336000   297.88842      0.016708652    10.606403      739.06937     -29.831793      709.23758    
   3337000   314.09189      0.016708652    0.74672942     779.27063     -31.859473      747.41116    
   3338000   303.17846      0.016708652    6.7528744      752.19411     -25.224945      726.96917    
   3339000   298.42733      0.016708652    12.441928      740.40644     -27.962621      712.44382    
   3340000   301.12915      0.016708652    11.24448       747.10972     -29.199366      717.91035    
   3341000   298.41636      0.016708652    0.53993043     740.37921     -32.08984       708.28937    
   3342000   282.21516      0.016708652    4.9102615      700.1836      -36.904893      663.27871    
   3343000   311.37343      0.016708652    23.908831      772.52607     -29.433679      743.09239    
   3344000   318.4502       0.016708652    7.3886         790.08373     -34.993868      755.08986    
   3345000   310.34041      0.016708652    6.9126303      769.96311     -31.791673      738.17144    
   3346000   295.07714      0.016708652    6.630219       732.09453     -28.416366      703.67816    
   3347000   292.29466      0.016708652    10.76077       725.19111     -31.403102      693.78801    
   3348000   306.91966      0.016708652    16.613819      761.47614     -27.444891      734.03125    
   3349000   310.18829      0.016708652    7.6355789      769.58569     -23.644307      745.94138    
   3350000   292.46651      0.016708652    6.9652389      725.61746     -26.516387      699.10107    
   3351000   291.68481      0.016708652    6.4369208      723.67806     -24.759949      698.91811    
   3352000   293.65789      0.016708652    9.7354835      728.57333     -21.939509      706.63382    
   3353000   306.99413      0.016708652    11.109569      761.6609      -23.696513      737.96438    
   3354000   315.90093      0.016708652    11.187121      783.75892     -29.258515      754.50041    
   3355000   294.64081      0.016708652    7.9730119      731.01198     -31.732574      699.2794     
   3356000   307.46522      0.016708652    8.0796548      762.82968     -32.336405      730.49328    
   3357000   299.0309       0.016708652    9.3435712      741.9039      -24.799807      717.10409    
   3358000   312.3688       0.016708652    8.5148101      774.99559     -29.071863      745.92373    
   3359000   293.91662      0.016708652    10.23106       729.21525     -28.832134      700.38311    
   3360000   311.23646      0.016708652    4.9295015      772.18623     -29.392291      742.79394    
   3361000   298.87033      0.016708652    9.1281647      741.50553     -28.268799      713.23673    
   3362000   289.35572      0.016708652    5.4009706      717.89952     -29.240294      688.65923    
   3363000   308.50256      0.016708652    9.0271729      765.40335     -29.531878      735.87147    
   3364000   302.59121      0.016708652    10.030507      750.73714     -31.682786      719.05435    
   3365000   289.72662      0.016708652    8.8752932      718.81973     -33.729935      685.0898     
   3366000   315.37093      0.016708652    9.9731517      782.44398     -29.856355      752.58762    
   3367000   317.67024      0.016708652    8.326738       788.14862     -28.004911      760.14371    
   3368000   293.4377       0.016708652    7.4411701      728.02703     -27.897029      700.13       
   3369000   295.16917      0.016708652    11.735841      732.32285     -27.958547      704.3643     
   3370000   306.29699      0.016708652    9.3884389      759.93127     -26.734273      733.197      
   3371000   286.94997      0.016708652    7.4052793      711.93079     -26.939093      684.9917     
   3372000   301.62291      0.016708652    9.5175224      748.33477     -31.004359      717.33041    
   3373000   316.83593      0.016708652    10.051854      786.07868     -29.608169      756.47051    
   3374000   292.86377      0.016708652    8.6649448      726.6031      -34.813759      691.78934    
   3375000   287.55918      0.016708652    8.4001505      713.44226     -33.017013      680.42525    
   3376000   301.69804      0.016708652    8.6502138      748.52114     -35.342684      713.17846    
   3377000   316.71594      0.016708652    10.036873      785.78098     -32.327682      753.4533     
   3378000   300.15296      0.016708652    8.337972       744.68776     -35.452786      709.23498    
   3379000   286.05773      0.016708652    7.8188975      709.7171      -35.97576       673.74134    
   3380000   297.53626      0.016708652    9.545356       738.19567     -37.273829      700.92184    
   3381000   308.98782      0.016708652    9.9441647      766.60729     -35.623083      730.98421    
   3382000   309.60491      0.016708652    9.1834613      768.13832     -32.943949      735.19437    
   3383000   291.28324      0.016708652    8.6936824      722.68174     -29.285574      693.39617    
   3384000   298.26676      0.016708652    9.0203155      740.00805     -32.555135      707.45292    
   3385000   319.72346      0.016708652    11.295191      793.24271     -28.893787      764.34892    
   3386000   300.6371       0.016708652    8.2604351      745.88894     -29.706462      716.18248    
   3387000   276.81537      0.016708652    8.5771046      686.78657     -33.25701       653.52956    
   3388000   297.65364      0.016708652    8.7856694      738.48689     -37.837226      700.64966    
   3389000   313.69121      0.016708652    11.16194       778.27654     -33.813367      744.46317    
   3390000   299.21121      0.016708652    5.8987597      742.35126     -29.168716      713.18255    
   3391000   287.28041      0.016708652    8.4008709      712.75062     -28.604073      684.14655    
   3392000   288.54589      0.016708652    10.90134       715.89031     -22.309248      693.58106    
   3393000   305.07768      0.016708652    9.4986191      756.90614     -25.537617      731.36853    
   3394000   309.5978       0.016708652    9.3985581      768.12068     -30.395625      737.72506    
   3395000   295.37162      0.016708652    9.25608        732.82513     -28.657328      704.1678     
   3396000   292.22038      0.016708652    8.2134307      725.00681     -29.052085      695.95473    
   3397000   298.50814      0.016708652    7.700381       740.60693     -33.801447      706.80549    
   3398000   311.82036      0.016708652    9.077054       773.6349      -29.057563      744.57734    
   3399000   298.20034      0.016708652    6.9994532      739.84325     -31.015673      708.82758    
   3400000   293.42211      0.016708652    10.073957      727.98835     -31.971035      696.01732    
   3401000   305.9916       0.016708652    9.4714509      759.1736      -32.368852      726.80475    
   3402000   294.93115      0.016708652    7.3233588      731.73232     -33.199499      698.53282    
   3403000   304.22825      0.016708652    9.5935172      754.79868     -32.180543      722.61813    
   3404000   300.2448       0.016708652    9.0566023      744.91563     -33.537842      711.37779    
   3405000   298.79203      0.016708652    8.5293414      741.31126     -30.72744       710.58382    
   3406000   295.96469      0.016708652    8.879357       734.29654     -32.216791      702.07975    
   3407000   305.49431      0.016708652    8.755292       757.9398      -30.061206      727.87859    
   3408000   301.84236      0.016708652    7.7883047      748.87922     -31.657759      717.22146    
   3409000   306.86735      0.016708652    5.4032934      761.34636     -33.35788       727.98848    
   3410000   297.06145      0.016708652    12.26418       737.01765     -25.804581      711.21307    
   3411000   303.89199      0.016708652    9.7017332      753.96439     -27.401273      726.56312    
   3412000   275.62886      0.016708652    12.615017      683.84279     -27.103674      656.73912    
   3413000   284.9056       0.016708652    8.9702501      706.85864     -28.256063      678.60258    
   3414000   303.77955      0.016708652    7.6619422      753.68543     -31.589198      722.09623    
   3415000   309.40203      0.016708652    9.86563        767.63496     -33.820892      733.81407    
   3416000   290.94199      0.016708652    11.480973      721.8351      -29.797339      692.03776    
   3417000   303.60818      0.016708652    8.6479776      753.26025     -30.731774      722.52848    
   3418000   309.12935      0.016708652    6.0267338      766.95844     -31.840389      735.11805    
   3419000   294.88653      0.016708652    9.4166478      731.62161     -27.371719      704.2499     
   3420000   289.78656      0.016708652    7.0631859      718.96845     -26.749801      692.21865    
   3421000   303.61887      0.016708652    8.8900484      753.28677     -26.874883      726.41189    
   3422000   308.98685      0.016708652    8.9220508      766.60488     -28.71045       737.89443    
   3423000   294.71437      0.016708652    8.4279582      731.19448     -33.998445      697.19604    
   3424000   297.82893      0.016708652    8.0516216      738.92178     -32.510355      706.41143    
   3425000   305.49195      0.016708652    10.383637      757.93394     -32.621913      725.31202    
   3426000   299.66078      0.016708652    9.3124242      743.46664     -34.621888      708.84476    
   3427000   288.67591      0.016708652    6.980348       716.21288     -32.340822      683.87206    
   3428000   305.76527      0.016708652    9.6049174      758.61207     -31.221192      727.39087    
   3429000   306.55893      0.016708652    10.990436      760.58114     -30.552165      730.02898    
   3430000   289.18774      0.016708652    11.786561      717.48276     -27.846583      689.63618    
   3431000   305.53224      0.016708652    10.887071      758.0339      -27.701736      730.33216    
   3432000   292.46824      0.016708652    6.7585757      725.62177     -30.85808       694.7637     
   3433000   309.43731      0.016708652    9.7177236      767.72249     -29.5305        738.19199    
   3434000   297.4735       0.016708652    10.982918      738.03995     -26.671607      711.36834    
   3435000   293.5716       0.016708652    9.0777441      728.35924     -35.365064      692.99417    
   3436000   321.24388      0.016708652    11.469861      797.01492     -29.423465      767.59145    
   3437000   309.92463      0.016708652    8.3752855      768.93154     -31.770469      737.16107    
   3438000   287.07808      0.016708652    8.2177524      712.24863     -28.766368      683.48226    
   3439000   288.27091      0.016708652    13.795683      715.20808     -29.274927      685.93315    
   3440000   315.80892      0.016708652    14.174915      783.53063     -26.639488      756.89114    
   3441000   302.97489      0.016708652    4.9365753      751.68905     -25.216607      726.47245    
   3442000   297.82617      0.016708652    8.2798575      738.91493     -24.412381      714.50255    
   3443000   299.16659      0.016708652    11.395782      742.24055     -32.026245      710.2143     
   3444000   306.46266      0.016708652    15.642117      760.34232     -28.214371      732.12795    
   3445000   302.20484      0.016708652    5.7645885      749.77854     -28.153976      721.62457    
   3446000   299.03964      0.016708652    5.5171378      741.92558     -27.404792      714.52079    
   3447000   296.56958      0.016708652    16.151339      735.7973      -31.43735       704.35995    
   3448000   298.73909      0.016708652    12.21271       741.17991     -32.444546      708.73536    
   3449000   303.8315       0.016708652   -6.3750804      753.81432     -30.122489      723.69183    
   3450000   301.48003      0.016708652    11.221012      747.98027     -24.383677      723.59659    
   3451000   294.22418      0.016708652    12.201257      729.97831     -35.99069       693.98762    
   3452000   296.13502      0.016708652   -4.8800025      734.71915     -33.635779      701.08337    
   3453000   303.44515      0.016708652    12.788813      752.85579     -30.255774      722.60002    
   3454000   318.85153      0.016708652    8.9926696      791.07943     -27.375726      763.70371    
   3455000   289.8851       0.016708652    7.8006036      719.21292     -29.937066      689.27585    
   3456000   289.383        0.016708652    10.90713       717.9672      -33.018579      684.94862    
   3457000   300.41965      0.016708652    9.7726188      745.34943     -31.23322       714.11621    
   3458000   302.55963      0.016708652    15.612088      750.65879     -30.823084      719.83571    
   3459000   305.34226      0.016708652    12.565252      757.56257     -33.01026       724.55231    
   3460000   309.77325      0.016708652    5.0168178      768.55598     -34.235797      734.32018    
   3461000   292.06225      0.016708652    12.968821      724.61449     -30.553527      694.06097    
   3462000   298.28392      0.016708652    11.277107      740.05062     -30.693671      709.35695    
   3463000   306.20406      0.016708652    9.2799669      759.70072     -28.589217      731.1115     
   3464000   305.70568      0.016708652    8.0661451      758.46421     -25.822628      732.64159    
   3465000   291.27334      0.016708652    8.6901409      722.65718     -24.183919      698.47326    
   3466000   283.69861      0.016708652    10.168814      703.86407     -25.3517        678.51237    
   3467000   309.46674      0.016708652    9.8244011      767.79551     -23.908857      743.88666    
   3468000   309.16309      0.016708652    8.7389333      767.04215     -23.560369      743.48178    
   3469000   285.12982      0.016708652    9.3727863      707.41494     -27.035786      680.37915    
   3470000   309.80503      0.016708652    9.6108445      768.63481     -22.363656      746.27115    
   3471000   301.38613      0.016708652    7.629297       747.74729     -19.84621       727.90109    
   3472000   295.5255       0.016708652    7.7339495      733.20691     -24.231501      708.97541    
   3473000   311.72724      0.016708652    9.5549595      773.40388     -24.637016      748.76687    
   3474000   308.39927      0.016708652    9.8710003      765.14708     -22.819968      742.32711    
   3475000   308.98637      0.016708652    10.307221      766.6037      -25.634993      740.9687     
   3476000   301.73179      0.016708652    6.3464518      748.6049      -25.538457      723.06644    
   3477000   306.64683      0.016708652    9.2243821      760.79924     -25.42988       735.36936    
   3478000   303.43572      0.016708652    11.181714      752.83238     -23.657032      729.17535    
   3479000   282.54096      0.016708652    1.4612755      700.99191     -24.167475      676.82443    
   3480000   289.90077      0.016708652    6.0648779      719.2518      -25.03618       694.21562    
   3481000   317.20499      0.016708652    10.88359       786.99432     -29.100291      757.89403    
   3482000   303.75266      0.016708652    21.33158       753.61873     -28.901922      724.71681    
   3483000   294.05878      0.016708652    6.1506969      729.56795     -28.411143      701.1568     
   3484000   305.64552      0.016708652    5.5379306      758.31496     -26.048837      732.26613    
   3485000   310.21835      0.016708652    10.796195      769.66029     -28.144758      741.51553    
   3486000   302.78001      0.016708652    9.5641314      751.20556     -25.113721      726.09184    
   3487000   289.5923       0.016708652    11.48834       718.48648     -28.851022      689.63546    
   3488000   294.40465      0.016708652    7.2256655      730.42604     -32.065977      698.36007    
   3489000   315.03548      0.016708652    5.1289528      781.61172     -26.737592      754.87412    
   3490000   306.27035      0.016708652    9.2710222      759.86517     -29.262447      730.60273    
   3491000   291.73503      0.016708652    10.331529      723.80265     -25.27897       698.52368    
   3492000   296.0196       0.016708652    11.89656       734.43279     -30.657041      703.77575    
   3493000   302.18936      0.016708652    12.06632       749.74013     -25.860753      723.87938    
   3494000   281.76596      0.016708652    1.8877214      699.06913     -26.068246      673.00088    
   3495000   304.1885       0.016708652    3.2512265      754.70005     -27.850547      726.8495     
   3496000   312.57097      0.016708652    10.963176      775.4972      -26.677427      748.81977    
   3497000   283.15288      0.016708652    12.558757      702.5101      -27.98051       674.52959    
   3498000   298.46268      0.016708652    4.4210035      740.49412     -28.595701      711.89842    
   3499000   313.42444      0.016708652    8.4323954      777.61466     -28.370621      749.24404    
   3500000   299.14827      0.016708652    10.992062      742.19511     -29.868877      712.32623    
   3501000   303.86707      0.016708652    7.7668677      753.90259     -28.511129      725.39146    
   3502000   302.25297      0.016708652    8.618935       749.89795     -26.091918      723.80603    
   3503000   301.17055      0.016708652    8.7123679      747.21244     -25.128132      722.08431    
   3504000   296.27022      0.016708652    10.612658      735.05459     -27.112713      707.94187    
   3505000   308.65099      0.016708652    8.5352207      765.77161     -28.713837      737.05778    
   3506000   295.07888      0.016708652    8.5007453      732.09884     -25.24925       706.84959    
   3507000   297.6824       0.016708652    7.4010119      738.55824     -29.466202      709.09204    
   3508000   316.32014      0.016708652    6.4964482      784.79898     -28.000418      756.79857    
   3509000   304.90647      0.016708652    8.5921376      756.48136     -30.07564       726.40572    
   3510000   296.8969       0.016708652    7.3511464      736.6094      -30.408803      706.2006     
   3511000   300.56286      0.016708652    8.5236388      745.70474     -25.372116      720.33262    
   3512000   303.31369      0.016708652    13.961335      752.52963     -25.276253      727.25338    
   3513000   298.99425      0.016708652    10.576405      741.81296     -25.192342      716.62062    
   3514000   308.86667      0.016708652    3.4948047      766.30673     -26.070672      740.23606    
   3515000   301.20241      0.016708652    6.5116044      747.29147     -32.444657      714.84681    
   3516000   301.46139      0.016708652    8.5667535      747.93402     -31.57835       716.35567    
   3517000   295.78018      0.016708652    9.4677326      733.83877     -26.604141      707.23463    
   3518000   297.27083      0.016708652    8.5699136      737.53713     -33.384253      704.15288    
   3519000   304.37147      0.016708652    8.8316235      755.154       -31.522002      723.632      
   3520000   301.61693      0.016708652    7.7436195      748.31991     -30.403549      717.91636    
   3521000   292.98808      0.016708652    10.052614      726.9115      -26.162892      700.7486     
   3522000   314.31902      0.016708652    10.451211      779.83416     -31.883147      747.95101    
   3523000   309.40219      0.016708652    7.8416985      767.63537     -28.373867      739.2615     
   3524000   289.08664      0.016708652    8.3319482      717.23192     -27.300133      689.93178    
   3525000   305.46105      0.016708652    9.4595913      757.85728     -31.241022      726.61626    
   3526000   305.29622      0.016708652    8.7098045      757.44833     -31.075622      726.37271    
   3527000   298.99104      0.016708652    7.2592994      741.80502     -29.901856      711.90317    
   3528000   295.52711      0.016708652    7.6128377      733.2109      -33.65014       699.56076    
   3529000   295.86741      0.016708652    4.1901101      734.0552      -28.323889      705.73131    
   3530000   300.48012      0.016708652    8.6832446      745.49946     -25.951554      719.54791    
   3531000   299.84727      0.016708652    12.041951      743.92935     -26.168441      717.76091    
   3532000   303.59789      0.016708652    6.3826192      753.23473     -25.498937      727.73579    
   3533000   307.18374      0.016708652    8.0282441      762.13134     -24.833313      737.29802    
   3534000   308.02823      0.016708652    10.228751      764.22654     -25.060439      739.1661     
   3535000   301.47665      0.016708652    8.3336586      747.97187     -27.259818      720.71205    
   3536000   305.67929      0.016708652    9.4270653      758.39876     -25.584549      732.81421    
   3537000   301.84531      0.016708652    10.077386      748.88653     -23.359434      725.52709    
   3538000   282.27875      0.016708652    6.730191       700.34137     -19.049374      681.29199    
   3539000   291.03947      0.016708652    8.6572318      722.07696     -22.091755      699.9852     
   3540000   312.09792      0.016708652    10.395282      774.32353     -21.389464      752.93407    
   3541000   308.02513      0.016708652    12.4024        764.21884     -19.602845      744.61599    
   3542000   295.406        0.016708652    8.991927       732.91043     -20.148368      712.76206    
   3543000   314.79924      0.016708652    8.7432545      781.02558     -24.959097      756.06649    
   3544000   295.30753      0.016708652    10.549366      732.66613     -21.895376      710.77075    
   3545000   295.53444      0.016708652    9.425044       733.22909     -25.173749      708.05534    
   3546000   297.0317       0.016708652    7.7300113      736.94383     -25.342675      711.60115    
   3547000   304.04317      0.016708652    7.6576776      754.33948     -24.43668       729.9028     
   3548000   301.00022      0.016708652    11.711536      746.78983     -24.256795      722.53304    
   3549000   288.32936      0.016708652    8.6601322      715.35308     -22.573471      692.77961    
   3550000   307.27852      0.016708652    8.9725605      762.36648     -24.68854       737.67794    
   3551000   308.68523      0.016708652    11.579787      765.85656     -25.412489      740.44408    
   3552000   291.68402      0.016708652    8.447658       723.67609     -25.625074      698.05102    
   3553000   304.8569       0.016708652    8.3451938      756.35836     -25.654114      730.70425    
   3554000   313.05093      0.016708652    11.849203      776.68798     -30.359188      746.32879    
   3555000   308.55824      0.016708652    14.582835      765.5415      -25.505179      740.03633    
   3556000   281.50589      0.016708652    6.1646184      698.42388     -28.750553      669.67333    
   3557000   293.46394      0.016708652    6.8467181      728.09213     -27.263969      700.82816    
   3558000   303.02119      0.016708652    5.6640309      751.80394     -22.817749      728.98619    
   3559000   308.95804      0.016708652    14.118718      766.53342     -22.420452      744.11296    
   3560000   298.52827      0.016708652    16.497524      740.65686     -26.488711      714.16815    
   3561000   291.27979      0.016708652    4.98927        722.67318     -27.470204      695.20298    
   3562000   290.38205      0.016708652    9.4394089      720.44587     -28.953749      691.49212    
   3563000   299.42765      0.016708652    9.1092016      742.88824     -28.236942      714.6513     
   3564000   317.5192       0.016708652    5.0607078      787.77389     -29.87591       757.89798    
   3565000   308.33003      0.016708652    7.8905294      764.9753      -27.061509      737.91379    
   3566000   288.1664       0.016708652    9.1241898      714.94879     -29.738768      685.21002    
   3567000   293.29404      0.016708652    8.6777907      727.67059     -29.686017      697.98458    
   3568000   310.22932      0.016708652    8.7289631      769.6875      -33.207377      736.48013    
   3569000   299.7314       0.016708652    9.1054727      743.64186     -33.942829      709.69903    
   3570000   303.03872      0.016708652    9.7319236      751.84742     -31.190102      720.65732    
   3571000   307.34036      0.016708652    9.5285962      762.5199      -31.211118      731.30878    
   3572000   305.37543      0.016708652    8.6342905      757.64486     -28.925862      728.719      
   3573000   302.35365      0.016708652    6.2083294      750.14774     -33.873063      716.27468    
   3574000   299.64856      0.016708652    10.796632      743.43634     -29.936629      713.49971    
   3575000   295.06856      0.016708652    10.302545      732.07324     -30.20015       701.87309    
   3576000   298.06256      0.016708652    3.2836522      739.50143     -29.04392       710.4575     
   3577000   303.87098      0.016708652    7.9460233      753.91227     -32.681532      721.23073    
   3578000   283.86225      0.016708652    12.760477      704.27007     -32.036389      672.23368    
   3579000   285.81666      0.016708652    7.9367225      709.11902     -30.981881      678.13714    
   3580000   297.71303      0.016708652    9.8314656      738.63424     -25.778999      712.85524    
   3581000   329.16864      0.016708652    10.641083      816.67647     -29.836525      786.83994    
   3582000   302.69065      0.016708652    8.9077687      750.98386     -28.606263      722.37759    
   3583000   306.88455      0.016708652    6.798311       761.38902     -28.022949      733.36607    
   3584000   290.09707      0.016708652    5.2391014      719.73883     -30.95145       688.78738    
   3585000   280.05743      0.016708652    9.7242907      694.83021     -25.697885      669.13232    
   3586000   305.3109       0.016708652    10.42678       757.48477     -27.267235      730.21753    
   3587000   305.43928      0.016708652    9.3652521      757.80327     -29.308762      728.49451    
   3588000   292.33974      0.016708652    3.3133114      725.30294     -26.258234      699.04471    
   3589000   295.46067      0.016708652    10.919505      733.04607     -26.710302      706.33577    
   3590000   317.98294      0.016708652    19.377273      788.92444     -24.486361      764.43808    
   3591000   308.03565      0.016708652    5.7910353      764.24495     -27.088388      737.15656    
   3592000   283.62959      0.016708652    8.2029554      703.69283     -26.082472      677.61036    
   3593000   283.25326      0.016708652    13.927168      702.75914     -27.031782      675.72736    
   3594000   309.0064       0.016708652    13.072738      766.65339     -27.156471      739.49692    
   3595000   308.84571      0.016708652    7.5896104      766.25473     -23.412955      742.84177    
   3596000   291.38012      0.016708652    5.5418399      722.92211     -23.196285      699.72583    
   3597000   303.30807      0.016708652    8.000952       752.51568     -22.769577      729.74611    
   3598000   293.70516      0.016708652    9.8888503      728.6906      -28.220227      700.47037    
   3599000   294.91224      0.016708652    13.703532      731.68541     -26.811112      704.87429    
   3600000   296.34517      0.016708652    10.097721      735.24053     -29.885358      705.35517    
   3601000   305.73549      0.016708652    1.4758216      758.53819     -29.685979      728.85221    
   3602000   289.41905      0.016708652    10.748186      718.05663     -27.923588      690.13304    
   3603000   300.49031      0.016708652    14.434589      745.52473     -23.66425       721.86048    
   3604000   322.06267      0.016708652    9.5654472      799.04637     -19.024668      780.0217     
   3605000   299.70857      0.016708652    5.6222559      743.58523     -18.697733      724.8875     
   3606000   278.3576       0.016708652    10.162978      690.61287     -21.131232      669.48163    
   3607000   308.0607       0.016708652    12.669438      764.30708     -22.113669      742.19341    
   3608000   313.64131      0.016708652    9.5266182      778.15273     -23.110681      755.04205    
   3609000   289.86329      0.016708652    2.2772719      719.1588      -23.334709      695.82409    
   3610000   296.97405      0.016708652    2.9625071      736.80081     -22.096002      714.7048     
   3611000   300.32258      0.016708652    10.25008       745.10861     -24.139272      720.96934    
   3612000   300.34143      0.016708652    12.528662      745.15536     -26.898448      718.25691    
   3613000   304.61506      0.016708652   -1.2169666      755.75836     -25.72785       730.03051    
   3614000   300.01144      0.016708652    10.800819      744.33664     -27.026886      717.30976    
   3615000   304.84901      0.016708652    11.080307      756.33879     -29.163108      727.17569    
   3616000   306.76549      0.016708652    8.4625955      761.09364     -30.459457      730.63418    
   3617000   307.99038      0.016708652    8.7362064      764.13262     -29.823522      734.3091     
   3618000   304.21284      0.016708652    8.0376709      754.76044     -31.431241      723.3292     
   3619000   291.4145       0.016708652    10.587118      723.00742     -27.727594      695.27982    
   3620000   301.99514      0.016708652    8.9800712      749.25828     -29.310013      719.94826    
   3621000   306.87668      0.016708652    5.9855665      761.36951     -29.271578      732.09793    
   3622000   305.80759      0.016708652    3.7539796      758.71706     -31.160848      727.55621    
   3623000   290.9286       0.016708652    11.347168      721.80187     -28.325316      693.47655    
   3624000   299.12733      0.016708652    14.224378      742.14315     -27.656286      714.48686    
   3625000   304.31198      0.016708652    0.092607122    755.00642     -28.769255      726.23717    
   3626000   302.25072      0.016708652    5.8485207      749.89237     -25.475774      724.4166     
   3627000   298.90146      0.016708652    8.2841749      741.58275     -24.415562      717.16719    
   3628000   298.39891      0.016708652    8.5536166      740.33593     -25.30623       715.0297     
   3629000   302.57378      0.016708652    10.107319      750.69389     -24.416353      726.27753    
   3630000   292.30934      0.016708652    8.6661086      725.22754     -25.003435      700.2241     
   3631000   301.80047      0.016708652    8.8953237      748.77529     -23.228063      725.54723    
   3632000   294.92032      0.016708652    10.463871      731.70544     -22.280273      709.42517    
   3633000   318.28327      0.016708652    9.8048198      789.66956     -21.386592      768.28296    
   3634000   311.80128      0.016708652    8.846254       773.58756     -23.290665      750.2969     
   3635000   311.75924      0.016708652    7.6049041      773.48328     -24.533111      748.95017    
   3636000   295.37242      0.016708652    8.4510952      732.82712     -29.576281      703.25084    
   3637000   299.85933      0.016708652    10.287319      743.95926     -28.255173      715.70408    
   3638000   310.01777      0.016708652    10.142861      769.16262     -31.126249      738.03637    
   3639000   303.76462      0.016708652    8.5845277      753.6484      -31.687591      721.96081    
   3640000   287.16922      0.016708652    9.1623969      712.47475     -30.638468      681.83628    
   3641000   293.83683      0.016708652    8.7076956      729.01728     -30.698012      698.31927    
   3642000   314.6396       0.016708652    10.308848      780.62953     -26.143676      754.48585    
   3643000   310.60795      0.016708652    12.278366      770.62688     -25.683987      744.9429     
   3644000   290.91117      0.016708652    8.0142761      721.75862     -29.389045      692.36958    
   3645000   299.71381      0.016708652    7.5898384      743.59824     -25.899747      717.69849    
   3646000   301.71828      0.016708652    9.3500571      748.57138     -31.853157      716.71822    
   3647000   303.39477      0.016708652    9.0802687      752.73078     -33.414084      719.3167     
   3648000   298.30466      0.016708652    9.9828234      740.10208     -30.788582      709.3135     
   3649000   285.50663      0.016708652    7.2532076      708.34983     -30.877379      677.47245    
   3650000   284.92473      0.016708652    7.6817604      706.90611     -31.319697      675.58641    
   3651000   314.5592       0.016708652    9.460238       780.43006     -31.053801      749.37626    
   3652000   311.25523      0.016708652    9.337478       772.23281     -31.864729      740.36808    
   3653000   302.5058       0.016708652    9.8163733      750.52522     -33.583142      716.94208    
   3654000   289.13165      0.016708652    11.62592       717.34359     -33.756031      683.58756    
   3655000   290.70236      0.016708652    8.3646305      721.24056     -32.283585      688.95698    
   3656000   309.71973      0.016708652    0.77883467     768.42319     -27.429798      740.99339    
   3657000   309.44677      0.016708652    13.374799      767.74596     -28.414721      739.33124    
   3658000   296.69104      0.016708652    13.116364      736.09865     -27.106549      708.9921     
   3659000   283.87975      0.016708652    4.1454163      704.31349     -30.820793      673.4927     
   3660000   306.37438      0.016708652    9.4590623      760.12329     -31.901396      728.22189    
   3661000   299.09168      0.016708652    11.211486      742.05471     -29.97445       712.08026    
   3662000   290.53744      0.016708652    5.1168345      720.83139     -28.376461      692.45493    
   3663000   301.41093      0.016708652    5.8938654      747.80882     -25.021095      722.78772    
   3664000   305.94514      0.016708652    10.036564      759.05832     -23.703379      735.35494    
   3665000   300.64934      0.016708652    15.262357      745.91929     -25.972209      719.94708    
   3666000   298.08956      0.016708652   -4.3699053      739.56843     -25.70744       713.86099    
   3667000   299.31924      0.016708652    7.9042244      742.61928     -22.883149      719.73613    
   3668000   304.21254      0.016708652    18.22441       754.7597      -24.787655      729.97204    
   3669000   303.24261      0.016708652    12.357478      752.35327     -21.168496      731.18477    
   3670000   290.6511       0.016708652    3.296389       721.1134      -20.30501       700.80839    
   3671000   304.75979      0.016708652    4.3787605      756.11744     -24.849271      731.26817    
   3672000   310.41298      0.016708652    18.85694       770.14315     -25.644321      744.49883    
   3673000   304.15151      0.016708652    8.1647421      754.60828     -26.73875       727.86953    
   3674000   286.28241      0.016708652    0.88841234     710.27454     -26.159634      684.11491    
   3675000   292.47341      0.016708652    5.5263242      725.63459     -28.863479      696.77111    
   3676000   314.88029      0.016708652    6.3248289      781.22668     -27.59227       753.63441    
   3677000   305.14567      0.016708652    11.56138       757.07482     -23.668915      733.4059     
   3678000   298.84179      0.016708652    12.324376      741.43471     -21.621103      719.81361    
   3679000   290.60016      0.016708652    10.021564      720.98701     -20.565266      700.42174    
   3680000   305.26606      0.016708652    7.167374       757.3735      -22.165327      735.20818    
   3681000   305.73359      0.016708652    6.9594106      758.53346     -25.452772      733.08069    
   3682000   302.46876      0.016708652    15.090842      750.43334     -24.234896      726.19845    
   3683000   298.4853       0.016708652    10.251439      740.55027     -23.147611      717.40266    
   3684000   302.1792       0.016708652    8.8694623      749.71492     -21.440153      728.27476    
   3685000   301.75732      0.016708652    5.317291       748.66822     -27.681424      720.98679    
   3686000   314.04741      0.016708652    18.646846      779.16028     -23.735724      755.42455    
   3687000   300.73351      0.016708652    14.698854      746.12812     -27.114687      719.01344    
   3688000   298.57788      0.016708652    8.4182068      740.77994     -31.304785      709.47515    
   3689000   298.99823      0.016708652    10.592084      741.82286     -30.27647       711.54639    
   3690000   299.34283      0.016708652    14.166549      742.67781     -31.803237      710.87457    
   3691000   308.02757      0.016708652    6.7892576      764.2249      -26.751351      737.47355    
   3692000   298.94255      0.016708652    7.7235076      741.6847      -29.183057      712.50165    
   3693000   295.40752      0.016708652    8.2480219      732.91421     -28.441486      704.47273    
   3694000   298.11713      0.016708652    9.3338297      739.63681     -26.787738      712.84907    
   3695000   293.45845      0.016708652    9.330675       728.0785      -27.369016      700.70948    
   3696000   301.71301      0.016708652    7.4154818      748.5583      -28.592022      719.96628    
   3697000   300.30189      0.016708652    10.539625      745.05728     -27.434459      717.62282    
   3698000   301.95018      0.016708652    10.659987      749.14671     -28.716156      720.43056    
   3699000   309.90194      0.016708652    8.5280787      768.87525     -28.216047      740.65921    
   3700000   306.95415      0.016708652    7.8442082      761.5617      -32.894061      728.66764    
   3701000   291.85306      0.016708652    10.139927      724.09549     -34.35044       689.74505    
   3702000   294.20815      0.016708652    10.709674      729.93853     -30.56624       699.37229    
   3703000   304.78694      0.016708652    14.109696      756.18481     -27.811414      728.3734     
   3704000   318.2435       0.016708652    10.163499      789.57091     -26.718347      762.85256    
   3705000   298.66658      0.016708652    5.8652944      741.00002     -29.423732      711.57628    
   3706000   289.08254      0.016708652    6.091037       717.22176     -28.685414      688.53634    
   3707000   297.80059      0.016708652    12.840336      738.85148     -27.876021      710.97546    
   3708000   304.50573      0.016708652    11.346524      755.4871      -30.001084      725.48602    
   3709000   299.35393      0.016708652    3.4604997      742.70535     -29.591815      713.11354    
   3710000   300.93435      0.016708652    10.830577      746.62643     -25.932782      720.69365    
   3711000   307.18405      0.016708652    9.946302       762.13209     -27.089284      735.0428     
   3712000   294.97083      0.016708652    7.5485715      731.83076     -29.215965      702.6148     
   3713000   308.28744      0.016708652    7.0411193      764.86963     -24.202306      740.66732    
   3714000   301.57821      0.016708652    8.7646401      748.22386     -27.476009      720.74785    
   3715000   294.74156      0.016708652    9.4727606      731.26194     -24.446984      706.81495    
   3716000   313.98809      0.016708652    10.724342      779.0131      -29.680326      749.33277    
   3717000   307.92004      0.016708652    4.3352061      763.9581      -27.640945      736.31716    
   3718000   295.1233       0.016708652    3.3275055      732.20904     -30.881652      701.32739    
   3719000   294.51693      0.016708652    8.0760896      730.70462     -30.177162      700.52746    
   3720000   286.48041      0.016708652    9.1619441      710.7658      -31.958169      678.80763    
   3721000   299.95074      0.016708652    8.9688869      744.18605     -31.249859      712.93619    
   3722000   290.5693       0.016708652    8.0888381      720.91044     -27.354657      693.55578    
   3723000   301.40313      0.016708652    10.915046      747.78949     -24.842416      722.94707    
   3724000   297.39601      0.016708652    9.2204706      737.8477      -22.412973      715.43473    
   3725000   305.47431      0.016708652    7.4104375      757.89019     -24.204998      733.68519    
   3726000   306.10549      0.016708652    6.9106032      759.45616     -25.143537      734.31262    
   3727000   291.99255      0.016708652    10.030743      724.44156     -22.340741      702.10082    
   3728000   301.30464      0.016708652    11.956402      747.54512     -22.513683      725.03144    
   3729000   308.2875       0.016708652    8.3136373      764.86979     -23.533462      741.33632    
   3730000   296.46888      0.016708652    7.3268788      735.54747     -24.740751      710.80672    
   3731000   287.27554      0.016708652    13.012169      712.73854     -23.04071       689.69783    
   3732000   306.3979       0.016708652    10.545849      760.18162     -27.604476      732.57715    
   3733000   308.40987      0.016708652    10.981791      765.17339     -26.287349      738.88604    
   3734000   301.88369      0.016708652    9.1112989      748.98176     -21.735152      727.24661    
   3735000   288.25209      0.016708652    4.3532275      715.16139     -22.817926      692.34346    
   3736000   295.47767      0.016708652    10.109509      733.08824     -22.643134      710.44511    
   3737000   307.09883      0.016708652    15.549289      761.92067     -25.855434      736.06524    
   3738000   310.75378      0.016708652    5.5844719      770.98869     -29.615847      741.37284    
   3739000   290.33874      0.016708652    8.4743378      720.33841     -25.641872      694.69654    
   3740000   288.10932      0.016708652    24.646652      714.80716     -18.223762      696.5834     
   3741000   309.05311      0.016708652    8.7373359      766.7693      -21.839749      744.92955    
   3742000   307.27719      0.016708652    4.1244773      762.36318     -21.40463       740.95855    
   3743000   286.77611      0.016708652    10.00225       711.49943     -25.089841      686.40959    
   3744000   302.66798      0.016708652    10.528926      750.92761     -26.667879      724.25973    
   3745000   307.55014      0.016708652    8.7616828      763.04038     -25.578854      737.46152    
   3746000   299.0956       0.016708652    8.3239215      742.06444     -26.360386      715.70405    
   3747000   289.42057      0.016708652    8.3720547      718.06041     -22.7048        695.35561    
   3748000   311.56869      0.016708652    15.822412      773.0105      -23.929892      749.08061    
   3749000   319.15293      0.016708652    9.6043322      791.82722     -19.29642       772.5308     
   3750000   301.04926      0.016708652    8.2215951      746.91151     -21.381702      725.52981    
   3751000   286.36291      0.016708652    8.114032       710.47428     -21.535957      688.93832    
   3752000   303.75781      0.016708652    9.4982357      753.63151     -21.973467      731.65804    
   3753000   305.74163      0.016708652    9.9140719      758.55342     -23.870063      734.68336    
   3754000   299.37761      0.016708652    6.4696197      742.7641      -26.65686       716.10724    
   3755000   292.5439       0.016708652    8.9004336      725.80949     -27.381605      698.42788    
   3756000   313.05175      0.016708652    10.568241      776.69002     -22.664219      754.0258     
   3757000   300.39373      0.016708652    8.536613       745.28511     -28.285099      717.00002    
   3758000   299.71307      0.016708652    9.7126999      743.59639     -24.297405      719.29898    
   3759000   292.99964      0.016708652    9.691371       726.94019     -23.781601      703.15859    
   3760000   310.76375      0.016708652    7.1056274      771.01342     -26.861211      744.15221    
   3761000   304.11304      0.016708652    9.6401746      754.51283     -31.090292      723.42253    
   3762000   293.86218      0.016708652    9.73514        729.08017     -26.21087       702.8693     
   3763000   286.65197      0.016708652    9.140778       711.19145     -25.017681      686.17377    
   3764000   300.23403      0.016708652    11.546164      744.8889      -27.058727      717.83018    
   3765000   318.07767      0.016708652    9.7964649      789.15945     -27.773819      761.38564    
   3766000   297.60552      0.016708652    6.6441685      738.3675      -28.161052      710.20645    
   3767000   289.28175      0.016708652    3.6922127      717.716       -25.477391      692.2386     
   3768000   298.47629      0.016708652    15.451364      740.52791     -27.216295      713.31161    
   3769000   312.30015      0.016708652    12.09559       774.82527     -29.24466       745.58061    
   3770000   297.4892       0.016708652    5.3175645      738.0789      -27.171241      710.90766    
   3771000   279.616        0.016708652    8.9818255      693.73501     -27.216964      666.51805    
   3772000   295.88929      0.016708652    11.971591      734.10948     -24.860262      709.24922    
   3773000   308.49042      0.016708652    5.5191358      765.37323     -27.48516       737.88807    
   3774000   281.67062      0.016708652    8.8406127      698.83258     -28.46325       670.36933    
   3775000   302.35719      0.016708652    18.327285      750.15653     -26.001466      724.15506    
   3776000   309.41078      0.016708652    10.077713      767.65667     -29.334702      738.32196    
   3777000   304.35806      0.016708652    6.6125211      755.12073     -27.390527      727.73021    
   3778000   288.97176      0.016708652    10.194045      716.9469      -31.393486      685.55342    
   3779000   311.03398      0.016708652    18.400072      771.68387     -33.549733      738.13413    
   3780000   313.96389      0.016708652    13.527093      778.95306     -25.660123      753.29294    
   3781000   301.51612      0.016708652    7.9370673      748.0698      -30.887101      717.1827     
   3782000   294.35351      0.016708652    5.4270146      730.29917     -31.611193      698.68798    
   3783000   283.64305      0.016708652    10.698586      703.72622     -31.617277      672.10895    
   3784000   286.83611      0.016708652    11.131305      711.64831     -30.29775       681.35056    
   3785000   301.6221       0.016708652    8.2883164      748.33275     -27.062293      721.27046    
   3786000   298.98563      0.016708652    8.4529074      741.79158     -30.730056      711.06153    
   3787000   309.22105      0.016708652    15.948617      767.18595     -24.232229      742.95372    
   3788000   296.84421      0.016708652    6.7279741      736.47866     -29.445886      707.03277    
   3789000   294.5689       0.016708652    8.0443549      730.83356     -29.472384      701.36117    
   3790000   297.99555      0.016708652    9.4468969      739.33518     -29.054489      710.28069    
   3791000   303.19814      0.016708652    9.8067789      752.24294     -29.848661      722.39427    
   3792000   299.77757      0.016708652    10.020832      743.75642     -25.504032      718.25238    
   3793000   296.89627      0.016708652    8.8563708      736.60782     -29.59771       707.01011    
   3794000   302.90194      0.016708652    8.4682723      751.50807     -28.697408      722.81067    
   3795000   299.01966      0.016708652    10.684697      741.87602     -26.099355      715.77666    
   3796000   305.83858      0.016708652    8.9834613      758.79394     -26.397281      732.39666    
   3797000   308.61041      0.016708652    9.5317248      765.67094     -27.907933      737.76301    
   3798000   293.98947      0.016708652    8.4009551      729.39598     -26.398367      702.99761    
   3799000   284.89309      0.016708652    9.611352       706.82761     -25.967787      680.85982    
   3800000   306.3117       0.016708652    12.641475      759.96778     -27.814821      732.15296    
   3801000   305.4108       0.016708652    7.537837       757.73261     -30.526869      727.20574    
   3802000   292.7668       0.016708652    3.3835175      726.36249     -28.960223      697.40227    
   3803000   295.16284      0.016708652    9.8496479      732.30715     -29.469045      702.8381     
   3804000   310.23971      0.016708652    9.8483125      769.71328     -26.699363      743.01392    
   3805000   301.22057      0.016708652    8.4056811      747.33653     -29.405608      717.93092    
   3806000   301.47861      0.016708652    10.258536      747.97674     -26.544421      721.43231    
   3807000   296.96309      0.016708652    9.9516683      736.7736      -28.613646      708.15996    
   3808000   302.51224      0.016708652    9.4625084      750.54121     -31.602558      718.93866    
   3809000   312.89228      0.016708652    8.7749664      776.29437     -30.830999      745.46337    
   3810000   317.6183       0.016708652    6.4165528      788.01975     -27.700844      760.3189     
   3811000   284.18921      0.016708652    8.6893037      705.08125     -34.14494       670.93631    
   3812000   305.48691      0.016708652    13.252601      757.92145     -31.204937      726.71651    
   3813000   302.86573      0.016708652    15.277545      751.41821     -30.884947      720.53327    
   3814000   302.72859      0.016708652    7.0931566      751.07797     -30.198462      720.8795     
   3815000   293.93781      0.016708652    9.0261847      729.2678      -32.16376       697.10404    
   3816000   302.48807      0.016708652    11.340178      750.48124     -33.307791      717.17345    
   3817000   299.89382      0.016708652    4.7107112      744.04484     -29.709384      714.33546    
   3818000   295.41007      0.016708652    8.1797112      732.92053     -27.331932      705.5886     
   3819000   308.15262      0.016708652    13.957926      764.53516     -24.500885      740.03427    
   3820000   314.74184      0.016708652    6.6270519      780.88318     -30.817154      750.06603    
   3821000   293.91995      0.016708652    5.1194202      729.22351     -30.356775      698.86674    
   3822000   285.67263      0.016708652    16.835432      708.76167     -33.238133      675.52354    
   3823000   310.63513      0.016708652    22.025462      770.69432     -30.758416      739.9359     
   3824000   305.02737      0.016708652    0.78917291     756.78132     -31.530055      725.25126    
   3825000   287.76365      0.016708652    8.2870215      713.94954     -33.190451      680.75909    
   3826000   294.78456      0.016708652    21.324362      731.36862     -31.769995      699.59862    
   3827000   308.63236      0.016708652    12.918         765.7254      -30.937718      734.78768    
   3828000   307.0737       0.016708652    0.28933971     761.85832     -29.892746      731.96558    
   3829000   285.62256      0.016708652    1.6496217      708.63744     -31.57142       677.06602    
   3830000   301.40008      0.016708652    11.79911       747.78189     -28.004715      719.77718    
   3831000   295.76072      0.016708652    12.941032      733.79051     -30.869135      702.92137    
   3832000   301.08608      0.016708652    4.7268142      747.00286     -30.615938      716.38692    
   3833000   294.15454      0.016708652    4.3469039      729.80553     -28.825009      700.98052    
   3834000   304.25559      0.016708652    13.84566       754.86652     -28.95625       725.91027    
   3835000   297.21309      0.016708652    6.1015659      737.39386     -28.207108      709.18675    
   3836000   291.539        0.016708652    4.6471775      723.3163      -26.962014      696.35428    
   3837000   306.59443      0.016708652    7.3608638      760.66922     -24.779419      735.8898     
   3838000   300.85635      0.016708652    14.614844      746.43289     -21.57351       724.85938    
   3839000   301.63118      0.016708652    7.4125761      748.35528     -23.189125      725.16615    
   3840000   294.14454      0.016708652    7.5754991      729.78071     -22.260478      707.52024    
   3841000   305.4097       0.016708652    15.661866      757.72988     -25.089679      732.6402     
   3842000   302.03513      0.016708652    10.660835      749.35748     -28.392763      720.96471    
   3843000   292.83518      0.016708652    0.77607229     726.53214     -29.151752      697.38039    
   3844000   292.35517      0.016708652    7.143451       725.34124     -30.253254      695.08799    
   3845000   294.07453      0.016708652    8.5365095      729.60702     -32.268745      697.33827    
   3846000   306.57125      0.016708652    11.473015      760.61171     -30.837082      729.77463    
   3847000   298.38188      0.016708652    4.0979934      740.29367     -34.448466      705.84521    
   3848000   290.84468      0.016708652    12.462373      721.59366     -28.834039      692.75962    
   3849000   322.95977      0.016708652    10.002562      801.27209     -31.213417      770.05867    
   3850000   308.06374      0.016708652    6.8752753      764.31463     -30.544541      733.77009    
   3851000   302.57642      0.016708652    7.2131007      750.70043     -29.980071      720.72036    
   3852000   297.53161      0.016708652    11.341914      738.18412     -29.775076      708.40904    
   3853000   310.42459      0.016708652    4.1548936      770.17196     -29.329343      740.84262    
   3854000   293.07166      0.016708652    7.4733011      727.11887     -29.504572      697.6143     
   3855000   291.029        0.016708652    11.212227      722.05097     -25.956514      696.09445    
   3856000   307.77673      0.016708652    9.7501133      763.60256     -31.991213      731.61135    
   3857000   303.7496       0.016708652    9.6236656      753.61112     -33.666342      719.94478    
   3858000   289.35429      0.016708652    9.5294683      717.89596     -32.368067      685.52789    
   3859000   305.18298      0.016708652    12.99461       757.16739     -34.852399      722.31499    
   3860000   307.50475      0.016708652    9.1176382      762.92776     -31.503976      731.42379    
   3861000   296.95309      0.016708652    8.663501       736.7488      -34.221692      702.52711    
   3862000   286.91308      0.016708652    8.571122       711.83926     -33.579729      678.25953    
   3863000   312.9449       0.016708652    9.450176       776.42492     -31.003343      745.42158    
   3864000   307.86668      0.016708652    9.1625811      763.82571     -32.901598      730.92411    
   3865000   296.91829      0.016708652    7.8755575      736.66245     -27.008798      709.65366    
   3866000   287.35957      0.016708652    8.5374381      712.94702     -35.093016      677.85401    
   3867000   296.67831      0.016708652    10.639199      736.06707     -30.250827      705.81625    
   3868000   299.63957      0.016708652    9.9019476      743.41404     -32.672221      710.74182    
   3869000   308.35901      0.016708652    11.166632      765.04721     -29.80387       735.24334    
   3870000   292.63851      0.016708652    8.1330461      726.04421     -33.890089      692.15412    
   3871000   298.17776      0.016708652    7.7376441      739.78725     -29.350286      710.43696    
   3872000   315.01726      0.016708652    9.7204372      781.5665      -32.34013       749.22637    
   3873000   291.69286      0.016708652    9.9234554      723.69801     -29.176199      694.52182    
   3874000   303.73625      0.016708652    6.8994199      753.57802     -31.8013        721.77672    
   3875000   301.26951      0.016708652    9.4025744      747.45797     -32.104814      715.35315    
   3876000   285.50212      0.016708652    9.5605528      708.33863     -38.503539      669.83509    
   3877000   297.148        0.016708652    6.2283757      737.23237     -36.572452      700.65992    
   3878000   318.67609      0.016708652    11.657108      790.64416     -34.911775      755.73239    
   3879000   305.03837      0.016708652    9.3832409      756.80861     -32.386984      724.42163    
   3880000   298.4702       0.016708652    2.5036934      740.51279     -36.058423      704.45436    
   3881000   296.46025      0.016708652    9.9169451      735.52604     -34.447144      701.0789     
   3882000   307.92933      0.016708652    14.332148      763.98116     -37.211626      726.76954    
   3883000   307.65058      0.016708652    7.0350726      763.28957     -31.970336      731.31924    
   3884000   308.53635      0.016708652    9.028965       765.48719     -28.910844      736.57635    
   3885000   295.4075       0.016708652    11.004533      732.91415     -29.198777      703.71537    
   3886000   304.15294      0.016708652    12.203664      754.61182     -28.893938      725.71789    
   3887000   293.37544      0.016708652    5.4923202      727.87256     -31.472449      696.40011    
   3888000   309.2685       0.016708652    9.8029631      767.30367     -31.584152      735.71952    
   3889000   290.43622      0.016708652    9.3078344      720.58027     -34.619524      685.96075    
   3890000   301.19291      0.016708652    10.812908      747.26791     -28.501232      718.76668    
   3891000   312.70835      0.016708652    11.140206      775.83803     -27.190103      748.64793    
   3892000   305.47894      0.016708652    10.152913      757.90168     -28.89519       729.00649    
   3893000   296.60316      0.016708652    9.8028528      735.88061     -24.569877      711.31074    
   3894000   289.30549      0.016708652    8.1980925      717.7749      -25.880913      691.89399    
   3895000   308.4009       0.016708652    6.9714143      765.15112     -23.144109      742.00701    
   3896000   303.03325      0.016708652    8.0292227      751.83385     -21.632103      730.20175    
   3897000   293.05192      0.016708652    8.9308569      727.06989     -24.67413       702.39576    
   3898000   301.28681      0.016708652    11.50301       747.50089     -21.662131      725.83876    
   3899000   299.31585      0.016708652    4.3641228      742.61086     -25.341078      717.26979    
   3900000   300.35716      0.016708652    8.8767623      745.1944      -25.982379      719.21202    
   3901000   292.29571      0.016708652    3.7952528      725.19371     -25.171125      700.02258    
   3902000   307.14637      0.016708652    7.088165       762.03861     -28.312273      733.72633    
   3903000   313.85212      0.016708652    14.903703      778.67576     -25.704116      752.97164    
   3904000   309.01309      0.016708652    12.399925      766.67        -26.569684      740.10031    
   3905000   288.67058      0.016708652    4.1987517      716.19967     -25.475164      690.72451    
   3906000   301.41884      0.016708652    5.0162533      747.82846     -25.179983      722.64848    
   3907000   317.41163      0.016708652    8.9980259      787.507       -23.992178      763.51482    
   3908000   293.77522      0.016708652    10.932289      728.86442     -23.042938      705.82148    
   3909000   285.58256      0.016708652    9.1292709      708.53821     -26.312204      682.22601    
   3910000   306.50592      0.016708652   -4.624371       760.44963     -29.179098      731.27053    
   3911000   303.42552      0.016708652    8.0098902      752.80707     -28.587476      724.2196     
   3912000   302.18327      0.016708652    8.874688       749.72503     -31.784558      717.94047    
   3913000   290.91788      0.016708652    12.412072      721.77527     -28.416168      693.3591     
   3914000   306.00537      0.016708652   -1.435631       759.20777     -24.984031      734.22374    
   3915000   305.88677      0.016708652    8.5254237      758.91352     -27.314365      731.59915    
   3916000   299.17618      0.016708652    14.537097      742.26434     -27.582249      714.68209    
   3917000   293.0986       0.016708652    9.7328874      727.18569     -28.592526      698.59317    
   3918000   297.44763      0.016708652    7.1899967      737.97578     -34.107677      703.8681     
   3919000   300.02768      0.016708652    5.0900747      744.37694     -30.930265      713.44667    
   3920000   304.27204      0.016708652    8.6459143      754.90731     -31.720879      723.18643    
   3921000   295.22236      0.016708652    13.404746      732.45481     -33.448784      699.00602    
   3922000   299.25221      0.016708652    7.305282       742.45298     -30.393444      712.05954    
   3923000   305.04398      0.016708652    6.8235843      756.82252     -27.173443      729.64908    
   3924000   304.40667      0.016708652    10.287636      755.24135     -26.510862      728.73049    
   3925000   304.62349      0.016708652    10.049383      755.77927     -30.430532      725.34873    
   3926000   282.78701      0.016708652    10.020744      701.60237     -30.57416       671.02821    
   3927000   283.97909      0.016708652    6.3428855      704.55996     -30.827685      673.73227    
   3928000   310.22432      0.016708652    8.4125745      769.67508     -32.04005       737.63503    
   3929000   313.85507      0.016708652    14.882965      778.68308     -32.009885      746.67319    
   3930000   293.80698      0.016708652    10.047535      728.94322     -29.442318      699.50091    
   3931000   289.68485      0.016708652    1.507517       718.7161      -32.400082      686.31602    
   3932000   311.47342      0.016708652    9.1765556      772.77413     -33.24814       739.52599    
   3933000   309.21584      0.016708652    12.99522       767.17303     -31.372621      735.80041    
   3934000   297.02681      0.016708652    13.22179       736.93169     -31.873409      705.05828    
   3935000   291.1815       0.016708652    9.2689372      722.42932     -26.542881      695.88644    
   3936000   291.85744      0.016708652    8.0705118      724.10635     -28.064345      696.042      
   3937000   311.97972      0.016708652    9.8291259      774.03029     -26.46042       747.56987    
   3938000   308.71904      0.016708652    9.3090099      765.94045     -24.474877      741.46557    
   3939000   299.05405      0.016708652    14.421085      741.96134     -27.654122      714.30722    
   3940000   283.23998      0.016708652    8.7425594      702.72621     -27.65317       675.07304    
   3941000   314.88388      0.016708652    8.8981948      781.23558     -24.935668      756.29991    
   3942000   304.30067      0.016708652    10.267121      754.97834     -28.010386      726.96795    
   3943000   300.38143      0.016708652    14.566846      745.2546      -24.754134      720.50047    
   3944000   298.72726      0.016708652    6.1203636      741.15056     -27.609568      713.54099    
   3945000   296.61185      0.016708652    7.3969075      735.90218     -22.765026      713.13716    
   3946000   300.08669      0.016708652    4.5086919      744.52336     -27.08337       717.43999    
   3947000   306.15944      0.016708652    24.197461      759.59001     -30.513397      729.07661    
   3948000   307.66353      0.016708652    9.6240946      763.32171     -30.453919      732.86779    
   3949000   307.77831      0.016708652   -2.366529       763.60647     -26.238726      737.36774    
   3950000   295.40694      0.016708652    7.5374059      732.91276     -25.00023       707.91253    
   3951000   298.96953      0.016708652    17.634033      741.75164     -26.031767      715.71987    
   3952000   295.0546       0.016708652    5.1574235      732.0386      -24.958424      707.08018    
   3953000   292.50616      0.016708652    7.1918623      725.71584     -27.595906      698.11994    
   3954000   304.34445      0.016708652    12.522994      755.08698     -30.773694      724.31328    
   3955000   301.67403      0.016708652    8.8802306      748.46158     -29.863029      718.59855    
   3956000   289.57086      0.016708652    8.6666771      718.43329     -30.730464      687.70282    
   3957000   298.86569      0.016708652    8.7494177      741.49401     -26.879667      714.61434    
   3958000   314.61064      0.016708652    11.187157      780.55768     -26.972361      753.58532    
   3959000   299.33549      0.016708652    12.627289      742.65961     -26.020115      716.63949    
   3960000   287.82296      0.016708652    9.0455432      714.0967      -25.418571      688.67813    
   3961000   296.91471      0.016708652    6.0905944      736.65357     -26.562849      710.09072    
   3962000   314.60389      0.016708652    7.2171997      780.54092     -28.627073      751.91385    
   3963000   321.4957       0.016708652    9.9090861      797.63968     -24.704279      772.9354     
   3964000   298.3475       0.016708652    8.7543601      740.20836     -30.317864      709.8905     
   3965000   285.46045      0.016708652    8.9012654      708.23523     -26.430543      681.80469    
   3966000   297.77281      0.016708652    8.3291963      738.78255     -32.710153      706.07239    
   3967000   304.81915      0.016708652    8.6946527      756.26472     -28.071169      728.19355    
   3968000   297.36994      0.016708652    7.0921357      737.78303     -27.710973      710.07206    
   3969000   302.98425      0.016708652    10.872011      751.71228     -25.566444      726.14584    
   3970000   304.51473      0.016708652    10.755612      755.50944     -25.049542      730.45989    
   3971000   296.39403      0.016708652    5.958839       735.36176     -20.860401      714.50136    
   3972000   298.05996      0.016708652    7.9878787      739.49497     -19.30062       720.19435    
   3973000   301.56695      0.016708652    15.499919      748.1959      -21.662998      726.53291    
   3974000   297.52326      0.016708652    6.3550236      738.16341     -28.637749      709.52566    
   3975000   302.13462      0.016708652    14.153373      749.60433     -28.491872      721.11246    
   3976000   311.56333      0.016708652    10.686916      772.99721     -29.984866      743.01235    
   3977000   300.71146      0.016708652    3.5000645      746.07343     -29.715158      716.35827    
   3978000   292.77795      0.016708652    12.558065      726.39017     -28.497192      697.89297    
   3979000   294.04596      0.016708652    11.06404       729.53614     -26.023724      703.51242    
   3980000   317.98709      0.016708652    12.403188      788.93473     -26.913604      762.02112    
   3981000   297.14331      0.016708652    5.9802146      737.22074     -27.503174      709.71756    
   3982000   288.35978      0.016708652    14.791166      715.42857     -28.581073      686.8475     
   3983000   296.82586      0.016708652    17.534595      736.43315     -23.121124      713.31203    
   3984000   312.15052      0.016708652    9.3068574      774.45404     -24.128085      750.32595    
   3985000   298.52605      0.016708652    4.8267856      740.65137     -27.985174      712.66619    
   3986000   293.11865      0.016708652    10.155236      727.23544     -26.284388      700.95105    
   3987000   302.92719      0.016708652    11.328527      751.57071     -25.366951      726.20376    
   3988000   298.87391      0.016708652    6.1102163      741.51441     -28.182646      713.33176    
   3989000   294.92139      0.016708652    11.356096      731.7081      -20.535123      711.17298    
   3990000   296.31047      0.016708652    15.010515      735.15444     -23.866768      711.28767    
   3991000   309.06082      0.016708652    6.4188091      766.78841     -27.866933      738.92148    
   3992000   292.37351      0.016708652    1.4421716      725.38674     -21.89354       703.4932     
   3993000   302.07727      0.016708652    15.130972      749.46204     -25.708676      723.75337    
   3994000   297.18371      0.016708652    9.5848637      737.32097     -23.838376      713.4826     
   3995000   299.30228      0.016708652    6.4801799      742.57721     -24.111828      718.46538    
   3996000   313.00194      0.016708652    6.3483425      776.56643     -24.571655      751.99478    
   3997000   286.40366      0.016708652    16.770981      710.57539     -19.771852      690.80353    
   3998000   302.45557      0.016708652    8.4566311      750.40061     -24.260691      726.13992    
   3999000   315.29917      0.016708652    3.2371868      782.26593     -26.254942      756.01098    
   4000000   297.29909      0.016708652    5.7947151      737.60724     -26.472474      711.13476    
Loop time of 6861.22 on 1 procs for 4000000 steps with 1500 atoms

Performance: 12.593 ns/day, 1.906 hours/ns, 582.987 timesteps/s, 874.480 katom-step/s
100.0% CPU use with 1 MPI tasks x 1 OpenMP threads

MPI task timing breakdown:
Section |  min time  |  avg time  |  max time  |%varavg| %total
---------------------------------------------------------------
Pair    | 687.25     | 687.25     | 687.25     |   0.0 | 10.02
Bond    | 89.283     | 89.283     | 89.283     |   0.0 |  1.30
Kspace  | 5574.6     | 5574.6     | 5574.6     |   0.0 | 81.25
Neigh   | 0.027797   | 0.027797   | 0.027797   |   0.0 |  0.00
Comm    | 18.491     | 18.491     | 18.491     |   0.0 |  0.27
Output  | 0.086679   | 0.086679   | 0.086679   |   0.0 |  0.00
Modify  | 478.73     | 478.73     | 478.73     |   0.0 |  6.98
Other   |            | 12.79      |            |       |  0.19

Nlocal:           1500 ave        1500 max        1500 min
Histogram: 1 0 0 0 0 0 0 0 0 0
Nghost:           1133 ave        1133 max        1133 min
Histogram: 1 0 0 0 0 0 0 0 0 0
Neighs:              0 ave           0 max           0 min
Histogram: 1 0 0 0 0 0 0 0 0 0

Total # of neighbors = 0
Ave neighs/atom = 0
Ave special neighs/atom = 2
Neighbor list builds = 17174
Dangerous builds = 0
write_data	last_conf.data pair ij
System init for write_data ...
PPPM initialization ...
  using 12-bit tables for long-range coulomb (src/kspace.cpp:342)
  G vector (1/distance) = 0.16409079
  grid = 27 27 27
  stencil order = 5
  estimated absolute RMS force accuracy = 0.036022981
  estimated relative force accuracy = 0.00010848214
  using double precision FFTW3
  3d grid and FFT values/proc = 32768 19683
Generated 1 of 1 mixed pair_coeff terms from arithmetic mixing rule
Total wall time: 1:54:21
