LAMMPS (29 Aug 2024 - Update 1)
  using 1 OpenMP thread(s) per MPI task
package gpu 1 gpuID 0
# GCMC for CO2 molecular fluid, rigid/small/nvt dynamics
# Rigid CO2 TraPPE model
# [Potoff and J.I. Siepmann, Vapor-liquid equilibria of
# mixtures containing alkanes, carbon dioxide and
# nitrogen AIChE J., 47,1676-1682 (2001)].

# global model settings

units           real
atom_style      full
boundary        p p p
pair_style      lj/cut/coul/long  12
pair_modify     mix arithmetic shift yes
kspace_style    pppm 1.0e-4
bond_style      harmonic
angle_style     harmonic
neigh_modify    one 4000

# box, start molecules on simple cubic lattice
region          mbox block 0 ${lbox} 0 ${lbox} 0 ${lbox} units box
region          mbox block 0 170 0 ${lbox} 0 ${lbox} units box
region          mbox block 0 170 0 170 0 ${lbox} units box
region          mbox block 0 170 0 170 0 170 units box
create_box      2 mbox                                       bond/types 1                                angle/types 1                               extra/bond/per/atom 2                       extra/angle/per/atom 1                      extra/special/per/atom 2
Created orthogonal box = (0 0 0) to (170 170 170)
  1 by 1 by 1 MPI processor grid
molecule        co2mol ../CO2.txt
Read molecule template co2mol:
# CO2 molecule file. TraPPE model.
  1 molecules
  0 fragments
  3 atoms with max type 2
  2 bonds with max type 1
  1 angles with max type 1
  0 dihedrals with max type 0
  0 impropers with max type 0
create_atoms   	0 random ${nmols} 34578 mbox mol co2mol 464563 overlap 1.2
create_atoms   	0 random 500 34578 mbox mol co2mol 464563 overlap 1.2
Created 1500 atoms
  using lattice units in orthogonal box = (0 0 0) to (170 170 170)
  create_atoms CPU = 0.013 seconds

# rigid CO2 TraPPE model

pair_coeff      1   1  0.053649   2.800
pair_coeff      2   2  0.156973   3.050
bond_coeff      1       0       1.16
angle_coeff     1       0       180

# masses

mass 1 12.0107
mass 2 15.9994

write_data init_conf.data  pair ij
System init for write_data ...
PPPM initialization ...
  using 12-bit tables for long-range coulomb (src/kspace.cpp:342)
  G vector (1/distance) = 0.15604469
  grid = 32 32 32
  stencil order = 5
  estimated absolute RMS force accuracy = 0.034826331
  estimated relative force accuracy = 0.00010487846
  using double precision FFTW3
  3d grid and FFT values/proc = 50653 32768
Generated 1 of 1 mixed pair_coeff terms from arithmetic mixing rule

# MD settings

group           co2 type 1 2
1500 atoms in group co2
velocity       	all create 300 54654
timestep        0.25

# rigid constraints with thermostat
fix             myrigidnvt co2 rigid/nvt molecule temp 300 300 $(100*dt)
fix             myrigidnvt co2 rigid/nvt molecule temp 300 300 25
  500 rigid bodies with 1500 atoms

thermo 1000
thermo_style custom step temp density press ke pe etotal


variable    mvol equal vol
variable    mden equal density
variable	mtmp equal temp
variable    mpre equal press

fix mydat all ave/time 1 4000 4000 v_mtmp v_mden v_mpre file statistics.dat ## every 1ps

run 4000000 ## 1ns

CITE-CITE-CITE-CITE-CITE-CITE-CITE-CITE-CITE-CITE-CITE-CITE-CITE

Your simulation uses code contributions which should be cited:

- GPU package (short-range, long-range and three-body potentials): doi:10.1016/j.cpc.2010.12.021, doi:10.1016/j.cpc.2011.10.012, doi:10.1016/j.cpc.2013.08.002, doi:10.1016/j.commatsci.2014.10.068, doi:10.1016/j.cpc.2016.10.020, doi:10.3233/APC200086

@Article{Brown11,
 author = {W. M. Brown and P. Wang and S. J. Plimpton and A. N. Tharrington},
 title = {Implementing Molecular Dynamics on Hybrid High Performance Computers---Short Range Forces},
 journal = {Comput.\ Phys.\ Commun.},
 year =    2011,
 volume =  182,
 pages =   {898--911},
 doi =     {10.1016/j.cpc.2010.12.021}
}

@Article{Brown12,
 author = {W. M. Brown and A. Kohlmeyer and S. J. Plimpton and A. N. Tharrington},
 title = {Implementing Molecular Dynamics on Hybrid High Performance Computers - Particle-Particle Particle-Mesh},
 journal = {Comput.\ Phys.\ Commun.},
 year =    2012,
 volume =  183,
 doi =     {10.1016/j.cpc.2011.10.012},
 pages =   {449--459}
}

@Article{Brown13,
 author = {W. M. Brown and Y. Masako},
 title = {Implementing Molecular Dynamics on Hybrid High Performance Computers---Three-Body Potentials},
 journal = {Comput.\ Phys.\ Commun.},
 year =    2013,
 volume =  184,
 pages =   {2785--2793},
 doi =     {10.1016/j.cpc.2013.08.002},
}

@Article{Trung15,
 author = {T. D. Nguyen and S. J. Plimpton},
 title = {Accelerating Dissipative Particle Dynamics Simulations for Soft Matter Systems},
 journal = {Comput.\ Mater.\ Sci.},
 year =    2015,
 doi =     {10.1016/j.commatsci.2014.10.068},
 volume =  100,
 pages =   {173--180}
}

@Article{Trung17,
 author = {T. D. Nguyen},
 title = {{GPU}-Accelerated {T}ersoff Potentials for Massively Parallel
    Molecular Dynamics Simulations},
 journal = {Comput.\ Phys.\ Commun.},
 year =    2017,
 doi =     {10.1016/j.cpc.2016.10.020},
 volume =  212,
 pages =   {113--122}
}

@inproceedings{Nikolskiy19,
 author = {V. Nikolskiy and V. Stegailov},
 title = {{GPU} Acceleration of Four-Site Water Models in {LAMMPS}},
 booktitle = {Proceedings of the International Conference on Parallel
    Computing (ParCo 2019), Prague, Czech Republic},
 doi =     {10.3233/APC200086},
 year =    2019
}

CITE-CITE-CITE-CITE-CITE-CITE-CITE-CITE-CITE-CITE-CITE-CITE-CITE

PPPM initialization ...
  using 12-bit tables for long-range coulomb (src/kspace.cpp:342)
  G vector (1/distance) = 0.15604469
  grid = 32 32 32
  stencil order = 5
  estimated absolute RMS force accuracy = 0.034826331
  estimated relative force accuracy = 0.00010487846
  using double precision FFTW3
  3d grid and FFT values/proc = 50653 32768
Generated 1 of 1 mixed pair_coeff terms from arithmetic mixing rule
Per MPI rank memory allocation (min/avg/max) = 12.15 | 12.15 | 12.15 Mbytes
   Step          Temp         Density         Press          KinEng         PotEng         TotEng    
         0   307.69091      0.0074373588   54.088053      763.38962      13733.194      14496.583    
      1000   324.73998      0.0074373588   8.4277088      805.68884     -9.592436       796.09641    
      2000   305.31842      0.0074373588   4.6721558      757.50342     -12.571119      744.9323     
      3000   290.00701      0.0074373588   3.5207655      719.51539     -13.392421      706.12296    
      4000   290.23396      0.0074373588   4.4192222      720.07845     -15.367621      704.71083    
      5000   299.86877      0.0074373588   4.509263       743.98269     -16.386075      727.59661    
      6000   294.41578      0.0074373588   3.9555424      730.45367     -20.144769      710.30891    
      7000   301.20347      0.0074373588   4.5542541      747.29412     -21.791324      725.50279    
      8000   308.7031       0.0074373588   3.2324261      765.9009      -22.005891      743.89501    
      9000   302.24871      0.0074373588   3.5173516      749.88739     -25.691767      724.19562    
     10000   295.98748      0.0074373588   4.5542046      734.3531      -26.158139      708.19496    
     11000   306.03371      0.0074373588   7.7205026      759.27807     -28.106717      731.17135    
     12000   310.40409      0.0074373588   4.3376919      770.1211      -24.846019      745.27508    
     13000   297.08744      0.0074373588   5.7562927      737.08212     -28.265745      708.81638    
     14000   295.68819      0.0074373588   3.7707768      733.61054     -27.533016      706.07752    
     15000   298.42834      0.0074373588   3.5468594      740.40893     -27.999432      712.4095     
     16000   309.69311      0.0074373588   4.0942839      768.35714     -28.505718      739.85142    
     17000   295.43505      0.0074373588   3.4416127      732.98251     -27.312891      705.66962    
     18000   287.03783      0.0074373588   4.592409       712.14876     -28.831897      683.31686    
     19000   313.78306      0.0074373588   3.2094372      778.50443     -29.642094      748.86234    
     20000   307.79463      0.0074373588   4.3663251      763.64697     -31.465375      732.1816     
     21000   296.86028      0.0074373588   5.0158553      736.51855     -32.110518      704.40803    
     22000   299.32678      0.0074373588   3.1396303      742.63799     -37.447149      705.19084    
     23000   295.34766      0.0074373588   3.7988041      732.76568     -37.997924      694.76775    
     24000   318.96243      0.0074373588   4.7590609      791.35459     -37.332984      754.02161    
     25000   300.91619      0.0074373588   2.1474093      746.58136     -39.752689      706.82867    
     26000   299.94913      0.0074373588   7.9480688      744.18206     -42.251285      701.93078    
     27000   299.69574      0.0074373588   3.8910234      743.55339     -39.834617      703.71878    
     28000   294.20023      0.0074373588   5.439611       729.91887     -42.668382      687.25049    
     29000   306.85437      0.0074373588   7.1002239      761.31416     -38.613615      722.70055    
     30000   298.78357      0.0074373588   2.1742751      741.29028     -36.783495      704.50678    
     31000   295.64781      0.0074373588  -1.3749214      733.51037     -43.805325      689.70505    
     32000   303.19767      0.0074373588   6.3735985      752.24177     -45.878563      706.36321    
     33000   295.48639      0.0074373588   3.5006876      733.10988     -48.36207       684.74781    
     34000   303.37468      0.0074373588   3.7400222      752.68094     -46.312009      706.36893    
     35000   304.46503      0.0074373588   4.3694137      755.38613     -51.840729      703.5454     
     36000   299.24547      0.0074373588   3.4285652      742.43626     -53.09211       689.34415    
     37000   294.78492      0.0074373588   3.492362       731.36952     -50.639248      680.73027    
     38000   300.09944      0.0074373588   4.3793307      744.55499     -55.981518      688.57347    
     39000   312.72875      0.0074373588   3.6989821      775.88866     -59.870476      716.01818    
     40000   290.31624      0.0074373588   1.1350902      720.28259     -58.5304        661.75219    
     41000   291.75571      0.0074373588   6.141152       723.85395     -56.455856      667.3981     
     42000   315.26749      0.0074373588   4.9062577      782.18733     -61.019687      721.16764    
     43000   296.31983      0.0074373588   6.7191907      735.17766     -61.522867      673.6548     
     44000   299.18411      0.0074373588  -0.55420612     742.28403     -56.161963      686.12207    
     45000   302.78521      0.0074373588   4.3312685      751.21845     -60.876806      690.34164    
     46000   286.94593      0.0074373588   3.8607779      711.92076     -64.676593      647.24416    
     47000   290.82795      0.0074373588   4.7208485      721.55217     -64.745996      656.80617    
     48000   310.58678      0.0074373588   5.5460946      770.57437     -64.81209       705.76228    
     49000   297.68913      0.0074373588   1.3291351      738.57494     -63.377367      675.19757    
     50000   298.17549      0.0074373588   0.58718303     739.78161     -61.441992      678.33962    
     51000   296.75866      0.0074373588   11.007197      736.26643     -62.725297      673.54113    
     52000   307.86483      0.0074373588   3.6894045      763.82113     -62.09008       701.73105    
     53000   311.10237      0.0074373588   5.3880462      771.85356     -60.966932      710.88663    
     54000   285.39382      0.0074373588   3.6346874      708.06994     -62.820173      645.24976    
     55000   302.44065      0.0074373588   5.5067705      750.36358     -65.21006       685.15352    
     56000   304.37674      0.0074373588   6.6619885      755.16708     -63.324016      691.84307    
     57000   299.03154      0.0074373588   3.7100015      741.90548     -69.08536       672.82013    
     58000   298.04913      0.0074373588   6.7890742      739.46812     -63.700335      675.76778    
     59000   298.40928      0.0074373588   4.4804196      740.36165     -65.368395      674.99326    
     60000   299.31418      0.0074373588  -0.12872846     742.60674     -69.47881       673.12793    
     61000   302.7626       0.0074373588   3.2048275      751.16235     -72.918661      678.24369    
     62000   300.41007      0.0074373588   6.6161057      745.32565     -75.48397       669.84168    
     63000   301.18213      0.0074373588   3.0211806      747.24116     -69.581798      677.65936    
     64000   299.06634      0.0074373588   3.3112051      741.99182     -66.287246      675.70458    
     65000   301.57346      0.0074373588   4.0292183      748.21207     -68.906803      679.30527    
     66000   326.53432      0.0074373588   2.7807602      810.14066     -67.528238      742.61242    
     67000   295.15812      0.0074373588   2.3642723      732.29544     -68.869145      663.4263     
     68000   284.58231      0.0074373588   3.7217966      706.05656     -72.271679      633.78488    
     69000   318.0284       0.0074373588   8.424559       789.03722     -78.822115      710.2151     
     70000   309.11482      0.0074373588   3.3088626      766.92239     -66.010374      700.91202    
     71000   296.27761      0.0074373588   1.4552816      735.07293     -67.218233      667.85469    
     72000   289.31199      0.0074373588   4.1331837      717.79102     -71.031938      646.75908    
     73000   312.62024      0.0074373588   4.8877809      775.61943     -70.309866      705.30956    
     74000   305.25365      0.0074373588   5.4017442      757.34272     -75.293568      682.04915    
     75000   297.49536      0.0074373588   3.8162547      738.09418     -79.378304      658.71587    
     76000   305.7299       0.0074373588   3.2835559      758.5243      -79.190334      679.33396    
     77000   303.58028      0.0074373588   3.8417107      753.19105     -78.497573      674.69348    
     78000   305.74871      0.0074373588   3.552177       758.57097     -77.175282      681.39569    
     79000   289.55669      0.0074373588   6.1863017      718.39812     -77.760843      640.63728    
     80000   298.34605      0.0074373588   2.85889        740.20477     -77.884858      662.31991    
     81000   305.21225      0.0074373588   4.1987637      757.24001     -77.465816      679.7742     
     82000   309.74152      0.0074373588   4.12314        768.47724     -82.672897      685.80434    
     83000   301.79826      0.0074373588   3.7176943      748.7698      -83.952346      664.81746    
     84000   290.95032      0.0074373588   5.7424865      721.85575     -82.767682      639.08807    
     85000   305.4335       0.0074373588   2.7362244      757.78894     -76.234752      681.55419    
     86000   306.31137      0.0074373588  -1.3325002      759.96696     -80.817484      679.14948    
     87000   287.88749      0.0074373588   1.9118289      714.25679     -82.516396      631.7404     
     88000   300.10429      0.0074373588   5.9776758      744.56701     -83.274815      661.29219    
     89000   311.87906      0.0074373588   3.060814       773.78053     -87.502565      686.27797    
     90000   298.27541      0.0074373588   3.7932783      740.02951     -87.505096      652.52442    
     91000   294.37982      0.0074373588   3.8551666      730.36444     -86.964582      643.39986    
     92000   303.45856      0.0074373588   4.1832278      752.88905     -85.861387      667.02766    
     93000   302.77521      0.0074373588   2.9525508      751.19364     -86.691902      664.50173    
     94000   303.29463      0.0074373588   5.8227955      752.48234     -85.233827      667.24851    
     95000   298.16908      0.0074373588   3.4244716      739.7657      -88.096811      651.66889    
     96000   297.38839      0.0074373588  -2.3027476      737.8288      -85.09015       652.73865    
     97000   305.63875      0.0074373588   4.515381       758.29816     -82.738573      675.55959    
     98000   306.59862      0.0074373588   5.8175535      760.67964     -77.892583      682.78705    
     99000   285.26859      0.0074373588   4.128918       707.75924     -78.01094       629.7483     
    100000   296.38285      0.0074373588   3.5269221      735.33402     -82.635481      652.69854    
    101000   305.02211      0.0074373588   2.8128468      756.76827     -87.229582      669.53869    
    102000   283.821        0.0074373588   5.4757274      704.16773     -85.307049      618.86068    
    103000   311.70393      0.0074373588   7.0041067      773.34604     -85.314289      688.03175    
    104000   301.82783      0.0074373588   2.1895029      748.84316     -90.466417      658.37675    
    105000   302.98503      0.0074373588   2.0457045      751.7142      -88.819653      662.89455    
    106000   290.97246      0.0074373588   7.5096445      721.91069     -87.922404      633.98829    
    107000   304.50276      0.0074373588   6.7044184      755.47973     -86.355327      669.1244     
    108000   309.41465      0.0074373588   0.2993282      767.66628     -86.340563      681.32572    
    109000   303.32143      0.0074373588   0.64723522     752.54883     -89.200092      663.34874    
    110000   290.3959       0.0074373588  -1.7047056      720.48023     -85.5781        634.90213    
    111000   300.03341      0.0074373588   5.2830223      744.39115     -84.818285      659.57287    
    112000   291.47485      0.0074373588   13.580336      723.15713     -85.685311      637.47182    
    113000   299.54911      0.0074373588  -0.23652352     743.18961     -85.053252      658.13636    
    114000   302.72109      0.0074373588  -8.4170889      751.05936     -82.510953      668.54841    
    115000   296.16407      0.0074373588   5.5555443      734.79123     -85.160662      649.63056    
    116000   279.53276      0.0074373588   6.1655465      693.52847     -89.321089      604.20738    
    117000   302.52773      0.0074373588   1.3207383      750.57965     -90.731656      659.84799    
    118000   306.36076      0.0074373588   2.7518533      760.08949     -99.647845      660.44164    
    119000   299.7896       0.0074373588   6.6953905      743.78625     -90.887102      652.89915    
    120000   288.71751      0.0074373588   7.6832568      716.31611     -92.780669      623.53544    
    121000   305.31459      0.0074373588   2.7593129      757.49392     -98.206302      659.28762    
    122000   305.55204      0.0074373588   3.4933634      758.08304     -94.605442      663.47759    
    123000   296.41868      0.0074373588   3.5431208      735.42291     -95.007813      640.4151     
    124000   282.6579       0.0074373588   5.5291859      701.28204     -95.308986      605.97305    
    125000   298.59021      0.0074373588   5.0668643      740.81055     -92.671282      648.13927    
    126000   319.78934      0.0074373588   2.3838661      793.40616     -95.568121      697.83804    
    127000   308.45593      0.0074373588   4.112031       765.28765     -92.67363       672.61402    
    128000   302.31619      0.0074373588   9.5331188      750.0548      -92.410825      657.64398    
    129000   295.92322      0.0074373588   2.552078       734.19368     -95.97274       638.22094    
    130000   288.05135      0.0074373588   2.0928095      714.66334     -101.42292      613.24042    
    131000   309.05635      0.0074373588   4.0035339      766.77732     -95.399354      671.37797    
    132000   308.24889      0.0074373588   4.3482798      764.77399     -93.241963      671.53202    
    133000   281.28126      0.0074373588   4.1400831      697.86656     -93.314686      604.55188    
    134000   298.3294       0.0074373588   5.0540086      740.16345     -91.770581      648.39287    
    135000   314.34365      0.0074373588   5.6737023      779.89525     -91.300512      688.59474    
    136000   302.84401      0.0074373588   1.3268749      751.36435     -93.667063      657.69728    
    137000   295.70122      0.0074373588   4.1574206      733.64288     -92.451997      641.19089    
    138000   306.63136      0.0074373588   3.8297755      760.76084     -95.463165      665.29768    
    139000   303.15998      0.0074373588  -2.7950557      752.14826     -95.241962      656.9063     
    140000   298.94915      0.0074373588   0.90565285     741.70109     -92.77378       648.92731    
    141000   292.42537      0.0074373588   5.1321603      725.5154      -93.612947      631.90246    
    142000   289.98346      0.0074373588   12.881982      719.45696     -89.413998      630.04296    
    143000   315.6398       0.0074373588   2.4786147      783.11105     -91.145962      691.96509    
    144000   307.5349       0.0074373588  -0.91805767     763.00257     -91.78554       671.21703    
    145000   295.29127      0.0074373588   4.6920784      732.62577     -85.581713      647.04406    
    146000   295.91949      0.0074373588   8.8870664      734.18442     -84.727434      649.45699    
    147000   309.81362      0.0074373588   4.8941571      768.65614     -90.734062      677.92208    
    148000   309.72016      0.0074373588   4.5958738      768.42425     -90.696823      677.72743    
    149000   290.41728      0.0074373588   4.7298466      720.53327     -86.702057      633.83121    
    150000   295.7718       0.0074373588   1.5283447      733.81799     -87.451736      646.36626    
    151000   313.40012      0.0074373588   4.4033684      777.55433     -86.031375      691.52295    
    152000   291.53069      0.0074373588   3.5105299      723.29568     -90.067685      633.22799    
    153000   297.79429      0.0074373588   4.0895146      738.83583     -84.210133      654.6257     
    154000   314.65827      0.0074373588   3.997762       780.67585     -90.440202      690.23565    
    155000   295.86255      0.0074373588   2.063614       734.04315     -87.25067       646.79248    
    156000   290.14899      0.0074373588   3.1656231      719.86764     -87.045378      632.82226    
    157000   311.72396      0.0074373588   4.411647       773.39573     -86.571231      686.8245     
    158000   302.4443       0.0074373588   3.9387873      750.37265     -89.643212      660.72944    
    159000   297.84435      0.0074373588   3.3155753      738.96004     -85.331624      653.62841    
    160000   284.61185      0.0074373588   1.5335527      706.12984     -80.721375      625.40847    
    161000   308.1103       0.0074373588   7.8683258      764.43016     -83.801006      680.62915    
    162000   310.49677      0.0074373588   6.3563724      770.35104     -86.735331      683.61571    
    163000   293.5989       0.0074373588  -0.83722789     728.42697     -90.733697      637.69327    
    164000   301.56387      0.0074373588   5.2242136      748.18828     -85.911641      662.27664    
    165000   328.43661      0.0074373588   4.7568567      814.86027     -84.718997      730.14128    
    166000   299.73703      0.0074373588   3.8487939      743.65583     -89.659551      653.99628    
    167000   294.52851      0.0074373588   4.083072       730.73335     -87.052032      643.68132    
    168000   291.1456       0.0074373588   3.3336369      722.34026     -86.752356      635.5879     
    169000   297.91206      0.0074373588   3.8803847      739.12803     -87.751436      651.3766     
    170000   306.6911       0.0074373588   2.6576256      760.90907     -90.191305      670.71777    
    171000   294.94017      0.0074373588   3.6120885      731.7547      -96.817883      634.93682    
    172000   302.36909      0.0074373588   3.219872       750.18605     -92.900998      657.28506    
    173000   301.85587      0.0074373588   3.7195829      748.91274     -93.29154       655.6212     
    174000   302.61653      0.0074373588   4.1944434      750.79995     -95.619581      655.18037    
    175000   302.73378      0.0074373588   3.8316411      751.09085     -95.373843      655.71701    
    176000   291.6733       0.0074373588   3.1838283      723.64949     -97.79643       625.85306    
    177000   299.85703      0.0074373588   4.2348434      743.95355     -93.524226      650.42933    
    178000   307.53681      0.0074373588   3.5144895      763.0073      -92.421102      670.5862     
    179000   290.53006      0.0074373588   2.0353125      720.81309     -97.532283      623.2808     
    180000   285.42389      0.0074373588   2.984482       708.14453     -92.877609      615.26692    
    181000   300.59005      0.0074373588   6.8223729      745.7722      -91.539503      654.2327     
    182000   311.14617      0.0074373588   5.3676282      771.96222     -83.4726        688.48962    
    183000   312.27347      0.0074373588   3.3917954      774.75909     -87.897361      686.86173    
    184000   297.89678      0.0074373588   3.1965356      739.09013     -87.97552       651.11461    
    185000   297.45822      0.0074373588   3.795146       738.00204     -89.684863      648.31718    
    186000   298.49849      0.0074373588   3.1169703      740.58298     -92.447982      648.135      
    187000   307.32167      0.0074373588   7.9100936      762.47354     -89.027535      673.44601    
    188000   297.23682      0.0074373588   2.689777       737.45274     -82.673335      654.77941    
    189000   305.53077      0.0074373588   2.1302343      758.03027     -86.886399      671.14387    
    190000   301.97733      0.0074373588   4.223399       749.21407     -88.841698      660.37237    
    191000   286.10022      0.0074373588   5.2207168      709.82254     -89.902033      619.9205     
    192000   302.16636      0.0074373588   3.6510904      749.68307     -91.020862      658.66221    
    193000   309.45294      0.0074373588   3.5501614      767.76129     -93.87266       673.88863    
    194000   304.14859      0.0074373588   4.3989019      754.60103     -92.177541      662.42349    
    195000   295.87106      0.0074373588   4.2182533      734.06427     -96.545117      637.51915    
    196000   289.89259      0.0074373588   3.6704015      719.23151     -98.317488      620.91402    
    197000   314.4288       0.0074373588   4.0744645      780.10653     -96.881641      683.22489    
    198000   311.31198      0.0074373588   2.9951267      772.37361     -98.258174      674.11544    
    199000   291.76693      0.0074373588   3.0191024      723.88179     -97.48987       626.39192    
    200000   302.44605      0.0074373588   4.9795475      750.37698     -96.629954      653.74703    
    201000   310.97553      0.0074373588   3.591368       771.53886     -98.03398       673.50488    
    202000   295.55592      0.0074373588   2.5543034      733.28237     -97.615348      635.66703    
    203000   301.64583      0.0074373588   4.3294538      748.39163     -90.622529      657.7691     
    204000   294.0948       0.0074373588   4.5609243      729.65731     -90.248638      639.40867    
    205000   291.63112      0.0074373588   4.0788586      723.54484     -90.364009      633.18084    
    206000   315.07069      0.0074373588   5.0829404      781.69905     -94.220649      687.47841    
    207000   306.81681      0.0074373588   3.9552856      761.22096     -93.140187      668.08077    
    208000   293.74762      0.0074373588   1.2341858      728.79595     -97.363105      631.43285    
    209000   299.57349      0.0074373588   1.8222812      743.25008     -91.166744      652.08334    
    210000   312.96022      0.0074373588   3.6040775      776.46294     -92.36331       684.09963    
    211000   310.50668      0.0074373588   5.7643627      770.37564     -98.44768       671.92796    
    212000   298.41453      0.0074373588   5.9052824      740.37468     -95.74077       644.63391    
    213000   281.0018       0.0074373588   2.2420407      697.17321     -96.726685      600.44653    
    214000   299.87918      0.0074373588   2.4830315      744.00852     -91.895812      652.11271    
    215000   303.78643      0.0074373588   4.2133917      753.7025      -94.099581      659.60292    
    216000   288.66245      0.0074373588   4.9500852      716.1795      -92.500385      623.67911    
    217000   289.90041      0.0074373588   2.3683783      719.2509      -93.585058      625.66584    
    218000   305.09222      0.0074373588   1.3650996      756.94221     -90.170444      666.77177    
    219000   301.15285      0.0074373588   6.4933652      747.16852     -91.46079       655.70773    
    220000   299.41928      0.0074373588   3.6308341      742.8675      -94.264477      648.60302    
    221000   301.26721      0.0074373588   1.4750005      747.45226     -90.653796      656.79846    
    222000   302.70348      0.0074373588   0.65608495     751.01567     -89.736447      661.27922    
    223000   305.6105       0.0074373588   4.5208296      758.22807     -97.235862      660.99221    
    224000   298.64434      0.0074373588   5.3705983      740.94483     -99.622681      641.32215    
    225000   301.14611      0.0074373588   3.6556608      747.1518      -92.029865      655.12193    
    226000   295.93833      0.0074373588   3.6533406      734.23115     -94.353352      639.8778     
    227000   303.32713      0.0074373588   3.4911744      752.56298     -88.911265      663.65172    
    228000   308.77496      0.0074373588   3.7228099      766.0792      -91.441903      674.6373     
    229000   302.73616      0.0074373588   5.820506       751.09676     -93.457393      657.63936    
    230000   306.87589      0.0074373588   4.6017991      761.36755     -94.438199      666.92935    
    231000   302.04919      0.0074373588   3.676371       749.39237     -92.089595      657.30277    
    232000   293.66787      0.0074373588   4.215234       728.59809     -91.393633      637.20446    
    233000   294.0356       0.0074373588   3.2084535      729.51042     -89.957764      639.55266    
    234000   296.66713      0.0074373588   2.7285657      736.03934     -87.949008      648.09033    
    235000   303.69963      0.0074373588   3.8919537      753.48714     -87.45055       666.03659    
    236000   296.69973      0.0074373588   3.8522967      736.12021     -89.85309       646.26712    
    237000   295.5179       0.0074373588   6.0388635      733.18805     -89.341993      643.84606    
    238000   300.39733      0.0074373588   3.4982841      745.29405     -85.942564      659.35149    
    239000   303.52578      0.0074373588   2.6377487      753.05583     -83.126218      669.92962    
    240000   297.06314      0.0074373588   6.3428025      737.02183     -86.270637      650.75119    
    241000   305.49307      0.0074373588   5.8525662      757.93674     -89.26581       668.67093    
    242000   297.2929       0.0074373588   3.4104725      737.59187     -85.408206      652.18367    
    243000   306.73155      0.0074373588   2.1664856      761.00942     -87.497674      673.51175    
    244000   296.29277      0.0074373588   5.1637943      735.11053     -87.288434      647.8221     
    245000   302.284        0.0074373588   6.1315375      749.97494     -88.169883      661.80505    
    246000   282.30246      0.0074373588   3.4765676      700.4002      -87.148531      613.25167    
    247000   302.19478      0.0074373588   2.8883049      749.75359     -88.139418      661.61417    
    248000   307.69083      0.0074373588   5.0536445      763.38944     -90.332049      673.05739    
    249000   292.57203      0.0074373588   2.7695424      725.87928     -90.530615      635.34866    
    250000   297.07321      0.0074373588  -0.19451514     737.04683     -89.380496      647.66634    
    251000   296.74974      0.0074373588   2.8083728      736.24429     -90.43916       645.80513    
    252000   313.36673      0.0074373588   7.2369016      777.47149     -91.39072       686.08077    
    253000   302.44773      0.0074373588   11.279186      750.38115     -92.377354      658.0038     
    254000   292.2408       0.0074373588   0.95355366     725.05748     -95.059643      629.99784    
    255000   296.36467      0.0074373588  -4.6726404      735.28891     -87.493172      647.79574    
    256000   318.90695      0.0074373588   5.2534254      791.21693     -91.980505      699.23642    
    257000   296.73491      0.0074373588   6.108946       736.20748     -97.412193      638.79529    
    258000   293.96026      0.0074373588   2.9910696      729.32352     -90.229502      639.09402    
    259000   308.72524      0.0074373588   2.3809587      765.95582     -91.06937       674.88645    
    260000   304.96632      0.0074373588   5.1264897      756.62985     -95.416175      661.21367    
    261000   293.90209      0.0074373588   4.4153222      729.17917     -95.067588      634.11159    
    262000   303.05546      0.0074373588   1.8662165      751.88894     -96.149441      655.7395     
    263000   307.45552      0.0074373588   10.816236      762.80561     -97.719477      665.08614    
    264000   290.51808      0.0074373588   5.5216952      720.78338     -94.573169      626.21021    
    265000   295.31666      0.0074373588  -4.0270638      732.68878     -91.954043      640.73474    
    266000   310.53913      0.0074373588   1.2372369      770.45613     -92.367985      678.08815    
    267000   298.55036      0.0074373588   8.8745915      740.71167     -91.397298      649.31438    
    268000   298.17619      0.0074373588   3.6661531      739.78335     -81.922324      657.86103    
    269000   315.30514      0.0074373588   2.5506884      782.28074     -90.259069      692.02167    
    270000   304.69722      0.0074373588   3.3189495      755.96221     -98.353782      657.60843    
    271000   297.04755      0.0074373588   9.645855       736.98316     -94.456479      642.52668    
    272000   295.62746      0.0074373588   4.2782861      733.45988     -93.673226      639.78665    
    273000   296.35645      0.0074373588   1.5890782      735.26852     -91.169034      644.09948    
    274000   302.6464       0.0074373588   3.1433725      750.87405     -93.261034      657.61302    
    275000   300.4612       0.0074373588   3.9923761      745.45252     -91.746669      653.70585    
    276000   295.84362      0.0074373588   4.9327607      733.99618     -97.770459      636.22572    
    277000   308.60745      0.0074373588   1.9505558      765.66359     -96.523974      669.13962    
    278000   303.30316      0.0074373588   4.0426708      752.5035      -95.12543       657.37807    
    279000   295.44758      0.0074373588   4.8746857      733.0136      -88.780738      644.23286    
    280000   297.54644      0.0074373588   3.2261275      738.22092     -89.660439      648.56048    
    281000   304.06383      0.0074373588   4.1152888      754.39074     -88.584973      665.80576    
    282000   303.03245      0.0074373588   3.2941485      751.83186     -86.815363      665.0165     
    283000   307.97113      0.0074373588   2.3732817      764.08486     -83.916234      680.16862    
    284000   296.13779      0.0074373588   6.3074536      734.72602     -82.638352      652.08767    
    285000   291.88073      0.0074373588   2.6960435      724.16414     -85.108733      639.05541    
    286000   312.25574      0.0074373588   2.8678581      774.71509     -83.232945      691.48215    
    287000   304.33549      0.0074373588   4.404073       755.06473     -81.376406      673.68833    
    288000   292.60101      0.0074373588   4.2646606      725.95118     -83.440575      642.51061    
    289000   304.11122      0.0074373588   3.8732532      754.50833     -84.680953      669.82737    
    290000   305.81843      0.0074373588   4.3035891      758.74395     -79.585185      679.15876    
    291000   298.26089      0.0074373588   5.0585479      739.99348     -81.806626      658.18685    
    292000   293.54344      0.0074373588   4.3425044      728.28937     -79.212906      649.07647    
    293000   309.52411      0.0074373588   3.1414968      767.93785     -82.320322      685.61753    
    294000   311.29065      0.0074373588   3.7018988      772.32069     -86.593618      685.72707    
    295000   301.92835      0.0074373588   5.7643273      749.09255     -81.403147      667.68941    
    296000   284.71323      0.0074373588   4.8259466      706.38136     -84.268222      622.11314    
    297000   297.47103      0.0074373588   2.2442101      738.03383     -80.912313      657.12152    
    298000   311.23558      0.0074373588   4.9067096      772.18404     -79.851049      692.33299    
    299000   311.47004      0.0074373588   4.557887       772.76576     -80.996095      691.76967    
    300000   305.41053      0.0074373588   5.7594982      757.73195     -83.308275      674.42368    
    301000   296.67924      0.0074373588   4.9085466      736.06936     -86.541249      649.52811    
    302000   295.69967      0.0074373588   1.6679807      733.63903     -91.676569      641.96246    
    303000   303.10535      0.0074373588   3.4917195      752.01273     -82.390683      669.62204    
    304000   297.09933      0.0074373588   4.4134554      737.11163     -81.599417      655.51221    
    305000   298.80245      0.0074373588   4.5904691      741.3371      -72.370574      668.96653    
    306000   309.32861      0.0074373588   1.7915676      767.4528      -81.177935      686.27486    
    307000   308.05969      0.0074373588   4.1429207      764.30459     -77.033647      687.27094    
    308000   295.063        0.0074373588   5.1575474      732.05943     -86.282411      645.77702    
    309000   291.62358      0.0074373588   0.37822795     723.52614     -86.343499      637.18264    
    310000   311.59658      0.0074373588   2.4393572      773.0797      -81.306628      691.77307    
    311000   313.75111      0.0074373588   4.3088171      778.42516     -87.608149      690.81701    
    312000   285.38587      0.0074373588   6.8040026      708.05022     -84.679309      623.37091    
    313000   298.57881      0.0074373588   4.0362027      740.78227     -87.104701      653.67757    
    314000   311.58631      0.0074373588   0.35516178     773.05423     -84.185323      688.8689     
    315000   306.19653      0.0074373588   2.3337739      759.68204     -84.051867      675.63017    
    316000   296.10191      0.0074373588   12.477547      734.637       -83.117984      651.51902    
    317000   294.10148      0.0074373588   3.4085491      729.67387     -90.075218      639.59866    
    318000   297.49021      0.0074373588   1.1110096      738.0814      -88.596253      649.48515    
    319000   305.92905      0.0074373588   6.9890399      759.01841     -84.697489      674.32093    
    320000   305.27188      0.0074373588   6.4064941      757.38794     -81.588665      675.79928    
    321000   315.21481      0.0074373588   8.8536193      782.05664     -86.702295      695.35435    
    322000   297.35464      0.0074373588   4.7669944      737.74507     -82.352219      655.39285    
    323000   293.19241      0.0074373588   0.77710265     727.41844     -80.948852      646.46959    
    324000   315.30154      0.0074373588   10.862517      782.2718      -81.722644      700.54916    
    325000   299.6134       0.0074373588   3.9653147      743.34909     -80.53413       662.81496    
    326000   298.5371       0.0074373588   3.3538447      740.67878     -80.72486       659.95392    
    327000   291.86136      0.0074373588   4.2267053      724.11607     -77.914183      646.20189    
    328000   285.358        0.0074373588   2.8549995      707.98107     -76.169914      631.81115    
    329000   296.78644      0.0074373588   1.3378667      736.33534     -76.576729      659.75861    
    330000   318.45747      0.0074373588   4.6355041      790.10176     -79.616978      710.48479    
    331000   298.92624      0.0074373588   6.489893       741.64425     -79.849802      661.79444    
    332000   288.28542      0.0074373588   4.6646158      715.24406     -81.331282      633.91278    
    333000   297.94359      0.0074373588   3.50748        739.20626     -81.515177      657.69108    
    334000   298.56729      0.0074373588   2.7520964      740.75367     -83.712169      657.0415     
    335000   315.08858      0.0074373588   3.0342992      781.74346     -82.355143      699.38832    
    336000   293.18392      0.0074373588   4.681189       727.39739     -83.065942      644.33145    
    337000   295.29225      0.0074373588   3.5676149      732.62822     -83.317744      649.31048    
    338000   308.69548      0.0074373588   3.8884538      765.88201     -81.21049       684.67152    
    339000   299.01141      0.0074373588   3.8746403      741.85556     -78.212974      663.64258    
    340000   296.32696      0.0074373588   2.3378439      735.19535     -81.458027      653.73732    
    341000   295.93298      0.0074373588   3.3833188      734.21789     -83.340408      650.87748    
    342000   296.57313      0.0074373588   6.4399362      735.80611     -75.637486      660.16863    
    343000   308.29089      0.0074373588   4.2662547      764.8782      -76.050086      688.82811    
    344000   300.92862      0.0074373588   3.7860627      746.6122      -70.599236      676.01297    
    345000   303.93091      0.0074373588   3.0385985      754.06096     -70.153484      683.90748    
    346000   300.06309      0.0074373588   0.42942489     744.46479     -71.663342      672.80145    
    347000   299.49483      0.0074373588   4.8565895      743.05493     -72.676443      670.37849    
    348000   314.40664      0.0074373588   3.3155765      780.05153     -72.518176      707.53335    
    349000   280.52695      0.0074373588  -0.7200172      695.99509     -71.659766      624.33533    
    350000   292.49579      0.0074373588   4.4340293      725.69012     -72.208074      653.48205    
    351000   304.02309      0.0074373588   4.6348468      754.28965     -71.894842      682.39481    
    352000   305.18686      0.0074373588   3.943682       757.17701     -72.553234      684.62378    
    353000   298.20528      0.0074373588   1.9588461      739.85552     -74.785715      665.06981    
    354000   291.95878      0.0074373588   4.5215869      724.35777     -76.245875      648.11189    
    355000   313.98702      0.0074373588   4.1024237      779.01044     -72.615325      706.39511    
    356000   302.79702      0.0074373588   2.8511994      751.24776     -71.88891       679.35885    
    357000   304.13276      0.0074373588   3.4754382      754.56176     -74.763839      679.79792    
    358000   297.36687      0.0074373588   8.5418221      737.77541     -70.660091      667.11532    
    359000   308.1509       0.0074373588   6.3308765      764.53087     -73.56934       690.96153    
    360000   300.33432      0.0074373588   3.4011274      745.13773     -71.974791      673.16294    
    361000   292.29896      0.0074373588   3.6276233      725.20177     -71.422923      653.77885    
    362000   305.61794      0.0074373588   3.9522295      758.24653     -68.286314      689.96021    
    363000   309.16723      0.0074373588   4.7252009      767.05241     -69.540183      697.51223    
    364000   290.74925      0.0074373588   4.1871755      721.3569      -72.360673      648.99623    
    365000   293.63285      0.0074373588   1.3689854      728.5112      -72.747563      655.76364    
    366000   314.39162      0.0074373588   0.84818548     780.01427     -72.501179      707.51309    
    367000   309.77374      0.0074373588   2.4040843      768.55719     -74.827315      693.72987    
    368000   304.80122      0.0074373588   5.161339       756.22023     -72.352703      683.86753    
    369000   287.6797       0.0074373588   5.4442038      713.74127     -74.483632      639.25763    
    370000   302.29075      0.0074373588   3.7370849      749.99168     -72.783939      677.20774    
    371000   303.16668      0.0074373588   2.5836619      752.16489     -76.455841      675.70905    
    372000   298.50513      0.0074373588   6.9216998      740.59945     -68.164145      672.4353     
    373000   297.23829      0.0074373588   4.976041       737.4564      -72.379348      665.07705    
    374000   303.48841      0.0074373588   1.829239       752.96312     -72.371837      680.59128    
    375000   300.8942       0.0074373588   4.1133874      746.52682     -73.415743      673.11107    
    376000   304.65012      0.0074373588   5.2133565      755.84535     -70.719974      685.12537    
    377000   300.05033      0.0074373588   6.0858472      744.43313     -67.577679      676.85545    
    378000   296.45211      0.0074373588   5.5151421      735.50586     -73.9787        661.52716    
    379000   301.78772      0.0074373588   1.7128799      748.74365     -70.337223      678.40643    
    380000   309.66041      0.0074373588   4.942303       768.27602     -69.901534      698.37449    
    381000   296.40607      0.0074373588   6.5058925      735.39164     -68.560183      666.83146    
    382000   296.12159      0.0074373588   5.0245353      734.68582     -71.457022      663.2288     
    383000   292.23311      0.0074373588   1.3805762      725.0384      -65.404385      659.63401    
    384000   305.3195       0.0074373588  -0.20782361     757.50611     -64.866565      692.63954    
    385000   306.51411      0.0074373588   7.3826174      760.46995     -59.686927      700.78302    
    386000   294.96142      0.0074373588   2.4309792      731.80741     -63.040346      668.76706    
    387000   304.44241      0.0074373588  -4.0200096      755.33001     -61.896782      693.43323    
    388000   302.01966      0.0074373588   2.8827215      749.3191      -69.449747      679.86935    
    389000   306.58446      0.0074373588   6.5671865      760.6445      -62.737071      697.90743    
    390000   310.68921      0.0074373588   8.9190166      770.82849     -58.534641      712.29385    
    391000   279.05258      0.0074373588   3.837196       692.33713     -60.058064      632.27907    
    392000   291.80094      0.0074373588  -0.86348641     723.96618     -61.42023       662.54595    
    393000   307.82614      0.0074373588   3.3626637      763.72513     -62.033872      701.69126    
    394000   304.64595      0.0074373588   6.7568433      755.835       -62.889441      692.94556    
    395000   295.09251      0.0074373588   3.9522582      732.13265     -59.109493      673.02316    
    396000   296.81913      0.0074373588  -0.62357974     736.41646     -59.184719      677.23174    
    397000   309.31108      0.0074373588   3.167531       767.40932     -60.39238       707.01694    
    398000   300.3231       0.0074373588   7.3415773      745.1099      -62.407036      682.70286    
    399000   283.54515      0.0074373588   6.0297423      703.48334     -62.145996      641.33734    
    400000   295.61472      0.0074373588   2.4869295      733.42827     -62.172813      671.25545    
    401000   304.87838      0.0074373588   3.4140484      756.41167     -57.53485       698.87682    
    402000   297.48035      0.0074373588   3.6398599      738.05696     -59.652217      678.40474    
    403000   293.25822      0.0074373588   5.4120291      727.58174     -58.0753        669.50644    
    404000   299.6632       0.0074373588   4.2104142      743.47267     -59.949443      683.52322    
    405000   292.16501      0.0074373588   3.1727027      724.86945     -57.25141       667.61804    
    406000   303.83001      0.0074373588   5.1568472      753.81063     -58.85207       694.95856    
    407000   307.8793       0.0074373588   3.5024693      763.85703     -61.237277      702.61975    
    408000   314.71065      0.0074373588   4.5407611      780.80579     -65.619699      715.18609    
    409000   297.06401      0.0074373588   4.0901799      737.02401     -64.14655       672.87746    
    410000   295.80287      0.0074373588   4.5284681      733.89508     -56.332082      677.563      
    411000   309.94376      0.0074373588   4.2360989      768.97902     -58.290323      710.6887     
    412000   304.24394      0.0074373588   3.6904037      754.8376      -59.655124      695.18248    
    413000   288.95005      0.0074373588   5.1537719      716.89304     -58.036335      658.8567     
    414000   300.41219      0.0074373588   4.2626697      745.33093     -55.444307      689.88662    
    415000   299.42212      0.0074373588   3.7000851      742.87453     -56.501605      686.37292    
    416000   310.75484      0.0074373588   4.154665       770.99134     -56.885755      714.10558    
    417000   302.34841      0.0074373588   3.8529055      750.13475     -53.275549      696.8592     
    418000   291.92328      0.0074373588   3.831158       724.2697      -55.862555      668.40715    
    419000   321.66094      0.0074373588   4.3112319      798.04965     -56.122337      741.92731    
    420000   301.89964      0.0074373588   5.0966587      749.02132     -54.345425      694.67589    
    421000   280.25947      0.0074373588   3.7226803      695.33147     -54.891575      640.4399     
    422000   307.62308      0.0074373588   2.8902041      763.22133     -56.090387      707.13094    
    423000   316.26839      0.0074373588   4.170845       784.67058     -58.199424      726.47116    
    424000   294.26177      0.0074373588   3.6575587      730.07157     -54.557319      675.51425    
    425000   295.2812       0.0074373588   4.4176257      732.60079     -51.560694      681.04009    
    426000   301.26799      0.0074373588   4.486716       747.45419     -51.534581      695.91961    
    427000   293.74187      0.0074373588   3.9939188      728.78168     -52.318699      676.46298    
    428000   296.3798       0.0074373588   2.0903005      735.32645     -55.190951      680.1355     
    429000   281.13306      0.0074373588   2.7616582      697.49888     -50.947498      646.55138    
    430000   302.2476       0.0074373588   5.5219983      749.88462     -50.569433      699.31519    
    431000   319.37645      0.0074373588   6.5252126      792.38178     -50.868847      741.51293    
    432000   299.36934      0.0074373588   2.0462794      742.74358     -50.529646      692.21394    
    433000   288.03901      0.0074373588   10.00052       714.63272     -56.842314      657.79041    
    434000   306.26235      0.0074373588   2.8239679      759.84532     -52.272258      707.57307    
    435000   297.14259      0.0074373588   3.7408615      737.21896     -54.549904      682.66905    
    436000   310.4523       0.0074373588   12.909937      770.2407      -52.528556      717.71215    
    437000   292.094        0.0074373588   1.5238219      724.69327     -50.456172      674.23709    
    438000   299.60491      0.0074373588   1.5121107      743.32805     -50.54307       692.78498    
    439000   297.84665      0.0074373588   3.9588984      738.96574     -54.966072      683.99967    
    440000   297.45131      0.0074373588   11.232414      737.9849      -53.504698      684.4802     
    441000   308.41148      0.0074373588  -3.2601035      765.17739     -53.008348      712.16904    
    442000   309.06835      0.0074373588   2.5856723      766.8071      -52.040022      714.76708    
    443000   308.26776      0.0074373588   11.598975      764.82081     -47.123587      717.69722    
    444000   297.99574      0.0074373588  -0.15830608     739.33565     -49.134957      690.2007     
    445000   303.43591      0.0074373588   7.5249443      752.83287     -50.668271      702.1646     
    446000   306.01797      0.0074373588   5.6869906      759.23902     -46.112555      713.12647    
    447000   303.63733      0.0074373588  -0.51420544     753.33258     -45.696334      707.63624    
    448000   286.02972      0.0074373588   0.092687269    709.64761     -49.672215      659.9754     
    449000   301.2467       0.0074373588   6.5238325      747.40136     -46.257187      701.14418    
    450000   311.24289      0.0074373588   3.9138994      772.20218     -49.74705       722.45513    
    451000   289.9902       0.0074373588   2.9483546      719.47368     -46.418178      673.0555     
    452000   300.08524      0.0074373588   8.5318704      744.51976     -40.744591      703.77517    
    453000   311.73757      0.0074373588   5.0904371      773.42951     -46.02339       727.40612    
    454000   309.5648       0.0074373588  -1.5985509      768.03881     -44.387952      723.65086    
    455000   292.55706      0.0074373588   4.8301272      725.84213     -46.903574      678.93856    
    456000   288.68088      0.0074373588   6.1286537      716.22523     -47.773871      668.45136    
    457000   315.66222      0.0074373588  -0.56221034     783.16668     -48.968905      734.19777    
    458000   299.90069      0.0074373588   3.4153312      744.06187     -49.479679      694.58219    
    459000   292.26         0.0074373588   7.2989638      725.10511     -50.282239      674.82287    
    460000   314.42669      0.0074373588  -0.56906305     780.10128     -49.934462      730.16682    
    461000   306.73792      0.0074373588   3.2050047      761.02525     -53.0673        707.95795    
    462000   299.39369      0.0074373588   8.2779077      742.80399     -53.905895      688.8981     
    463000   298.17641      0.0074373588   9.4061074      739.7839      -52.472511      687.31139    
    464000   307.83893      0.0074373588  -0.26404097     763.75688     -52.08461       711.67227    
    465000   307.11952      0.0074373588   3.484397       761.97201     -51.517789      710.45422    
    466000   292.44475      0.0074373588   2.5875716      725.56349     -51.034712      674.52878    
    467000   284.82824      0.0074373588   6.5692965      706.66671     -52.834915      653.8318     
    468000   298.25049      0.0074373588   4.5595908      739.9677      -49.827726      690.13997    
    469000   306.58625      0.0074373588   3.4885452      760.64894     -53.427214      707.22172    
    470000   301.87369      0.0074373588   3.1756566      748.95694     -58.898994      690.05795    
    471000   296.19486      0.0074373588   4.827647       734.86762     -55.055064      679.81256    
    472000   307.25627      0.0074373588   4.0675709      762.31127     -52.876989      709.43428    
    473000   299.71939      0.0074373588   4.3421624      743.61208     -53.187851      690.42423    
    474000   296.04407      0.0074373588   7.5878494      734.4935      -47.979701      686.5138     
    475000   299.42067      0.0074373588   1.8847267      742.87094     -47.867961      695.00298    
    476000   305.20256      0.0074373588   6.718823       757.21596     -51.033476      706.18248    
    477000   295.02789      0.0074373588   4.8863323      731.97232     -48.335155      683.63716    
    478000   303.61731      0.0074373588   1.4869705      753.28292     -48.982822      704.3001     
    479000   301.93256      0.0074373588   2.7091762      749.103       -44.788676      704.31433    
    480000   303.6763       0.0074373588   5.3111618      753.42926     -50.769542      702.65972    
    481000   310.6706       0.0074373588   6.629466       770.78232     -49.774743      721.00758    
    482000   290.54621      0.0074373588   3.2912307      720.85317     -52.45653       668.39664    
    483000   289.2162       0.0074373588   1.3581431      717.55336     -49.609099      667.94426    
    484000   312.49336      0.0074373588  -0.15195656     775.30463     -52.146058      723.15858    
    485000   309.92697      0.0074373588   4.5523024      768.93735     -49.365659      719.57169    
    486000   294.3011       0.0074373588   4.1919127      730.16914     -53.161548      677.0076     
    487000   299.50703      0.0074373588   3.9343538      743.08519     -52.776398      690.30879    
    488000   296.83859      0.0074373588   3.1855297      736.46473     -51.998379      684.46635    
    489000   313.84893      0.0074373588   3.3861097      778.66786     -53.954144      724.71371    
    490000   309.60604      0.0074373588   4.8247663      768.14112     -45.175865      722.96525    
    491000   298.11017      0.0074373588   5.0039637      739.61954     -48.862792      690.75675    
    492000   299.26188      0.0074373588   3.7430633      742.47696     -52.673356      689.80361    
    493000   299.09044      0.0074373588   3.9916148      742.05163     -51.587785      690.46384    
    494000   306.43882      0.0074373588   3.400628       760.28316     -51.232043      709.05111    
    495000   302.18244      0.0074373588   3.8711479      749.72297     -49.016394      700.70657    
    496000   293.63231      0.0074373588   3.8020266      728.50987     -48.202987      680.30688    
    497000   302.69728      0.0074373588   4.1092347      751.0003      -50.819454      700.18084    
    498000   299.98548      0.0074373588   4.0559438      744.27225     -51.938737      692.33351    
    499000   292.15642      0.0074373588   4.252603       724.84814     -53.286904      671.56123    
    500000   296.28657      0.0074373588   5.052688       735.09514     -57.010941      678.08419    
    501000   295.13385      0.0074373588  -0.1581277      732.23521     -50.638872      681.59634    
    502000   301.38758      0.0074373588   4.7889052      747.7509      -49.136616      698.61428    
    503000   293.69594      0.0074373588   6.4283281      728.66773     -49.722289      678.94544    
    504000   302.20334      0.0074373588   1.8791277      749.77483     -47.948172      701.82666    
    505000   302.4383       0.0074373588   8.7638518      750.35775     -49.463218      700.89453    
    506000   297.24117      0.0074373588   4.4305416      737.46353     -51.221274      686.24226    
    507000   307.5381       0.0074373588   0.30128464     763.01051     -44.367167      718.64334    
    508000   306.52679      0.0074373588   4.6529182      760.50143     -41.885174      718.61625    
    509000   285.55917      0.0074373588   4.5452641      708.48018     -43.229532      665.25065    
    510000   301.2477       0.0074373588   3.8755005      747.40385     -45.834792      701.56906    
    511000   317.47708      0.0074373588   4.1349422      787.66938     -41.857553      745.81183    
    512000   292.57832      0.0074373588   2.6260674      725.89489     -38.554971      687.33991    
    513000   305.55359      0.0074373588   5.2308421      758.08688     -40.679103      717.40777    
    514000   306.61101      0.0074373588   4.7010396      760.71037     -42.91902       717.79135    
    515000   307.98784      0.0074373588   2.8083313      764.12633     -41.157956      722.96838    
    516000   281.26209      0.0074373588   5.0112233      697.819       -39.815001      658.00399    
    517000   286.91352      0.0074373588   4.7967485      711.84036     -42.658325      669.18203    
    518000   305.98155      0.0074373588   4.3661792      759.14865     -45.903829      713.24483    
    519000   307.87248      0.0074373588   3.9209095      763.84011     -41.321572      722.51854    
    520000   294.95415      0.0074373588   1.4832783      731.78938     -43.224853      688.56453    
    521000   283.53962      0.0074373588   6.7826955      703.46962     -46.781954      656.68767    
    522000   316.46113      0.0074373588   10.93941       785.14879     -47.857102      737.29169    
    523000   306.46019      0.0074373588   5.4900661      760.33619     -39.124984      721.21121    
    524000   284.66135      0.0074373588  -2.6039231      706.25267     -42.995998      663.25667    
    525000   290.73892      0.0074373588   5.4131049      721.33128     -46.040762      675.29052    
    526000   321.27536      0.0074373588   4.540973       797.09303     -47.442821      749.65021    
    527000   309.30992      0.0074373588   1.8443605      767.40644     -47.297871      720.10857    
    528000   286.6377       0.0074373588   3.024502       711.15602     -47.798667      663.35736    
    529000   299.5251       0.0074373588   6.60904        743.13003     -49.364935      693.76509    
    530000   308.30641      0.0074373588   3.5937379      764.91671     -48.166032      716.75067    
    531000   299.71306      0.0074373588   1.7606741      743.59636     -47.823317      695.77304    
    532000   295.79817      0.0074373588   2.8767462      733.88341     -42.984749      690.89867    
    533000   301.77849      0.0074373588   2.9068341      748.72075     -45.794436      702.92631    
    534000   312.19758      0.0074373588   4.1323063      774.5708      -45.210745      729.36006    
    535000   296.23303      0.0074373588   6.2931408      734.96231     -48.16134       686.80097    
    536000   287.11517      0.0074373588   3.3835787      712.34065     -45.887726      666.45292    
    537000   294.79733      0.0074373588   1.6939611      731.4003      -48.046728      683.35357    
    538000   319.96937      0.0074373588   4.5434798      793.85284     -43.979314      749.87352    
    539000   294.95913      0.0074373588   7.5212751      731.80173     -42.368686      689.43304    
    540000   294.73735      0.0074373588   2.5226483      731.25149     -41.774871      689.47662    
    541000   291.92454      0.0074373588   1.2407461      724.27284     -43.193588      681.07925    
    542000   295.69874      0.0074373588  -0.14362749     733.63672     -39.002093      694.63462    
    543000   303.80797      0.0074373588  -0.94788274     753.75596     -39.967843      713.78812    
    544000   313.33065      0.0074373588   6.2777739      777.38198     -38.79801       738.58397    
    545000   308.13434      0.0074373588   13.753798      764.48979     -36.347295      728.14249    
    546000   298.40188      0.0074373588   4.7199998      740.34328     -37.093133      703.25015    
    547000   302.32457      0.0074373588   4.1044612      750.0756      -38.57374       711.50186    
    548000   302.85132      0.0074373588   2.7652612      751.38248     -39.229819      712.15266    
    549000   315.73158      0.0074373588   2.6268403      783.33875     -36.590417      746.74834    
    550000   307.79072      0.0074373588   6.4121858      763.63726     -38.696984      724.94027    
    551000   300.85863      0.0074373588   9.3538481      746.43856     -36.77372       709.66484    
    552000   307.93401      0.0074373588   7.1635299      763.99276     -36.814453      727.17831    
    553000   303.5986       0.0074373588   4.0519299      753.23651     -38.777662      714.45884    
    554000   294.98492      0.0074373588   1.2255743      731.86573     -42.484866      689.38086    
    555000   301.56108      0.0074373588   4.1976624      748.18135     -41.523918      706.65743    
    556000   307.21971      0.0074373588   6.0609999      762.22056     -37.945501      724.27506    
    557000   318.24828      0.0074373588   3.8797753      789.58276     -36.650221      752.93254    
    558000   302.48002      0.0074373588   4.6103837      750.46126     -36.519197      713.94206    
    559000   307.87836      0.0074373588   4.4364283      763.85471     -33.295975      730.55873    
    560000   287.18096      0.0074373588   3.8068896      712.50388     -34.963305      677.54057    
    561000   301.85765      0.0074373588   4.1033533      748.91715     -35.018913      713.89824    
    562000   301.41003      0.0074373588   3.9169621      747.8066      -38.556759      709.24984    
    563000   295.27217      0.0074373588   3.7710095      732.57839     -37.024765      695.55362    
    564000   296.97664      0.0074373588   4.0874107      736.80723     -34.345687      702.46154    
    565000   309.12448      0.0074373588   3.2610357      766.94636     -33.312028      733.63433    
    566000   312.5551       0.0074373588   4.04372        775.45782     -32.18909       743.26873    
    567000   296.22006      0.0074373588   3.172351       734.93012     -34.680662      700.24946    
    568000   302.89206      0.0074373588   3.9747096      751.48355     -34.003509      717.48004    
    569000   302.48145      0.0074373588   3.7490779      750.46481     -38.380485      712.08433    
    570000   294.86173      0.0074373588   4.6543456      731.56009     -31.907887      699.65221    
    571000   310.78715      0.0074373588   3.8600527      771.07149     -35.135348      735.93614    
    572000   296.50682      0.0074373588   2.8135424      735.64159     -37.891652      697.74994    
    573000   287.52552      0.0074373588   4.6318296      713.35875     -32.050525      681.30823    
    574000   314.45803      0.0074373588   5.3122602      780.17904     -31.33751       748.84153    
    575000   306.95018      0.0074373588   1.54209        761.55187     -31.453152      730.09872    
    576000   288.24367      0.0074373588   3.5780369      715.14049     -30.28489       684.85561    
    577000   293.29779      0.0074373588   5.5388873      727.67989     -31.569492      696.1104     
    578000   306.39381      0.0074373588   0.64099605     760.17148     -32.09424       728.07724    
    579000   302.52744      0.0074373588   4.4120643      750.57891     -36.600566      713.97834    
    580000   294.85315      0.0074373588   5.6118552      731.53879     -37.173468      694.36532    
    581000   296.58447      0.0074373588   5.1507741      735.83424     -36.753803      699.08044    
    582000   307.10397      0.0074373588   1.3236395      761.93342     -34.699406      727.23401    
    583000   293.73055      0.0074373588   2.667866       728.75359     -30.302569      698.45102    
    584000   291.194        0.0074373588   3.5932308      722.46034     -33.377609      689.08273    
    585000   292.73301      0.0074373588   5.7483602      726.27867     -25.792422      700.48625    
    586000   310.48291      0.0074373588   4.5386108      770.31665     -30.340465      739.97618    
    587000   313.47432      0.0074373588   4.5571487      777.73844     -34.139802      743.59863    
    588000   296.09862      0.0074373588   3.9159672      734.62885     -30.241358      704.38749    
    589000   289.5725       0.0074373588   2.8876933      718.43735     -29.511963      688.92538    
    590000   311.09378      0.0074373588   4.5235722      771.83225     -29.329307      742.50294    
    591000   308.704        0.0074373588   3.6211813      765.90314     -28.121785      737.78135    
    592000   299.20764      0.0074373588   4.0289966      742.34239     -28.775529      713.56687    
    593000   290.79327      0.0074373588   4.2333089      721.46613     -33.002788      688.46334    
    594000   306.60932      0.0074373588   4.1939029      760.70617     -34.374216      726.33195    
    595000   303.87873      0.0074373588   4.2574378      753.93151     -29.210126      724.72138    
    596000   298.39132      0.0074373588   5.7384364      740.3171      -31.383966      708.93313    
    597000   289.35182      0.0074373588   3.2731932      717.88983     -25.738318      692.15151    
    598000   301.25762      0.0074373588   4.8655367      747.42847     -25.0996        722.32887    
    599000   302.32576      0.0074373588   6.6832988      750.07854     -27.24115       722.83739    
    600000   295.61743      0.0074373588   2.9883301      733.435       -28.299622      705.13537    
    601000   297.19213      0.0074373588   1.7180667      737.34188     -29.014317      708.32756    
    602000   310.7163       0.0074373588   4.0511824      770.8957      -31.708472      739.18723    
    603000   308.57874      0.0074373588   8.7675798      765.59236     -31.314116      734.27825    
    604000   291.27413      0.0074373588   5.0705579      722.65916     -34.144392      688.51476    
    605000   293.10953      0.0074373588   0.48119956     727.21282     -34.334683      692.87814    
    606000   312.01189      0.0074373588   1.9090711      774.1101      -33.782768      740.32733    
    607000   290.34674      0.0074373588   4.9596148      720.35827     -35.363987      684.99429    
    608000   290.15507      0.0074373588   4.2797054      719.88274     -32.168671      687.71406    
    609000   307.21512      0.0074373588   3.1710308      762.20919     -29.443901      732.76529    
    610000   302.69186      0.0074373588   3.6354217      750.98686     -32.201605      718.78525    
    611000   299.22774      0.0074373588   6.0276705      742.39228     -32.733133      709.65914    
    612000   299.91352      0.0074373588   5.5550725      744.09372     -29.18089       714.91283    
    613000   296.16479      0.0074373588   4.4513429      734.79302     -29.36207       705.43095    
    614000   299.19032      0.0074373588   2.8835707      742.29944     -30.769761      711.52968    
    615000   312.23362      0.0074373588   3.8237138      774.66022     -30.011111      744.64911    
    616000   311.51563      0.0074373588   3.3825618      772.87887     -28.884433      743.99443    
    617000   309.70702      0.0074373588   5.5615891      768.39166     -29.684651      738.70701    
    618000   301.10454      0.0074373588   4.3634066      747.04867     -32.174671      714.874      
    619000   297.00713      0.0074373588   4.0731146      736.88288     -29.171583      707.71129    
    620000   304.90763      0.0074373588   4.7071868      756.48423     -29.228161      727.25607    
    621000   304.02616      0.0074373588   3.1898858      754.29729     -23.64394       730.65335    
    622000   299.47731      0.0074373588   3.7192588      743.01146     -22.767402      720.24406    
    623000   293.67537      0.0074373588   6.5858488      728.61669     -24.78131       703.83538    
    624000   307.53252      0.0074373588   3.9606113      762.99666     -27.101712      735.89495    
    625000   311.00279      0.0074373588   1.6291683      771.6065      -26.945951      744.66055    
    626000   290.71007      0.0074373588  -0.11326687     721.25971     -25.403041      695.85666    
    627000   290.74912      0.0074373588   4.6371797      721.35658     -32.728574      688.62801    
    628000   292.97908      0.0074373588   4.3641076      726.88917     -32.41906       694.47011    
    629000   318.35475      0.0074373588   2.842732       789.8469      -26.699326      763.14758    
    630000   297.03075      0.0074373588   3.4490558      736.94147     -25.885897      711.05558    
    631000   297.70862      0.0074373588   5.5269646      738.62329     -25.915146      712.70815    
    632000   305.37554      0.0074373588   2.9004818      757.64512     -26.123022      731.5221     
    633000   297.07943      0.0074373588   3.8754625      737.06226     -25.28999       711.77227    
    634000   297.24037      0.0074373588   5.4083743      737.46156     -25.622578      711.83898    
    635000   298.4777       0.0074373588   4.5870217      740.53141     -25.630348      714.90106    
    636000   301.73185      0.0074373588   2.276621       748.60504     -26.310261      722.29478    
    637000   293.28791      0.0074373588   3.9802584      727.6554      -25.254446      702.40095    
    638000   304.51381      0.0074373588   4.5042877      755.50716     -22.879218      732.62795    
    639000   302.24366      0.0074373588   3.7054548      749.87485     -23.288167      726.58668    
    640000   304.06607      0.0074373588   4.9094241      754.39631     -22.657891      731.73842    
    641000   298.80291      0.0074373588   4.6686699      741.33827     -24.308013      717.03025    
    642000   290.66683      0.0074373588   3.7103444      721.15241     -25.323955      695.82846    
    643000   300.39935      0.0074373588   3.9274845      745.29907     -24.002134      721.29693    
    644000   303.27113      0.0074373588   5.7059745      752.42404     -24.296669      728.12737    
    645000   298.932        0.0074373588   3.8600116      741.65852     -25.413096      716.24543    
    646000   280.52488      0.0074373588   3.5464257      695.98997     -29.381796      666.60818    
    647000   305.58907      0.0074373588   4.7338795      758.1749      -28.508501      729.6664     
    648000   298.94659      0.0074373588   5.2253094      741.69472     -24.40266       717.29206    
    649000   284.94829      0.0074373588   3.5824777      706.96455     -27.068609      679.89595    
    650000   293.05018      0.0074373588   3.5348965      727.06558     -26.0889        700.97668    
    651000   305.52329      0.0074373588   3.7052019      758.01171     -27.466541      730.54517    
    652000   312.70569      0.0074373588   4.1230544      775.83142     -29.350754      746.48067    
    653000   292.76678      0.0074373588   4.9323206      726.36244     -29.510163      696.85228    
    654000   288.52052      0.0074373588   3.5949631      715.82736     -35.178252      680.64911    
    655000   307.43133      0.0074373588   5.5349992      762.74562     -31.7851        730.96052    
    656000   309.21565      0.0074373588   3.7863046      767.17254     -33.899851      733.27269    
    657000   282.40363      0.0074373588   1.7876415      700.65119     -29.642463      671.00873    
    658000   303.10708      0.0074373588   5.2726447      752.01702     -28.154886      723.86214    
    659000   312.83601      0.0074373588   4.7275144      776.15477     -28.24752       747.90725    
    660000   291.60821      0.0074373588   3.602062       723.48801     -28.973962      694.51405    
    661000   300.31642      0.0074373588   2.9238115      745.09331     -28.512556      716.58075    
    662000   304.55453      0.0074373588   8.9463384      755.60819     -28.701902      726.90628    
    663000   302.72088      0.0074373588   3.2799974      751.05885     -25.34786       725.711      
    664000   287.00824      0.0074373588   2.5258083      712.07536     -24.596407      687.47895    
    665000   293.6164       0.0074373588   1.6032359      728.47038     -21.790295      706.68008    
    666000   308.93807      0.0074373588   5.625147       766.48388     -21.597803      744.88607    
    667000   315.07064      0.0074373588   3.7305632      781.69895     -21.510148      760.1888     
    668000   295.57386      0.0074373588   2.21692        733.3269      -20.035106      713.29179    
    669000   302.70352      0.0074373588   4.7695101      751.01577     -25.744167      725.27161    
    670000   306.57547      0.0074373588   4.6413721      760.62219     -25.164993      735.4572     
    671000   293.45274      0.0074373588   2.9684943      728.06433     -26.166193      701.89814    
    672000   286.75477      0.0074373588   4.0829675      711.44648     -29.877088      681.56939    
    673000   304.55611      0.0074373588   4.1556852      755.61209     -25.906187      729.70591    
    674000   298.99087      0.0074373588   4.4987945      741.8046      -27.164439      714.64016    
    675000   301.1098       0.0074373588   3.0987591      747.06172     -23.23459       723.82713    
    676000   302.91261      0.0074373588   3.8496679      751.53453     -24.582505      726.95203    
    677000   302.06836      0.0074373588   3.4921522      749.43992     -27.468621      721.9713     
    678000   290.99587      0.0074373588   3.5724139      721.96877     -23.72621       698.24256    
    679000   299.97275      0.0074373588   4.2332472      744.24066     -22.018023      722.22264    
    680000   303.03916      0.0074373588   4.5119912      751.8485      -25.055422      726.79308    
    681000   306.88162      0.0074373588   3.8210185      761.38177     -24.276322      737.10545    
    682000   301.17537      0.0074373588   2.5014703      747.22439     -26.329273      720.89512    
    683000   285.34329      0.0074373588   3.83781        707.94457     -24.643499      683.30107    
    684000   308.2081       0.0074373588   3.9529842      764.6728      -26.244356      738.42844    
    685000   306.01833      0.0074373588   4.4884172      759.23992     -27.699087      731.54083    
    686000   291.36765      0.0074373588   4.1032402      722.89117     -24.625183      698.26598    
    687000   300.983        0.0074373588   3.3799814      746.74711     -25.098273      721.64884    
    688000   300.9918       0.0074373588   3.832849       746.76896     -26.949797      719.81916    
    689000   293.27882      0.0074373588   5.2244829      727.63283     -27.148728      700.48411    
    690000   299.92034      0.0074373588   4.2585479      744.11064     -27.399768      716.71087    
    691000   309.43702      0.0074373588   2.582919       767.72177     -27.865446      739.85632    
    692000   299.05098      0.0074373588   3.7945725      741.95373     -23.297965      718.65577    
    693000   292.91657      0.0074373588   4.1635424      726.73409     -24.409441      702.32465    
    694000   311.91393      0.0074373588   3.938168       773.86705     -25.461113      748.40593    
    695000   298.4454       0.0074373588   3.7965037      740.45128     -26.234835      714.21644    
    696000   291.48125      0.0074373588   3.9393164      723.17301     -24.327756      698.84525    
    697000   310.41628      0.0074373588   2.8967325      770.15136     -26.656096      743.49526    
    698000   312.90617      0.0074373588   4.5882347      776.32883     -26.738382      749.59045    
    699000   298.00512      0.0074373588   4.4034105      739.35891     -28.430758      710.92815    
    700000   282.73211      0.0074373588   4.0354849      701.46616     -28.150786      673.31537    
    701000   305.62875      0.0074373588   4.5834255      758.27334     -24.214114      734.05923    
    702000   309.53187      0.0074373588   3.9561604      767.95709     -27.257386      740.69971    
    703000   298.66401      0.0074373588   3.8760275      740.99364     -27.609794      713.38384    
    704000   298.77         0.0074373588   4.6131173      741.25661     -22.760147      718.49647    
    705000   324.58472      0.0074373588   4.4636333      805.30363     -22.2327        783.07093    
    706000   297.9965       0.0074373588   3.6269428      739.33752     -24.490244      714.84728    
    707000   287.87297      0.0074373588   3.856298       714.22077     -22.046726      692.17404    
    708000   297.08055      0.0074373588   4.4080435      737.06504     -21.940111      715.12493    
    709000   310.50402      0.0074373588   6.4220013      770.36902     -23.763904      746.60512    
    710000   300.518        0.0074373588   2.3053309      745.59344     -19.796435      725.79701    
    711000   305.86147      0.0074373588   6.8605696      758.85074     -26.341944      732.50879    
    712000   298.01882      0.0074373588   1.2050008      739.39292     -24.924416      714.4685     
    713000   289.16571      0.0074373588   2.8606905      717.4281      -20.822832      696.60527    
    714000   304.52302      0.0074373588   4.5519589      755.53001     -19.90749       735.62252    
    715000   317.44866      0.0074373588   3.3911101      787.59888     -21.089015      766.50986    
    716000   298.06993      0.0074373588   3.3806551      739.51971     -18.05056       721.46915    
    717000   298.85698      0.0074373588   6.7419958      741.4724      -15.468483      726.00391    
    718000   302.31684      0.0074373588   3.9713781      750.05641     -18.323073      731.73333    
    719000   309.69515      0.0074373588   4.3007724      768.3622      -17.925857      750.43634    
    720000   294.13884      0.0074373588   1.8266848      729.76658     -18.56839       711.19819    
    721000   279.97054      0.0074373588   7.7964595      694.61463     -19.08437       675.53026    
    722000   312.18384      0.0074373588   5.4008313      774.53672     -18.964445      755.57228    
    723000   299.08447      0.0074373588   2.2635669      742.03681     -18.85549       723.18132    
    724000   288.9222       0.0074373588   3.4322023      716.82394     -21.048812      695.77513    
    725000   296.25793      0.0074373588   8.1913108      735.02409     -19.119243      715.90485    
    726000   311.81303      0.0074373588   2.395695       773.61672     -20.197285      753.41943    
    727000   293.3644       0.0074373588   0.59111745     727.84516     -18.470214      709.37495    
    728000   288.25837      0.0074373588   4.9604899      715.17696     -20.618832      694.55813    
    729000   303.82883      0.0074373588   3.812427       753.8077      -16.685405      737.12229    
    730000   297.98512      0.0074373588   7.7064143      739.3093      -17.742759      721.56654    
    731000   299.48359      0.0074373588   2.988791       743.02703     -14.691628      728.3354     
    732000   298.50999      0.0074373588   3.3259307      740.61151     -19.456292      721.15521    
    733000   300.88221      0.0074373588   4.7343193      746.49705     -21.956789      724.54026    
    734000   290.97628      0.0074373588   3.6611821      721.92016     -22.634007      699.28616    
    735000   306.77667      0.0074373588   3.7774077      761.12139     -23.407782      737.7136     
    736000   313.71845      0.0074373588   4.1200065      778.34413     -24.674469      753.66966    
    737000   296.53664      0.0074373588   3.9804304      735.71557     -25.655742      710.05983    
    738000   304.55254      0.0074373588   2.8383702      755.60325     -25.054093      730.54915    
    739000   303.59917      0.0074373588   3.3728332      753.23791     -22.424446      730.81346    
    740000   302.78633      0.0074373588   4.9271744      751.22123     -21.42861       729.79262    
    741000   299.97001      0.0074373588   6.1750844      744.23386     -20.940824      723.29303    
    742000   306.20127      0.0074373588   3.960342       759.69379     -20.423863      739.26992    
    743000   298.9722       0.0074373588   3.1656995      741.75826     -23.762499      717.99576    
    744000   305.15675      0.0074373588   3.3154455      757.10232     -26.421283      730.68104    
    745000   291.02659      0.0074373588   8.075787       722.04499     -24.254153      697.79083    
    746000   311.98747      0.0074373588   2.751776       774.04952     -25.401954      748.64757    
    747000   301.37367      0.0074373588   2.6404281      747.71639     -21.40199       726.3144     
    748000   299.99168      0.0074373588   4.823247       744.28764     -25.934721      718.35292    
    749000   305.86391      0.0074373588   5.1282983      758.85679     -22.829281      736.0275     
    750000   290.35183      0.0074373588   0.8398747      720.37089     -21.777087      698.5938     
    751000   313.22704      0.0074373588   2.3301509      777.12491     -21.123461      756.00145    
    752000   309.18451      0.0074373588   5.4264163      767.09529     -22.050122      745.04516    
    753000   284.11857      0.0074373588   3.410174       704.906       -23.989391      680.91661    
    754000   304.25387      0.0074373588   1.9853869      754.86225     -19.807381      735.05487    
    755000   313.87859      0.0074373588   4.8250095      778.74145     -22.628097      756.11335    
    756000   292.09121      0.0074373588   8.5455167      724.68634     -22.547695      702.13865    
    757000   289.34539      0.0074373588   4.4144665      717.87389     -20.449024      697.42486    
    758000   308.26513      0.0074373588   1.4436118      764.81429     -22.856191      741.9581     
    759000   308.89096      0.0074373588   3.998817       766.367       -21.00304       745.36395    
    760000   302.53501      0.0074373588   5.1310005      750.5977      -22.279309      728.31839    
    761000   298.60793      0.0074373588   3.8921339      740.8545      -17.111955      723.74255    
    762000   311.29857      0.0074373588   3.764612       772.34034     -17.0868        755.25354    
    763000   305.56989      0.0074373588   4.2274659      758.12732     -18.980142      739.14717    
    764000   301.05012      0.0074373588   4.4955556      746.91365     -17.211294      729.70236    
    765000   292.2361       0.0074373588   3.579255       725.04583     -16.475595      708.57023    
    766000   292.28204      0.0074373588   2.0138192      725.15979     -21.699464      703.46032    
    767000   319.76187      0.0074373588   4.2333196      793.33801     -21.60305       771.73496    
    768000   314.53669      0.0074373588   3.774253       780.37419     -21.100494      759.27369    
    769000   295.69514      0.0074373588   3.7930995      733.62779     -21.21926       712.40853    
    770000   281.121        0.0074373588   3.142728       697.46895     -20.448375      677.02057    
    771000   303.12164      0.0074373588   4.0446563      752.05315     -17.331257      734.72189    
    772000   302.43517      0.0074373588   3.9574288      750.35        -18.36058       731.98942    
    773000   289.48391      0.0074373588   4.828136       718.21757     -17.414006      700.80356    
    774000   287.49167      0.0074373588   4.3247832      713.27475     -18.033449      695.2413     
    775000   296.91509      0.0074373588   3.4978701      736.65451     -17.624367      719.03014    
    776000   307.62966      0.0074373588   1.8983747      763.23767     -18.709087      744.52859    
    777000   307.20492      0.0074373588   9.0843048      762.18387     -18.404198      743.77967    
    778000   296.15984      0.0074373588   3.3162932      734.78073     -18.140914      716.63982    
    779000   305.67249      0.0074373588  -0.41800807     758.38188     -17.677168      740.70472    
    780000   293.70811      0.0074373588  -3.4597827      728.69791     -16.357016      712.3409     
    781000   301.15464      0.0074373588   2.9640719      747.17297     -16.900085      730.27289    
    782000   299.66356      0.0074373588   4.1264602      743.47354     -15.834816      727.63873    
    783000   297.55479      0.0074373588   4.3218645      738.24163     -16.143814      722.09782    
    784000   303.56883      0.0074373588   0.036952343    753.16264     -15.876789      737.28585    
    785000   306.92289      0.0074373588   5.2497176      761.48415     -15.15121       746.33294    
    786000   296.78952      0.0074373588   6.5065373      736.34297     -15.536573      720.8064     
    787000   295.72612      0.0074373588   3.5787015      733.70467     -17.540803      716.16386    
    788000   299.77053      0.0074373588   2.306669       743.73894     -21.183872      722.55506    
    789000   296.29425      0.0074373588   4.351396       735.11421     -14.955384      720.15882    
    790000   302.30495      0.0074373588   4.2849332      750.0269      -18.357177      731.66972    
    791000   296.15293      0.0074373588   5.78956        734.76359     -18.606702      716.15689    
    792000   295.16151      0.0074373588   3.7648573      732.30384     -17.448814      714.85502    
    793000   305.8346       0.0074373588   3.9833469      758.78406     -19.938156      738.84591    
    794000   310.12033      0.0074373588   5.3980681      769.41709     -17.780466      751.63663    
    795000   284.93107      0.0074373588   6.7482555      706.92183     -16.903719      690.01811    
    796000   295.70659      0.0074373588   2.2300635      733.65619     -17.346478      716.30972    
    797000   301.60018      0.0074373588   1.03709        748.27837     -16.266937      732.01143    
    798000   298.12773      0.0074373588   5.2958686      739.66311     -17.691861      721.97125    
    799000   297.01075      0.0074373588   3.9965816      736.89187     -15.471577      721.42029    
    800000   302.51663      0.0074373588   0.87398136     750.5521      -14.284988      736.26711    
    801000   305.53458      0.0074373588   4.5004288      758.03972     -16.068545      741.97118    
    802000   300.19305      0.0074373588   4.6522507      744.78723     -15.720865      729.06636    
    803000   296.74919      0.0074373588   4.6180709      736.24293     -17.341436      718.90149    
    804000   289.56406      0.0074373588   0.75906303     718.41642     -18.857656      699.55877    
    805000   301.27678      0.0074373588   4.2777799      747.47599     -20.419377      727.05661    
    806000   296.0888       0.0074373588   5.1828689      734.60448     -19.887448      714.71704    
    807000   284.37457      0.0074373588   3.574475       705.54115     -20.296061      685.24509    
    808000   310.81829      0.0074373588   3.7730479      771.14875     -15.187835      755.96091    
    809000   310.01891      0.0074373588   4.4281176      769.16545     -17.872354      751.2931     
    810000   303.39012      0.0074373588   6.296025       752.71926     -16.935547      735.78371    
    811000   293.62059      0.0074373588   6.7227913      728.48078     -14.696682      713.7841     
    812000   289.51988      0.0074373588   2.6925417      718.3068      -15.357804      702.94899    
    813000   310.80464      0.0074373588   4.1627566      771.11488     -16.865439      754.24944    
    814000   300.83567      0.0074373588   5.8847483      746.3816      -16.04912       730.33248    
    815000   290.63365      0.0074373588   0.7392671      721.07009     -19.865335      701.20475    
    816000   301.45943      0.0074373588   4.5702241      747.92915     -17.134717      730.79443    
    817000   290.75203      0.0074373588   5.8958941      721.3638      -20.594226      700.76958    
    818000   304.00849      0.0074373588   0.58087251     754.25344     -20.138497      734.11494    
    819000   309.93508      0.0074373588   6.9121316      768.95748     -18.865091      750.09239    
    820000   289.98486      0.0074373588   4.8637707      719.46043     -21.773945      697.68648    
    821000   303.36792      0.0074373588   3.7564951      752.66418     -19.484585      733.17959    
    822000   308.00685      0.0074373588   2.1256502      764.17349     -18.732443      745.44105    
    823000   298.10458      0.0074373588   6.2996154      739.60567     -17.628945      721.97673    
    824000   294.77557      0.0074373588   3.5535719      731.34631     -16.968023      714.37829    
    825000   308.12142      0.0074373588   2.8718096      764.45773     -15.494343      748.96338    
    826000   310.51627      0.0074373588   3.6412083      770.39942     -15.527419      754.872      
    827000   287.9699       0.0074373588   6.4321493      714.46126     -14.580535      699.88073    
    828000   293.61143      0.0074373588   3.7628833      728.45806     -15.504339      712.95372    
    829000   318.00514      0.0074373588   3.4287113      788.97953     -17.042805      771.93672    
    830000   314.2301       0.0074373588   2.9192085      779.61354     -18.02853       761.58501    
    831000   308.43767      0.0074373588   4.6496287      765.24236     -20.222551      745.01981    
    832000   291.34863      0.0074373588   5.3587906      722.84397     -16.138572      706.7054     
    833000   298.05772      0.0074373588   2.9909221      739.48942     -17.244221      722.2452     
    834000   286.48426      0.0074373588   2.5260404      710.77534     -14.891265      695.88407    
    835000   292.84875      0.0074373588   5.3132565      726.56581     -18.675752      707.89006    
    836000   283.16513      0.0074373588   4.419637       702.54048     -20.706799      681.83368    
    837000   286.58219      0.0074373588   3.431158       711.01832     -17.246578      693.77174    
    838000   305.52601      0.0074373588   4.2667588      758.01846     -13.682019      744.33644    
    839000   307.74956      0.0074373588   3.0524176      763.53513     -15.556113      747.97902    
    840000   298.83241      0.0074373588   3.3503604      741.41145     -16.903281      724.50816    
    841000   290.72739      0.0074373588   4.6922738      721.30268     -19.513384      701.7893     
    842000   300.23029      0.0074373588   4.497865       744.87963     -14.319565      730.56007    
    843000   299.52002      0.0074373588  -3.0368359      743.11742     -13.219657      729.89777    
    844000   299.52802      0.0074373588   5.935247       743.13727     -16.737982      726.39929    
    845000   306.88898      0.0074373588   5.4441853      761.40001     -18.793603      742.6064     
    846000   301.85664      0.0074373588   1.0668106      748.91464     -19.384475      729.53017    
    847000   310.12329      0.0074373588   2.7811989      769.42443     -13.910272      755.51416    
    848000   292.55717      0.0074373588   5.1023583      725.84241     -15.349262      710.49315    
    849000   299.32255      0.0074373588   4.178756       742.62749     -17.802264      724.82523    
    850000   298.65221      0.0074373588   4.6694012      740.96437     -17.61925       723.34511    
    851000   309.10381      0.0074373588   3.8431546      766.89507     -14.624349      752.27072    
    852000   316.14478      0.0074373588  -3.7355899      784.36392     -14.511771      769.85215    
    853000   289.02029      0.0074373588  -6.6039237      717.06731     -15.215302      701.85201    
    854000   295.95713      0.0074373588   4.2201786      734.27781     -15.108421      719.16939    
    855000   307.05975      0.0074373588   5.0435817      761.82371     -12.840356      748.98335    
    856000   301.18694      0.0074373588   3.1974511      747.25311     -14.107393      733.14572    
    857000   318.78713      0.0074373588   2.7485333      790.91967     -12.406517      778.51315    
    858000   308.74056      0.0074373588   3.2366706      765.99384     -13.507928      752.48592    
    859000   287.26199      0.0074373588   4.2318327      712.70491     -15.745741      696.95917    
    860000   286.23623      0.0074373588   2.2995135      710.15998     -10.152829      700.00715    
    861000   311.33752      0.0074373588   6.356589       772.43698     -14.04349       758.39349    
    862000   304.41978      0.0074373588   4.2668287      755.27385     -14.725733      740.54812    
    863000   293.31644      0.0074373588   1.0632257      727.72617     -11.866292      715.85988    
    864000   286.80994      0.0074373588   3.1996489      711.58336     -12.528469      699.05489    
    865000   304.86362      0.0074373588   6.9391946      756.37503     -14.766478      741.60855    
    866000   319.43         0.0074373588   0.74376316     792.51463     -13.574667      778.93996    
    867000   292.80108      0.0074373588   2.7767423      726.44756     -10.577558      715.87       
    868000   294.1723       0.0074373588   1.5035474      729.84958     -14.393693      715.45588    
    869000   302.75889      0.0074373588   4.4473191      751.15315     -12.419753      738.7334     
    870000   302.61268      0.0074373588   14.368479      750.7904      -15.055052      735.73535    
    871000   302.4931       0.0074373588  -1.8751877      750.49373     -14.998881      735.49485    
    872000   292.73891      0.0074373588   1.2087838      726.29331     -12.421101      713.87221    
    873000   294.13451      0.0074373588   5.072007       729.75582     -14.033013      715.7228     
    874000   303.88812      0.0074373588   4.2669055      753.9548      -13.715498      740.23931    
    875000   291.41766      0.0074373588  -5.111478       723.01524     -12.998823      710.01642    
    876000   297.33356      0.0074373588   8.6135172      737.69277     -12.517748      725.17502    
    877000   317.52712      0.0074373588   6.1071767      787.79354     -14.828911      772.96463    
    878000   300.28154      0.0074373588   0.58630534     745.00678     -13.645233      731.36154    
    879000   290.60125      0.0074373588   0.62230404     720.9897      -15.831414      705.15829    
    880000   294.1424       0.0074373588   7.3654887      729.7754      -14.493878      715.28152    
    881000   307.28766      0.0074373588   7.0271962      762.38916     -16.97676       745.4124     
    882000   303.74773      0.0074373588  -3.0381193      753.60649     -12.421429      741.18506    
    883000   287.9039       0.0074373588   5.824294       714.29751     -12.108909      702.1886     
    884000   307.8635       0.0074373588   14.809322      763.81783     -16.079526      747.73831    
    885000   321.01676      0.0074373588   6.9359045      796.45144     -11.804383      784.64705    
    886000   292.05391      0.0074373588  -0.1319124      724.59379     -13.076059      711.51773    
    887000   295.51206      0.0074373588   4.7538092      733.17358     -11.012973      722.1606     
    888000   308.1994       0.0074373588   5.79552        764.65121     -13.56484       751.08637    
    889000   301.55951      0.0074373588   3.783763       748.17746     -13.570694      734.60676    
    890000   293.79208      0.0074373588  -1.4585546      728.90624     -15.06406       713.84218    
    891000   297.55536      0.0074373588   7.1984874      738.24304     -14.054743      724.1883     
    892000   292.03918      0.0074373588   5.4429666      724.55724     -14.820158      709.73709    
    893000   307.85273      0.0074373588   3.3082308      763.79111     -12.773508      751.01761    
    894000   303.80482      0.0074373588   1.1752991      753.74813     -16.27023       737.4779     
    895000   299.24217      0.0074373588   4.8347771      742.42807     -17.921392      724.50668    
    896000   301.73033      0.0074373588   5.8037838      748.60126     -17.475157      731.12611    
    897000   302.3037       0.0074373588   3.8935183      750.02382     -14.441939      735.58188    
    898000   308.01404      0.0074373588   3.7700601      764.19132     -12.336953      751.85436    
    899000   286.08132      0.0074373588   5.394125       709.77564     -14.118743      695.6569     
    900000   287.92479      0.0074373588   8.2879161      714.34934     -16.649279      697.70006    
    901000   308.64982      0.0074373588   4.6889929      765.76872     -18.059003      747.70972    
    902000   303.92105      0.0074373588   0.97943387     754.03651     -16.917506      737.11901    
    903000   290.3042       0.0074373588   4.1804712      720.25271     -14.939017      705.3137     
    904000   299.9821       0.0074373588   4.6665979      744.26386     -11.68469       732.57917    
    905000   318.40996      0.0074373588   5.5282995      789.98389     -12.936228      777.04766    
    906000   299.99431      0.0074373588   3.5243896      744.29416     -14.88096       729.4132     
    907000   280.14513      0.0074373588   5.7902697      695.0478      -16.24049       678.80731    
    908000   302.05911      0.0074373588   6.0170678      749.41697     -19.53256       729.88441    
    909000   307.97717      0.0074373588   3.0012726      764.09986     -15.039692      749.06017    
    910000   293.6514       0.0074373588   2.9900325      728.55721     -16.276106      712.2811     
    911000   291.41581      0.0074373588   4.3262688      723.01066     -15.695286      707.31537    
    912000   303.7443       0.0074373588   3.1497039      753.59799     -15.319172      738.27882    
    913000   317.97527      0.0074373588   4.1939369      788.90541     -14.105694      774.79971    
    914000   298.4511       0.0074373588   4.0164866      740.4654      -14.640091      725.82531    
    915000   295.86044      0.0074373588   2.7460356      734.0379      -15.773534      718.26436    
    916000   298.13342      0.0074373588   3.7787786      739.67724     -16.399294      723.27795    
    917000   306.0989       0.0074373588   4.4583997      759.4398      -15.820847      743.61895    
    918000   304.57316      0.0074373588   5.4431389      755.65441     -18.254215      737.40019    
    919000   301.23846      0.0074373588   3.1549737      747.38092     -19.707656      727.67326    
    920000   303.67732      0.0074373588   2.6201399      753.43181     -20.478954      732.95286    
    921000   296.2278       0.0074373588   4.9045341      734.94933     -19.105571      715.84376    
    922000   305.39636      0.0074373588   5.5137765      757.6968      -15.738107      741.95869    
    923000   296.36257      0.0074373588   0.39338341     735.28371     -15.461356      719.82235    
    924000   291.75715      0.0074373588   6.8559179      723.85752     -12.725441      711.13208    
    925000   319.26351      0.0074373588   4.3029507      792.10156     -16.476916      775.62464    
    926000   300.31007      0.0074373588   2.4795092      745.07756     -18.099152      726.97841    
    927000   287.12495      0.0074373588   4.4245603      712.36492     -16.675364      695.68956    
    928000   298.23672      0.0074373588   5.7241752      739.93351     -13.699305      726.23421    
    929000   309.37482      0.0074373588   0.21198748     767.56746     -16.121896      751.44557    
    930000   295.77648      0.0074373588   4.1235928      733.82959     -16.206999      717.62259    
    931000   300.87082      0.0074373588   5.6232853      746.46879     -16.960256      729.50853    
    932000   309.55332      0.0074373588   3.9485115      768.01031     -17.040307      750.97       
    933000   302.93768      0.0074373588   2.7184535      751.59673     -17.228348      734.36838    
    934000   289.27246      0.0074373588   3.767282       717.69296     -14.344937      703.34802    
    935000   299.37511      0.0074373588   4.1928757      742.75791     -15.466322      727.29159    
    936000   320.97038      0.0074373588   3.7055156      796.33636     -16.972084      779.36427    
    937000   303.75467      0.0074373588   4.0715322      753.6237      -17.185869      736.43783    
    938000   296.06121      0.0074373588   4.4455226      734.53603     -16.9477        717.58833    
    939000   290.57259      0.0074373588   3.9355192      720.9186      -14.88864       706.02996    
    940000   307.59293      0.0074373588   4.8235761      763.14653     -14.379584      748.76695    
    941000   301.03792      0.0074373588   3.5784281      746.88338     -14.617232      732.26615    
    942000   288.89636      0.0074373588   3.670487       716.75984     -14.972238      701.7876     
    943000   295.61518      0.0074373588   3.9508585      733.42942     -12.136729      721.29269    
    944000   310.35778      0.0074373588   4.3222914      770.00621     -13.491734      756.51448    
    945000   313.39837      0.0074373588   4.804964       777.54999     -14.766941      762.78305    
    946000   280.66582      0.0074373588   6.552537       696.33965     -15.421374      680.91827    
    947000   301.6509       0.0074373588   2.7093402      748.4042      -15.822507      732.58169    
    948000   309.5736       0.0074373588   3.3705505      768.06064     -16.706701      751.35394    
    949000   306.27136      0.0074373588   6.6755175      759.86768     -16.780307      743.08737    
    950000   296.61144      0.0074373588   5.4205566      735.90116     -14.901607      720.99955    
    951000   293.78062      0.0074373588   1.1761921      728.87781     -13.715496      715.16231    
    952000   312.78677      0.0074373588  -3.7814592      776.03261     -12.868077      763.16453    
    953000   313.0557       0.0074373588   7.4957794      776.69982     -14.968512      761.73131    
    954000   298.15184      0.0074373588   10.677904      739.72292     -11.328141      728.39478    
    955000   284.09959      0.0074373588   6.323678       704.85892     -9.7940275      695.06489    
    956000   284.36886      0.0074373588   8.8045402      705.52698     -11.658061      693.86892    
    957000   314.31635      0.0074373588   0.35201517     779.82754     -12.034678      767.79286    
    958000   310.80616      0.0074373588  -1.8222471      771.11864     -11.521373      759.59727    
    959000   299.25835      0.0074373588   9.8865708      742.46822     -11.97089       730.49733    
    960000   307.28762      0.0074373588   5.4040164      762.38905     -11.949599      750.43945    
    961000   293.47018      0.0074373588   6.1993866      728.1076      -9.5746655      718.53294    
    962000   294.21442      0.0074373588   3.6111914      729.95408     -10.912127      719.04195    
    963000   295.58825      0.0074373588  -0.095305128    733.36259     -10.858577      722.50401    
    964000   311.77545      0.0074373588   4.0885143      773.52348     -8.3769169      765.14656    
    965000   312.25638      0.0074373588   15.014155      774.71668     -8.4054983      766.31118    
    966000   294.43705      0.0074373588   16.236226      730.50643     -6.5114012      723.99503    
    967000   300.4965       0.0074373588   4.2095291      745.5401      -11.807637      733.73247    
    968000   298.44164      0.0074373588  -3.0349763      740.44194     -11.038396      729.40355    
    969000   307.92667      0.0074373588   4.3021393      763.97456     -10.429384      753.54517    
    970000   292.73489      0.0074373588   5.2593388      726.28333     -13.628813      712.65451    
    971000   303.45156      0.0074373588   4.1448423      752.87167     -12.52232       740.34935    
    972000   293.88218      0.0074373588   2.6186956      729.12978     -10.667582      718.4622     
    973000   308.98733      0.0074373588   5.972539       766.60608     -12.224673      754.38141    
    974000   306.48727      0.0074373588   5.5771062      760.40337     -10.839181      749.56419    
    975000   297.28173      0.0074373588   4.2340035      737.56417     -9.2649119      728.29925    
    976000   302.19761      0.0074373588   2.7925852      749.76061     -13.568943      736.19167    
    977000   299.00427      0.0074373588   5.8452945      741.83783     -10.026833      731.811      
    978000   294.69921      0.0074373588   3.7096284      731.15686     -12.099701      719.05716    
    979000   302.8313       0.0074373588   3.999235       751.33281     -8.5042824      742.82853    
    980000   320.27563      0.0074373588   2.5299102      794.61267     -10.747378      783.86529    
    981000   307.14416      0.0074373588   5.4977205      762.03313     -8.4984736      753.53465    
    982000   292.10677      0.0074373588   3.7275525      724.72496     -10.261796      714.46316    
    983000   311.81472      0.0074373588  -0.18550292     773.62092     -10.298609      763.32231    
    984000   306.09358      0.0074373588   4.5111836      759.42662     -10.285476      749.14115    
    985000   305.37916      0.0074373588   4.5559036      757.6541      -10.947775      746.70633    
    986000   297.02693      0.0074373588   6.9974103      736.932       -11.463103      725.4689     
    987000   283.22051      0.0074373588   5.59667        702.67788     -13.564055      689.11383    
    988000   290.62633      0.0074373588   2.0447491      721.05194     -12.152031      708.89991    
    989000   311.08603      0.0074373588   4.7411167      771.81301     -13.923634      757.88938    
    990000   304.73596      0.0074373588   4.7753142      756.05832     -11.371785      744.68654    
    991000   287.1844       0.0074373588   2.9085851      712.51241     -11.809089      700.70332    
    992000   303.20529      0.0074373588   3.2062225      752.26069     -12.018165      740.24253    
    993000   307.16407      0.0074373588   5.7551199      762.08251     -11.009329      751.07318    
    994000   294.94193      0.0074373588   5.1556238      731.75905     -9.1051487      722.6539     
    995000   303.70703      0.0074373588   3.6124776      753.50551     -11.124706      742.38081    
    996000   301.11195      0.0074373588   4.4291349      747.06706     -9.7653878      737.30167    
    997000   302.66923      0.0074373588   4.1956506      750.9307      -11.19847       739.73223    
    998000   305.54843      0.0074373588   3.7892106      758.07408     -11.121549      746.95253    
    999000   285.26739      0.0074373588   3.19391        707.75626     -14.467095      693.28917    
   1000000   302.43339      0.0074373588   5.223368       750.34557     -17.71861       732.62696    
   1001000   312.7374       0.0074373588   4.8700311      775.91011     -13.016434      762.89367    
   1002000   306.27326      0.0074373588   4.3408617      759.87241     -14.126916      745.74549    
   1003000   292.84279      0.0074373588   5.3563718      726.55103     -16.162453      710.38857    
   1004000   299.07211      0.0074373588   3.9879318      742.00616     -12.144112      729.86205    
   1005000   297.28508      0.0074373588   4.0287627      737.57247     -11.129815      726.44266    
   1006000   303.61858      0.0074373588   4.1448563      753.28607     -13.649131      739.63694    
   1007000   290.35885      0.0074373588   4.0590554      720.38832     -12.818753      707.56957    
   1008000   310.60854      0.0074373588   3.8341762      770.62836     -11.946006      758.68235    
   1009000   316.03607      0.0074373588   4.2988743      784.0942      -11.824014      772.27018    
   1010000   289.42157      0.0074373588   4.0146553      718.06289     -14.096558      703.96633    
   1011000   307.61582      0.0074373588   3.7649006      763.20332     -14.777889      748.42543    
   1012000   307.15753      0.0074373588   3.9705625      762.06631     -9.9398934      752.12642    
   1013000   294.56471      0.0074373588   5.5467906      730.82316     -9.5136202      721.30954    
   1014000   287.91861      0.0074373588   3.8229278      714.33401     -10.595135      703.73888    
   1015000   306.16661      0.0074373588   4.9976346      759.6078      -12.908254      746.69955    
   1016000   305.01842      0.0074373588   3.2096824      756.7591      -14.092829      742.66627    
   1017000   294.75052      0.0074373588   4.068349       731.28416     -15.505451      715.77871    
   1018000   285.98632      0.0074373588   6.5533279      709.53994     -15.200727      694.33921    
   1019000   312.17638      0.0074373588   4.9169635      774.5182      -12.774137      761.74406    
   1020000   323.98264      0.0074373588   3.3848776      803.80986     -11.538889      792.27097    
   1021000   290.97615      0.0074373588   3.8654749      721.91985     -13.563514      708.35634    
   1022000   290.59991      0.0074373588   3.8006339      720.98639     -13.090352      707.89604    
   1023000   303.85253      0.0074373588   6.4254981      753.8665      -13.495542      740.37096    
   1024000   299.15561      0.0074373588   4.1063262      742.21332     -8.3137651      733.89956    
   1025000   289.38005      0.0074373588   3.4662287      717.95988     -12.632091      705.32779    
   1026000   303.92013      0.0074373588   4.1549709      754.03423     -10.32488       743.70935    
   1027000   309.43349      0.0074373588   3.9684782      767.71302     -11.044082      756.66894    
   1028000   291.29         0.0074373588   3.4159108      722.69852     -10.39908       712.29944    
   1029000   286.53048      0.0074373588   3.5282167      710.89002     -8.7070348      702.18299    
   1030000   294.50031      0.0074373588   5.5416636      730.66339     -11.025286      719.6381     
   1031000   308.37543      0.0074373588   6.7856141      765.08794     -14.821517      750.26643    
   1032000   302.92439      0.0074373588   2.3078367      751.56375     -13.923251      737.6405     
   1033000   290.54564      0.0074373588   4.3241917      720.85174     -16.856544      703.9952     
   1034000   299.61988      0.0074373588   6.7810861      743.36518     -15.368356      727.99683    
   1035000   308.62855      0.0074373588   1.0779294      765.71594     -15.316875      750.39907    
   1036000   300.92318      0.0074373588  -2.2977206      746.59871     -17.00804       729.59067    
   1037000   296.96524      0.0074373588   6.9996859      736.77896     -14.444082      722.33487    
   1038000   302.40279      0.0074373588   0.95058286     750.26965     -11.978165      738.29148    
   1039000   301.68446      0.0074373588  -0.32297481     748.48745     -11.482468      737.00498    
   1040000   297.74708      0.0074373588   6.3913046      738.71872     -11.384342      727.33438    
   1041000   299.49129      0.0074373588   8.4287757      743.04616     -12.973563      730.07259    
   1042000   301.86518      0.0074373588   2.9727518      748.93583     -12.451397      736.48444    
   1043000   303.26624      0.0074373588   1.3641859      752.41191     -13.301201      739.11071    
   1044000   296.25919      0.0074373588   4.5777976      735.02721     -11.252102      723.77511    
   1045000   306.82775      0.0074373588   4.2331442      761.24812     -12.633783      748.61433    
   1046000   292.13902      0.0074373588   2.7085664      724.80496     -12.487111      712.31785    
   1047000   289.58963      0.0074373588   5.3706976      718.47986     -11.773468      706.70639    
   1048000   307.56957      0.0074373588   4.2455559      763.08857     -13.281825      749.80675    
   1049000   305.12629      0.0074373588   3.6716058      757.02674     -15.216181      741.81056    
   1050000   288.4393       0.0074373588   3.8203336      715.62586     -11.837894      703.78796    
   1051000   293.27629      0.0074373588   4.6890424      727.62655     -15.396157      712.23039    
   1052000   327.86457      0.0074373588   4.343058       813.44102     -14.208994      799.23203    
   1053000   326.77498      0.0074373588   4.5875712      810.73772     -13.849274      796.88845    
   1054000   292.14725      0.0074373588   3.5573237      724.82539     -15.76916       709.05623    
   1055000   298.87677      0.0074373588   5.6799344      741.52149     -15.890498      725.631      
   1056000   302.18558      0.0074373588   3.9361594      749.73075     -19.275976      730.45478    
   1057000   298.66152      0.0074373588  -2.1733818      740.98747     -17.442549      723.54492    
   1058000   297.21842      0.0074373588   2.097793       737.4071      -18.975384      718.43171    
   1059000   294.4995       0.0074373588   8.202891       730.66138     -15.031049      715.63033    
   1060000   310.7568       0.0074373588   7.0462982      770.99618     -19.910361      751.08582    
   1061000   307.42465      0.0074373588   2.2831828      762.72903     -13.640755      749.08827    
   1062000   279.45673      0.0074373588   3.2830694      693.33985     -17.774796      675.56505    
   1063000   308.46095      0.0074373588   6.1944876      765.30012     -19.329311      745.97081    
   1064000   304.16187      0.0074373588   3.2429567      754.63399     -13.907322      740.72667    
   1065000   284.05328      0.0074373588   4.3397653      704.74402     -12.940323      691.8037     
   1066000   284.90309      0.0074373588   3.6210161      706.85243     -13.596201      693.25623    
   1067000   314.83196      0.0074373588   5.958291       781.10677     -11.816173      769.2906     
   1068000   306.00319      0.0074373588   2.6436073      759.20234     -11.40869       747.79365    
   1069000   293.3485       0.0074373588   4.5108517      727.80572     -9.6682084      718.13751    
   1070000   311.37826      0.0074373588   4.0152057      772.53806     -10.598144      761.93991    
   1071000   303.33089      0.0074373588   4.4099716      752.57231     -13.1185        739.45381    
   1072000   298.89052      0.0074373588   7.471989       741.55562     -13.190887      728.36474    
   1073000   292.01663      0.0074373588   4.9283445      724.5013      -13.502597      710.99871    
   1074000   304.10504      0.0074373588   1.5044049      754.49299     -17.331971      737.16102    
   1075000   306.89347      0.0074373588   4.5771328      761.41115     -17.368549      744.0426     
   1076000   286.72341      0.0074373588   4.7873339      711.36869     -15.844169      695.52453    
   1077000   295.9387       0.0074373588  -1.5666887      734.23208     -16.345224      717.88685    
   1078000   314.68903      0.0074373588   1.2134424      780.75215     -14.935125      765.81702    
   1079000   297.5347       0.0074373588   7.7604807      738.19179     -17.064943      721.12685    
   1080000   301.54973      0.0074373588   4.446697       748.1532      -14.988935      733.16426    
   1081000   303.98176      0.0074373588   3.7799411      754.18713     -16.431885      737.75524    
   1082000   300.76059      0.0074373588  -0.19022253     746.1953      -20.061894      726.13341    
   1083000   288.33925      0.0074373588   4.0410555      715.37763     -19.44762       695.93001    
   1084000   299.32756      0.0074373588   4.8603896      742.63992     -17.574228      725.06569    
   1085000   304.68509      0.0074373588   3.3970829      755.93212     -18.607023      737.32509    
   1086000   294.1487       0.0074373588   0.67116823     729.79104     -16.093126      713.69791    
   1087000   295.9945       0.0074373588   3.9757845      734.37051     -16.360572      718.00994    
   1088000   304.10228      0.0074373588   6.5103556      754.48613     -15.309094      739.17704    
   1089000   299.37015      0.0074373588   5.3006721      742.7456      -14.021593      728.72401    
   1090000   288.01424      0.0074373588   4.1210816      714.57127     -11.928143      702.64313    
   1091000   298.79095      0.0074373588   3.8245444      741.30858     -13.248565      728.06002    
   1092000   310.34348      0.0074373588   3.8685886      769.97074     -13.105785      756.86495    
   1093000   305.68791      0.0074373588   4.4477361      758.42013     -12.787678      745.63245    
   1094000   297.92549      0.0074373588   4.1343234      739.16136     -13.22941       725.93195    
   1095000   290.1681       0.0074373588   3.8028492      719.91505     -12.928479      706.98657    
   1096000   299.71989      0.0074373588   3.8616881      743.61332     -13.12147       730.49185    
   1097000   308.86762      0.0074373588   4.0582707      766.30908     -17.323899      748.98518    
   1098000   301.81316      0.0074373588   4.542488       748.80676     -15.517075      733.28968    
   1099000   281.27418      0.0074373588   3.6330672      697.849       -14.856196      682.99281    
   1100000   300.21394      0.0074373588   3.8377006      744.83905     -16.361918      728.47713    
   1101000   308.00416      0.0074373588   3.9335325      764.1668      -16.184943      747.98186    
   1102000   300.99361      0.0074373588   4.2189813      746.77345     -15.423858      731.34959    
   1103000   276.35988      0.0074373588   3.9801114      685.65649     -14.481629      671.17486    
   1104000   287.85231      0.0074373588   3.5422389      714.16952     -17.344801      696.82472    
   1105000   319.4235       0.0074373588   4.0957593      792.49851     -17.996268      774.50224    
   1106000   292.7426       0.0074373588   4.2647716      726.30247     -17.156052      709.14641    
   1107000   298.1765       0.0074373588   4.1820296      739.78411     -14.722315      725.06179    
   1108000   292.02822      0.0074373588   3.9296861      724.53006     -12.189277      712.34078    
   1109000   305.07171      0.0074373588   4.6012724      756.89132     -12.412357      744.47896    
   1110000   298.48315      0.0074373588   3.889108       740.54492     -14.233856      726.31107    
   1111000   285.61986      0.0074373588   3.3935265      708.63076     -16.131611      692.49915    
   1112000   301.48687      0.0074373588   4.1068352      747.99724     -19.284029      728.71321    
   1113000   299.75572      0.0074373588   3.7120287      743.70221     -15.733711      727.9685     
   1114000   303.69854      0.0074373588   4.1617311      753.48445     -14.617576      738.86687    
   1115000   303.73579      0.0074373588   3.6549179      753.57687     -12.925013      740.65186    
   1116000   288.6763       0.0074373588   3.7835116      716.21387     -15.020896      701.19297    
   1117000   301.00644      0.0074373588   4.3510548      746.80528     -12.978586      733.8267     
   1118000   301.68253      0.0074373588   4.4067539      748.48268     -15.861336      732.62134    
   1119000   302.18124      0.0074373588   5.8751838      749.71999     -15.071831      734.64816    
   1120000   293.95508      0.0074373588   6.02377        729.31067     -13.966539      715.34413    
   1121000   288.18544      0.0074373588   3.7818805      714.99603     -13.621509      701.37452    
   1122000   308.5231       0.0074373588   2.1139172      765.45432     -13.961896      751.49243    
   1123000   309.22896      0.0074373588   3.333256       767.20558     -13.36609       753.83949    
   1124000   303.45581      0.0074373588   4.4713777      752.88222     -13.264646      739.61757    
   1125000   294.79297      0.0074373588   8.6152406      731.3895      -12.020973      719.36852    
   1126000   300.32009      0.0074373588   5.1217092      745.10243     -13.451176      731.65125    
   1127000   302.39681      0.0074373588   0.7645177      750.25482     -14.777103      735.47772    
   1128000   300.27382      0.0074373588   5.2477296      744.98762     -15.893791      729.09383    
   1129000   285.02439      0.0074373588   4.4336879      707.15336     -12.888382      694.26498    
   1130000   299.41871      0.0074373588   2.6572905      742.86607     -13.932386      728.93369    
   1131000   306.22433      0.0074373588   2.2261874      759.751       -13.519333      746.23167    
   1132000   302.63256      0.0074373588   4.6827499      750.83971     -14.713461      736.12625    
   1133000   290.74408      0.0074373588   5.4022883      721.34408     -18.649689      702.69439    
   1134000   301.19195      0.0074373588   3.3147994      747.26554     -18.010473      729.25506    
   1135000   312.11159      0.0074373588   3.3907081      774.35745     -17.915221      756.44223    
   1136000   299.79491      0.0074373588   4.5538655      743.79943     -17.082482      726.71695    
   1137000   303.32833      0.0074373588   4.0492622      752.56595     -17.077891      735.48806    
   1138000   302.61623      0.0074373588   4.1667254      750.79922     -18.296263      732.50295    
   1139000   305.6251       0.0074373588   3.2395673      758.2643      -15.97171       742.29259    
   1140000   290.24963      0.0074373588   3.9526191      720.11734     -15.139472      704.97787    
   1141000   309.49109      0.0074373588   4.291294       767.85592     -13.948222      753.9077     
   1142000   302.97797      0.0074373588   3.9145809      751.6967      -13.181771      738.51493    
   1143000   290.75733      0.0074373588   3.4730802      721.37696     -13.442485      707.93447    
   1144000   294.80193      0.0074373588   3.8091528      731.41172     -13.294162      718.11756    
   1145000   300.58879      0.0074373588   4.4789563      745.76908     -13.990129      731.77895    
   1146000   300.1326       0.0074373588   3.7378691      744.63727     -15.628072      729.00919    
   1147000   300.55665      0.0074373588   3.34776        745.68933     -15.596636      730.09269    
   1148000   295.98213      0.0074373588   3.7404192      734.33983     -16.244874      718.09495    
   1149000   291.55895      0.0074373588   4.0505244      723.3658      -16.879095      706.48671    
   1150000   308.86222      0.0074373588   4.2383314      766.29569     -17.907188      748.3885     
   1151000   299.40774      0.0074373588   3.2015676      742.83885     -20.530911      722.30794    
   1152000   284.68907      0.0074373588   4.8305606      706.32143     -15.461716      690.85972    
   1153000   303.66001      0.0074373588   5.2863744      753.38885     -14.354107      739.03475    
   1154000   297.40352      0.0074373588   7.5004628      737.86634     -15.780974      722.08536    
   1155000   300.24533      0.0074373588   4.7229437      744.91693     -15.826561      729.09037    
   1156000   296.06828      0.0074373588   0.44248822     734.55357     -17.74634       716.80723    
   1157000   306.06035      0.0074373588   5.7435196      759.34417     -19.317613      740.02655    
   1158000   310.41338      0.0074373588   6.0927701      770.14415     -16.609231      753.53492    
   1159000   308.91771      0.0074373588  -1.2606028      766.43335     -15.917354      750.51599    
   1160000   304.52579      0.0074373588   3.4346005      755.53688     -13.380579      742.1563     
   1161000   291.20345      0.0074373588   4.0419055      722.48379     -16.860457      705.62333    
   1162000   300.38426      0.0074373588   5.0173177      745.26163     -13.613495      731.64814    
   1163000   298.47422      0.0074373588   2.2378262      740.52277     -12.63779       727.88498    
   1164000   295.42418      0.0074373588   6.197858       732.95552     -14.107713      718.84781    
   1165000   309.74164      0.0074373588   5.537363       768.47754     -16.06643       752.41111    
   1166000   299.90625      0.0074373588   4.1840002      744.07567     -15.376045      728.69962    
   1167000   298.50679      0.0074373588  -0.71830437     740.60356     -15.128849      725.47471    
   1168000   303.52671      0.0074373588   3.598738       753.05813     -14.306337      738.75179    
   1169000   302.92839      0.0074373588   7.7272347      751.57369     -13.604493      737.9692     
   1170000   303.47257      0.0074373588  -1.4477081      752.92381     -11.710758      741.21305    
   1171000   292.76213      0.0074373588  -1.9706172      726.35092     -12.642286      713.70863    
   1172000   307.92527      0.0074373588   11.201165      763.97108     -12.918104      751.05297    
   1173000   316.28263      0.0074373588   2.9650242      784.70592     -13.423756      771.28217    
   1174000   298.99289      0.0074373588   1.0925462      741.80961     -13.426042      728.38357    
   1175000   281.4441       0.0074373588   5.1887337      698.27056     -14.569347      683.70122    
   1176000   316.86468      0.0074373588   5.3298952      786.15        -16.657435      769.49256    
   1177000   302.0093       0.0074373588   2.2967655      749.2934      -15.319014      733.97438    
   1178000   289.49964      0.0074373588   5.0060784      718.25659     -12.657794      705.59879    
   1179000   292.67915      0.0074373588   6.6081753      726.14503     -14.919939      711.22509    
   1180000   307.10333      0.0074373588   4.6822269      761.93182     -11.432822      750.499      
   1181000   309.65181      0.0074373588   2.8499693      768.25467     -11.538553      756.71612    
   1182000   289.58555      0.0074373588   4.0253747      718.46972     -14.285498      704.18422    
   1183000   287.15647      0.0074373588   3.5414779      712.44311     -14.591359      697.85175    
   1184000   300.09254      0.0074373588   7.2101128      744.53787     -14.410523      730.12734    
   1185000   315.14054      0.0074373588   2.8102785      781.87236     -16.014977      765.85738    
   1186000   297.75171      0.0074373588   3.6944073      738.73019     -19.195864      719.53433    
   1187000   291.80723      0.0074373588   6.4120143      723.98178     -13.522654      710.45913    
   1188000   301.84322      0.0074373588   4.3201573      748.88136     -14.764191      734.11717    
   1189000   295.40067      0.0074373588   2.2201161      732.89721     -14.406233      718.49097    
   1190000   301.14498      0.0074373588   4.0535962      747.14899     -13.552613      733.59638    
   1191000   308.17234      0.0074373588   5.4984982      764.58408     -11.235031      753.34905    
   1192000   302.45779      0.0074373588   1.7206285      750.40613     -11.967573      738.43855    
   1193000   296.32847      0.0074373588   5.3193335      735.1991      -17.297538      717.90156    
   1194000   304.76229      0.0074373588   9.2160386      756.12364     -15.328013      740.79562    
   1195000   322.47768      0.0074373588   6.2363461      800.07602     -15.985285      784.09073    
   1196000   297.68235      0.0074373588   3.1018012      738.55812     -15.530638      723.02749    
   1197000   293.11199      0.0074373588   2.606088       727.21892     -14.867884      712.35104    
   1198000   299.35425      0.0074373588   3.7547338      742.70615     -15.977724      726.72843    
   1199000   307.76151      0.0074373588   4.7667251      763.5648      -13.685077      749.87973    
   1200000   296.20092      0.0074373588   1.0103165      734.88265     -16.619635      718.26301    
   1201000   298.02055      0.0074373588   3.1137609      739.39721     -16.348842      723.04836    
   1202000   301.38193      0.0074373588   6.5980231      747.73689     -12.73851       734.99838    
   1203000   299.56474      0.0074373588   2.1741524      743.22837     -10.639611      732.58876    
   1204000   308.6394       0.0074373588   1.4273837      765.74285     -14.368176      751.37468    
   1205000   296.56015      0.0074373588   3.0253905      735.77389     -14.348953      721.42494    
   1206000   283.09998      0.0074373588   6.8389928      702.37885     -13.489862      688.88899    
   1207000   312.69852      0.0074373588   9.0756914      775.81366     -14.889571      760.92409    
   1208000   299.82646      0.0074373588   3.0345308      743.8777      -13.766124      730.11158    
   1209000   294.44698      0.0074373588   2.8251168      730.53109     -14.935625      715.59546    
   1210000   303.52694      0.0074373588   4.2524151      753.05872     -15.336155      737.72256    
   1211000   301.39797      0.0074373588   4.2350715      747.77667     -12.668374      735.1083     
   1212000   300.30902      0.0074373588   4.380844       745.07497     -12.68162       732.39335    
   1213000   296.11529      0.0074373588   3.7546828      734.67021     -9.6393886      725.03082    
   1214000   300.56913      0.0074373588   3.2105091      745.72031     -13.600652      732.11966    
   1215000   301.50334      0.0074373588   2.4751099      748.03809     -13.950892      734.08719    
   1216000   293.04567      0.0074373588   5.1599494      727.0544      -13.656344      713.39805    
   1217000   300.5133       0.0074373588   4.7150252      745.58177     -12.08744       733.49433    
   1218000   308.63219      0.0074373588   3.2273069      765.72498     -11.960523      753.76446    
   1219000   305.63529      0.0074373588  -2.2045713      758.28959     -13.815411      744.47418    
   1220000   303.25941      0.0074373588   5.5027855      752.39495     -12.359588      740.03536    
   1221000   288.93274      0.0074373588   3.8148595      716.85009     -13.520631      703.32946    
   1222000   307.05841      0.0074373588   1.8396995      761.82037     -12.071105      749.74927    
   1223000   310.5312       0.0074373588   4.6333189      770.43648     -14.050036      756.38644    
   1224000   309.95779      0.0074373588   5.7188931      769.01383     -13.216065      755.79777    
   1225000   290.19012      0.0074373588   4.3845883      719.96968     -14.563645      705.40604    
   1226000   299.27872      0.0074373588   2.1962598      742.51875     -11.450692      731.06805    
   1227000   302.16147      0.0074373588   3.383749       749.67095     -10.395559      739.27539    
   1228000   299.10806      0.0074373588   5.272048       742.09535     -11.095656      730.9997     
   1229000   303.74709      0.0074373588   7.4004894      753.60491     -12.246963      741.35795    
   1230000   301.39972      0.0074373588   1.7564023      747.78101     -12.090185      735.69082    
   1231000   309.11821      0.0074373588   4.1370694      766.9308      -11.357736      755.57306    
   1232000   303.23876      0.0074373588   6.1218435      752.34372     -10.103667      742.24006    
   1233000   296.20294      0.0074373588   2.3626154      734.88766     -12.412849      722.47481    
   1234000   303.84499      0.0074373588   3.632989       753.84779     -14.39613       739.45166    
   1235000   299.56611      0.0074373588   3.361944       743.23178     -15.869334      727.36244    
   1236000   309.48193      0.0074373588   7.2550656      767.83321     -17.512712      750.3205     
   1237000   299.94068      0.0074373588   3.1473644      744.1611      -17.049278      727.11182    
   1238000   309.74439      0.0074373588   1.138593       768.48437     -16.786801      751.69757    
   1239000   291.07199      0.0074373588   7.7818595      722.15762     -14.751479      707.40614    
   1240000   296.20195      0.0074373588   5.0937578      734.88521     -11.005063      723.88014    
   1241000   305.83122      0.0074373588  -1.643639       758.77569     -12.69743       746.07826    
   1242000   301.39649      0.0074373588   4.569238       747.77299     -11.253546      736.51944    
   1243000   292.4099       0.0074373588   4.2295603      725.47701     -12.594518      712.88249    
   1244000   299.6953       0.0074373588   4.4660638      743.55229     -13.615153      729.93714    
   1245000   306.8195       0.0074373588   4.6692553      761.22765     -15.074046      746.1536     
   1246000   295.78074      0.0074373588   4.2909222      733.84018     -14.389237      719.45094    
   1247000   305.19871      0.0074373588   4.0801018      757.20641     -14.773528      742.43289    
   1248000   305.78376      0.0074373588   3.5299166      758.65794     -19.536682      739.12125    
   1249000   302.8868       0.0074373588   5.7452356      751.47051     -20.519782      730.95072    
   1250000   300.29749      0.0074373588   3.9120799      745.04635     -17.066566      727.97979    
   1251000   291.42305      0.0074373588   3.6674872      723.02862     -19.647591      703.38103    
   1252000   304.48334      0.0074373588   6.1627183      755.43157     -18.789317      736.64225    
   1253000   312.28199      0.0074373588   4.001759       774.78022     -15.555355      759.22486    
   1254000   293.63283      0.0074373588   5.4915486      728.51114     -12.517002      715.99414    
   1255000   294.94115      0.0074373588   4.3848269      731.75713     -13.992725      717.7644     
   1256000   308.73149      0.0074373588   4.2493114      765.97133     -13.276514      752.69482    
   1257000   300.65549      0.0074373588   3.584309       745.93457     -11.780795      734.15377    
   1258000   300.57567      0.0074373588   5.8656476      745.73653     -8.8045251      736.932      
   1259000   298.20977      0.0074373588   3.7325487      739.86666     -9.2012253      730.66544    
   1260000   289.65192      0.0074373588   3.3076693      718.63439     -9.2969279      709.33746    
   1261000   300.29164      0.0074373588   4.7208026      745.03184     -8.1882812      736.84356    
   1262000   318.02772      0.0074373588   4.8427443      789.03553     -10.9399        778.09563    
   1263000   309.49176      0.0074373588   3.1001926      767.8576      -10.929804      756.92779    
   1264000   297.78246      0.0074373588   2.4545942      738.80649     -9.1721734      729.63432    
   1265000   299.67151      0.0074373588   3.4966227      743.49328     -12.701463      730.79182    
   1266000   300.27262      0.0074373588   4.2867162      744.98465     -10.161965      734.82268    
   1267000   314.69418      0.0074373588   5.1434934      780.76493     -10.655202      770.10973    
   1268000   314.21136      0.0074373588   3.4742712      779.56705     -9.8816554      769.68539    
   1269000   296.38233      0.0074373588   4.0623843      735.33272     -10.549881      724.78284    
   1270000   300.08254      0.0074373588   5.2032704      744.51305     -13.257279      731.25577    
   1271000   321.17476      0.0074373588   1.1693357      796.84342     -10.366553      786.47687    
   1272000   285.95735      0.0074373588   3.2483149      709.46806     -12.208523      697.25954    
   1273000   299.18306      0.0074373588   5.2957028      742.28143     -12.331291      729.95013    
   1274000   321.5589       0.0074373588   2.4389944      797.79649     -11.469381      786.32711    
   1275000   295.51911      0.0074373588   3.7418553      733.19105     -10.73383       722.45722    
   1276000   298.84678      0.0074373588   3.7879777      741.4471      -12.488706      728.95839    
   1277000   302.3594       0.0074373588   5.2195668      750.162       -14.413327      735.74867    
   1278000   312.83         0.0074373588   5.1337064      776.13986     -11.823154      764.3167     
   1279000   297.52907      0.0074373588   2.5908291      738.17782     -13.06483       725.11299    
   1280000   299.95275      0.0074373588   6.2973587      744.19104     -13.27201       730.91903    
   1281000   307.46237      0.0074373588   4.4517654      762.82262     -11.941161      750.88146    
   1282000   300.81994      0.0074373588   3.8209126      746.34256     -11.302104      735.04045    
   1283000   301.90194      0.0074373588   4.3002144      749.02704     -14.814387      734.21265    
   1284000   297.2275       0.0074373588   4.2311125      737.42963     -17.332783      720.09684    
   1285000   281.67096      0.0074373588   3.2161474      698.83341     -16.963378      681.87004    
   1286000   302.57171      0.0074373588   3.8944743      750.68877     -16.275628      734.41314    
   1287000   318.40606      0.0074373588   4.3823451      789.97421     -18.1087        771.86551    
   1288000   305.05892      0.0074373588   3.0632471      756.85959     -15.407103      741.45249    
   1289000   274.27618      0.0074373588   3.1097244      680.48676     -18.308419      662.17834    
   1290000   305.7958       0.0074373588   4.4631793      758.68782     -15.276096      743.41172    
   1291000   313.74648      0.0074373588   5.2120745      778.41366     -14.743838      763.66982    
   1292000   295.31944      0.0074373588   3.3033191      732.69567     -13.925184      718.77049    
   1293000   303.65277      0.0074373588   4.176157       753.3709      -12.87164       740.49926    
   1294000   303.53813      0.0074373588   4.8474805      753.08646     -17.031517      736.05494    
   1295000   298.01798      0.0074373588   3.8884783      739.39082     -13.003977      726.38685    
   1296000   299.29724      0.0074373588   4.1108962      742.56471     -14.069512      728.4952     
   1297000   301.11805      0.0074373588   5.5867046      747.08217     -15.358816      731.72336    
   1298000   305.43297      0.0074373588   4.4309475      757.78761     -13.804433      743.98318    
   1299000   298.2831       0.0074373588   3.7770872      740.0486      -13.587873      726.46073    
   1300000   287.22418      0.0074373588   3.3892984      712.61111     -12.280982      700.33013    
   1301000   302.48088      0.0074373588   3.0997346      750.46339     -12.227502      738.23589    
   1302000   290.84939      0.0074373588   3.5445973      721.60536     -14.541346      707.06401    
   1303000   297.05421      0.0074373588   4.213997       736.99967     -17.17974       719.81993    
   1304000   292.90108      0.0074373588   4.0279094      726.69566     -14.109975      712.58569    
   1305000   299.5081       0.0074373588   4.3063642      743.08786     -15.104561      727.9833     
   1306000   312.65369      0.0074373588   4.296936       775.70243     -14.605263      761.09717    
   1307000   295.22307      0.0074373588   4.144768       732.45657     -13.360484      719.09608    
   1308000   280.80853      0.0074373588   3.7759101      696.6937      -15.703223      680.99048    
   1309000   308.27385      0.0074373588   4.3214908      764.83591     -14.659975      750.17594    
   1310000   302.80793      0.0074373588   4.3253202      751.27483     -18.370648      732.90418    
   1311000   293.97221      0.0074373588   3.9106499      729.35315     -15.841055      713.5121     
   1312000   298.42199      0.0074373588   2.2703216      740.39318     -13.926249      726.46694    
   1313000   303.68456      0.0074373588   6.3293947      753.44977     -12.890207      740.55956    
   1314000   297.5661       0.0074373588   3.9667033      738.26971     -13.442425      724.82728    
   1315000   301.46413      0.0074373588   3.734473       747.94082     -14.487945      733.45288    
   1316000   302.86994      0.0074373588   4.6953706      751.42866     -16.99185       734.43681    
   1317000   293.90966      0.0074373588   4.448245       729.19796     -13.802784      715.39518    
   1318000   297.301        0.0074373588   2.8534482      737.61197     -14.438919      723.17305    
   1319000   289.24756      0.0074373588   3.9316187      717.63118     -15.200729      702.43045    
   1320000   303.74464      0.0074373588   6.0315682      753.59882     -14.749606      738.84922    
   1321000   312.89285      0.0074373588   9.5189347      776.29578     -11.964538      764.33124    
   1322000   306.3372       0.0074373588   1.6873866      760.03104     -11.068639      748.9624     
   1323000   273.88159      0.0074373588  -0.4218573      679.50777     -12.756444      666.75133    
   1324000   287.27029      0.0074373588   4.3461826      712.7255      -13.337232      699.38826    
   1325000   300.64956      0.0074373588   6.6274437      745.91985     -15.25472       730.66513    
   1326000   308.62535      0.0074373588   4.7772077      765.70799     -14.082485      751.62551    
   1327000   301.8958       0.0074373588   2.919562       749.01181     -12.636611      736.3752     
   1328000   297.94447      0.0074373588   3.1710697      739.20844     -15.255202      723.95324    
   1329000   302.01533      0.0074373588   4.5383652      749.30837     -15.683899      733.62447    
   1330000   297.69283      0.0074373588   6.1928126      738.58412     -16.488257      722.09586    
   1331000   296.26809      0.0074373588   4.7789357      735.0493      -14.020855      721.02845    
   1332000   305.03168      0.0074373588   2.247889       756.792       -16.046441      740.74556    
   1333000   291.55021      0.0074373588   3.8021771      723.3441      -14.692894      708.65121    
   1334000   296.96665      0.0074373588   4.4561143      736.78244     -13.271749      723.51069    
   1335000   303.02014      0.0074373588   3.7102302      751.80133     -15.405124      736.3962     
   1336000   295.13761      0.0074373588   4.0068249      732.24456     -16.994598      715.24996    
   1337000   309.80381      0.0074373588   3.583734       768.63179     -15.433705      753.19808    
   1338000   313.10875      0.0074373588   4.7911005      776.83144     -13.704905      763.12653    
   1339000   283.68761      0.0074373588   6.857048       703.83678     -11.755279      692.0815     
   1340000   286.67331      0.0074373588   2.4173647      711.24438     -12.163134      699.08124    
   1341000   295.14451      0.0074373588   2.8348831      732.26166     -11.268628      720.99303    
   1342000   308.1437       0.0074373588   11.547824      764.51301     -13.826         750.68701    
   1343000   307.92925      0.0074373588   4.2741125      763.98096     -12.386219      751.59474    
   1344000   305.28697      0.0074373588   3.5599243      757.4254      -15.242317      742.18308    
   1345000   296.50454      0.0074373588   2.7351101      735.63595     -15.380441      720.25551    
   1346000   301.62935      0.0074373588   1.4463467      748.35073     -16.747706      731.60302    
   1347000   330.46421      0.0074373588   9.2147385      819.89082     -16.605172      803.28565    
   1348000   298.18453      0.0074373588   4.6902944      739.80403     -18.339104      721.46492    
   1349000   304.14893      0.0074373588  -0.12422674     754.60188     -16.610075      737.9918     
   1350000   294.74185      0.0074373588   11.792943      731.26266     -15.608739      715.65393    
   1351000   298.61657      0.0074373588   4.1360069      740.87594     -17.768122      723.10782    
   1352000   294.57222      0.0074373588   3.1037733      730.84179     -18.840539      712.00125    
   1353000   298.05763      0.0074373588   1.8349737      739.4892      -19.928422      719.56078    
   1354000   315.18866      0.0074373588   1.4245675      781.99174     -18.382227      763.60952    
   1355000   298.0987       0.0074373588   7.3748146      739.59108     -18.837104      720.75398    
   1356000   290.29342      0.0074373588   1.5242465      720.22598     -18.978764      701.24721    
   1357000   306.06468      0.0074373588   1.1674672      759.3549      -14.74617       744.60873    
   1358000   311.12198      0.0074373588   3.9930698      771.90221     -16.863276      755.03894    
   1359000   297.48794      0.0074373588   8.8992816      738.07578     -16.990955      721.08482    
   1360000   291.7428       0.0074373588   4.0732093      723.82193     -16.853274      706.96866    
   1361000   303.84943      0.0074373588   2.300737       753.85881     -16.04763       737.81118    
   1362000   311.10952      0.0074373588   4.362247       771.87128     -16.159472      755.71181    
   1363000   298.8339       0.0074373588   4.2611405      741.41515     -15.303045      726.1121     
   1364000   285.31898      0.0074373588   3.7934373      707.88425     -20.076863      687.80739    
   1365000   309.87397      0.0074373588   5.0533203      768.80585     -18.915008      749.89085    
   1366000   309.90543      0.0074373588   4.1140915      768.88392     -18.622354      750.26157    
   1367000   292.03767      0.0074373588   3.811581       724.55352     -20.636099      703.91742    
   1368000   284.12922      0.0074373588   4.3473676      704.93242     -16.244409      688.68801    
   1369000   303.4833       0.0074373588   4.7648756      752.95043     -18.095491      734.85494    
   1370000   296.27876      0.0074373588   2.3941427      735.07577     -19.934894      715.14088    
   1371000   283.31503      0.0074373588   3.1222244      702.9124      -17.858184      685.05421    
   1372000   307.37654      0.0074373588   4.9166114      762.60967     -16.596439      746.01323    
   1373000   304.8749       0.0074373588   4.1564352      756.40304     -15.771898      740.63114    
   1374000   296.80655      0.0074373588   3.5126236      736.38524     -15.063705      721.32153    
   1375000   296.09785      0.0074373588   3.1987411      734.62693     -18.794957      715.83197    
   1376000   302.78346      0.0074373588   4.5291086      751.21411     -19.507833      731.70628    
   1377000   316.06344      0.0074373588   1.5897596      784.16211     -18.933732      765.22838    
   1378000   286.48749      0.0074373588   3.153011       710.78337     -19.444848      691.33852    
   1379000   297.14218      0.0074373588   8.3888403      737.21795     -18.25437       718.96358    
   1380000   319.96068      0.0074373588   6.0483348      793.83127     -17.436611      776.39466    
   1381000   297.58017      0.0074373588  -1.5984247      738.30462     -15.137779      723.16684    
   1382000   288.16178      0.0074373588   5.5011056      714.93732     -13.589682      701.34763    
   1383000   297.21465      0.0074373588   5.4324781      737.39774     -16.606241      720.7915     
   1384000   311.47884      0.0074373588   5.3287795      772.78759     -18.706459      754.08113    
   1385000   314.40387      0.0074373588   2.802249       780.04468     -19.511081      760.5336     
   1386000   292.28234      0.0074373588   4.0785604      725.16054     -18.325512      706.83502    
   1387000   282.91155      0.0074373588   5.3370851      701.91135     -21.864299      680.04705    
   1388000   302.76708      0.0074373588   4.7046797      751.17347     -18.506672      732.6668     
   1389000   310.8066       0.0074373588   1.5744117      771.11974     -18.917709      752.20203    
   1390000   295.35983      0.0074373588   2.8481297      732.79587     -18.780517      714.01535    
   1391000   313.05869      0.0074373588   5.8651605      776.70723     -15.751043      760.95619    
   1392000   300.16301      0.0074373588   2.2808502      744.71269     -16.137293      728.5754     
   1393000   283.79807      0.0074373588   6.833582       704.11084     -17.892037      686.2188     
   1394000   299.32674      0.0074373588   8.835831       742.6379      -18.959937      723.67797    
   1395000   305.6014       0.0074373588   3.5297069      758.2055      -16.039268      742.16623    
   1396000   308.72401      0.0074373588   2.6513466      765.95278     -18.110571      747.84221    
   1397000   289.43226      0.0074373588   9.4358008      718.08941     -15.474757      702.61465    
   1398000   290.91953      0.0074373588   8.9783172      721.77937     -16.936561      704.84281    
   1399000   304.73595      0.0074373588   1.5256934      756.05828     -16.6789        739.37938    
   1400000   305.09232      0.0074373588   3.4712214      756.94245     -17.653742      739.28871    
   1401000   298.16128      0.0074373588   4.779901       739.74636     -16.270393      723.47597    
   1402000   286.10542      0.0074373588   7.8401332      709.83543     -14.623069      695.21237    
   1403000   316.842        0.0074373588   2.033046       786.09374     -16.383558      769.71018    
   1404000   309.69517      0.0074373588   1.0746941      768.36226     -14.912927      753.44934    
   1405000   282.93091      0.0074373588   2.4669884      701.9594      -18.35377       683.60563    
   1406000   278.29771      0.0074373588   7.1488964      690.46429     -16.334653      674.12963    
   1407000   303.51956      0.0074373588   7.3790466      753.0404      -17.438351      735.60205    
   1408000   307.64799      0.0074373588   3.4424632      763.28314     -16.019551      747.26359    
   1409000   292.96398      0.0074373588   2.044671       726.85171     -16.90658       709.94513    
   1410000   290.16125      0.0074373588   4.5520448      719.89806     -13.635279      706.26279    
   1411000   317.2484       0.0074373588   7.2316358      787.10202     -15.015336      772.08668    
   1412000   307.58929      0.0074373588   1.6164591      763.1375      -16.18737       746.95013    
   1413000   286.97729      0.0074373588   4.2216174      711.99856     -17.379476      694.61908    
   1414000   299.44864      0.0074373588   3.3108606      742.94032     -16.300983      726.63934    
   1415000   308.40824      0.0074373588   1.35223        765.16934     -16.125083      749.04425    
   1416000   299.23748      0.0074373588   6.6080919      742.41643     -21.189544      721.22689    
   1417000   299.47833      0.0074373588   5.3134363      743.01399     -17.264247      725.74974    
   1418000   306.77035      0.0074373588  -0.51283764     761.10569     -18.189638      742.91605    
   1419000   317.29303      0.0074373588   2.9568873      787.21276     -17.810629      769.40213    
   1420000   302.162        0.0074373588   9.0683038      749.67226     -17.660784      732.01148    
   1421000   296.00657      0.0074373588   3.963846       734.40045     -19.151782      715.24867    
   1422000   306.78708      0.0074373588   3.5219552      761.14721     -15.367013      745.78019    
   1423000   297.1975       0.0074373588   5.1091696      737.35518     -16.045904      721.30928    
   1424000   300.11511      0.0074373588   5.8852723      744.59387     -16.245437      728.34843    
   1425000   289.11944      0.0074373588   3.2219051      717.3133      -18.252139      699.06116    
   1426000   300.4519       0.0074373588   2.597694       745.42944     -17.440276      727.98916    
   1427000   298.6625       0.0074373588   5.7010013      740.9899      -18.738852      722.25105    
   1428000   302.93251      0.0074373588   9.4770005      751.58391     -18.245442      733.33847    
   1429000   302.46751      0.0074373588   2.4126947      750.43023     -18.865505      731.56473    
   1430000   313.71116      0.0074373588  -2.3738585      778.32603     -21.403966      756.92206    
   1431000   292.23899      0.0074373588   3.6178333      725.05298     -18.732053      706.32093    
   1432000   295.14697      0.0074373588   6.2404707      732.26777     -20.551705      711.71607    
   1433000   307.24233      0.0074373588   3.7743198      762.27668     -17.146815      745.12987    
   1434000   301.72248      0.0074373588   0.036440825    748.5818      -19.989102      728.59269    
   1435000   308.08673      0.0074373588   3.1434899      764.37168     -20.684517      743.68716    
   1436000   294.20988      0.0074373588   7.6097796      729.94282     -16.103534      713.83929    
   1437000   282.44931      0.0074373588   6.0223712      700.76452     -16.075605      684.68892    
   1438000   310.96219      0.0074373588   1.043549       771.50577     -16.370002      755.13576    
   1439000   296.99719      0.0074373588  -1.8147545      736.85821     -14.481571      722.37664    
   1440000   305.52083      0.0074373588   6.5661889      758.0056      -15.272441      742.73316    
   1441000   301.50357      0.0074373588   5.7523005      748.03866     -12.589401      735.44926    
   1442000   287.54534      0.0074373588   2.5911423      713.4079      -14.633028      698.77487    
   1443000   296.49754      0.0074373588   2.993563       735.61858     -15.323858      720.29472    
   1444000   300.5267       0.0074373588   5.4190449      745.61502     -13.302075      732.31294    
   1445000   296.1206       0.0074373588   4.7054825      734.68338     -13.618053      721.06533    
   1446000   301.0216       0.0074373588   4.9235797      746.84289     -12.460269      734.38262    
   1447000   297.47502      0.0074373588   1.8467337      738.04373     -12.02475       726.01898    
   1448000   302.81872      0.0074373588   4.1864145      751.3016      -9.1888427      742.11276    
   1449000   317.4709       0.0074373588   12.421599      787.65406     -12.333698      775.32036    
   1450000   295.29226      0.0074373588   8.9521553      732.62823     -11.898167      720.73006    
   1451000   285.18135      0.0074373588   2.218738       707.54278     -13.2166        694.32618    
   1452000   291.05277      0.0074373588  -2.2864917      722.10993     -11.118453      710.99148    
   1453000   311.28504      0.0074373588   2.9138799      772.30677     -14.636585      757.67018    
   1454000   302.14142      0.0074373588   7.5199684      749.6212      -15.273619      734.34758    
   1455000   295.38729      0.0074373588   3.5305572      732.86401     -14.394799      718.46921    
   1456000   295.84264      0.0074373588  -2.5375278      733.99374     -15.261522      718.73222    
   1457000   314.53687      0.0074373588   2.0464378      780.37464     -15.909625      764.46501    
   1458000   305.43583      0.0074373588   6.1410455      757.79471     -15.727731      742.06698    
   1459000   297.04036      0.0074373588   1.7372886      736.96532     -18.443413      718.52191    
   1460000   300.17042      0.0074373588   2.3094738      744.73108     -18.428393      726.30269    
   1461000   311.36         0.0074373588   5.9712403      772.49275     -19.655134      752.83762    
   1462000   293.63638      0.0074373588   8.8106122      728.51996     -19.229868      709.2901     
   1463000   295.53783      0.0074373588   3.5734109      733.2375      -20.300948      712.93655    
   1464000   302.49853      0.0074373588   2.6307055      750.50719     -19.016562      731.49062    
   1465000   307.8922       0.0074373588   2.7190238      763.88904     -19.263275      744.62576    
   1466000   304.92372      0.0074373588   5.5895405      756.52415     -16.189432      740.33472    
   1467000   298.58521      0.0074373588   8.5495811      740.79815     -14.011604      726.78654    
   1468000   304.16118      0.0074373588   3.5201651      754.63228     -16.31394       738.31834    
   1469000   307.9245       0.0074373588   2.0406868      763.96918     -13.665115      750.30407    
   1470000   303.12956      0.0074373588   9.705443       752.0728      -15.379409      736.69339    
   1471000   289.57329      0.0074373588   3.6897355      718.43932     -15.062702      703.37662    
   1472000   308.29509      0.0074373588   2.1428222      764.88862     -15.395457      749.49317    
   1473000   313.67043      0.0074373588   5.6913616      778.22497     -11.390918      766.83405    
   1474000   294.35453      0.0074373588   5.8636304      730.30169     -11.173967      719.12773    
   1475000   285.18349      0.0074373588   4.1995116      707.54811     -13.071199      694.47691    
   1476000   297.16793      0.0074373588   2.8171954      737.28182     -15.227631      722.05419    
   1477000   312.94093      0.0074373588   3.4729838      776.41507     -15.316757      761.09831    
   1478000   300.98275      0.0074373588   4.063316       746.7465      -12.606616      734.13988    
   1479000   305.36335      0.0074373588   5.5425431      757.61489     -15.317463      742.29743    
   1480000   299.81587      0.0074373588   1.4549199      743.85143     -15.333227      728.5182     
   1481000   300.33373      0.0074373588   2.1317791      745.13625     -14.28296       730.85329    
   1482000   299.09307      0.0074373588   5.6928         742.05816     -14.209251      727.84891    
   1483000   305.68609      0.0074373588   7.3035176      758.41561     -16.421027      741.99459    
   1484000   300.1695       0.0074373588   5.3278463      744.72881     -18.499909      726.2289     
   1485000   292.19204      0.0074373588   0.30680615     724.93651     -17.747437      707.18907    
   1486000   301.08123      0.0074373588   2.3499866      746.99082     -16.804445      730.18637    
   1487000   307.89999      0.0074373588   11.170701      763.90837     -17.482555      746.42582    
   1488000   295.55051      0.0074373588   3.3466418      733.26896     -8.9040565      724.3649     
   1489000   306.84791      0.0074373588  -0.21846614     761.29812     -12.684169      748.61396    
   1490000   307.92631      0.0074373588   5.7415562      763.97367     -14.023592      749.95008    
   1491000   301.66271      0.0074373588   4.9549854      748.43351     -18.245094      730.18842    
   1492000   293.93696      0.0074373588   3.7996883      729.26569     -13.441322      715.82437    
   1493000   288.25071      0.0074373588   2.8517553      715.15795     -17.132784      698.02516    
   1494000   303.86692      0.0074373588   5.801087       753.90222     -14.573595      739.32862    
   1495000   315.65442      0.0074373588   8.155121       783.14731     -15.217861      767.92945    
   1496000   289.55006      0.0074373588   2.993039       718.38168     -14.702639      703.67905    
   1497000   300.49671      0.0074373588   2.3137343      745.54061     -13.279109      732.2615     
   1498000   311.15379      0.0074373588   7.5746894      771.98114     -13.46985       758.51129    
   1499000   299.8295       0.0074373588   4.073103       743.88526     -15.188672      728.69658    
   1500000   299.2601       0.0074373588   0.73841709     742.47256     -15.500829      726.97173    
   1501000   302.43617      0.0074373588   6.8615389      750.35248     -15.913787      734.43869    
   1502000   299.56204      0.0074373588   7.2426316      743.22169     -14.050112      729.17158    
   1503000   296.2644       0.0074373588  -1.3153538      735.04015     -15.388184      719.65197    
   1504000   294.18126      0.0074373588   2.7715202      729.8718      -16.186787      713.68502    
   1505000   302.71206      0.0074373588   4.6066968      751.03698     -16.312741      734.72424    
   1506000   311.81147      0.0074373588   5.6533517      773.61285     -15.411254      758.20159    
   1507000   290.03043      0.0074373588   3.3496932      719.5735      -16.755886      702.81762    
   1508000   307.36488      0.0074373588   3.1059604      762.58075     -15.359895      747.22085    
   1509000   307.02853      0.0074373588   4.4850214      761.74625     -19.252884      742.49337    
   1510000   300.49744      0.0074373588   4.8885558      745.54244     -15.512697      730.02974    
   1511000   302.28404      0.0074373588   3.6684734      749.97503     -17.918263      732.05676    
   1512000   295.26935      0.0074373588   4.2466377      732.5714      -15.450663      717.12073    
   1513000   302.24613      0.0074373588   4.6205823      749.88098     -13.740107      736.14087    
   1514000   307.02833      0.0074373588   4.0030908      761.74575     -13.339392      748.40636    
   1515000   301.8104       0.0074373588   4.0747514      748.79992     -12.17979       736.62013    
   1516000   283.1542       0.0074373588   3.4303404      702.51338     -9.065401       693.44798    
   1517000   301.5607       0.0074373588   3.2481507      748.18041     -12.402057      735.77835    
   1518000   311.69624      0.0074373588   5.2300224      773.32697     -15.101212      758.22576    
   1519000   301.4753       0.0074373588   4.5844491      747.96853     -13.857833      734.1107     
   1520000   287.46537      0.0074373588   3.3082546      713.2095      -12.07903       701.13047    
   1521000   304.96522      0.0074373588   1.08134        756.62711     -12.824556      743.80255    
   1522000   319.2289       0.0074373588   5.0280871      792.01571     -14.611005      777.40471    
   1523000   301.69863      0.0074373588   4.8963418      748.52261     -15.370802      733.15181    
   1524000   277.39315      0.0074373588   4.3901272      688.22006     -12.86356       675.3565     
   1525000   298.15967      0.0074373588   3.9213977      739.74236     -10.191767      729.55059    
   1526000   316.84594      0.0074373588   4.6080339      786.10351     -12.703112      773.4004     
   1527000   299.72995      0.0074373588   3.7084596      743.63828     -10.686379      732.9519     
   1528000   289.67858      0.0074373588   3.862583       718.70053     -11.737275      706.96326    
   1529000   300.70678      0.0074373588   5.3540741      746.0618      -11.668441      734.39336    
   1530000   314.03742      0.0074373588   3.7932632      779.1355      -10.013259      769.12224    
   1531000   287.58821      0.0074373588   3.7693602      713.51428     -8.7426406      704.77164    
   1532000   303.24219      0.0074373588   4.4000442      752.35223     -11.479912      740.87232    
   1533000   315.22765      0.0074373588   3.6682533      782.08849     -12.30783       769.78066    
   1534000   294.77267      0.0074373588   3.9049984      731.33911     -16.752469      714.58664    
   1535000   302.0944       0.0074373588   5.3538191      749.50453     -12.182754      737.32178    
   1536000   303.26941      0.0074373588   3.0924149      752.41977     -12.89258       739.52719    
   1537000   295.16302      0.0074373588   5.9044151      732.30758     -10.078972      722.22861    
   1538000   307.17665      0.0074373588   5.1061578      762.11374     -11.475395      750.63835    
   1539000   288.68492      0.0074373588   0.3984755      716.23524     -14.711439      701.5238     
   1540000   303.27563      0.0074373588   5.4346755      752.43519     -9.0812335      743.35396    
   1541000   309.22195      0.0074373588   4.698411       767.18818     -14.292209      752.89597    
   1542000   297.77229      0.0074373588   3.6847846      738.78126     -14.042032      724.73923    
   1543000   303.83765      0.0074373588   4.6068884      753.82958     -12.827295      741.00229    
   1544000   312.58813      0.0074373588   4.3684321      775.53977     -14.982207      760.55756    
   1545000   297.81958      0.0074373588   3.8043529      738.8986      -14.170021      724.72858    
   1546000   292.95549      0.0074373588   4.6063875      726.83064     -14.957702      711.87293    
   1547000   313.09207      0.0074373588   5.964962       776.79005     -13.998852      762.7912     
   1548000   293.44249      0.0074373588   2.9583446      728.03891     -11.154054      716.88485    
   1549000   285.8472       0.0074373588   3.9954904      709.19477     -11.974054      697.22072    
   1550000   304.2408       0.0074373588   4.7339689      754.82982     -12.879813      741.95001    
   1551000   308.64558      0.0074373588   3.9846997      765.75819     -13.633713      752.12448    
   1552000   287.82615      0.0074373588   3.5796403      714.10462     -14.040611      700.064      
   1553000   302.23643      0.0074373588   7.0290202      749.85691     -14.601942      735.25497    
   1554000   305.39391      0.0074373588   2.6492086      757.6907      -15.406242      742.28446    
   1555000   303.90907      0.0074373588   2.5197663      754.00677     -14.702501      739.30427    
   1556000   303.80022      0.0074373588   4.097367       753.73672     -12.871933      740.86478    
   1557000   306.32191      0.0074373588   4.0733558      759.99311     -10.973016      749.0201     
   1558000   289.33015      0.0074373588   3.6770275      717.83607     -15.406931      702.42914    
   1559000   293.41667      0.0074373588   4.2030707      727.97484     -14.73509       713.23975    
   1560000   283.62313      0.0074373588   4.41395        703.6768      -16.137729      687.53907    
   1561000   302.78593      0.0074373588   5.9084264      751.22024     -13.925826      737.29442    
   1562000   307.44385      0.0074373588   4.4394977      762.77666     -15.265049      747.51161    
   1563000   297.22411      0.0074373588   3.7193266      737.42121     -15.118143      722.30307    
   1564000   293.60236      0.0074373588   4.6963855      728.43554     -13.877077      714.55847    
   1565000   315.78769      0.0074373588   3.4879747      783.47796     -15.554821      767.92314    
   1566000   309.4456       0.0074373588   5.1580832      767.74307     -12.626505      755.11656    
   1567000   288.55246      0.0074373588   4.0174825      715.90662     -13.641701      702.26492    
   1568000   297.93605      0.0074373588   2.9769991      739.18756     -13.322162      725.8654     
   1569000   304.32597      0.0074373588   3.4837635      755.04113     -15.219442      739.82168    
   1570000   312.56976      0.0074373588   4.7154222      775.49419     -12.678762      762.81542    
   1571000   292.09129      0.0074373588   4.8784056      724.68654     -13.417614      711.26892    
   1572000   281.60466      0.0074373588   3.6471629      698.66893     -10.887926      687.78101    
   1573000   306.78963      0.0074373588   3.4469035      761.15352     -10.344811      750.80871    
   1574000   318.57016      0.0074373588   4.2367849      790.38136     -15.316242      775.06511    
   1575000   298.13177      0.0074373588   4.2256238      739.67314     -12.893542      726.7796     
   1576000   299.20815      0.0074373588   3.9219351      742.34366     -13.229762      729.1139     
   1577000   303.1669       0.0074373588   4.3978353      752.16545     -14.143028      738.02242    
   1578000   293.55822      0.0074373588   4.2388963      728.32604     -16.173167      712.15287    
   1579000   298.20677      0.0074373588   4.4518133      739.85921     -12.236968      727.62224    
   1580000   290.13641      0.0074373588   0.1373184      719.83642     -14.098351      705.73807    
   1581000   296.87558      0.0074373588   6.3102101      736.5565      -12.774836      723.78166    
   1582000   298.80021      0.0074373588   1.1893901      741.33157     -13.720264      727.61131    
   1583000   298.49634      0.0074373588   0.076123375    740.57765     -15.821011      724.75663    
   1584000   294.30405      0.0074373588   4.4753243      730.17646     -11.691088      718.48537    
   1585000   307.29534      0.0074373588   5.9918863      762.40821     -14.569672      747.83853    
   1586000   295.47239      0.0074373588   3.4300245      733.07514     -10.98744       722.0877     
   1587000   295.34287      0.0074373588   4.1989957      732.7538      -11.485507      721.26829    
   1588000   296.06454      0.0074373588   6.0026681      734.54428     -11.461919      723.08236    
   1589000   307.30292      0.0074373588   2.7310292      762.42701     -14.696018      747.73099    
   1590000   308.21407      0.0074373588  -0.91976988     764.6876      -14.098332      750.58927    
   1591000   292.52678      0.0074373588   4.1108345      725.76701     -10.029674      715.73734    
   1592000   302.47943      0.0074373588   7.3041723      750.4598      -9.4403597      741.01944    
   1593000   305.14051      0.0074373588   9.4704104      757.06202     -11.602032      745.45999    
   1594000   301.69067      0.0074373588   4.9016627      748.50286     -11.461194      737.04166    
   1595000   308.26184      0.0074373588  -2.2985234      764.80612     -12.304057      752.50206    
   1596000   302.92629      0.0074373588   3.3191056      751.56848     -13.616434      737.95205    
   1597000   298.51209      0.0074373588   6.8532497      740.61673     -13.998966      726.61776    
   1598000   302.0371       0.0074373588   3.1772442      749.36237     -16.907803      732.45456    
   1599000   298.31067      0.0074373588  -2.4945357      740.11699     -15.682416      724.43457    
   1600000   294.90665      0.0074373588   4.3633302      731.67154     -15.05543       716.61611    
   1601000   294.28505      0.0074373588   5.0607293      730.12931     -15.196145      714.93317    
   1602000   301.54773      0.0074373588   11.818447      748.14824     -15.777236      732.371      
   1603000   304.29724      0.0074373588   3.9273269      754.96984     -11.715786      743.25405    
   1604000   303.51516      0.0074373588  -0.054468714    753.02948     -12.753224      740.27626    
   1605000   291.97167      0.0074373588   9.9120307      724.38977     -15.64869       708.74108    
   1606000   302.22442      0.0074373588   2.2017769      749.82711     -17.665139      732.16197    
   1607000   311.3798       0.0074373588  -1.6795422      772.54187     -14.498545      758.04333    
   1608000   296.05826      0.0074373588  -0.17191633     734.52872     -18.323723      716.20499    
   1609000   291.55639      0.0074373588   12.976619      723.35944     -17.57858       705.78086    
   1610000   311.25724      0.0074373588   10.738065      772.23779     -18.891296      753.34649    
   1611000   326.72011      0.0074373588  -1.2631164      810.60159     -20.869929      789.73166    
   1612000   295.60992      0.0074373588   0.083409075    733.41636     -16.398975      717.01739    
   1613000   291.45703      0.0074373588   9.8624116      723.11293     -16.994799      706.11813    
   1614000   315.01525      0.0074373588  -0.97850069     781.56151     -14.484946      767.07656    
   1615000   301.54336      0.0074373588  -6.2655713      748.13739     -14.169273      733.96811    
   1616000   287.63729      0.0074373588   3.7143323      713.63605     -14.042189      699.59386    
   1617000   305.15162      0.0074373588   17.348589      757.08958     -16.129843      740.95974    
   1618000   311.45053      0.0074373588   1.2977662      772.71736     -16.214191      756.50317    
   1619000   285.80118      0.0074373588   5.1314759      709.08061     -16.191337      692.88928    
   1620000   292.49869      0.0074373588   9.3832762      725.69732     -19.828982      705.86833    
   1621000   309.85447      0.0074373588   6.8921925      768.75749     -16.437586      752.3199     
   1622000   303.08691      0.0074373588  -8.9193532      751.96698     -15.736826      736.23015    
   1623000   290.37464      0.0074373588   5.9216641      720.42748     -16.666869      703.76061    
   1624000   302.17454      0.0074373588   9.2567206      749.70336     -13.346179      736.35718    
   1625000   310.79339      0.0074373588   3.834143       771.08697     -17.775001      753.31197    
   1626000   297.23491      0.0074373588   1.6661032      737.448       -15.369745      722.07825    
   1627000   291.55437      0.0074373588   3.6856596      723.35443     -15.032079      708.32235    
   1628000   303.66482      0.0074373588   5.1769051      753.4008      -13.352451      740.04835    
   1629000   321.58713      0.0074373588   3.1564381      797.86653     -14.726865      783.13966    
   1630000   295.36133      0.0074373588   2.7028796      732.7996      -9.6280426      723.17155    
   1631000   292.71939      0.0074373588   1.9846353      726.24487     -13.780855      712.46401    
   1632000   303.07677      0.0074373588   6.8394555      751.94182     -12.204837      739.73699    
   1633000   310.67871      0.0074373588   3.4764993      770.80245     -12.663303      758.13915    
   1634000   293.71765      0.0074373588   1.9035135      728.7216      -13.317095      715.4045     
   1635000   293.37657      0.0074373588   4.4596344      727.87535     -9.6898546      718.1855     
   1636000   323.25024      0.0074373588   5.0758562      801.99275     -10.697408      791.29535    
   1637000   300.7115       0.0074373588   1.9394397      746.07353     -10.615725      735.45781    
   1638000   293.8669       0.0074373588   3.9576026      729.09189     -10.138635      718.95326    
   1639000   299.20046      0.0074373588   4.2759517      742.32459     -10.332335      731.99226    
   1640000   311.29415      0.0074373588   4.2144691      772.32937     -12.858634      759.47074    
   1641000   305.38715      0.0074373588   3.9109226      757.67394     -16.691708      740.98223    
   1642000   297.67108      0.0074373588   2.4545595      738.53016     -13.727789      724.80238    
   1643000   301.67812      0.0074373588   4.116365       748.47173     -10.949766      737.52197    
   1644000   305.36043      0.0074373588   5.3839642      757.60765     -12.013633      745.59402    
   1645000   299.26855      0.0074373588   1.8051604      742.49352     -12.788762      729.70475    
   1646000   294.28755      0.0074373588   4.1000972      730.13553     -12.767139      717.36839    
   1647000   306.60179      0.0074373588   5.0586253      760.68749     -15.707245      744.98025    
   1648000   301.33831      0.0074373588   4.1476006      747.62866     -10.681561      736.9471     
   1649000   293.37741      0.0074373588   3.1310274      727.87744     -13.428104      714.44934    
   1650000   304.24409      0.0074373588   3.4206635      754.83798     -14.112205      740.72577    
   1651000   303.93801      0.0074373588   3.3936854      754.07859     -11.569227      742.50936    
   1652000   299.98789      0.0074373588   3.7407192      744.27824     -12.727489      731.55075    
   1653000   311.23172      0.0074373588   5.7504872      772.17447     -12.25599       759.91848    
   1654000   302.46346      0.0074373588   4.3925174      750.42018     -13.101675      737.31851    
   1655000   286.75512      0.0074373588   1.9671821      711.44735     -15.440912      696.00644    
   1656000   292.42352      0.0074373588   3.8941618      725.51082     -16.141703      709.36912    
   1657000   306.38834      0.0074373588   4.5226389      760.15791     -16.702075      743.45583    
   1658000   303.00134      0.0074373588   5.6626206      751.75467     -19.967438      731.78723    
   1659000   282.77291      0.0074373588   2.5785886      701.56737     -18.554242      683.01313    
   1660000   304.21874      0.0074373588   3.9421962      754.77509     -17.785779      736.98931    
   1661000   306.14698      0.0074373588   5.431391       759.5591      -20.119071      739.44003    
   1662000   295.53755      0.0074373588  -0.11547794     733.23681     -16.5026        716.73421    
   1663000   308.51273      0.0074373588   3.5993477      765.42859     -14.9195        750.50909    
   1664000   316.60163      0.0074373588   4.4811372      785.49736     -19.397094      766.10027    
   1665000   291.92908      0.0074373588   4.239225       724.28409     -18.294085      705.99001    
   1666000   273.41082      0.0074373588   3.8404405      678.33978     -18.791979      659.5478     
   1667000   310.26413      0.0074373588   6.2086065      769.77387     -18.936112      750.83776    
   1668000   311.20333      0.0074373588   3.1690594      772.10404     -18.225612      753.87843    
   1669000   278.44121      0.0074373588   3.4312489      690.82033     -18.831898      671.98843    
   1670000   296.80157      0.0074373588   5.002803       736.37287     -17.856451      718.51642    
   1671000   304.30454      0.0074373588   4.0677297      754.98796     -18.253162      736.7348     
   1672000   300.19808      0.0074373588   3.9504199      744.79971     -16.155249      728.64446    
   1673000   294.79524      0.0074373588   3.4139996      731.39511     -18.081039      713.31407    
   1674000   295.50935      0.0074373588   1.6584198      733.16684     -19.958668      713.20817    
   1675000   293.01178      0.0074373588   3.5872783      726.97029     -16.486428      710.48387    
   1676000   294.10542      0.0074373588   4.7847403      729.68365     -18.235226      711.44842    
   1677000   322.00167      0.0074373588   3.0520633      798.89503     -17.606902      781.28813    
   1678000   301.51425      0.0074373588   1.6878885      748.06517     -18.246991      729.81818    
   1679000   281.72831      0.0074373588   3.7517625      698.9757      -18.154645      680.82106    
   1680000   296.50392      0.0074373588   5.8693568      735.63441     -14.767894      720.86651    
   1681000   316.17946      0.0074373588   4.3284343      784.44997     -14.085251      770.36471    
   1682000   296.2959       0.0074373588   3.8186631      735.11829     -14.575428      720.54287    
   1683000   293.88166      0.0074373588   3.954809       729.1285      -17.703178      711.42532    
   1684000   305.80767      0.0074373588   5.0575127      758.71726     -15.116087      743.60117    
   1685000   308.11554      0.0074373588   3.2310008      764.44314     -18.225865      746.21727    
   1686000   292.67052      0.0074373588   3.9826164      726.12362     -18.237569      707.88605    
   1687000   297.14506      0.0074373588   4.6432962      737.22508     -15.446032      721.77905    
   1688000   307.84708      0.0074373588   4.6683228      763.7771      -16.035881      747.74122    
   1689000   299.83324      0.0074373588   2.3785916      743.89452     -17.477922      726.4166     
   1690000   290.96578      0.0074373588   1.4112393      721.89413     -14.444428      707.4497     
   1691000   292.85404      0.0074373588   2.1409647      726.57894     -16.175348      710.40359    
   1692000   293.82914      0.0074373588   3.890985       728.99819     -15.005009      713.99318    
   1693000   314.89244      0.0074373588   7.4026261      781.25682     -14.708399      766.54842    
   1694000   293.13112      0.0074373588   4.0655578      727.26638     -16.233736      711.03264    
   1695000   300.2382       0.0074373588   2.1459573      744.89926     -18.526684      726.37258    
   1696000   300.01969      0.0074373588   3.6816034      744.35711     -19.347954      725.00916    
   1697000   298.42465      0.0074373588   4.4225964      740.39979     -19.244661      721.15513    
   1698000   290.16989      0.0074373588   4.8926491      719.9195      -15.824768      704.09473    
   1699000   303.08985      0.0074373588   3.8074318      751.97428     -17.034974      734.9393     
   1700000   299.55092      0.0074373588   3.4540232      743.1941      -17.778212      725.41589    
   1701000   294.92934      0.0074373588   3.8816946      731.72782     -18.999817      712.728      
   1702000   301.79573      0.0074373588   4.9857712      748.76353     -18.701628      730.0619     
   1703000   296.48566      0.0074373588   3.7513661      735.58908     -14.528066      721.06102    
   1704000   303.77161      0.0074373588   2.9787982      753.66574     -13.928605      739.73713    
   1705000   291.97392      0.0074373588   3.5141839      724.39534     -13.748601      710.64674    
   1706000   292.19943      0.0074373588   3.6778955      724.95484     -14.750734      710.2041     
   1707000   304.75989      0.0074373588   4.0943163      756.1177      -15.552825      740.56487    
   1708000   323.88406      0.0074373588   4.5576335      803.56528     -14.341459      789.22382    
   1709000   292.92719      0.0074373588   4.1718689      726.76043     -17.166893      709.59353    
   1710000   298.46455      0.0074373588   4.1868695      740.49877     -19.052519      721.44625    
   1711000   303.52046      0.0074373588   3.5404703      753.04262     -17.684181      735.35844    
   1712000   307.6617       0.0074373588   1.5028506      763.31715     -18.51279       744.80436    
   1713000   295.09301      0.0074373588   7.5798406      732.13388     -18.024595      714.10929    
   1714000   284.25998      0.0074373588   3.5433432      705.25686     -20.396595      684.86026    
   1715000   302.41505      0.0074373588   0.85687637     750.30008     -20.601546      729.69854    
   1716000   319.14263      0.0074373588   2.8858956      791.80167     -15.722239      776.07943    
   1717000   299.46008      0.0074373588   5.4062433      742.96872     -15.602747      727.36597    
   1718000   287.75505      0.0074373588   4.0618368      713.9282      -13.601613      700.32659    
   1719000   298.01675      0.0074373588   1.2755159      739.38777     -15.254089      724.13368    
   1720000   306.44828      0.0074373588   4.4662567      760.30664     -15.969266      744.33738    
   1721000   295.33161      0.0074373588   5.900564       732.72586     -14.766643      717.95921    
   1722000   282.85249      0.0074373588   1.6553857      701.76482     -14.751623      687.0132     
   1723000   303.41992      0.0074373588   2.2677885      752.79319     -15.602045      737.19115    
   1724000   317.69654      0.0074373588   9.420725       788.21389     -18.747468      769.46642    
   1725000   286.81884      0.0074373588   5.2455637      711.60546     -19.699143      691.90631    
   1726000   291.8496       0.0074373588  -1.5037461      724.08689     -18.694096      705.3928     
   1727000   318.04931      0.0074373588   3.3785754      789.08912     -19.846345      769.24277    
   1728000   308.58337      0.0074373588   5.5061177      765.60385     -19.516287      746.08756    
   1729000   289.81199      0.0074373588   5.9707756      719.03153     -20.601332      698.4302     
   1730000   293.93574      0.0074373588   3.7787466      729.26268     -19.771313      709.49137    
   1731000   319.33105      0.0074373588  -2.7781843      792.26915     -14.768728      777.50042    
   1732000   306.57579      0.0074373588   3.5718666      760.62297     -19.049428      741.57355    
   1733000   300.18858      0.0074373588   5.6522188      744.77614     -14.346088      730.43005    
   1734000   300.24993      0.0074373588   4.4289301      744.92835     -16.494748      728.4336     
   1735000   314.51182      0.0074373588   4.1735174      780.31248     -16.298477      764.01401    
   1736000   290.94258      0.0074373588  -0.064675881    721.83656     -18.9016        702.93496    
   1737000   300.84369      0.0074373588   5.3080483      746.40148     -13.486289      732.91519    
   1738000   294.6905       0.0074373588   6.975896       731.13526     -15.272173      715.86308    
   1739000   300.59641      0.0074373588   3.6166534      745.78798     -15.539256      730.24873    
   1740000   298.53183      0.0074373588   3.3249993      740.66571     -13.026553      727.63915    
   1741000   309.24918      0.0074373588   6.9748666      767.25573     -17.163645      750.09208    
   1742000   302.59254      0.0074373588   7.239945       750.74044     -15.024261      735.71618    
   1743000   287.17322      0.0074373588   6.312608       712.48467     -13.81838       698.66629    
   1744000   292.82964      0.0074373588   1.8117242      726.5184      -14.996435      711.52196    
   1745000   313.79423      0.0074373588   10.200106      778.53213     -13.63635       764.89578    
   1746000   291.15315      0.0074373588   10.061286      722.35899     -15.140419      707.21857    
   1747000   289.47677      0.0074373588   2.4840606      718.19984     -13.556348      704.64349    
   1748000   285.26145      0.0074373588   1.8133702      707.74152     -15.147473      692.59405    
   1749000   312.80577      0.0074373588   4.5213236      776.07973     -15.714224      760.36551    
   1750000   309.00729      0.0074373588   8.4839042      766.65561     -15.885916      750.76969    
   1751000   289.31388      0.0074373588   5.7637179      717.7957      -16.318862      701.47684    
   1752000   291.76833      0.0074373588   3.3789818      723.88526     -16.406         707.47926    
   1753000   296.27814      0.0074373588   2.7193894      735.07423     -16.440218      718.63401    
   1754000   312.39889      0.0074373588   0.66840156     775.07025     -16.375459      758.69479    
   1755000   297.66372      0.0074373588   6.7152869      738.5119      -16.61982       721.89208    
   1756000   284.89932      0.0074373588   7.3079512      706.84307     -19.954857      686.88821    
   1757000   303.14824      0.0074373588   0.063096231    752.11913     -18.902716      733.21642    
   1758000   304.7878       0.0074373588   0.58332268     756.18693     -14.459894      741.72703    
   1759000   310.14432      0.0074373588   12.144362      769.47661     -15.868005      753.6086     
   1760000   286.05707      0.0074373588   10.53712       709.71548     -13.528086      696.1874     
   1761000   284.94998      0.0074373588   4.966457       706.96875     -15.682668      691.28609    
   1762000   304.20309      0.0074373588  -3.6467377      754.73625     -13.551721      741.18453    
   1763000   316.99906      0.0074373588   6.3351233      786.48341     -14.126842      772.35656    
   1764000   285.04715      0.0074373588   10.320063      707.20983     -13.719549      693.49028    
   1765000   303.13502      0.0074373588  -2.1870984      752.08635     -14.674042      737.41231    
   1766000   307.11446      0.0074373588   1.8638247      761.95943     -13.108866      748.85057    
   1767000   295.58849      0.0074373588   6.4136067      733.3632      -13.036375      720.32682    
   1768000   289.10027      0.0074373588   3.8538373      717.26574     -12.62836       704.63738    
   1769000   305.9079       0.0074373588  -2.5524243      758.96592     -13.18865       745.77727    
   1770000   306.93913      0.0074373588   10.511978      761.52444     -13.208385      748.31605    
   1771000   296.30011      0.0074373588   4.0367229      735.12875     -14.111278      721.01747    
   1772000   299.44144      0.0074373588   2.4678872      742.92246     -16.76672       726.15574    
   1773000   299.46392      0.0074373588   3.4667568      742.97823     -13.419794      729.55844    
   1774000   297.77067      0.0074373588   5.9822797      738.77724     -11.171099      727.60615    
   1775000   290.37072      0.0074373588   4.9661832      720.41775     -11.656727      708.76103    
   1776000   295.35662      0.0074373588   3.5828444      732.78792     -13.73229       719.05563    
   1777000   318.39959      0.0074373588   2.1775853      789.95815     -13.343336      776.61481    
   1778000   300.6738       0.0074373588   5.9260177      745.97999     -11.667375      734.31262    
   1779000   293.90843      0.0074373588   4.9417085      729.19492     -12.50293       716.69199    
   1780000   289.14662      0.0074373588   3.2837319      717.38073     -11.721653      705.65908    
   1781000   293.28911      0.0074373588   1.3019626      727.65836     -15.114386      712.54397    
   1782000   308.87938      0.0074373588   0.58283828     766.33826     -14.999708      751.33855    
   1783000   313.74106      0.0074373588   4.373358       778.40022     -12.852094      765.54813    
   1784000   304.51742      0.0074373588   9.0288024      755.51612     -13.790882      741.72524    
   1785000   288.207        0.0074373588   3.5650156      715.04951     -11.546627      703.50289    
   1786000   291.28754      0.0074373588   2.3182062      722.69242     -13.522767      709.16966    
   1787000   312.10691      0.0074373588   4.8413383      774.34584     -15.257609      759.08823    
   1788000   291.83664      0.0074373588   4.6057692      724.05476     -13.003087      711.05167    
   1789000   298.57821      0.0074373588   1.9911346      740.78077     -12.260853      728.51991    
   1790000   302.75502      0.0074373588   5.2921327      751.14355     -10.740366      740.40318    
   1791000   295.97558      0.0074373588   4.1101613      734.32357     -11.847473      722.4761     
   1792000   309.89057      0.0074373588   4.1120925      768.84704     -8.9819303      759.86511    
   1793000   309.36894      0.0074373588   4.1165909      767.55287     -10.476153      757.07671    
   1794000   290.14149      0.0074373588   5.5777117      719.84903     -8.3557209      711.49331    
   1795000   290.58196      0.0074373588   4.2320009      720.94186     -11.095216      709.84665    
   1796000   310.55096      0.0074373588   4.455858       770.48549     -11.620083      758.86541    
   1797000   305.07881      0.0074373588   4.1471592      756.90894     -13.279887      743.62906    
   1798000   306.8989       0.0074373588   5.0739321      761.42462     -12.501835      748.92279    
   1799000   304.39707      0.0074373588   4.9840887      755.21752     -12.578033      742.63949    
   1800000   300.57042      0.0074373588   4.3112531      745.7235      -13.304841      732.41866    
   1801000   284.11811      0.0074373588   2.7690716      704.90487     -11.23534       693.66953    
   1802000   304.51579      0.0074373588   6.5462032      755.51207     -16.388286      739.12379    
   1803000   311.34987      0.0074373588   9.98167        772.46762     -18.183547      754.28407    
   1804000   304.84029      0.0074373588   5.0279114      756.31716     -15.483553      740.83361    
   1805000   287.80886      0.0074373588  -0.21964046     714.0617      -13.865169      700.19653    
   1806000   314.41232      0.0074373588   7.518787       780.06564     -12.57056       767.49508    
   1807000   301.22736      0.0074373588   3.8327343      747.35339     -15.648734      731.70466    
   1808000   310.19226      0.0074373588   1.9422534      769.59554     -12.238034      757.3575     
   1809000   301.84154      0.0074373588   7.5201141      748.87719     -15.137043      733.74015    
   1810000   285.76459      0.0074373588   4.4204115      708.98984     -17.060636      691.9292     
   1811000   313.40014      0.0074373588   3.350549       777.55439     -14.218276      763.33611    
   1812000   296.68897      0.0074373588   10.255182      736.0935      -16.57033       719.52317    
   1813000   290.97679      0.0074373588   3.1230933      721.92144     -14.857857      707.06358    
   1814000   313.38984      0.0074373588   1.7917144      777.52882     -12.37773       765.15109    
   1815000   308.23461      0.0074373588   8.5975438      764.73856     -10.264587      754.47397    
   1816000   291.12668      0.0074373588   6.780482       722.29331     -8.229157       714.06415    
   1817000   302.11904      0.0074373588   4.3883369      749.56568     -6.7209083      742.84477    
   1818000   302.0394       0.0074373588   1.5084331      749.36809     -11.95038       737.41771    
   1819000   294.83067      0.0074373588   4.4958576      731.48302     -11.463765      720.01926    
   1820000   291.37429      0.0074373588   4.2335775      722.90765     -10.259357      712.64829    
   1821000   289.41282      0.0074373588   3.9053084      718.04118     -9.92588        708.1153     
   1822000   290.61413      0.0074373588   3.0631591      721.02165     -13.239162      707.78249    
   1823000   310.16471      0.0074373588   4.1203701      769.5272      -15.736684      753.79051    
   1824000   309.63766      0.0074373588   4.4796809      768.21957     -10.568185      757.65139    
   1825000   285.29954      0.0074373588   6.0895192      707.83603     -11.386901      696.44913    
   1826000   304.57951      0.0074373588   3.4031251      755.67017     -10.676482      744.99369    
   1827000   309.29585      0.0074373588   3.6623992      767.37154     -9.8849281      757.48661    
   1828000   313.07316      0.0074373588   4.4479814      776.74314     -11.872703      764.87044    
   1829000   287.72231      0.0074373588   3.2022369      713.84699     -11.930092      701.9169     
   1830000   296.692        0.0074373588   2.7676981      736.10103     -9.4982413      726.60278    
   1831000   313.07146      0.0074373588   5.9720906      776.73892     -9.4846692      767.25425    
   1832000   304.79162      0.0074373588   4.4582758      756.1964      -11.963087      744.23331    
   1833000   299.86752      0.0074373588   4.2809466      743.97958     -11.451389      732.52819    
   1834000   304.20731      0.0074373588   4.4074623      754.74672     -12.065527      742.68119    
   1835000   300.00471      0.0074373588   4.376456       744.31996     -13.405054      730.9149     
   1836000   290.71118      0.0074373588   3.3508838      721.26246     -14.466508      706.79595    
   1837000   306.51327      0.0074373588   4.3300487      760.46788     -11.874359      748.59352    
   1838000   294.87338      0.0074373588   3.4960491      731.589       -12.282929      719.30607    
   1839000   304.1166       0.0074373588   3.9358992      754.52168     -10.719769      743.80191    
   1840000   295.24845      0.0074373588   3.3184294      732.51955     -10.745952      721.7736     
   1841000   298.98623      0.0074373588   4.1614729      741.79308     -12.063634      729.72944    
   1842000   313.87089      0.0074373588   5.0122669      778.72233     -14.372992      764.34934    
   1843000   300.87358      0.0074373588   4.002307       746.47564     -14.909089      731.56655    
   1844000   298.34104      0.0074373588   3.7454366      740.19236     -14.872632      725.31972    
   1845000   296.07151      0.0074373588   3.083317       734.56159     -14.834661      719.72692    
   1846000   302.569        0.0074373588   1.3905939      750.68204     -17.819212      732.86283    
   1847000   309.96061      0.0074373588   4.6773153      769.02082     -13.947784      755.07304    
   1848000   277.45503      0.0074373588   3.7922674      688.37359     -15.262026      673.11156    
   1849000   296.74958      0.0074373588   3.5327865      736.24388     -15.020645      721.22323    
   1850000   305.69887      0.0074373588   3.6984361      758.44732     -20.678978      737.76834    
   1851000   305.7228       0.0074373588   3.9606281      758.50671     -19.742842      738.76386    
   1852000   296.97223      0.0074373588   4.2174943      736.79629     -17.405001      719.39129    
   1853000   291.7888       0.0074373588   4.2521446      723.93606     -15.166061      708.76999    
   1854000   300.18122      0.0074373588   2.4430971      744.75788     -14.477994      730.27989    
   1855000   302.873        0.0074373588   4.1802178      751.43625     -14.775944      736.66031    
   1856000   297.38445      0.0074373588   4.3357413      737.81903     -12.675836      725.14319    
   1857000   290.85586      0.0074373588   4.1485627      721.62141     -12.330488      709.29092    
   1858000   308.54719      0.0074373588   0.90987054     765.51407     -12.533379      752.98069    
   1859000   310.1655       0.0074373588   5.3288156      769.52917     -13.022391      756.50678    
   1860000   285.48005      0.0074373588   3.9371999      708.28387     -13.804219      694.47966    
   1861000   290.1228       0.0074373588   2.7388871      719.80266     -12.97544       706.82722    
   1862000   312.90362      0.0074373588   4.8158072      776.3225      -15.391413      760.93108    
   1863000   295.85878      0.0074373588   6.9110751      734.0338      -14.111207      719.92259    
   1864000   279.40341      0.0074373588   2.0157571      693.20756     -13.24004       679.96752    
   1865000   305.35725      0.0074373588   2.625907       757.59975     -14.6296        742.97015    
   1866000   309.71236      0.0074373588   7.1804453      768.4049      -10.809769      757.59513    
   1867000   299.675        0.0074373588   4.4163133      743.50193     -14.419174      729.08275    
   1868000   289.72886      0.0074373588   1.2834075      718.8253      -12.69928       706.12602    
   1869000   303.14298      0.0074373588   3.0644494      752.10608     -14.242105      737.86397    
   1870000   307.51074      0.0074373588   4.9349944      762.94262     -14.523219      748.4194     
   1871000   308.64174      0.0074373588   4.5602846      765.74868     -13.603948      752.14473    
   1872000   294.50575      0.0074373588   4.2425726      730.67689     -12.492363      718.18453    
   1873000   300.71616      0.0074373588   4.9679634      746.08508     -11.242259      734.84282    
   1874000   301.51363      0.0074373588   2.1782033      748.06364     -16.324752      731.73889    
   1875000   296.65647      0.0074373588   3.7172525      736.01289     -13.708915      722.30397    
   1876000   289.09623      0.0074373588   5.6815909      717.2557      -11.174715      706.08099    
   1877000   310.65319      0.0074373588   7.5578608      770.73913     -12.187468      758.55167    
   1878000   308.75368      0.0074373588   1.5336295      766.0264      -11.77106       754.25534    
   1879000   298.09751      0.0074373588   2.3467226      739.58814     -10.32408       729.26406    
   1880000   290.6252       0.0074373588   5.5030474      721.04914     -11.197043      709.8521     
   1881000   303.43538      0.0074373588   5.485907       752.83155     -9.7036746      743.12788    
   1882000   309.45001      0.0074373588  -0.37091617     767.754       -12.677723      755.07628    
   1883000   298.73737      0.0074373588  -3.4329364      741.17565     -9.5206723      731.65498    
   1884000   289.44382      0.0074373588   3.9368907      718.11809     -11.397237      706.72085    
   1885000   304.04479      0.0074373588   9.7976045      754.3435      -12.85626       741.48724    
   1886000   320.24164      0.0074373588   1.1317324      794.52833     -14.21706       780.31127    
   1887000   305.52999      0.0074373588   1.5441728      758.02832     -13.666614      744.36171    
   1888000   280.0895       0.0074373588   6.3609409      694.90978     -15.072113      679.83767    
   1889000   295.39526      0.0074373588   5.9551388      732.88379     -15.006121      717.87766    
   1890000   318.00678      0.0074373588   8.6869475      788.98359     -11.523405      777.46018    
   1891000   306.518        0.0074373588   0.28950615     760.47961     -11.369377      749.11023    
   1892000   298.50115      0.0074373588  -1.157881       740.58959     -16.956995      723.6326     
   1893000   291.93007      0.0074373588   5.5484774      724.28655     -15.491115      708.79544    
   1894000   291.54951      0.0074373588   7.795561       723.34236     -10.159932      713.18243    
   1895000   318.47762      0.0074373588   1.3203107      790.15175     -13.520611      776.63114    
   1896000   303.02084      0.0074373588   3.189295       751.80306     -14.418655      737.38441    
   1897000   289.34114      0.0074373588   3.6744317      717.86336     -12.682902      705.18045    
   1898000   295.89918      0.0074373588   6.3956572      734.13403     -14.885719      719.24831    
   1899000   315.50859      0.0074373588  -1.4013155      782.78552     -14.941095      767.84442    
   1900000   289.79096      0.0074373588  -2.5493622      718.97936     -12.780394      706.19897    
   1901000   288.05099      0.0074373588   1.6123258      714.66245     -13.934884      700.72757    
   1902000   291.40864      0.0074373588   7.0982364      722.99286     -11.631051      711.36181    
   1903000   301.89643      0.0074373588   9.4693699      749.01337     -13.046243      735.96713    
   1904000   308.2158       0.0074373588   1.5212822      764.69189     -13.801575      750.89031    
   1905000   292.03827      0.0074373588  -0.48423192     724.555       -12.414826      712.14017    
   1906000   305.03183      0.0074373588   4.4502707      756.79238     -13.468998      743.32338    
   1907000   307.11134      0.0074373588   5.4331256      761.9517      -15.005126      746.94657    
   1908000   301.93303      0.0074373588   7.1281666      749.10418     -11.684603      737.41957    
   1909000   293.28965      0.0074373588  -0.62709349     727.6597      -14.043688      713.61601    
   1910000   300.54733      0.0074373588   7.5328456      745.66621     -15.369307      730.29691    
   1911000   310.62747      0.0074373588   7.8599664      770.67531     -12.21356       758.46175    
   1912000   297.85098      0.0074373588  -1.7624392      738.97649     -9.7344737      729.24202    
   1913000   300.6874       0.0074373588   4.5037795      746.01372     -10.273624      735.7401     
   1914000   314.9324       0.0074373588   11.160384      781.35597     -11.352237      770.00373    
   1915000   295.26161      0.0074373588   4.3106661      732.55219     -11.452921      721.09926    
   1916000   300.49392      0.0074373588   0.54042137     745.5337      -11.026187      734.50751    
   1917000   309.04313      0.0074373588   4.4774488      766.74452     -10.520685      756.22383    
   1918000   288.99731      0.0074373588   8.4527402      717.01028     -10.831321      706.17896    
   1919000   290.04513      0.0074373588   11.390576      719.60995     -7.7144893      711.89546    
   1920000   311.60859      0.0074373588   9.429286       773.10951     -14.567929      758.54158    
   1921000   312.23307      0.0074373588   0.45366709     774.65884     -14.651756      760.00709    
   1922000   294.61064      0.0074373588   3.5322406      730.93713     -16.772989      714.16414    
   1923000   303.76444      0.0074373588   8.8928888      753.64795     -16.374516      737.27343    
   1924000   314.21797      0.0074373588   4.2301445      779.58345     -16.781818      762.80163    
   1925000   302.40153      0.0074373588  -0.015148605    750.26652     -12.779462      737.48706    
   1926000   286.86222      0.0074373588   8.006605       711.71308     -13.870554      697.84253    
   1927000   292.91986      0.0074373588   6.3354996      726.74225     -12.575418      714.16683    
   1928000   312.64532      0.0074373588   4.611415       775.68166     -11.062707      764.61895    
   1929000   306.04338      0.0074373588   2.8145789      759.30205     -12.735816      746.56624    
   1930000   278.0128       0.0074373588   7.0535753      689.75741     -10.591815      679.1656     
   1931000   285.93531      0.0074373588   3.435841       709.41339     -16.085568      693.32782    
   1932000   313.25299      0.0074373588   5.5239293      777.18932     -13.193794      763.99552    
   1933000   307.34622      0.0074373588   2.2090427      762.53445     -15.921749      746.6127     
   1934000   285.00834      0.0074373588   3.8050241      707.11354     -13.033605      694.07994    
   1935000   300.74647      0.0074373588   6.2616231      746.16027     -14.99198       731.16829    
   1936000   308.38779      0.0074373588   0.081657581    765.11862     -14.258514      750.86011    
   1937000   299.76054      0.0074373588   2.5753532      743.71416     -14.454822      729.25934    
   1938000   291.97059      0.0074373588   7.6098681      724.38708     -12.800207      711.58687    
   1939000   305.62478      0.0074373588   1.2123637      758.2635      -11.476875      746.78662    
   1940000   297.62701      0.0074373588   2.1645939      738.42081     -13.35062       725.07018    
   1941000   297.03182      0.0074373588   6.5391966      736.94414     -12.385653      724.55848    
   1942000   297.82518      0.0074373588   5.3831481      738.91247     -14.566068      724.34641    
   1943000   303.74313      0.0074373588   0.22910745     753.59509     -17.039199      736.55589    
   1944000   301.71611      0.0074373588   4.9775937      748.56599     -16.828755      731.73724    
   1945000   297.17129      0.0074373588   5.581076       737.29015     -17.336227      719.95393    
   1946000   308.32614      0.0074373588   3.0795411      764.96565     -18.054869      746.91078    
   1947000   298.6791       0.0074373588   3.043919       741.03108     -14.791371      726.23971    
   1948000   294.25428      0.0074373588   4.8668098      730.05299     -13.175545      716.87745    
   1949000   302.72506      0.0074373588   9.3801849      751.06923     -11.957415      739.11181    
   1950000   300.75927      0.0074373588   2.0024569      746.19203     -14.446062      731.74597    
   1951000   313.69866      0.0074373588   2.4902353      778.29503     -13.745744      764.54929    
   1952000   290.2847       0.0074373588   2.951085       720.20435     -14.639767      705.56458    
   1953000   297.99285      0.0074373588   5.9430006      739.32848     -17.727381      721.6011     
   1954000   321.45706      0.0074373588   1.9198149      797.54383     -15.412478      782.13135    
   1955000   295.71121      0.0074373588  -5.2576045      733.66765     -15.518184      718.14947    
   1956000   285.69021      0.0074373588   3.4791282      708.8053      -12.67949       696.12581    
   1957000   306.85995      0.0074373588   12.525544      761.32799     -14.599139      746.72885    
   1958000   312.53453      0.0074373588   2.6474134      775.40679     -18.13967       757.26712    
   1959000   297.94396      0.0074373588   3.8513039      739.20718     -15.223049      723.98413    
   1960000   289.10482      0.0074373588   4.4468846      717.27702     -12.526584      704.75044    
   1961000   307.64545      0.0074373588   6.5505518      763.27685     -13.896516      749.38034    
   1962000   312.2214       0.0074373588   4.9800151      774.6299      -13.979923      760.64997    
   1963000   295.00123      0.0074373588   3.2411014      731.90617     -12.34613       719.56004    
   1964000   290.09779      0.0074373588   5.1249948      719.74062     -12.712871      707.02775    
   1965000   306.41061      0.0074373588   4.2682265      760.21317     -12.099216      748.11395    
   1966000   312.72627      0.0074373588   0.5754838      775.88249     -11.324136      764.55835    
   1967000   295.27604      0.0074373588   3.0364879      732.58799     -13.8036        718.78439    
   1968000   296.05505      0.0074373588   5.9746546      734.52073     -13.572345      720.94839    
   1969000   306.21364      0.0074373588   7.6345799      759.72449     -12.599128      747.12536    
   1970000   327.42908      0.0074373588   2.0104487      812.36057     -14.943385      797.41718    
   1971000   294.05954      0.0074373588   4.0707116      729.56983     -9.9335617      719.63627    
   1972000   303.02149      0.0074373588   3.3104218      751.80467     -12.357367      739.44731    
   1973000   299.14151      0.0074373588   4.0111281      742.17832     -12.316094      729.86223    
   1974000   293.2922       0.0074373588   3.6157045      727.66604     -12.31179       715.35425    
   1975000   304.27931      0.0074373588   3.6751701      754.92534     -15.03389       739.89145    
   1976000   318.00971      0.0074373588   4.624795       788.99086     -13.501345      775.48951    
   1977000   304.39717      0.0074373588   2.3271948      755.21777     -13.501651      741.71612    
   1978000   295.58666      0.0074373588   4.4152273      733.35864     -16.251079      717.10756    
   1979000   309.97162      0.0074373588   6.5103598      769.04814     -12.609695      756.43845    
   1980000   310.23251      0.0074373588   4.6136468      769.69541     -15.957438      753.73797    
   1981000   306.14714      0.0074373588   2.7565555      759.5595      -16.842199      742.7173     
   1982000   291.53511      0.0074373588   3.5599413      723.30665     -15.172858      708.13379    
   1983000   304.87925      0.0074373588   5.933395       756.41382     -16.902041      739.51178    
   1984000   301.50695      0.0074373588   4.2278462      748.04705     -16.451402      731.59565    
   1985000   305.66073      0.0074373588   3.3107071      758.3527      -15.648189      742.70451    
   1986000   295.49693      0.0074373588   3.9102099      733.13602     -13.955253      719.18077    
   1987000   296.51781      0.0074373588   3.9154266      735.66887     -14.842174      720.82669    
   1988000   307.73623      0.0074373588   4.2537526      763.50207     -15.465571      748.03649    
   1989000   323.73296      0.0074373588   2.8406653      803.1904      -14.439947      788.75045    
   1990000   288.06558      0.0074373588   4.3315523      714.69866     -11.455101      703.24355    
   1991000   292.33037      0.0074373588   3.8639352      725.27971     -15.147189      710.13252    
   1992000   301.78596      0.0074373588   4.181422       748.73929     -12.686641      736.05265    
   1993000   306.03354      0.0074373588   4.0757403      759.27765     -17.038996      742.23866    
   1994000   307.75707      0.0074373588   4.0316378      763.55379     -13.235136      750.31865    
   1995000   289.24985      0.0074373588   4.0680483      717.63685     -12.994741      704.64211    
   1996000   299.68064      0.0074373588   3.9760885      743.51593     -14.534826      728.9811     
   1997000   304.56102      0.0074373588   4.1630848      755.62428     -14.170411      741.45387    
   1998000   318.12747      0.0074373588   4.3587497      789.28302     -12.839437      776.44358    
   1999000   297.53763      0.0074373588   4.1693607      738.19906     -16.215807      721.98326    
   2000000   302.59246      0.0074373588   2.1327941      750.74024     -15.458801      735.28144    
   2001000   301.13319      0.0074373588   4.513648       747.11974     -15.60015       731.51959    
   2002000   294.41069      0.0074373588   4.1311843      730.44103     -17.916297      712.52473    
   2003000   304.18484      0.0074373588   4.4490024      754.69098     -16.99845       737.69253    
   2004000   295.19966      0.0074373588   3.9622712      732.3985      -17.783003      714.6155     
   2005000   284.16359      0.0074373588   3.5465648      705.01771     -17.061922      687.95579    
   2006000   303.09367      0.0074373588   1.6498696      751.98376     -13.36016       738.6236     
   2007000   304.15869      0.0074373588   4.7736825      754.62609     -17.149451      737.47664    
   2008000   289.13996      0.0074373588   4.7726445      717.3642      -17.534742      699.82946    
   2009000   296.21895      0.0074373588   2.9737285      734.92738     -15.609686      719.3177     
   2010000   297.79275      0.0074373588   4.1957803      738.83202     -18.727045      720.10497    
   2011000   301.95256      0.0074373588   3.1570848      749.15261     -16.61261       732.54       
   2012000   300.95885      0.0074373588   3.8047294      746.68721     -12.628222      734.05899    
   2013000   306.00016      0.0074373588   3.9316233      759.19483     -14.71864       744.47619    
   2014000   302.39648      0.0074373588   3.7407322      750.254       -13.796705      736.4573     
   2015000   295.57927      0.0074373588   4.0126888      733.34032     -13.632789      719.70753    
   2016000   290.85282      0.0074373588   3.7947293      721.61387     -14.886735      706.72714    
   2017000   299.13714      0.0074373588   4.2763599      742.16748     -16.452157      725.71533    
   2018000   307.9578       0.0074373588   4.263381       764.05179     -17.666583      746.38521    
   2019000   307.16761      0.0074373588   4.0186293      762.0913      -17.430904      744.6604     
   2020000   297.37056      0.0074373588   3.7712859      737.78455     -19.321895      718.46265    
   2021000   285.67295      0.0074373588   3.9925459      708.76245     -18.219887      690.54257    
   2022000   300.08876      0.0074373588   3.4612261      744.52849     -11.973829      732.55466    
   2023000   311.05387      0.0074373588   4.6849406      771.73323     -16.212444      755.52078    
   2024000   303.71494      0.0074373588   4.0983913      753.52514     -17.294517      736.23062    
   2025000   282.96045      0.0074373588   3.5469691      702.03268     -15.342906      686.68978    
   2026000   298.32575      0.0074373588   4.1780527      740.15441     -16.148863      724.00555    
   2027000   305.25346      0.0074373588   4.0539736      757.34225     -14.79323       742.54902    
   2028000   300.26724      0.0074373588   4.2337151      744.9713      -16.70614       728.26517    
   2029000   307.53293      0.0074373588   3.5205898      762.99767     -19.017878      743.97979    
   2030000   306.42402      0.0074373588   3.7872016      760.24645     -21.083319      739.16313    
   2031000   298.55278      0.0074373588   4.699044       740.71768     -15.81725       724.90043    
   2032000   301.74905      0.0074373588   5.3071132      748.6477      -16.004197      732.64351    
   2033000   306.01735      0.0074373588   3.498723       759.23749     -15.865773      743.37172    
   2034000   304.28058      0.0074373588  -1.9764467      754.9285      -17.210512      737.71799    
   2035000   299.05379      0.0074373588   5.3947143      741.9607      -12.97136       728.98934    
   2036000   295.18042      0.0074373588   8.2396166      732.35076     -12.58629       719.76447    
   2037000   299.52515      0.0074373588   4.7613356      743.13015     -15.266686      727.86346    
   2038000   301.82344      0.0074373588   2.8058903      748.83227     -16.519177      732.31309    
   2039000   292.91005      0.0074373588   3.5136229      726.7179      -15.278025      711.43987    
   2040000   307.2463       0.0074373588   4.0212763      762.28654     -12.387663      749.89888    
   2041000   302.19448      0.0074373588   3.7982795      749.75282     -14.467034      735.28579    
   2042000   295.72018      0.0074373588   1.7349855      733.68991     -14.139669      719.55024    
   2043000   286.74713      0.0074373588   3.7670393      711.42754     -12.986891      698.44065    
   2044000   307.48316      0.0074373588   8.1235991      762.8742      -13.568101      749.3061     
   2045000   309.39978      0.0074373588   3.2035775      767.62939     -14.387712      753.24168    
   2046000   293.41169      0.0074373588   4.1706598      727.96248     -14.105136      713.85734    
   2047000   306.50573      0.0074373588   7.6090653      760.44916     -19.014951      741.43421    
   2048000   307.00969      0.0074373588   3.63221        761.6995      -16.233728      745.46577    
   2049000   299.92809      0.0074373588   0.91072764     744.12985     -16.954545      727.17531    
   2050000   302.63129      0.0074373588   5.1917748      750.83657     -13.085709      737.75086    
   2051000   319.71412      0.0074373588   3.082003       793.21954     -17.652326      775.56721    
   2052000   311.71111      0.0074373588   7.3455368      773.36387     -16.509038      756.85483    
   2053000   296.72386      0.0074373588   0.92300641     736.18008     -15.350676      720.82941    
   2054000   311.45902      0.0074373588   4.3460454      772.73841     -14.566707      758.1717     
   2055000   296.57173      0.0074373588   5.7117489      735.80262     -15.205535      720.59709    
   2056000   288.19178      0.0074373588   6.2087299      715.01175     -15.459127      699.55263    
   2057000   312.34294      0.0074373588   4.2999106      774.93144     -14.128565      760.80288    
   2058000   296.71829      0.0074373588   5.1634578      736.16627     -15.817865      720.3484     
   2059000   294.47395      0.0074373588   2.7951037      730.59799     -14.855683      715.74231    
   2060000   302.66197      0.0074373588   3.9214295      750.91269     -17.012724      733.89997    
   2061000   300.852        0.0074373588   2.14053        746.42211     -15.538237      730.88387    
   2062000   307.20753      0.0074373588   4.1103764      762.19036     -14.011692      748.17867    
   2063000   302.94292      0.0074373588   4.6608254      751.60974     -15.668825      735.94092    
   2064000   296.92683      0.0074373588   4.1937809      736.68365     -14.185767      722.49788    
   2065000   304.22614      0.0074373588   3.5247871      754.79345     -13.17987       741.61358    
   2066000   311.87041      0.0074373588   4.3590103      773.75908     -15.15621       758.60287    
   2067000   299.07206      0.0074373588   4.3473974      742.00603     -10.598549      731.40748    
   2068000   296.48963      0.0074373588   3.2351017      735.59894     -14.16401       721.43493    
   2069000   307.00632      0.0074373588   3.9187285      761.69115     -15.355112      746.33603    
   2070000   302.2532       0.0074373588   3.5496018      749.89851     -14.083297      735.81522    
   2071000   305.2057       0.0074373588   3.6129456      757.22374     -16.184123      741.03962    
   2072000   298.87033      0.0074373588   6.3854728      741.50552     -15.62875       725.87677    
   2073000   305.81444      0.0074373588   3.1515323      758.73406     -17.265586      741.46848    
   2074000   299.16091      0.0074373588   3.7895427      742.22647     -15.994595      726.23188    
   2075000   299.95615      0.0074373588   4.4121152      744.19948     -17.375242      726.82424    
   2076000   303.07313      0.0074373588   4.3134658      751.93278     -13.033303      738.89947    
   2077000   311.57787      0.0074373588   4.9399956      773.03329     -14.696451      758.33684    
   2078000   297.30911      0.0074373588   2.9870671      737.6321      -15.832619      721.79948    
   2079000   315.07919      0.0074373588   3.326842       781.72016     -19.665055      762.05511    
   2080000   304.945        0.0074373588   4.8206582      756.57694     -20.872253      735.70469    
   2081000   293.98489      0.0074373588   5.7226242      729.38463     -20.071814      709.31281    
   2082000   302.29994      0.0074373588   0.57883231     750.01449     -17.589579      732.42491    
   2083000   310.07577      0.0074373588   4.3201564      769.30653     -16.649072      752.65745    
   2084000   297.69784      0.0074373588   6.5036667      738.59654     -16.084881      722.51166    
   2085000   291.38644      0.0074373588   4.4470119      722.93778     -17.05436       705.88342    
   2086000   305.54649      0.0074373588   3.2854667      758.06927     -18.671004      739.39826    
   2087000   307.25192      0.0074373588   3.5697405      762.30049     -22.264959      740.03553    
   2088000   309.30083      0.0074373588   4.3885899      767.38388     -17.472558      749.91133    
   2089000   292.18278      0.0074373588   6.3651903      724.91354     -18.815468      706.09807    
   2090000   288.43         0.0074373588   5.7753525      715.60279     -17.158235      698.44456    
   2091000   311.85488      0.0074373588   1.4940802      773.72056     -19.451656      754.2689     
   2092000   313.02284      0.0074373588   7.0726855      776.61829     -15.258152      761.36014    
   2093000   303.44703      0.0074373588   5.3485539      752.86044     -18.225625      734.63482    
   2094000   281.72536      0.0074373588   4.8615573      698.96839     -18.346276      680.62211    
   2095000   303.88722      0.0074373588  -0.8380965      753.95258     -16.658234      737.29435    
   2096000   306.57827      0.0074373588   1.2755884      760.62915     -13.819771      746.80938    
   2097000   297.36743      0.0074373588   11.292865      737.7768      -17.993533      719.78327    
   2098000   289.36603      0.0074373588   3.3541564      717.92511     -19.433897      698.49121    
   2099000   308.18904      0.0074373588  -2.6480376      764.6255      -18.515547      746.10995    
   2100000   305.0981       0.0074373588   4.9270558      756.95679     -17.022397      739.93439    
   2101000   297.18609      0.0074373588   4.9699233      737.32689     -14.27122       723.05567    
   2102000   303.54432      0.0074373588   8.9485843      753.10184     -14.17639       738.92544    
   2103000   299.64993      0.0074373588   2.0048657      743.43973     -15.442022      727.99771    
   2104000   317.67645      0.0074373588   2.2743106      788.16403     -14.419167      773.74486    
   2105000   307.38584      0.0074373588   9.3122475      762.63275     -14.168496      748.46425    
   2106000   298.00567      0.0074373588   7.8027956      739.36028     -11.574727      727.78555    
   2107000   291.13992      0.0074373588   3.5174704      722.32616     -14.340583      707.98558    
   2108000   328.76948      0.0074373588   4.8978194      815.68614     -12.678973      803.00717    
   2109000   304.9934       0.0074373588   5.2381233      756.69704     -11.159395      745.53764    
   2110000   289.63029      0.0074373588   4.8051886      718.58074     -16.300078      702.28066    
   2111000   300.9898       0.0074373588   2.4208875      746.76398     -13.319755      733.44423    
   2112000   304.89774      0.0074373588   12.740597      756.45971     -11.98236       744.47735    
   2113000   290.08498      0.0074373588   5.5276157      719.70883     -13.714521      705.99431    
   2114000   307.37861      0.0074373588  -5.0623219      762.61479     -13.189528      749.42527    
   2115000   303.0358       0.0074373588   8.6027046      751.84017     -13.420031      738.42014    
   2116000   278.68317      0.0074373588   17.293413      691.42063     -15.419721      676.00091    
   2117000   293.94371      0.0074373588   10.579291      729.28245     -11.754057      717.52839    
   2118000   299.8259       0.0074373588   3.3872095      743.87633     -13.386388      730.48994    
   2119000   300.05388      0.0074373588   1.3470842      744.44194     -11.365381      733.07656    
   2120000   300.81855      0.0074373588   12.671763      746.33912     -11.341484      734.99764    
   2121000   302.40015      0.0074373588   3.547314       750.26311     -13.786201      736.47691    
   2122000   308.4703       0.0074373588  -3.7062788      765.32331     -10.462356      754.86096    
   2123000   306.72553      0.0074373588   5.5475511      760.9945      -14.072476      746.92202    
   2124000   289.61071      0.0074373588   8.7879096      718.53215     -12.322131      706.21002    
   2125000   302.28799      0.0074373588   2.3547518      749.98484     -14.631341      735.3535     
   2126000   307.59291      0.0074373588   2.3031789      763.14648     -14.890834      748.25565    
   2127000   299.56445      0.0074373588   4.9695826      743.22766     -13.750085      729.47758    
   2128000   285.35233      0.0074373588   2.859755       707.96699     -13.40352       694.56347    
   2129000   294.21405      0.0074373588   3.9253493      729.95316     -13.22689       716.72627    
   2130000   310.7462       0.0074373588   4.0679583      770.96988     -13.72533       757.24455    
   2131000   308.13105      0.0074373588   3.8217462      764.48163     -11.690444      752.79119    
   2132000   296.85334      0.0074373588   3.5383821      736.50132     -10.725413      725.77591    
   2133000   298.31253      0.0074373588   4.8420745      740.12162     -10.003493      730.11813    
   2134000   322.37822      0.0074373588   5.8070614      799.82925     -14.560855      785.26839    
   2135000   301.30646      0.0074373588   3.3634121      747.54963     -13.896239      733.65339    
   2136000   295.46612      0.0074373588   3.2207687      733.05958     -11.618004      721.44158    
   2137000   300.92126      0.0074373588   3.8409173      746.59393     -12.286691      734.30724    
   2138000   299.09507      0.0074373588   4.1179641      742.06312     -11.255368      730.80776    
   2139000   300.34051      0.0074373588   5.0725335      745.15308     -14.076147      731.07693    
   2140000   290.78539      0.0074373588   1.640484       721.44656     -16.252698      705.19386    
   2141000   278.40299      0.0074373588   3.15092        690.7255      -12.138151      678.58735    
   2142000   287.00724      0.0074373588   4.3948461      712.07287     -13.124318      698.94856    
   2143000   311.17304      0.0074373588   4.2033285      772.02888     -10.698548      761.33033    
   2144000   304.39083      0.0074373588   5.023824       755.20203     -10.62464       744.57739    
   2145000   297.29067      0.0074373588   4.2803324      737.58634     -12.664809      724.92153    
   2146000   295.46179      0.0074373588   2.5522634      733.04885     -15.596455      717.45239    
   2147000   316.32235      0.0074373588   4.1555134      784.80448     -13.093023      771.71146    
   2148000   296.40099      0.0074373588   6.1965934      735.37903     -15.074479      720.30455    
   2149000   296.06293      0.0074373588   3.4430624      734.5403      -12.714892      721.82541    
   2150000   308.14423      0.0074373588   3.3610385      764.51433     -12.04591       752.46842    
   2151000   308.14212      0.0074373588   4.7996282      764.5091      -11.785337      752.72376    
   2152000   292.25526      0.0074373588   4.0849686      725.09335     -12.739825      712.35353    
   2153000   295.05233      0.0074373588   3.3020392      732.03297     -14.050202      717.98277    
   2154000   313.37283      0.0074373588   4.1561326      777.48664     -13.864195      763.62245    
   2155000   297.10529      0.0074373588   4.8958747      737.12642     -12.790251      724.33617    
   2156000   294.9854       0.0074373588   4.0268585      731.8669      -10.234684      721.63221    
   2157000   297.70252      0.0074373588   3.6744869      738.60816     -12.175067      726.4331     
   2158000   289.54638      0.0074373588   3.9087628      718.37254     -13.78598       704.58656    
   2159000   299.55356      0.0074373588   3.9757688      743.20065     -13.320961      729.87969    
   2160000   297.07617      0.0074373588   3.5197393      737.05418     -13.962028      723.09215    
   2161000   287.41898      0.0074373588   5.2575119      713.09442     -14.759392      698.33503    
   2162000   311.27401      0.0074373588   5.0094364      772.2794      -13.974945      758.30445    
   2163000   305.16766      0.0074373588   3.4559851      757.12937     -13.704048      743.42532    
   2164000   283.98506      0.0074373588   3.4576804      704.57475     -12.516222      692.05853    
   2165000   302.15848      0.0074373588   4.6093766      749.66352     -13.30116       736.36236    
   2166000   320.59835      0.0074373588   3.8186326      795.41334     -16.125667      779.28767    
   2167000   290.66801      0.0074373588   4.1734482      721.15535     -14.394694      706.76066    
   2168000   283.84812      0.0074373588   3.7811866      704.235       -11.680308      692.5547     
   2169000   315.05449      0.0074373588   3.9027906      781.65887     -9.5809451      772.07793    
   2170000   307.49543      0.0074373588   3.9405861      762.90464     -9.1950324      753.70961    
   2171000   289.96424      0.0074373588   4.0761555      719.40928     -9.2156418      710.19363    
   2172000   304.79344      0.0074373588   5.316455       756.20093     -9.127887       747.07304    
   2173000   303.03731      0.0074373588   4.0732233      751.84391     -11.037965      740.80594    
   2174000   299.7013       0.0074373588   3.1910319      743.56719     -11.065012      732.50218    
   2175000   296.809        0.0074373588   1.6797627      736.39132     -13.032374      723.35894    
   2176000   299.00668      0.0074373588   6.3651586      741.84382     -9.9412452      731.90257    
   2177000   301.51826      0.0074373588   7.2034459      748.07511     -13.386547      734.68856    
   2178000   311.14136      0.0074373588   3.760534       771.9503      -11.363226      760.58707    
   2179000   296.73016      0.0074373588   3.0510381      736.19571     -9.7982847      726.39743    
   2180000   298.74276      0.0074373588   3.8855238      741.18902     -11.20661       729.98241    
   2181000   296.16889      0.0074373588   6.1393919      734.80317     -9.7178295      725.08534    
   2182000   288.05997      0.0074373588   6.8079827      714.68473     -11.977761      702.70697    
   2183000   307.44319      0.0074373588   5.9378771      762.77504     -13.288766      749.48627    
   2184000   297.85522      0.0074373588   4.1631907      738.98701     -12.416408      726.5706     
   2185000   303.09132      0.0074373588   3.5846963      751.97792     -11.747266      740.23066    
   2186000   303.49386      0.0074373588   3.1582207      752.97664     -14.672886      738.30376    
   2187000   298.58619      0.0074373588   3.2109232      740.80057     -11.32794       729.47263    
   2188000   292.88945      0.0074373588   6.3786345      726.66679     -10.476381      716.19041    
   2189000   302.61645      0.0074373588   4.3349629      750.79975     -10.420899      740.37885    
   2190000   318.11804      0.0074373588   3.0673566      789.25962     -11.164786      778.09484    
   2191000   284.24583      0.0074373588   3.4671473      705.22174     -12.276064      692.94568    
   2192000   292.26799      0.0074373588   4.2615094      725.12494     -11.146919      713.97802    
   2193000   318.05303      0.0074373588   3.9840401      789.09834     -14.56208       774.53626    
   2194000   296.74792      0.0074373588  -0.93225052     736.23976     -16.863862      719.3759     
   2195000   291.82935      0.0074373588   1.5389004      724.03665     -14.575387      709.46127    
   2196000   297.03127      0.0074373588   4.7639706      736.94276     -12.063008      724.87975    
   2197000   319.41669      0.0074373588   7.8386172      792.48162     -11.05417       781.42745    
   2198000   299.25965      0.0074373588   1.4161266      742.47145     -11.410286      731.06116    
   2199000   288.69882      0.0074373588   3.1852014      716.26972     -11.290487      704.97924    
   2200000   288.65058      0.0074373588   4.3965722      716.15004     -12.675842      703.47419    
   2201000   303.96175      0.0074373588   5.1696866      754.13749     -13.431515      740.70598    
   2202000   298.57168      0.0074373588  -1.5597605      740.76458     -13.51549       727.24909    
   2203000   296.89083      0.0074373588   4.3524783      736.59433     -9.7520151      726.84231    
   2204000   300.5268       0.0074373588   5.0895977      745.61526     -10.783242      734.83202    
   2205000   298.16389      0.0074373588   3.7352517      739.75284     -11.17138       728.58146    
   2206000   296.95357      0.0074373588   3.9721927      736.75        -10.856959      725.89304    
   2207000   303.58786      0.0074373588   4.636642       753.20986     -9.6848576      743.525      
   2208000   316.92413      0.0074373588   4.1070612      786.29749     -10.637734      775.65976    
   2209000   302.59122      0.0074373588   3.8318718      750.73716     -10.208254      740.52891    
   2210000   290.91936      0.0074373588   3.2120157      721.77894     -11.56173       710.21721    
   2211000   298.48704      0.0074373588   4.5430782      740.55457     -10.57649       729.97808    
   2212000   306.02728      0.0074373588   3.4444825      759.26213     -9.598178       749.66395    
   2213000   307.24508      0.0074373588   2.6338154      762.2835      -9.3238574      752.95964    
   2214000   295.43023      0.0074373588   7.0528643      732.97054     -9.4177357      723.55281    
   2215000   306.96397      0.0074373588   6.7774008      761.58607     -13.659993      747.92608    
   2216000   310.78345      0.0074373588   2.5757302      771.06231     -12.184323      758.87798    
   2217000   300.49928      0.0074373588   1.3189778      745.547       -15.151141      730.39586    
   2218000   294.18631      0.0074373588   3.7951804      729.88434     -14.094628      715.78971    
   2219000   310.87516      0.0074373588   6.8962259      771.28985     -15.022935      756.26691    
   2220000   302.58541      0.0074373588   3.9752862      750.72274     -13.637923      737.08481    
   2221000   305.67254      0.0074373588   3.9747788      758.382       -10.037455      748.34455    
   2222000   303.0611       0.0074373588   3.1817336      751.90295     -12.586169      739.31678    
   2223000   293.39003      0.0074373588   3.2531473      727.90875     -7.5018251      720.40692    
   2224000   284.57829      0.0074373588   3.7452362      706.04658     -11.194843      694.85173    
   2225000   304.75865      0.0074373588   4.2056641      756.11462     -8.5784761      747.53614    
   2226000   305.22795      0.0074373588   2.7568061      757.27897     -10.37743       746.90154    
   2227000   310.61907      0.0074373588   3.10516        770.65448     -12.04914       758.60534    
   2228000   294.85738      0.0074373588   4.9531107      731.54928     -8.670346       722.87894    
   2229000   295.47355      0.0074373588   5.6768395      733.07803     -10.601423      722.47661    
   2230000   307.41334      0.0074373588   5.8857426      762.70097     -9.3634155      753.33756    
   2231000   317.03317      0.0074373588   1.925698       786.56803     -7.3849989      779.18303    
   2232000   301.52926      0.0074373588   1.4927026      748.10239     -7.6801192      740.42227    
   2233000   284.04697      0.0074373588   3.7264002      704.72835     -5.5216646      699.20669    
   2234000   302.20051      0.0074373588   6.7558818      749.7678      -7.8958456      741.87195    
   2235000   294.97169      0.0074373588   4.2035415      731.83289     -8.3859118      723.44698    
   2236000   297.55622      0.0074373588   3.8225545      738.24519     -11.620428      726.62476    
   2237000   302.11317      0.0074373588   4.0755306      749.5511      -11.929112      737.62199    
   2238000   305.26027      0.0074373588   4.6980198      757.35914     -12.846062      744.51307    
   2239000   313.50801      0.0074373588   4.3866096      777.82201     -11.786933      766.03508    
   2240000   289.9739       0.0074373588   3.9028561      719.43324     -9.6509452      709.7823     
   2241000   289.38874      0.0074373588   4.0828499      717.98143     -11.500019      706.48142    
   2242000   279.93904      0.0074373588   3.858072       694.53648     -14.963877      679.5726     
   2243000   301.58685      0.0074373588   4.0807681      748.24529     -11.662723      736.58257    
   2244000   310.30864      0.0074373588   4.1084679      769.88429     -11.176247      758.70804    
   2245000   297.6014       0.0074373588   3.5368876      738.35727     -8.6865392      729.67073    
   2246000   291.32794      0.0074373588   3.8612599      722.79264     -8.348204       714.44443    
   2247000   295.14619      0.0074373588   5.3690382      732.26583     -7.4428575      724.82297    
   2248000   313.1139       0.0074373588   6.6581369      776.84421     -9.9551291      766.88908    
   2249000   303.9692       0.0074373588   3.2014606      754.15596     -8.9050955      745.25087    
   2250000   287.65648      0.0074373588   3.3274259      713.68365     -10.244889      703.43876    
   2251000   295.96646      0.0074373588   6.9788195      734.30095     -11.303567      722.99738    
   2252000   312.18349      0.0074373588   5.7195733      774.53585     -9.3093312      765.22652    
   2253000   305.02945      0.0074373588  -1.6907479      756.78648     -8.4443031      748.34218    
   2254000   291.64645      0.0074373588   5.2016221      723.58287     -5.909493       717.67338    
   2255000   308.71954      0.0074373588   7.7758464      765.94169     -7.3615896      758.5801     
   2256000   302.91544      0.0074373588   3.5321275      751.54155     -7.9302282      743.61132    
   2257000   274.73         0.0074373588   4.1675419      681.6127      -5.5472116      676.06549    
   2258000   306.84695      0.0074373588   4.5346703      761.29573     -9.4899698      751.80576    
   2259000   311.2939       0.0074373588   2.6845131      772.32874     -9.3938903      762.93485    
   2260000   295.71132      0.0074373588   3.9964435      733.66795     -10.76199       722.90596    
   2261000   292.18066      0.0074373588   3.8473187      724.90827     -7.6639639      717.24431    
   2262000   318.49325      0.0074373588   4.5555434      790.19054     -8.8534403      781.3371     
   2263000   302.8616       0.0074373588   4.6032989      751.40797     -10.766749      740.64122    
   2264000   291.56402      0.0074373588   6.6415308      723.37837     -10.75419       712.62418    
   2265000   293.1075       0.0074373588   3.8525872      727.20778     -14.133946      713.07384    
   2266000   306.11159      0.0074373588   3.6442734      759.47129     -11.737744      747.73354    
   2267000   299.4728       0.0074373588   10.924432      743.00027     -14.076181      728.92409    
   2268000   289.90956      0.0074373588   3.2555898      719.27362     -13.100706      706.17291    
   2269000   298.55166      0.0074373588   3.5408038      740.7149      -10.546218      730.16868    
   2270000   321.28197      0.0074373588   6.6813225      797.10941     -12.380942      784.72847    
   2271000   301.32597      0.0074373588   5.4212782      747.59804     -11.876365      735.72167    
   2272000   298.48343      0.0074373588   1.9404594      740.54562     -12.682706      727.86291    
   2273000   311.06199      0.0074373588   3.5226036      771.75338     -12.3694        759.38398    
   2274000   297.41679      0.0074373588   5.9538355      737.89926     -10.656139      727.24312    
   2275000   289.46693      0.0074373588   4.075144       718.17543     -12.479064      705.69636    
   2276000   306.77564      0.0074373588   3.2538348      761.11881     -10.597296      750.52151    
   2277000   295.59822      0.0074373588   3.9434707      733.38734     -11.992855      721.39448    
   2278000   294.91413      0.0074373588   4.9717029      731.69008     -9.5710692      722.11901    
   2279000   295.23531      0.0074373588   3.7946716      732.48694     -8.775632       723.71131    
   2280000   303.36996      0.0074373588   4.5593613      752.66925     -7.9602163      744.70903    
   2281000   303.06926      0.0074373588   5.6152536      751.92318     -8.6679017      743.25528    
   2282000   302.60709      0.0074373588   4.6194297      750.77654     -9.9931578      740.78338    
   2283000   302.15171      0.0074373588   3.616613       749.64673     -12.098679      737.54805    
   2284000   291.6709       0.0074373588   3.5571788      723.64355     -10.833315      712.81024    
   2285000   296.12002      0.0074373588   4.199861       734.68194     -10.720201      723.96173    
   2286000   314.83849      0.0074373588   4.5165104      781.12296     -13.787879      767.33508    
   2287000   286.89641      0.0074373588   3.7007105      711.79789     -12.013618      699.78427    
   2288000   293.57693      0.0074373588   6.2448594      728.37246     -12.206433      716.16603    
   2289000   311.3926       0.0074373588   3.9118936      772.57362     -11.164209      761.40941    
   2290000   309.0823       0.0074373588   3.8016878      766.84172     -10.954173      755.88754    
   2291000   285.37849      0.0074373588   3.7118056      708.03191     -10.587747      697.44416    
   2292000   311.64508      0.0074373588   4.5252205      773.20003     -11.04976       762.15027    
   2293000   303.91943      0.0074373588   3.9858134      754.03249     -11.724245      742.30824    
   2294000   296.20434      0.0074373588   4.1177349      734.89113     -9.2504266      725.64071    
   2295000   301.68419      0.0074373588   5.5878379      748.48678     -12.183921      736.30286    
   2296000   320.26611      0.0074373588   3.1160294      794.58904     -11.520308      783.06873    
   2297000   302.79627      0.0074373588   1.8228061      751.2459      -14.051361      737.19454    
   2298000   285.05759      0.0074373588   5.429606       707.23574     -12.859959      694.37578    
   2299000   293.8529       0.0074373588   4.4452905      729.05715     -13.016059      716.04109    
   2300000   300.30217      0.0074373588   1.5028217      745.05796     -9.4894284      735.56853    
   2301000   315.20237      0.0074373588   5.240526       782.02576     -10.393151      771.63261    
   2302000   303.832        0.0074373588   3.8910445      753.81557     -10.359014      743.45656    
   2303000   296.15303      0.0074373588   3.0762684      734.76382     -6.8808362      727.88299    
   2304000   290.52855      0.0074373588   4.6695891      720.80935     -6.3592074      714.45014    
   2305000   311.20564      0.0074373588   7.1218955      772.10978     -10.019199      762.09058    
   2306000   307.86069      0.0074373588   3.9016549      763.81085     -8.3175205      755.49333    
   2307000   295.02856      0.0074373588   3.2491984      731.97399     -9.6754711      722.29852    
   2308000   297.13332      0.0074373588   4.2784363      737.19595     -8.5693697      728.62659    
   2309000   311.63799      0.0074373588   9.52816        773.18243     -8.0653862      765.11704    
   2310000   299.04257      0.0074373588   4.0472993      741.93286     -9.2326281      732.70023    
   2311000   292.03046      0.0074373588   4.4773494      724.53563     -9.6535099      714.88212    
   2312000   306.77404      0.0074373588   5.882655       761.11485     -8.6358982      752.47895    
   2313000   299.18975      0.0074373588   0.59214817     742.29801     -10.027965      732.27004    
   2314000   294.06897      0.0074373588   4.6467662      729.59322     -11.434406      718.15882    
   2315000   311.08905      0.0074373588   4.6133581      771.82051     -11.69059       760.12991    
   2316000   304.38669      0.0074373588   5.4044979      755.19176     -10.388187      744.80357    
   2317000   290.90466      0.0074373588  -4.6636695      721.74249     -11.536312      710.20618    
   2318000   300.13032      0.0074373588   4.7088237      744.63159     -9.6845805      734.94701    
   2319000   300.98106      0.0074373588   6.1785925      746.7423      -13.201784      733.54051    
   2320000   305.73342      0.0074373588  -0.47460187     758.53304     -13.324354      745.20868    
   2321000   299.27777      0.0074373588   0.23352467     742.51639     -13.446066      729.07032    
   2322000   301.73064      0.0074373588   6.9465957      748.60203     -10.580912      738.02112    
   2323000   313.61361      0.0074373588   0.57676881     778.08402     -10.870468      767.21355    
   2324000   289.87725      0.0074373588   1.93857        719.19344     -9.9073677      709.28607    
   2325000   297.69503      0.0074373588   9.1042047      738.58957     -14.226854      724.36271    
   2326000   316.8565       0.0074373588   11.065006      786.1297      -9.5370973      776.59261    
   2327000   302.75273      0.0074373588   2.838881       751.13787     -8.1839279      742.95394    
   2328000   299.66051      0.0074373588   1.5173191      743.46599     -10.546727      732.91926    
   2329000   298.63643      0.0074373588   3.4405125      740.9252      -8.167061       732.75814    
   2330000   307.90767      0.0074373588   5.7025686      763.92741     -9.4523654      754.47505    
   2331000   304.28366      0.0074373588   4.7980225      754.93615     -12.091335      742.84481    
   2332000   311.06913      0.0074373588   3.0661928      771.77107     -13.035404      758.73567    
   2333000   295.85973      0.0074373588   3.8742913      734.03614     -10.082232      723.95391    
   2334000   296.01693      0.0074373588   4.9359726      734.42616     -13.282356      721.14381    
   2335000   314.59373      0.0074373588   3.9323289      780.51572     -12.846597      767.66912    
   2336000   295.43753      0.0074373588   1.2346227      732.98865     -12.91097       720.07768    
   2337000   280.70345      0.0074373588   4.2761055      696.43299     -12.957553      683.47544    
   2338000   304.17764      0.0074373588   5.8001383      754.67312     -12.141844      742.53127    
   2339000   306.58866      0.0074373588   7.2035661      760.65492     -12.404053      748.25087    
   2340000   297.82086      0.0074373588   3.4344483      738.90177     -8.7990068      730.10277    
   2341000   276.18167      0.0074373588   4.4888738      685.21434     -8.9954283      676.21892    
   2342000   302.81246      0.0074373588   6.7098843      751.28606     -7.9597399      743.32632    
   2343000   312.55214      0.0074373588   4.7687204      775.45047     -10.47843       764.97204    
   2344000   303.66943      0.0074373588   3.3010103      753.41221     -10.580168      742.83205    
   2345000   293.62984      0.0074373588   3.0943221      728.50372     -13.383926      715.11979    
   2346000   301.60656      0.0074373588   4.4505307      748.29419     -11.931481      736.3627     
   2347000   292.93078      0.0074373588   5.5045745      726.76935     -12.99513       713.77422    
   2348000   304.0359       0.0074373588   2.294274       754.32145     -13.082935      741.23852    
   2349000   296.22133      0.0074373588   3.7114632      734.9333      -12.007096      722.9262     
   2350000   309.18159      0.0074373588   7.3691202      767.08804     -13.603374      753.48467    
   2351000   303.04533      0.0074373588   2.746399       751.86382     -13.734272      738.12955    
   2352000   289.80177      0.0074373588   3.5399748      719.00618     -13.073312      705.93287    
   2353000   300.04864      0.0074373588   3.9873937      744.42894     -7.5373293      736.89161    
   2354000   305.47932      0.0074373588   4.2034046      757.90262     -10.368542      747.53408    
   2355000   315.66747      0.0074373588   4.3198804      783.1797      -11.621216      771.55848    
   2356000   307.93153      0.0074373588   3.7139853      763.9866      -14.175176      749.81143    
   2357000   302.96935      0.0074373588   4.1046202      751.67532     -16.353071      735.32224    
   2358000   297.39171      0.0074373588   4.3742796      737.83703     -17.863556      719.97348    
   2359000   295.70789      0.0074373588   4.6736741      733.65942     -17.848999      715.81043    
   2360000   306.17102      0.0074373588   5.3830999      759.61874     -14.790153      744.82859    
   2361000   308.56056      0.0074373588   3.3230966      765.54726     -16.818976      748.72829    
   2362000   300.14129      0.0074373588   3.190482       744.65882     -16.07176       728.58706    
   2363000   304.87883      0.0074373588   3.8022103      756.41277     -15.824951      740.58782    
   2364000   294.98516      0.0074373588   5.3871605      731.86632     -13.953585      717.91273    
   2365000   303.08682      0.0074373588   3.5509248      751.96675     -13.824063      738.14269    
   2366000   310.21951      0.0074373588   3.6777518      769.66315     -16.681551      752.98159    
   2367000   294.31067      0.0074373588   3.8779986      730.19288     -17.288434      712.90445    
   2368000   297.54597      0.0074373588   4.5487549      738.21976     -16.644945      721.57482    
   2369000   321.61319      0.0074373588   6.2561617      797.93118     -13.987469      783.94372    
   2370000   297.38568      0.0074373588   2.8896785      737.82208     -13.687803      724.13428    
   2371000   283.61594      0.0074373588   2.7753069      703.65897     -12.734983      690.92399    
   2372000   299.92244      0.0074373588   4.6595166      744.11583     -11.734529      732.3813     
   2373000   306.63036      0.0074373588   4.6371877      760.75837     -13.197683      747.56069    
   2374000   291.16328      0.0074373588   3.6305723      722.38413     -10.861712      711.52242    
   2375000   296.50406      0.0074373588   4.2433436      735.63474     -14.615661      721.01908    
   2376000   321.56135      0.0074373588   5.7709093      797.80256     -11.661261      786.1413     
   2377000   299.80318      0.0074373588   3.0627275      743.81995     -14.595743      729.22421    
   2378000   286.36571      0.0074373588   4.277675       710.48122     -13.157661      697.32355    
   2379000   306.2375       0.0074373588   4.4184488      759.78368     -13.10462       746.67906    
   2380000   306.97861      0.0074373588   3.2967263      761.6224      -11.808523      749.81388    
   2381000   292.13207      0.0074373588   4.0469228      724.78772     -12.060077      712.72764    
   2382000   285.12374      0.0074373588   4.8366349      707.39986     -10.750423      696.64944    
   2383000   302.73524      0.0074373588   4.3245015      751.09448     -10.493506      740.60098    
   2384000   301.3518       0.0074373588   4.0522664      747.66213     -10.113276      737.54886    
   2385000   297.4307       0.0074373588   3.9619979      737.93377     -11.345848      726.58792    
   2386000   306.15357      0.0074373588   5.7526045      759.57545     -8.9315846      750.64387    
   2387000   290.32364      0.0074373588   4.0644554      720.30096     -11.634196      708.66677    
   2388000   287.42217      0.0074373588   2.6213467      713.10232     -9.8352586      703.26706    
   2389000   310.85914      0.0074373588   0.84601878     771.2501      -10.243801      761.0063     
   2390000   298.22389      0.0074373588   6.7597617      739.90168     -10.65569       729.24599    
   2391000   294.7354       0.0074373588   4.9061026      731.24665     -11.15624       720.09041    
   2392000   298.05584      0.0074373588   4.3252962      739.48475     -11.516853      727.9679     
   2393000   301.83852      0.0074373588   3.1376793      748.86968     -8.8576086      740.01207    
   2394000   306.63662      0.0074373588   3.2958396      760.77391     -9.9731326      750.80078    
   2395000   300.90913      0.0074373588   4.3863969      746.56384     -13.095485      733.46835    
   2396000   299.01511      0.0074373588   6.7366748      741.86474     -12.411413      729.45333    
   2397000   301.44504      0.0074373588   1.3613005      747.89345     -11.116882      736.77657    
   2398000   311.49416      0.0074373588   5.3429686      772.8256      -9.7211759      763.10442    
   2399000   296.27965      0.0074373588   6.0814806      735.07797     -10.177958      724.90001    
   2400000   292.10315      0.0074373588   4.5537059      724.71598     -13.490946      711.22503    
   2401000   294.93328      0.0074373588   3.4468804      731.7376      -12.176119      719.56148    
   2402000   312.95591      0.0074373588   3.9289598      776.45225     -10.983075      765.46917    
   2403000   302.49941      0.0074373588   5.5310028      750.50937     -11.632074      738.87729    
   2404000   291.87237      0.0074373588   2.7816068      724.14339     -13.849284      710.2941     
   2405000   311.31061      0.0074373588   2.3616396      772.37022     -11.753429      760.61679    
   2406000   300.98326      0.0074373588   9.0478677      746.74777     -12.218333      734.52943    
   2407000   296.76467      0.0074373588   3.515377       736.28133     -14.061917      722.21941    
   2408000   300.75639      0.0074373588  -3.4302986      746.1849      -11.353536      734.83137    
   2409000   305.81279      0.0074373588   6.4019333      758.72995     -9.4731877      749.25676    
   2410000   303.59129      0.0074373588   1.2089975      753.21835     -9.0174645      744.20089    
   2411000   301.35632      0.0074373588   2.2516658      747.67332     -9.0997273      738.5736     
   2412000   298.74664      0.0074373588   4.8169477      741.19865     -9.7745158      731.42414    
   2413000   298.37431      0.0074373588   3.1781078      740.2749      -12.689347      727.58555    
   2414000   314.62495      0.0074373588  -3.8819452      780.59318     -11.550029      769.04315    
   2415000   303.18048      0.0074373588   6.6484031      752.19912     -9.8914086      742.30771    
   2416000   277.18648      0.0074373588   2.5007841      687.7073      -10.415268      677.29203    
   2417000   294.91604      0.0074373588   5.4200231      731.69482     -9.6388442      722.05597    
   2418000   310.04112      0.0074373588   0.98826093     769.22055     -9.07334        760.14721    
   2419000   305.8334       0.0074373588   6.2557211      758.7811      -10.693421      748.08768    
   2420000   297.97405      0.0074373588   5.756803       739.28184     -10.628298      728.65354    
   2421000   295.93087      0.0074373588   2.4581078      734.21264     -11.187921      723.02472    
   2422000   310.62657      0.0074373588   3.1414195      770.67308     -13.614581      757.0585     
   2423000   295.61148      0.0074373588   5.5602517      733.42024     -14.919618      718.50062    
   2424000   299.75288      0.0074373588   5.6400179      743.69515     -19.769527      723.92563    
   2425000   299.18604      0.0074373588   3.5803317      742.28882     -16.958112      725.33071    
   2426000   296.24325      0.0074373588   3.9118407      734.98766     -14.747846      720.23981    
   2427000   309.43872      0.0074373588   4.8272088      767.726       -14.709635      753.01637    
   2428000   295.85591      0.0074373588   3.8098354      734.02666     -17.257501      716.76916    
   2429000   288.54417      0.0074373588   4.0562593      715.88605     -13.631784      702.25426    
   2430000   304.96893      0.0074373588   4.5126116      756.63631     -13.051987      743.58433    
   2431000   312.29892      0.0074373588   4.455179       774.82224     -14.677609      760.14463    
   2432000   301.48095      0.0074373588   3.9819126      747.98254     -10.878639      737.1039     
   2433000   294.28113      0.0074373588   3.0732868      730.11959     -14.385622      715.73397    
   2434000   290.39339      0.0074373588   4.1291606      720.47399     -12.503452      707.97054    
   2435000   303.8841       0.0074373588   4.4414858      753.94482     -11.358545      742.58628    
   2436000   297.52333      0.0074373588   4.4773855      738.16358     -14.121735      724.04185    
   2437000   301.61071      0.0074373588   3.4218524      748.30448     -10.569595      737.73488    
   2438000   288.66375      0.0074373588   3.1504949      716.18271     -11.589719      704.59299    
   2439000   287.30729      0.0074373588   7.2784766      712.81732     -12.131838      700.68548    
   2440000   302.42178      0.0074373588   6.5451703      750.31676     -10.732081      739.58468    
   2441000   314.03924      0.0074373588   5.3014476      779.14001     -8.4491624      770.69085    
   2442000   293.47261      0.0074373588   2.144042       728.11363     -11.10876       717.00487    
   2443000   291.77629      0.0074373588   6.0730532      723.90502     -12.773055      711.13196    
   2444000   307.06254      0.0074373588   4.6992419      761.83063     -11.750339      750.08029    
   2445000   297.65567      0.0074373588   1.3143101      738.49193     -11.798552      726.69338    
   2446000   287.92198      0.0074373588   5.1212907      714.34237     -8.3998662      705.9425     
   2447000   303.21846      0.0074373588   6.7318912      752.29335     -10.061502      742.23185    
   2448000   301.80439      0.0074373588   3.596034       748.78501     -9.5973971      739.18761    
   2449000   308.67508      0.0074373588   2.9251277      765.83137     -11.348301      754.48307    
   2450000   297.38783      0.0074373588   4.7035519      737.82741     -11.159046      726.66837    
   2451000   305.22824      0.0074373588   9.2805862      757.27969     -13.982321      743.29736    
   2452000   299.36514      0.0074373588   3.0025598      742.73317     -14.032183      728.70099    
   2453000   310.15316      0.0074373588   2.8008081      769.49853     -13.315101      756.18343    
   2454000   296.08106      0.0074373588   6.8875773      734.58526     -16.482479      718.10278    
   2455000   303.54627      0.0074373588   4.5169952      753.10666     -16.173622      736.93304    
   2456000   296.00331      0.0074373588   2.5416869      734.39238     -13.116787      721.2756     
   2457000   295.22065      0.0074373588   3.568906       732.45058     -12.992884      719.45769    
   2458000   300.33438      0.0074373588   3.9768993      745.13788     -16.537613      728.60026    
   2459000   310.75575      0.0074373588   4.78819        770.99359     -20.93832       750.05527    
   2460000   297.72739      0.0074373588   4.2412486      738.66985     -20.672287      717.99756    
   2461000   297.31099      0.0074373588   4.0943533      737.63675     -21.524612      716.11214    
   2462000   294.59128      0.0074373588   3.6829363      730.88909     -22.031896      708.85719    
   2463000   303.00973      0.0074373588   1.3613911      751.7755      -17.39401       734.38149    
   2464000   300.98343      0.0074373588   4.6873965      746.74818     -13.391241      733.35693    
   2465000   300.6902       0.0074373588   3.9914821      746.02067     -12.72329       733.29738    
   2466000   300.50349      0.0074373588   3.3926571      745.55744     -13.33734       732.2201     
   2467000   302.21622      0.0074373588   9.0694425      749.80676     -12.307337      737.49943    
   2468000   304.02363      0.0074373588   4.6535295      754.29101     -14.911984      739.37902    
   2469000   297.00228      0.0074373588   1.8544519      736.87084     -16.639237      720.2316     
   2470000   299.93963      0.0074373588   4.219581       744.15849     -16.689231      727.46926    
   2471000   313.85688      0.0074373588   3.0070343      778.68758     -14.861969      763.82561    
   2472000   289.68539      0.0074373588   3.8826783      718.71744     -10.840765      707.87668    
   2473000   294.02851      0.0074373588   4.0829441      729.49283     -12.49034       717.00249    
   2474000   292.55294      0.0074373588   5.3119045      725.83192     -12.301615      713.53031    
   2475000   312.10902      0.0074373588   4.0921114      774.35108     -10.357531      763.99355    
   2476000   303.94748      0.0074373588   1.7946491      754.10209     -10.516305      743.58578    
   2477000   296.07337      0.0074373588   3.1010841      734.56619     -15.745563      718.82062    
   2478000   304.83092      0.0074373588   6.2378115      756.29391     -14.941472      741.35243    
   2479000   294.77911      0.0074373588   1.7385848      731.35509     -15.42183       715.93326    
   2480000   297.62973      0.0074373588   2.5693856      738.42757     -16.926049      721.50152    
   2481000   293.86806      0.0074373588   3.5050095      729.09476     -13.757266      715.3375     
   2482000   296.08836      0.0074373588   4.1318398      734.60338     -11.93848       722.6649     
   2483000   310.44636      0.0074373588   5.8301508      770.22598     -9.8395623      760.38642    
   2484000   310.38402      0.0074373588   3.4733982      770.07131     -11.119357      758.95195    
   2485000   287.7407       0.0074373588   6.7441328      713.89261     -13.965791      699.92682    
   2486000   316.02078      0.0074373588   6.8781632      784.05627     -13.393532      770.66274    
   2487000   307.93518      0.0074373588   2.8897878      763.99568     -14.073951      749.92173    
   2488000   292.65801      0.0074373588   0.45893154     726.0926      -14.373947      711.71865    
   2489000   287.22753      0.0074373588   2.7663154      712.61943     -12.90007       699.71936    
   2490000   303.02078      0.0074373588   4.8118887      751.8029      -13.254074      738.54883    
   2491000   303.78463      0.0074373588   4.0903262      753.69805     -16.593154      737.1049     
   2492000   292.24976      0.0074373588   3.4893982      725.0797      -17.339839      707.73986    
   2493000   308.14239      0.0074373588   5.2593061      764.50977     -13.153215      751.35656    
   2494000   310.99572      0.0074373588   5.6006799      771.58896     -14.657602      756.93135    
   2495000   294.60003      0.0074373588   0.98916405     730.9108      -14.604071      716.30673    
   2496000   277.73527      0.0074373588   1.2904092      689.06886     -14.466998      674.60186    
   2497000   303.49972      0.0074373588   5.318927       752.99116     -15.789988      737.20117    
   2498000   322.22148      0.0074373588   2.6720711      799.44038     -19.709657      779.73072    
   2499000   297.7574       0.0074373588   3.329012       738.74432     -22.597102      716.14722    
   2500000   288.11133      0.0074373588   4.3847193      714.81215     -21.624314      693.18784    
   2501000   305.98837      0.0074373588   4.2055411      759.16558     -20.905841      738.25974    
   2502000   297.56914      0.0074373588   2.6125268      738.27724     -17.718204      720.55903    
   2503000   294.31487      0.0074373588   5.5358754      730.20331     -18.817502      711.38581    
   2504000   305.9482       0.0074373588   5.0394233      759.06591     -18.880052      740.18586    
   2505000   301.07742      0.0074373588   5.1443256      746.98137     -18.112364      728.86901    
   2506000   297.50326      0.0074373588   2.2691731      738.1138      -15.698216      722.41558    
   2507000   318.94728      0.0074373588   2.5456258      791.31699     -15.278855      776.03814    
   2508000   298.4806       0.0074373588   4.7362094      740.53859     -18.973055      721.56553    
   2509000   294.19882      0.0074373588   4.2537979      729.91538     -16.024566      713.89081    
   2510000   296.34656      0.0074373588   3.6310857      735.24398     -18.500324      716.74366    
   2511000   308.43172      0.0074373588   2.4430681      765.2276      -17.421822      747.80578    
   2512000   316.41345      0.0074373588   3.9569167      785.03049     -19.17603       765.85446    
   2513000   293.09691      0.0074373588   5.1320215      727.18152     -13.630903      713.55062    
   2514000   299.63956      0.0074373588  -0.49555119     743.41402     -16.308654      727.10536    
   2515000   320.18832      0.0074373588   3.8754761      794.39605     -14.378488      780.01756    
   2516000   301.99882      0.0074373588   5.3739188      749.2674      -14.317296      734.95011    
   2517000   299.03352      0.0074373588  -0.85004241     741.91039     -15.263412      726.64698    
   2518000   298.00353      0.0074373588   5.7045639      739.35496     -15.176197      724.17876    
   2519000   299.28908      0.0074373588   6.4926603      742.54446     -16.452828      726.09163    
   2520000   300.60144      0.0074373588  -2.3068909      745.80047     -12.363825      733.43664    
   2521000   303.19274      0.0074373588   5.9605818      752.22953     -14.484727      737.74481    
   2522000   299.23815      0.0074373588   13.333881      742.41809     -13.897893      728.5202     
   2523000   303.41455      0.0074373588   2.6926137      752.77987     -15.883266      736.89661    
   2524000   306.29831      0.0074373588  -2.2688926      759.93455     -14.692456      745.2421     
   2525000   302.97826      0.0074373588   4.284787       751.69742     -13.08313       738.61429    
   2526000   300.41437      0.0074373588   7.8754004      745.33633     -14.55917       730.77716    
   2527000   285.49596      0.0074373588   7.8894536      708.32335     -18.436816      689.88653    
   2528000   299.2424       0.0074373588   3.3080117      742.42864     -16.334617      726.09402    
   2529000   305.7972       0.0074373588   2.6453917      758.69128     -14.022284      744.66899    
   2530000   301.59232      0.0074373588   2.8162579      748.25886     -15.514558      732.7443     
   2531000   303.83975      0.0074373588   6.739393       753.83479     -17.759125      736.07567    
   2532000   297.16869      0.0074373588   4.6889583      737.28371     -18.021159      719.26255    
   2533000   310.758        0.0074373588  -1.9656316      770.99917     -17.266197      753.73297    
   2534000   307.039        0.0074373588   6.5466404      761.77223     -16.561335      745.2109     
   2535000   296.14798      0.0074373588   5.8133461      734.7513      -15.820008      718.93129    
   2536000   288.35245      0.0074373588  -0.56585688     715.41037     -14.498281      700.91208    
   2537000   308.65032      0.0074373588   1.7499441      765.76995     -16.315725      749.45422    
   2538000   314.60384      0.0074373588   5.7993009      780.5408      -19.22247       761.31833    
   2539000   295.30699      0.0074373588   8.1975572      732.66478     -13.157957      719.50682    
   2540000   291.67007      0.0074373588   3.0313748      723.64149     -14.558068      709.08343    
   2541000   310.27689      0.0074373588   2.6135863      769.80553     -14.172054      755.63347    
   2542000   307.52576      0.0074373588   5.8377538      762.97988     -15.396345      747.58354    
   2543000   297.47166      0.0074373588   11.276499      738.03539     -12.77711       725.25828    
   2544000   295.90509      0.0074373588   5.4131726      734.14869     -19.877175      714.27152    
   2545000   305.14201      0.0074373588  -2.9936366      757.06575     -15.53123       741.53452    
   2546000   309.81163      0.0074373588   3.3662177      768.65119     -16.75606       751.89513    
   2547000   293.62776      0.0074373588   2.7992897      728.49857     -15.731569      712.767      
   2548000   299.67577      0.0074373588   8.2363778      743.50385     -15.26413       728.23972    
   2549000   301.96507      0.0074373588   8.4492446      749.18366     -14.926096      734.25756    
   2550000   299.10581      0.0074373588   3.0735334      742.08976     -14.883829      727.20593    
   2551000   300.6514       0.0074373588  -0.44267952     745.92441     -15.708739      730.21567    
   2552000   309.58315      0.0074373588   5.1408667      768.08433     -14.935815      753.14851    
   2553000   287.56372      0.0074373588   3.2401383      713.45351     -16.317917      697.1356     
   2554000   289.72513      0.0074373588   1.513922       718.81603     -14.170369      704.64566    
   2555000   304.26477      0.0074373588   2.5742246      754.88927     -14.444092      740.44518    
   2556000   308.38593      0.0074373588   3.7951338      765.11398     -14.199907      750.91408    
   2557000   298.55471      0.0074373588   7.734135       740.72247     -15.319583      725.40288    
   2558000   284.56937      0.0074373588   3.3733177      706.02445     -15.727743      690.29671    
   2559000   309.83571      0.0074373588   2.709374       768.71095     -16.108356      752.60259    
   2560000   303.2143       0.0074373588   8.1992649      752.28304     -15.726742      736.5563     
   2561000   291.32844      0.0074373588   4.7860654      722.7939      -15.302332      707.49157    
   2562000   291.42573      0.0074373588   1.1246515      723.03527     -19.512831      703.52244    
   2563000   303.63039      0.0074373588   3.0976765      753.31537     -18.780483      734.53489    
   2564000   311.85882      0.0074373588   3.9656164      773.73034     -15.285735      758.44461    
   2565000   292.01719      0.0074373588   6.3807769      724.5027      -17.621944      706.88075    
   2566000   293.97534      0.0074373588   3.7333648      729.36092     -18.892419      710.4685     
   2567000   306.11665      0.0074373588   4.0636969      759.48385     -21.208697      738.27516    
   2568000   312.66826      0.0074373588   3.8967444      775.73856     -20.695783      755.04278    
   2569000   292.34852      0.0074373588   2.909862       725.32474     -21.361444      703.96329    
   2570000   297.53635      0.0074373588   3.7084697      738.19589     -18.65118       719.54471    
   2571000   319.85043      0.0074373588   3.7915661      793.55774     -19.054226      774.50351    
   2572000   304.4793       0.0074373588   5.0401456      755.42154     -18.808633      736.6129     
   2573000   281.61708      0.0074373588   4.1574728      698.69975     -21.033423      677.66633    
   2574000   305.61807      0.0074373588   3.3023913      758.24686     -16.998292      741.24857    
   2575000   311.17649      0.0074373588   4.4019904      772.03746     -17.999567      754.03789    
   2576000   290.31728      0.0074373588   3.3620682      720.28518     -18.911303      701.37387    
   2577000   294.66579      0.0074373588   5.113832       731.07394     -16.828803      714.24514    
   2578000   306.96381      0.0074373588   4.2724033      761.58566     -16.445257      745.14041    
   2579000   294.13735      0.0074373588   3.247083       729.76287     -17.640253      712.12261    
   2580000   295.73507      0.0074373588   4.3013724      733.72685     -17.722749      716.0041     
   2581000   306.30354      0.0074373588   4.609172       759.94751     -17.716464      742.23105    
   2582000   301.72496      0.0074373588  -0.024413411    748.58794     -19.389362      729.19858    
   2583000   298.87476      0.0074373588   3.8517362      741.51652     -17.448774      724.06774    
   2584000   292.99862      0.0074373588   1.323779       726.93764     -16.541251      710.39639    
   2585000   306.90812      0.0074373588   7.51494        761.44749     -14.573815      746.87368    
   2586000   303.81309      0.0074373588   7.324835       753.76865     -14.68059       739.08806    
   2587000   303.55923      0.0074373588   2.4159808      753.13882     -19.931767      733.20705    
   2588000   298.11868      0.0074373588   4.0421348      739.64065     -17.366463      722.27419    
   2589000   305.28198      0.0074373588   12.636342      757.413       -17.927467      739.48554    
   2590000   297.78993      0.0074373588   3.2990576      738.82503     -18.832015      719.99301    
   2591000   306.04374      0.0074373588  -0.62133529     759.30296     -17.67025       741.63272    
   2592000   289.75228      0.0074373588   2.0175217      718.88339     -17.370935      701.51246    
   2593000   284.87258      0.0074373588   3.1974985      706.77673     -17.275726      689.50101    
   2594000   306.05034      0.0074373588   7.7872213      759.31932     -14.777175      744.54214    
   2595000   311.35124      0.0074373588  -0.092408356    772.47101     -19.084558      753.38645    
   2596000   296.54212      0.0074373588   4.1712608      735.72918     -17.490788      718.23839    
   2597000   289.25843      0.0074373588   7.5038447      717.65815     -15.443787      702.21436    
   2598000   301.55776      0.0074373588   4.3919979      748.17311     -16.547961      731.62515    
   2599000   304.47392      0.0074373588  -0.46776471     755.4082      -15.505455      739.90274    
   2600000   289.48475      0.0074373588   4.2864777      718.21964     -14.888179      703.33146    
   2601000   297.74923      0.0074373588   10.265572      738.72405     -11.494382      727.22967    
   2602000   294.83729      0.0074373588   2.0556115      731.49943     -12.234756      719.26468    
   2603000   301.96493      0.0074373588  -0.93628951     749.18331     -11.525087      737.65822    
   2604000   301.09364      0.0074373588   4.5722689      747.02162     -8.5111562      738.51046    
   2605000   293.38659      0.0074373588   6.5507085      727.90021     -10.925201      716.97501    
   2606000   297.47437      0.0074373588   6.6208072      738.04211     -13.932394      724.10972    
   2607000   307.81144      0.0074373588  -1.6183087      763.68868     -10.937396      752.75128    
   2608000   297.82567      0.0074373588   4.8353878      738.9137      -11.52989       727.38381    
   2609000   293.07935      0.0074373588   5.3668602      727.13795     -11.47035       715.6676     
   2610000   308.28396      0.0074373588   4.5005264      764.86099     -12.283173      752.57782    
   2611000   315.90536      0.0074373588   3.1619827      783.7699      -12.187294      771.5826     
   2612000   301.9491       0.0074373588   2.1141058      749.14405     -12.461799      736.68225    
   2613000   291.04763      0.0074373588   3.6355615      722.09719     -16.81084       705.28636    
   2614000   297.11797      0.0074373588   6.3979635      737.15788     -15.683533      721.47435    
   2615000   310.45824      0.0074373588   4.6451657      770.25546     -10.640112      759.61534    
   2616000   291.66532      0.0074373588   2.194925       723.6297      -12.866243      710.76346    
   2617000   292.77522      0.0074373588   11.98993       726.38339     -14.742286      711.6411     
   2618000   307.57144      0.0074373588   3.6700416      763.09321     -16.068469      747.02474    
   2619000   305.71063      0.0074373588   0.016426645    758.47651     -17.006455      741.47005    
   2620000   293.11527      0.0074373588   2.1616136      727.22706     -17.160949      710.06611    
   2621000   277.23961      0.0074373588   9.2371864      687.83911     -15.549944      672.28917    
   2622000   296.75618      0.0074373588   10.29631       736.26027     -15.258108      721.00216    
   2623000   310.18644      0.0074373588   5.408024       769.5811      -14.918758      754.66234    
   2624000   308.51742      0.0074373588   2.0848688      765.44022     -15.687224      749.75299    
   2625000   297.81372      0.0074373588   0.72488771     738.88405     -14.119847      724.76421    
   2626000   287.17426      0.0074373588   3.916376       712.48727     -15.40783       697.07944    
   2627000   301.50794      0.0074373588   9.3475542      748.04952     -17.63593       730.41359    
   2628000   301.36297      0.0074373588   1.2386779      747.68984     -16.02847       731.66137    
   2629000   299.52811      0.0074373588   3.6321763      743.13749     -17.687601      725.44989    
   2630000   301.51013      0.0074373588   4.6050409      748.05495     -15.245273      732.80968    
   2631000   307.13891      0.0074373588   4.3828818      762.02011     -20.476616      741.5435     
   2632000   305.39002      0.0074373588   2.9942333      757.68105     -19.153046      738.528      
   2633000   286.85929      0.0074373588   1.5984743      711.7058      -15.406726      696.29907    
   2634000   290.67409      0.0074373588   9.7867775      721.17043     -15.149896      706.02054    
   2635000   313.01931      0.0074373588   9.93761        776.60952     -17.314773      759.29475    
   2636000   313.21986      0.0074373588   2.3893838      777.1071      -15.73799       761.36911    
   2637000   297.47045      0.0074373588   3.5221078      738.03239     -17.272484      720.7599     
   2638000   292.9023       0.0074373588   6.7618379      726.69868     -16.969683      709.72899    
   2639000   310.38727      0.0074373588   7.2576754      770.07936     -14.64432       755.43504    
   2640000   299.64973      0.0074373588   1.4052941      743.43924     -12.998547      730.44069    
   2641000   284.69387      0.0074373588   4.8558806      706.33334     -11.573554      694.75978    
   2642000   309.80126      0.0074373588   4.9372102      768.62547     -12.102563      756.52291    
   2643000   300.30957      0.0074373588   0.052006643    745.07633     -16.193071      728.88326    
   2644000   287.91713      0.0074373588   0.68235632     714.33034     -17.658054      696.67229    
   2645000   296.68017      0.0074373588   6.43323        736.07168     -19.735764      716.33592    
   2646000   309.47617      0.0074373588   1.6337243      767.81892     -15.580444      752.23848    
   2647000   309.33027      0.0074373588   0.5988701      767.45692     -12.815635      754.64128    
   2648000   290.7215       0.0074373588   0.89249944     721.28805     -13.85621       707.43184    
   2649000   294.56595      0.0074373588   8.0504581      730.82623     -11.85791       718.96832    
   2650000   315.73922      0.0074373588   7.7733518      783.35771     -14.437568      768.92014    
   2651000   304.43622      0.0074373588   2.2373954      755.31465     -9.3530675      745.96159    
   2652000   283.44072      0.0074373588   4.8872561      703.22423     -9.7962047      693.42802    
   2653000   303.21487      0.0074373588   8.098256       752.28445     -10.041627      742.24282    
   2654000   322.77651      0.0074373588   5.1973768      800.81743     -13.457438      787.35999    
   2655000   299.58865      0.0074373588   1.1382436      743.28771     -13.103597      730.18411    
   2656000   293.95114      0.0074373588   2.7224629      729.30087     -13.941724      715.35915    
   2657000   288.28952      0.0074373588   7.4498453      715.25425     -14.522022      700.73223    
   2658000   308.06964      0.0074373588   7.557502       764.32928     -14.301021      750.02826    
   2659000   308.38945      0.0074373588   7.7356345      765.12273     -13.374702      751.74803    
   2660000   294.6357       0.0074373588  -3.1172555      730.99929     -15.237772      715.76152    
   2661000   289.35982      0.0074373588   5.2797432      717.90969     -14.009095      703.9006     
   2662000   298.36506      0.0074373588   3.6192517      740.25193     -14.47797       725.77396    
   2663000   297.20996      0.0074373588  -0.070265345    737.38609     -13.056555      724.32954    
   2664000   300.25663      0.0074373588   3.1257265      744.94497     -16.016289      728.92868    
   2665000   300.06538      0.0074373588   5.2115012      744.47048     -11.276084      733.1944     
   2666000   287.59849      0.0074373588   4.6918066      713.53977     -10.887572      702.6522     
   2667000   291.69146      0.0074373588  -2.9047364      723.69455     -11.485146      712.2094     
   2668000   299.76896      0.0074373588   5.7937899      743.73506     -12.426409      731.30865    
   2669000   305.94214      0.0074373588   5.0241648      759.05089     -15.826239      743.22465    
   2670000   296.89342      0.0074373588   0.90288121     736.60076     -11.8144        724.78636    
   2671000   294.98057      0.0074373588   9.1593488      731.85491     -17.373542      714.48137    
   2672000   308.97268      0.0074373588   4.1996377      766.56974     -12.924239      753.6455     
   2673000   293.92623      0.0074373588   7.5112767      729.23907     -15.537767      713.7013     
   2674000   304.51368      0.0074373588   0.99381887     755.50683     -14.365905      741.14093    
   2675000   299.79808      0.0074373588   2.4228247      743.8073      -16.794945      727.01235    
   2676000   292.25752      0.0074373588   6.5362761      725.09897     -16.615061      708.48391    
   2677000   291.85369      0.0074373588   5.2708017      724.09705     -16.222859      707.87419    
   2678000   301.28759      0.0074373588   3.877981       747.50282     -14.679752      732.82306    
   2679000   305.72212      0.0074373588   3.9697361      758.50501     -13.073367      745.43165    
   2680000   290.56666      0.0074373588   3.8919947      720.90389     -14.460937      706.44295    
   2681000   285.9082       0.0074373588   5.1310395      709.34612     -13.593912      695.75221    
   2682000   308.62079      0.0074373588   3.7829702      765.69669     -15.346174      750.35051    
   2683000   312.51305      0.0074373588   3.513344       775.3535      -14.80945       760.54405    
   2684000   290.93464      0.0074373588   4.2254017      721.81686     -17.000938      704.81592    
   2685000   300.53112      0.0074373588   4.1483038      745.62599     -17.569109      728.05688    
   2686000   311.60342      0.0074373588   3.3955481      773.09667     -14.882183      758.21449    
   2687000   295.13159      0.0074373588   2.3074131      732.22961     -12.906184      719.32342    
   2688000   299.51483      0.0074373588   2.9709859      743.10454     -14.605127      728.49941    
   2689000   307.05029      0.0074373588   4.9621286      761.80024     -12.742554      749.05768    
   2690000   303.48947      0.0074373588   4.5394453      752.96574     -13.56012       739.40562    
   2691000   298.3831       0.0074373588   2.5188394      740.29671     -15.106741      725.18997    
   2692000   304.51372      0.0074373588   3.1808535      755.50694     -15.69005       739.81689    
   2693000   313.47812      0.0074373588   7.4979094      777.74786     -12.8516        764.89626    
   2694000   305.51804      0.0074373588   4.3663061      757.99869     -13.187242      744.81145    
   2695000   305.42375      0.0074373588   3.6761664      757.76474     -13.431477      744.33327    
   2696000   296.90315      0.0074373588   3.910186       736.62491     -15.337979      721.28693    
   2697000   303.86073      0.0074373588   6.1545768      753.88685     -16.692848      737.194      
   2698000   306.8693       0.0074373588   3.5880596      761.35119     -18.00648       743.34471    
   2699000   293.53995      0.0074373588   1.8968595      728.28071     -14.890458      713.39025    
   2700000   305.10598      0.0074373588   5.0403711      756.97634     -15.94817       741.02817    
   2701000   297.73046      0.0074373588   5.183461       738.67748     -18.589947      720.08753    
   2702000   298.86969      0.0074373588   4.6729202      741.50394     -17.209372      724.29457    
   2703000   300.02235      0.0074373588   0.34976396     744.36373     -16.15483       728.20889    
   2704000   303.14481      0.0074373588   5.1271952      752.11063     -16.215008      735.89562    
   2705000   287.93946      0.0074373588   6.5984829      714.38574     -16.614768      697.77097    
   2706000   306.27091      0.0074373588   1.6234699      759.86656     -11.948356      747.91821    
   2707000   308.77448      0.0074373588   7.8612712      766.078       -11.670924      754.40708    
   2708000   282.47995      0.0074373588   11.454211      700.84054     -11.589606      689.25094    
   2709000   278.21518      0.0074373588   4.2495696      690.25952     -11.403116      678.8564     
   2710000   296.48903      0.0074373588   0.55433801     735.59746     -13.737512      721.85995    
   2711000   313.55908      0.0074373588   1.1058998      777.94872     -14.664068      763.28465    
   2712000   300.2279       0.0074373588   6.0893939      744.87369     -15.419947      729.45374    
   2713000   293.46485      0.0074373588   5.1186001      728.09438     -15.520148      712.57423    
   2714000   302.38084      0.0074373588   3.100857       750.21519     -13.710876      736.50431    
   2715000   304.97675      0.0074373588   3.2160527      756.65574     -12.951584      743.70415    
   2716000   291.75957      0.0074373588   10.032713      723.86355     -14.865427      708.99812    
   2717000   289.64996      0.0074373588   4.2937871      718.62954     -13.472035      705.1575     
   2718000   299.52823      0.0074373588   3.0431766      743.13779     -11.951884      731.18591    
   2719000   312.34366      0.0074373588  -1.0229446      774.93322     -13.153792      761.77943    
   2720000   304.4785       0.0074373588   5.7217053      755.41954     -11.906493      743.51305    
   2721000   296.33455      0.0074373588   8.4339845      735.2142      -14.743456      720.47074    
   2722000   300.11715      0.0074373588   1.7029677      744.59893     -15.935969      728.66296    
   2723000   299.7352       0.0074373588   0.76773791     743.6513      -13.752302      729.89899    
   2724000   303.42895      0.0074373588   2.1391557      752.81558     -15.014231      737.80135    
   2725000   295.04765      0.0074373588   6.7465722      732.02135     -11.563025      720.45833    
   2726000   297.23281      0.0074373588   2.4481477      737.4428      -12.132821      725.30998    
   2727000   298.60765      0.0074373588   1.5545789      740.85381     -13.957245      726.89657    
   2728000   300.92514      0.0074373588   4.0113333      746.60358     -14.585896      732.01768    
   2729000   310.12123      0.0074373588   5.7784817      769.41933     -12.920284      756.49904    
   2730000   300.57585      0.0074373588   6.8754163      745.73697     -15.226238      730.51073    
   2731000   299.70288      0.0074373588   3.6363007      743.57111     -12.435703      731.13541    
   2732000   303.34482      0.0074373588   3.5698784      752.60686     -13.559765      739.04709    
   2733000   302.72805      0.0074373588   5.8060748      751.07663     -15.774793      735.30184    
   2734000   297.51165      0.0074373588   4.7163313      738.13461     -17.327845      720.80677    
   2735000   304.17655      0.0074373588   4.3699464      754.6704      -14.777789      739.89261    
   2736000   294.73246      0.0074373588   1.7714391      731.23936     -15.245502      715.99386    
   2737000   303.45299      0.0074373588   6.5570317      752.87524     -14.407168      738.46807    
   2738000   302.17252      0.0074373588   4.700229       749.69835     -14.518488      735.17986    
   2739000   299.30324      0.0074373588   4.2097993      742.5796      -11.695239      730.88436    
   2740000   295.84571      0.0074373588   3.9361894      734.00136     -10.219558      723.78181    
   2741000   305.28815      0.0074373588   4.0304925      757.42831     -10.418964      747.00935    
   2742000   311.05138      0.0074373588   5.017843       771.72706     -10.424359      761.3027     
   2743000   302.09144      0.0074373588   5.2157645      749.49719     -16.585965      732.91123    
   2744000   285.86272      0.0074373588   3.9954207      709.23328     -13.185351      696.04793    
   2745000   296.55156      0.0074373588   4.0832324      735.75259     -16.463281      719.28931    
   2746000   317.39584      0.0074373588   4.1845647      787.46782     -13.836533      773.63129    
   2747000   302.66286      0.0074373588   4.7099881      750.91491     -15.877108      735.0378     
   2748000   290.76245      0.0074373588   4.2100919      721.38966     -15.760916      705.62874    
   2749000   301.72464      0.0074373588   4.1594673      748.58714     -15.448793      733.13835    
   2750000   305.29169      0.0074373588   3.686205       757.43709     -13.207957      744.22913    
   2751000   292.99331      0.0074373588   5.2296633      726.92448     -14.751497      712.17299    
   2752000   291.22851      0.0074373588   3.8427211      722.54597     -14.046995      708.49898    
   2753000   312.59487      0.0074373588   3.6943525      775.55648     -13.766334      761.79014    
   2754000   303.68693      0.0074373588   4.3260783      753.45565     -17.428341      736.02731    
   2755000   286.56665      0.0074373588   4.2210503      710.97976     -16.123927      694.85583    
   2756000   297.62619      0.0074373588   4.0074375      738.41879     -16.271221      722.14757    
   2757000   311.91783      0.0074373588   4.1388289      773.87674     -13.330646      760.54609    
   2758000   302.06901      0.0074373588   3.6368415      749.44154     -14.145778      735.29576    
   2759000   294.19266      0.0074373588   3.9737909      729.9001      -11.378462      718.52163    
   2760000   303.66         0.0074373588   3.7302026      753.38883     -11.956509      741.43232    
   2761000   303.97911      0.0074373588   2.8909018      754.18054     -12.578341      741.6022     
   2762000   294.50803      0.0074373588   4.8428514      730.68254     -14.154423      716.52812    
   2763000   304.00596      0.0074373588   4.1386616      754.24717     -13.813024      740.43415    
   2764000   290.45393      0.0074373588   3.5441015      720.62421     -12.589688      708.03453    
   2765000   290.22829      0.0074373588   4.7902236      720.06438     -12.862352      707.20203    
   2766000   306.42403      0.0074373588   4.6200753      760.24647     -13.188641      747.05783    
   2767000   313.07277      0.0074373588   2.8396147      776.74217     -15.204313      761.53785    
   2768000   292.42612      0.0074373588   3.7149159      725.51727     -12.843921      712.67335    
   2769000   294.48631      0.0074373588   7.3591857      730.62866     -12.804529      717.82413    
   2770000   310.84489      0.0074373588   4.6630237      771.21474     -13.410622      757.80412    
   2771000   310.45182      0.0074373588   4.1962588      770.23953     -9.7018328      760.5377     
   2772000   287.68307      0.0074373588   3.1743128      713.74963     -9.3233178      704.42632    
   2773000   294.77136      0.0074373588   4.8158782      731.33588     -8.9636874      722.37219    
   2774000   304.99963      0.0074373588   6.7420424      756.71249     -9.7770062      746.93549    
   2775000   306.89264      0.0074373588   3.8958294      761.4091      -13.158426      748.25067    
   2776000   285.50369      0.0074373588   2.9622307      708.34251     -6.8300442      701.51247    
   2777000   293.10601      0.0074373588   5.4046795      727.20409     -10.493899      716.7102     
   2778000   313.54759      0.0074373588   7.460978       777.92022     -9.6068344      768.31338    
   2779000   305.56154      0.0074373588   6.9180312      758.10659     -9.9052235      748.20137    
   2780000   294.54173      0.0074373588   4.555905       730.76616     -9.1499918      721.61617    
   2781000   305.1898       0.0074373588   4.0739643      757.1843      -12.261707      744.92259    
   2782000   302.63706      0.0074373588   4.0445295      750.85089     -8.873725       741.97716    
   2783000   288.30058      0.0074373588   4.5046009      715.28169     -10.912966      704.36872    
   2784000   292.09151      0.0074373588   4.41409        724.6871      -8.1499022      716.53719    
   2785000   308.08165      0.0074373588   3.4124331      764.35906     -9.8958389      754.46322    
   2786000   301.01769      0.0074373588   4.2995176      746.83318     -10.400151      736.43303    
   2787000   301.14085      0.0074373588   4.2961278      747.13876     -7.7638669      739.37489    
   2788000   298.00027      0.0074373588   4.1137811      739.34688     -11.47666       727.87022    
   2789000   306.26734      0.0074373588   4.221967       759.85772     -7.7779897      752.07973    
   2790000   304.62576      0.0074373588   4.2469479      755.78492     -12.18617       743.59875    
   2791000   313.24907      0.0074373588   4.2929904      777.17959     -12.06382       765.11577    
   2792000   307.26333      0.0074373588   3.9762551      762.32878     -12.614197      749.71458    
   2793000   289.25312      0.0074373588   4.154348       717.64497     -10.768037      706.87693    
   2794000   297.57946      0.0074373588   4.3505065      738.30285     -13.404028      724.89882    
   2795000   301.89867      0.0074373588   5.0203397      749.01892     -12.309021      736.7099     
   2796000   304.55869      0.0074373588   3.8941615      755.61849     -11.272493      744.346      
   2797000   302.81438      0.0074373588   4.0584755      751.29083     -12.653639      738.63719    
   2798000   288.59182      0.0074373588   4.2921719      716.00427     -12.708938      703.29533    
   2799000   303.32132      0.0074373588   4.1961114      752.54855     -11.96344       740.58511    
   2800000   299.93626      0.0074373588   3.9498768      744.15014     -12.048738      732.1014     
   2801000   291.20609      0.0074373588   4.0753972      722.49033     -11.485661      711.00466    
   2802000   285.40993      0.0074373588   5.6098879      708.10989     -10.509516      697.60038    
   2803000   305.74233      0.0074373588   4.3767916      758.55514     -12.322411      746.23273    
   2804000   319.61715      0.0074373588   2.3922791      792.97897     -11.531902      781.44707    
   2805000   302.86825      0.0074373588   3.5178192      751.42447     -11.448122      739.97635    
   2806000   286.87915      0.0074373588   4.5306384      711.75508     -11.70959       700.04549    
   2807000   298.02309      0.0074373588   5.1372362      739.40349     -13.803405      725.60009    
   2808000   309.96352      0.0074373588   2.318821       769.02804     -10.093835      758.9342     
   2809000   290.82269      0.0074373588   2.9884363      721.53911     -12.112382      709.42672    
   2810000   298.11771      0.0074373588   7.1490972      739.63825     -11.923298      727.71496    
   2811000   312.95803      0.0074373588   1.6964002      776.45749     -13.447615      763.00988    
   2812000   295.36633      0.0074373588  -0.87204598     732.81202     -11.337854      721.47416    
   2813000   294.807        0.0074373588   3.8773215      731.4243      -10.913693      720.5106     
   2814000   305.91115      0.0074373588   5.2519411      758.974       -12.671146      746.30285    
   2815000   304.44753      0.0074373588   3.6006401      755.34271     -12.168704      743.174      
   2816000   290.94501      0.0074373588   3.9660354      721.8426      -11.121833      710.72077    
   2817000   303.85583      0.0074373588   5.0692443      753.87468     -10.875655      742.99903    
   2818000   308.18748      0.0074373588   4.3597654      764.62163     -13.205795      751.41584    
   2819000   313.88598      0.0074373588   4.268995       778.75977     -10.414452      768.34532    
   2820000   294.40268      0.0074373588   3.965852       730.42117     -12.95025       717.47092    
   2821000   294.43798      0.0074373588   5.3156005      730.50875     -11.658602      718.85014    
   2822000   310.67765      0.0074373588   3.5308064      770.79981     -12.867879      757.93193    
   2823000   297.7088       0.0074373588   2.8275833      738.62374     -12.201632      726.42211    
   2824000   288.36352      0.0074373588   4.6972375      715.43784     -13.868611      701.56922    
   2825000   293.86782      0.0074373588   4.6745107      729.09417     -16.598859      712.49531    
   2826000   312.13637      0.0074373588   4.5069762      774.41894     -15.572208      758.84673    
   2827000   280.23918      0.0074373588   3.2696698      695.28112     -20.643468      674.63765    
   2828000   293.8147       0.0074373588   4.3087989      728.96238     -19.93753       709.02485    
   2829000   312.36899      0.0074373588   4.0862768      774.99607     -18.700234      756.29583    
   2830000   296.55618      0.0074373588   3.4387665      735.76407     -20.664046      715.10002    
   2831000   292.91571      0.0074373588   4.0040848      726.73196     -15.396006      711.33595    
   2832000   299.71422      0.0074373588   3.9164254      743.59924     -17.446141      726.1531     
   2833000   305.58474      0.0074373588   4.5581262      758.16417     -13.168368      744.9958     
   2834000   306.29638      0.0074373588   5.5273509      759.92976     -16.639439      743.29032    
   2835000   293.30209      0.0074373588   2.4653104      727.69056     -12.615883      715.07468    
   2836000   304.37001      0.0074373588   3.7655603      755.15039     -11.684572      743.46582    
   2837000   307.37477      0.0074373588   3.9759824      762.60529     -12.112313      750.49297    
   2838000   304.74987      0.0074373588   6.6314089      756.09282     -12.421755      743.67107    
   2839000   282.08267      0.0074373588   5.5509958      699.85488     -14.882752      684.97213    
   2840000   289.18695      0.0074373588   0.89078698     717.48079     -11.796789      705.684      
   2841000   301.51406      0.0074373588   2.8461836      748.0647      -12.477326      735.58737    
   2842000   304.64503      0.0074373588   4.1690498      755.83271     -15.46563       740.36708    
   2843000   296.8426       0.0074373588   4.8429762      736.47468     -16.096636      720.37804    
   2844000   282.87115      0.0074373588   3.9661835      701.81112     -16.084073      685.72704    
   2845000   303.56851      0.0074373588   4.084061       753.16184     -13.520337      739.6415     
   2846000   306.9616       0.0074373588   4.4709678      761.58018     -13.88704       747.69314    
   2847000   303.61474      0.0074373588   5.4956164      753.27655     -11.569644      741.7069     
   2848000   297.50733      0.0074373588   3.9735455      738.12388     -12.81719       725.30669    
   2849000   303.73758      0.0074373588   3.5400443      753.58132     -16.761273      736.82005    
   2850000   303.95331      0.0074373588   3.1697905      754.11653     -18.374526      735.742      
   2851000   299.13976      0.0074373588   5.7727386      742.17399     -16.715158      725.45883    
   2852000   292.75302      0.0074373588   3.8021994      726.32831     -17.463305      708.86501    
   2853000   302.80752      0.0074373588   3.7816818      751.2738      -16.944249      734.32955    
   2854000   307.14912      0.0074373588   6.0556386      762.04543     -13.359488      748.68595    
   2855000   294.52831      0.0074373588   4.1780287      730.73287     -14.427251      716.30561    
   2856000   297.51786      0.0074373588   3.5387477      738.15001     -14.07543       724.07458    
   2857000   308.45836      0.0074373588   3.6576485      765.29369     -14.168844      751.12485    
   2858000   305.92508      0.0074373588   3.5567768      759.00856     -15.297019      743.71154    
   2859000   277.18136      0.0074373588   4.6456167      687.69458     -15.584443      672.11014    
   2860000   279.53291      0.0074373588   4.2502492      693.52885     -12.227895      681.30096    
   2861000   306.81575      0.0074373588   5.7858397      761.21833     -15.164685      746.05364    
   2862000   304.42132      0.0074373588   2.1320734      755.2777      -11.930553      743.34714    
   2863000   292.7626       0.0074373588   5.8579623      726.35208     -14.563401      711.78868    
   2864000   288.99527      0.0074373588   6.1661181      717.00524     -13.944842      703.0604     
   2865000   302.0631       0.0074373588   4.4299418      749.42687     -13.769161      735.65771    
   2866000   319.20898      0.0074373588   3.2759505      791.96627     -13.407225      778.55905    
   2867000   298.59744      0.0074373588   3.5031475      740.82849     -13.569851      727.25864    
   2868000   290.19664      0.0074373588   5.0695376      719.98586     -13.923663      706.06219    
   2869000   308.86864      0.0074373588   5.2107578      766.31162     -13.997695      752.31393    
   2870000   304.7754       0.0074373588   2.924702       756.15618     -14.747372      741.40881    
   2871000   288.53298      0.0074373588   7.2507517      715.85828     -12.752157      703.10612    
   2872000   300.79376      0.0074373588   7.7219989      746.27761     -12.52951       733.7481     
   2873000   303.11348      0.0074373588   3.418209       752.03291     -13.891331      738.14158    
   2874000   309.17309      0.0074373588   1.139578       767.06695     -12.066024      755.00092    
   2875000   309.63856      0.0074373588  -7.1322766      768.2218      -13.632682      754.58911    
   2876000   292.85572      0.0074373588  -0.71859738     726.58311     -15.507383      711.07572    
   2877000   292.32639      0.0074373588   6.1057789      725.26982     -13.773747      711.49608    
   2878000   304.38984      0.0074373588   10.226306      755.19958     -13.804447      741.39514    
   2879000   309.11282      0.0074373588   5.4816949      766.91744     -14.157886      752.75955    
   2880000   302.60169      0.0074373588  -1.6124018      750.76312     -13.493776      737.26935    
   2881000   283.99768      0.0074373588   9.6123         704.60607     -10.837763      693.76831    
   2882000   309.22085      0.0074373588   4.6603551      767.18546     -10.086427      757.09904    
   2883000   306.4961       0.0074373588  -1.4043858      760.42527     -11.500114      748.92516    
   2884000   292.51947      0.0074373588   3.245965       725.74887     -8.9579691      716.7909     
   2885000   302.01328      0.0074373588   6.3469935      749.30328     -10.627203      738.67608    
   2886000   293.61448      0.0074373588   3.9056639      728.46561     -13.96246       714.50315    
   2887000   303.47967      0.0074373588   2.6588053      752.94143     -14.911878      738.02955    
   2888000   300.07951      0.0074373588   3.256495       744.50553     -12.303557      732.20198    
   2889000   294.80973      0.0074373588   5.0570324      731.43106     -13.774935      717.65612    
   2890000   297.53061      0.0074373588   4.1748524      738.18164     -10.602011      727.57963    
   2891000   308.73635      0.0074373588   4.5172254      765.9834      -9.6878611      756.29554    
   2892000   308.72671      0.0074373588  -1.6170141      765.95947     -10.925611      755.03386    
   2893000   301.09273      0.0074373588  -1.8660523      747.01937     -9.0165314      738.00284    
   2894000   289.90756      0.0074373588   5.9913621      719.26864     -8.9378927      710.33075    
   2895000   305.99066      0.0074373588   11.602038      759.17126     -8.9696581      750.2016     
   2896000   316.89666      0.0074373588   4.9671214      786.22934     -9.9179809      776.31136    
   2897000   308.43223      0.0074373588  -1.1263595      765.22887     -8.9634987      756.26537    
   2898000   286.58429      0.0074373588   5.2842048      711.02353     -11.020026      700.00351    
   2899000   308.94695      0.0074373588   5.70299        766.50591     -16.242558      750.26335    
   2900000   310.33557      0.0074373588   2.2467466      769.95111     -13.352189      756.59892    
   2901000   299.9443       0.0074373588   3.8890757      744.17007     -13.508936      730.66114    
   2902000   290.37159      0.0074373588   4.9541156      720.41992     -9.1757136      711.2442     
   2903000   298.90201      0.0074373588   4.5436793      741.58412     -11.298176      730.28594    
   2904000   305.81498      0.0074373588   4.2288118      758.73538     -12.207053      746.52833    
   2905000   304.19517      0.0074373588   4.5268338      754.71659     -7.8580131      746.85858    
   2906000   303.92259      0.0074373588   4.3034897      754.04033     -10.516811      743.52352    
   2907000   286.48438      0.0074373588   3.8787883      710.77563     -12.864992      697.91064    
   2908000   293.74213      0.0074373588   3.4536299      728.78233     -12.59157       716.19076    
   2909000   313.1678       0.0074373588   2.5587452      776.97793     -12.630261      764.34767    
   2910000   312.46167      0.0074373588   5.5606539      775.226       -10.013084      765.21292    
   2911000   301.66327      0.0074373588   4.7550117      748.43488     -16.057481      732.3774     
   2912000   289.10613      0.0074373588   1.8566075      717.28027     -12.648618      704.63165    
   2913000   304.35666      0.0074373588   3.8125246      755.11726     -15.256314      739.86095    
   2914000   301.94792      0.0074373588   6.9685243      749.14111     -14.540548      734.60056    
   2915000   286.68018      0.0074373588   4.2502368      711.26143     -13.069598      698.19183    
   2916000   298.29359      0.0074373588   3.3103732      740.07462     -13.722344      726.35228    
   2917000   314.4574       0.0074373588   0.29175286     780.17747     -11.667639      768.50983    
   2918000   311.02488      0.0074373588   5.0532336      771.66129     -13.330059      758.33123    
   2919000   283.91623      0.0074373588   3.7650865      704.40399     -13.233639      691.17035    
   2920000   294.65323      0.0074373588   3.2328229      731.04278     -12.539327      718.50345    
   2921000   298.63958      0.0074373588   4.1975741      740.93302     -13.495241      727.43778    
   2922000   298.03145      0.0074373588   4.2925934      739.42423     -16.892908      722.53133    
   2923000   292.13154      0.0074373588   3.8474069      724.78641     -15.003245      709.78316    
   2924000   306.90015      0.0074373588   3.8736882      761.42772     -13.210742      748.21698    
   2925000   312.08276      0.0074373588   4.4858264      774.28594     -15.019819      759.26612    
   2926000   294.3235       0.0074373588   4.0828337      730.22473     -14.310142      715.91458    
   2927000   289.32648      0.0074373588   4.6877538      717.82696     -14.136764      703.6902     
   2928000   303.94592      0.0074373588   3.8018333      754.0982      -13.735933      740.36227    
   2929000   298.70339      0.0074373588   3.6697577      741.09133     -17.830621      723.26071    
   2930000   306.45211      0.0074373588   6.0264566      760.31612     -14.94532       745.3708     
   2931000   315.39038      0.0074373588   11.016184      782.49222     -12.936648      769.55557    
   2932000   293.18075      0.0074373588   6.364809       727.38953     -14.046419      713.34311    
   2933000   297.53257      0.0074373588   2.8884485      738.18652     -14.422826      723.76369    
   2934000   298.2458       0.0074373588   4.4753657      739.95606     -15.838562      724.1175     
   2935000   299.39846      0.0074373588   4.5550906      742.81583     -12.640522      730.17531    
   2936000   295.11303      0.0074373588   0.94443752     732.18357     -12.666732      719.51683    
   2937000   295.06427      0.0074373588   4.2854499      732.06259     -14.035474      718.02712    
   2938000   304.27288      0.0074373588   8.4150959      754.9094      -16.098945      738.81045    
   2939000   299.68214      0.0074373588  -1.0796955      743.51965     -16.557689      726.96196    
   2940000   307.63609      0.0074373588   2.0866509      763.25362     -19.932667      743.32095    
   2941000   298.3804       0.0074373588   5.6746039      740.29        -16.479223      723.81078    
   2942000   305.39659      0.0074373588   3.9310983      757.69737     -14.552184      743.14518    
   2943000   310.28444      0.0074373588   3.0518807      769.82424     -13.732579      756.09166    
   2944000   300.55291      0.0074373588   4.3907537      745.68005     -11.971087      733.70896    
   2945000   297.68562      0.0074373588   4.5011492      738.56622     -16.15901       722.40721    
   2946000   295.70951      0.0074373588   2.5707881      733.66344     -15.325135      718.33831    
   2947000   301.57667      0.0074373588   3.6945308      748.22004     -13.82114       734.3989     
   2948000   298.28595      0.0074373588   5.2028958      740.05566     -15.885043      724.17062    
   2949000   297.71028      0.0074373588   3.6412977      738.62741     -17.327208      721.3002     
   2950000   305.42853      0.0074373588   3.7974833      757.77661     -17.230186      740.54642    
   2951000   311.4943       0.0074373588   5.4979854      772.82594     -16.308857      756.51709    
   2952000   290.42199      0.0074373588   5.0249045      720.54496     -16.204541      704.34042    
   2953000   280.31844      0.0074373588   3.6438767      695.47777     -14.905339      680.57243    
   2954000   309.24264      0.0074373588   3.4483925      767.2395      -12.635735      754.60377    
   2955000   306.76308      0.0074373588   5.057091       761.08767     -11.666249      749.42142    
   2956000   292.53572      0.0074373588   4.4563555      725.78919     -11.281056      714.50814    
   2957000   297.2528       0.0074373588   2.8683634      737.49239     -12.294111      725.19828    
   2958000   305.47191      0.0074373588   5.5432086      757.88422     -13.593841      744.29038    
   2959000   290.07196      0.0074373588   4.1377946      719.67654     -15.425781      704.25076    
   2960000   298.46275      0.0074373588   3.0623759      740.4943      -14.411119      726.08318    
   2961000   310.48394      0.0074373588   4.1088084      770.31921     -12.27747       758.04174    
   2962000   298.61576      0.0074373588   3.5891568      740.87393     -14.72551       726.14842    
   2963000   296.77001      0.0074373588   4.1569132      736.29457     -12.636092      723.65847    
   2964000   299.14281      0.0074373588   5.0978376      742.18155     -15.200805      726.98075    
   2965000   311.18039      0.0074373588   5.2431604      772.04711     -16.488799      755.55831    
   2966000   313.1996       0.0074373588   1.8306013      777.05683     -14.466301      762.59053    
   2967000   283.94986      0.0074373588   4.0353287      704.48744     -16.133646      688.35379    
   2968000   294.35447      0.0074373588   5.255446       730.30154     -14.069484      716.23206    
   2969000   313.39956      0.0074373588   3.7695576      777.55295     -14.51083       763.04212    
   2970000   304.81194      0.0074373588   3.8985147      756.24682     -16.584695      739.66212    
   2971000   289.65914      0.0074373588   3.8210613      718.65232     -18.369758      700.28256    
   2972000   299.69128      0.0074373588   3.4357838      743.54233     -17.917184      725.62515    
   2973000   309.72292      0.0074373588   4.2215427      768.43111     -16.540359      751.89075    
   2974000   303.11057      0.0074373588   4.7322275      752.02567     -16.718268      735.30741    
   2975000   298.49982      0.0074373588   3.3382417      740.58627     -18.901826      721.68445    
   2976000   298.10141      0.0074373588   1.7343533      739.59781     -14.092138      725.50567    
   2977000   304.1073       0.0074373588   3.4815713      754.4986      -17.251378      737.24723    
   2978000   303.55009      0.0074373588   4.3772663      753.11614     -14.737764      738.37837    
   2979000   302.94183      0.0074373588   6.0323436      751.60703     -12.795526      738.8115     
   2980000   292.50601      0.0074373588   4.5368361      725.71548     -15.477581      710.23789    
   2981000   285.45127      0.0074373588   2.7639467      708.21247     -14.063978      694.14849    
   2982000   307.32706      0.0074373588   4.0313005      762.48692     -15.840794      746.64613    
   2983000   300.76517      0.0074373588   3.5086699      746.20667     -12.44037       733.7663     
   2984000   291.3609       0.0074373588   3.4765902      722.87441     -13.51361       709.3608     
   2985000   293.5622       0.0074373588   3.9404753      728.33591     -12.750055      715.58586    
   2986000   302.52257      0.0074373588   4.6606187      750.56683     -14.190165      736.37667    
   2987000   304.51128      0.0074373588   4.4895144      755.50089     -10.858243      744.64265    
   2988000   296.76367      0.0074373588   2.8226265      736.27885     -13.281159      722.99769    
   2989000   288.48507      0.0074373588   2.970255       715.73941     -16.01307       699.72634    
   2990000   303.35779      0.0074373588   5.2437891      752.63904     -16.102923      736.53612    
   2991000   313.19736      0.0074373588   5.2996862      777.05128     -17.308889      759.74239    
   2992000   300.81635      0.0074373588   1.9471861      746.33367     -16.172621      730.16105    
   2993000   289.461        0.0074373588   3.9635123      718.16072     -17.340986      700.81973    
   2994000   298.0504       0.0074373588   5.4750595      739.47125     -12.919987      726.55126    
   2995000   313.76459      0.0074373588   3.8736539      778.4586      -10.9108        767.5478     
   2996000   295.83406      0.0074373588   3.636127       733.97246     -12.842352      721.13011    
   2997000   293.64408      0.0074373588   2.2343858      728.53905     -15.125134      713.41392    
   2998000   307.41467      0.0074373588   6.4946029      762.70427     -12.80317       749.9011     
   2999000   305.95221      0.0074373588   4.2307132      759.07586     -15.158345      743.91752    
   3000000   296.30457      0.0074373588  -0.17917071     735.13981     -13.866995      721.27282    
   3001000   307.82642      0.0074373588   4.3832532      763.72584     -11.956483      751.76936    
   3002000   298.4747       0.0074373588   4.0794304      740.52397     -12.058458      728.46551    
   3003000   296.54171      0.0074373588   3.1910081      735.72815     -12.176567      723.55158    
   3004000   292.3047       0.0074373588   4.0447093      725.21602     -11.529171      713.68685    
   3005000   313.38227      0.0074373588   4.5641209      777.51005     -8.1838486      769.3262     
   3006000   306.11356      0.0074373588   3.6868175      759.47617     -13.831766      745.64441    
   3007000   283.58559      0.0074373588   3.9919632      703.58366     -13.553229      690.03043    
   3008000   298.03662      0.0074373588   4.6598633      739.43708     -13.67728       725.7598     
   3009000   304.07903      0.0074373588   4.1584294      754.42846     -14.679552      739.74891    
   3010000   303.19111      0.0074373588   5.0038373      752.22551     -17.619533      734.60597    
   3011000   294.66416      0.0074373588   3.1332982      731.0699      -18.355787      712.71411    
   3012000   318.46079      0.0074373588   5.0246255      790.11001     -19.340929      770.76908    
   3013000   323.37888      0.0074373588   3.3915022      802.31191     -18.500698      783.81121    
   3014000   294.77766      0.0074373588   5.5453235      731.35151     -17.816714      713.5348     
   3015000   280.66013      0.0074373588   4.0259165      696.32552     -17.398748      678.92677    
   3016000   294.20708      0.0074373588   3.1086905      729.93586     -17.705919      712.22994    
   3017000   311.41315      0.0074373588   5.5179053      772.62461     -12.616558      760.00805    
   3018000   301.36163      0.0074373588   5.927016       747.6865      -10.054973      737.63153    
   3019000   306.02119      0.0074373588   0.40258999     759.24702     -11.476704      747.77031    
   3020000   310.1191       0.0074373588   3.5386707      769.41404     -11.627086      757.78695    
   3021000   299.96751      0.0074373588   9.6396373      744.22766     -13.706151      730.52151    
   3022000   307.76718      0.0074373588   3.6293061      763.57886     -9.1792469      754.39961    
   3023000   313.21244      0.0074373588   3.727215       777.0887      -9.4479903      767.64071    
   3024000   311.23151      0.0074373588   4.5657444      772.17396     -9.5868953      762.58707    
   3025000   296.38006      0.0074373588   4.0876558      735.3271      -14.011841      721.31526    
   3026000   294.61829      0.0074373588   4.0885197      730.95609     -14.309797      716.64629    
   3027000   297.94294      0.0074373588   2.9748294      739.20464     -15.348869      723.85577    
   3028000   295.09633      0.0074373588   3.9446176      732.14213     -13.003704      719.13842    
   3029000   297.57637      0.0074373588   5.0770068      738.29517     -12.125783      726.16939    
   3030000   296.28941      0.0074373588   2.8129254      735.1022      -12.282738      722.81946    
   3031000   301.09738      0.0074373588   0.47798024     747.03089     -12.786239      734.24465    
   3032000   298.15575      0.0074373588   4.0480142      739.73262     -13.642984      726.08964    
   3033000   285.83191      0.0074373588   4.2455791      709.15686     -11.884227      697.27263    
   3034000   300.28099      0.0074373588   4.3461514      745.0054      -14.021085      730.98432    
   3035000   308.01586      0.0074373588   4.0065942      764.19585     -13.679524      750.51632    
   3036000   305.56343      0.0074373588   4.6966237      758.11129     -15.125834      742.98545    
   3037000   298.16064      0.0074373588   5.1644363      739.74476     -13.340675      726.40409    
   3038000   300.54471      0.0074373588   3.777532       745.65972     -12.759549      732.90017    
   3039000   300.1895       0.0074373588   3.8261448      744.77844     -13.12843       731.65       
   3040000   310.92367      0.0074373588   4.4157986      771.4102      -15.612047      755.79816    
   3041000   297.62461      0.0074373588   4.2183913      738.41487     -10.952784      727.46208    
   3042000   306.46525      0.0074373588   3.5527016      760.34874     -13.548661      746.80008    
   3043000   304.99602      0.0074373588   3.5769182      756.70353     -14.394428      742.3091     
   3044000   293.13444      0.0074373588   4.3191935      727.27463     -10.588416      716.68621    
   3045000   290.82413      0.0074373588   4.0069694      721.54268     -12.660569      708.88211    
   3046000   309.85754      0.0074373588   3.1944116      768.7651      -11.596408      757.16869    
   3047000   315.34515      0.0074373588   5.434329       782.38        -13.21679       769.16321    
   3048000   301.23002      0.0074373588   7.4607853      747.35998     -9.0431482      738.31684    
   3049000   285.563        0.0074373588   3.1305562      708.48967     -14.600226      693.88944    
   3050000   292.32268      0.0074373588   1.9303388      725.26063     -10.925183      714.33544    
   3051000   310.205        0.0074373588   5.0946983      769.62716     -11.359032      758.26813    
   3052000   309.60012      0.0074373588   8.7629555      768.12644     -14.387534      753.73891    
   3053000   293.2267       0.0074373588   5.7144431      727.50352     -14.122129      713.38139    
   3054000   302.69195      0.0074373588   2.6340725      750.98707     -13.161758      737.82531    
   3055000   309.59552      0.0074373588   4.7065062      768.11501     -14.913312      753.2017     
   3056000   298.82841      0.0074373588   4.8284119      741.40152     -15.834466      725.56706    
   3057000   297.12706      0.0074373588   3.9707389      737.18042     -13.530841      723.64958    
   3058000   293.70305      0.0074373588   3.4644838      728.68536     -13.923842      714.76152    
   3059000   309.88176      0.0074373588   2.6461759      768.82518     -11.52927       757.29591    
   3060000   304.36548      0.0074373588   4.6561419      755.13914     -9.8599661      745.27917    
   3061000   292.59509      0.0074373588   4.1784347      725.93649     -12.497331      713.43916    
   3062000   295.95668      0.0074373588   3.4267167      734.27668     -11.563426      722.71326    
   3063000   306.64418      0.0074373588   3.7281815      760.79267     -11.158511      749.63416    
   3064000   301.24511      0.0074373588   7.1149447      747.39742     -10.103654      737.29377    
   3065000   294.30669      0.0074373588   3.9009979      730.18301     -11.233922      718.94908    
   3066000   313.04739      0.0074373588   1.0671317      776.67919     -11.372325      765.30687    
   3067000   298.92347      0.0074373588   4.2693214      741.63738     -10.765543      730.87184    
   3068000   289.87177      0.0074373588   7.0440168      719.17984     -10.069686      709.11016    
   3069000   299.94811      0.0074373588   2.5418406      744.17952     -11.27388       732.90564    
   3070000   318.47141      0.0074373588   3.8270367      790.13636     -11.494662      778.64169    
   3071000   311.10234      0.0074373588   4.7143635      771.85348     -12.299957      759.55353    
   3072000   288.01078      0.0074373588   5.6950373      714.56267     -10.703275      703.8594     
   3073000   292.58223      0.0074373588   3.9404245      725.90457     -8.5659704      717.3386     
   3074000   299.27242      0.0074373588   3.0241376      742.50313     -9.5455099      732.95762    
   3075000   312.83287      0.0074373588   4.8809097      776.14696     -7.9425464      768.20442    
   3076000   293.21374      0.0074373588   5.0695191      727.47137     -10.812624      716.65875    
   3077000   291.34309      0.0074373588   2.6907769      722.83024     -8.8775003      713.95274    
   3078000   312.47167      0.0074373588   4.0759297      775.25083     -11.857926      763.39291    
   3079000   297.27158      0.0074373588   4.8532913      737.539       -11.937707      725.60129    
   3080000   282.57898      0.0074373588   3.07377        701.08625     -15.343348      685.7429     
   3081000   306.97244      0.0074373588   4.0504259      761.60708     -14.256323      747.35075    
   3082000   302.95157      0.0074373588   5.581758       751.63121     -13.25129       738.37992    
   3083000   286.61517      0.0074373588   3.4603373      711.10013     -10.614546      700.48558    
   3084000   299.72329      0.0074373588   2.7432327      743.62174     -13.481318      730.14042    
   3085000   315.83827      0.0074373588   5.2732857      783.60346     -15.589999      768.01346    
   3086000   292.91334      0.0074373588   4.4159575      726.72606     -9.2330264      717.49303    
   3087000   289.20825      0.0074373588   3.5212972      717.53364     -15.547583      701.98606    
   3088000   303.34039      0.0074373588   4.020871       752.59587     -11.455903      741.13996    
   3089000   304.51155      0.0074373588   4.2312673      755.50155     -13.370632      742.13092    
   3090000   303.59853      0.0074373588   5.0061036      753.23632     -11.80462       741.4317     
   3091000   282.13807      0.0074373588   3.1296905      699.99233     -13.428695      686.56364    
   3092000   304.70166      0.0074373588   3.7240253      755.97321     -8.8367127      747.13649    
   3093000   306.98967      0.0074373588   3.6891819      761.64982     -12.506783      749.14304    
   3094000   302.009        0.0074373588   4.4970626      749.29267     -8.5164277      740.77624    
   3095000   278.28745      0.0074373588   3.9303073      690.43884     -7.8257289      682.61312    
   3096000   303.24119      0.0074373588   4.1466461      752.34974     -8.9053207      743.44442    
   3097000   300.56145      0.0074373588   4.1521006      745.70123     -9.8807653      735.82047    
   3098000   294.04765      0.0074373588   4.403676       729.54032     -11.668762      717.87156    
   3099000   298.65817      0.0074373588   3.4366033      740.97915     -11.921349      729.0578     
   3100000   305.66295      0.0074373588   3.3042873      758.3582      -10.629878      747.72832    
   3101000   291.1629       0.0074373588   5.5835356      722.38318     -10.270522      712.11266    
   3102000   302.64903      0.0074373588   3.7267292      750.88058     -10.166001      740.71458    
   3103000   308.60212      0.0074373588   4.3377462      765.65037     -9.9565883      755.69379    
   3104000   302.67014      0.0074373588   4.2117109      750.93296     -9.8984301      741.03453    
   3105000   297.12904      0.0074373588   4.4475881      737.18533     -12.336607      724.84873    
   3106000   308.8144       0.0074373588   4.1625503      766.17704     -11.927013      754.25003    
   3107000   297.86036      0.0074373588   2.484375       738.99977     -15.293057      723.70671    
   3108000   301.27545      0.0074373588   5.6911112      747.47269     -10.693144      736.77955    
   3109000   303.61057      0.0074373588   4.3411367      753.26619     -11.223161      742.04303    
   3110000   302.93301      0.0074373588   3.2913193      751.58515     -8.9598997      742.62525    
   3111000   307.73876      0.0074373588   4.3762338      763.50835     -10.517923      752.99043    
   3112000   299.02641      0.0074373588   4.3802292      741.89276     -10.510536      731.38222    
   3113000   295.92527      0.0074373588   4.2638021      734.19875     -7.2246169      726.97414    
   3114000   289.14809      0.0074373588   4.1849861      717.38438     -10.706738      706.67764    
   3115000   306.49392      0.0074373588   3.6542793      760.41987     -12.393248      748.02663    
   3116000   309.98932      0.0074373588   3.8816305      769.09205     -11.71283       757.37921    
   3117000   294.82566      0.0074373588   3.0054279      731.47059     -12.279138      719.19145    
   3118000   285.01998      0.0074373588   3.7332989      707.14242     -14.06401       693.07841    
   3119000   300.21128      0.0074373588   0.83972991     744.83245     -14.904888      729.92756    
   3120000   310.74404      0.0074373588   4.7140876      770.96454     -13.619457      757.34508    
   3121000   292.85339      0.0074373588   4.0394652      726.57733     -14.200887      712.37644    
   3122000   300.75237      0.0074373588   3.979712       746.17492     -11.288712      734.8862     
   3123000   305.48018      0.0074373588   3.8775961      757.90476     -14.068738      743.83602    
   3124000   299.15202      0.0074373588   5.7891527      742.20442     -13.452383      728.75204    
   3125000   289.28562      0.0074373588   4.4049406      717.7256      -10.613519      707.11208    
   3126000   301.43495      0.0074373588   3.5305752      747.86841     -13.555894      734.31252    
   3127000   301.2955       0.0074373588   2.4055405      747.52243     -10.393306      737.12913    
   3128000   316.80772      0.0074373588   3.8904252      786.00869     -15.41939       770.5893     
   3129000   302.28793      0.0074373588   5.075583       749.98469     -12.305313      737.67937    
   3130000   292.70718      0.0074373588   3.5912315      726.21457     -12.4493        713.76527    
   3131000   306.58641      0.0074373588   3.145717       760.64933     -12.627045      748.02228    
   3132000   312.47178      0.0074373588   5.2480116      775.2511      -13.430111      761.82099    
   3133000   283.07878      0.0074373588   4.0561989      702.32626     -12.177275      690.14898    
   3134000   300.30168      0.0074373588   3.2370583      745.05675     -9.9507556      735.106      
   3135000   311.02844      0.0074373588   4.2979328      771.67013     -12.255151      759.41498    
   3136000   301.46687      0.0074373588   4.1100558      747.94762     -12.388609      735.55901    
   3137000   298.50481      0.0074373588   4.5048412      740.59865     -11.880028      728.71862    
   3138000   292.27549      0.0074373588   3.9295919      725.14354     -14.064342      711.0792     
   3139000   294.46648      0.0074373588   3.6151322      730.57944     -13.770301      716.80914    
   3140000   316.73247      0.0074373588   4.2728461      785.82199     -12.632481      773.18951    
   3141000   299.51568      0.0074373588   3.7623037      743.10667     -12.524484      730.58218    
   3142000   277.91423      0.0074373588   4.6813461      689.51287     -13.385319      676.12755    
   3143000   303.991        0.0074373588   5.2165544      754.21005     -14.369147      739.84091    
   3144000   317.82232      0.0074373588   3.3778869      788.52593     -14.761966      773.76396    
   3145000   293.40996      0.0074373588   3.1541554      727.9582      -17.045389      710.91281    
   3146000   291.94463      0.0074373588   4.3588291      724.32267     -16.410101      707.91257    
   3147000   300.64893      0.0074373588   3.9783168      745.91829     -19.115603      726.80269    
   3148000   310.69458      0.0074373588   4.4944359      770.84181     -16.522976      754.31883    
   3149000   293.78134      0.0074373588   3.7484507      728.87961     -14.473265      714.40634    
   3150000   298.8371       0.0074373588   4.592412       741.42308     -13.713117      727.70996    
   3151000   302.37747      0.0074373588   3.9073429      750.20684     -11.578289      738.62855    
   3152000   298.22611      0.0074373588   5.1369825      739.9072      -13.267339      726.63986    
   3153000   307.94674      0.0074373588   3.9321236      764.02435     -13.707228      750.31712    
   3154000   311.37515      0.0074373588   4.3068562      772.53032     -10.856095      761.67423    
   3155000   311.68031      0.0074373588   1.2265615      773.28743     -10.905437      762.382      
   3156000   295.97317      0.0074373588   3.3024246      734.31759     -15.212105      719.10549    
   3157000   285.41472      0.0074373588   5.1231358      708.12179     -15.43278       692.68901    
   3158000   309.85345      0.0074373588   4.1587332      768.75495     -16.131917      752.62304    
   3159000   297.87598      0.0074373588   1.4378797      739.03851     -12.672553      726.36596    
   3160000   294.83086      0.0074373588   4.4677939      731.48349     -11.746315      719.73717    
   3161000   310.06386      0.0074373588   4.34573        769.27699     -17.796087      751.4809     
   3162000   308.61359      0.0074373588   1.6868845      765.67883     -15.059808      750.61902    
   3163000   293.01691      0.0074373588   4.8162611      726.98303     -14.423539      712.55949    
   3164000   299.18656      0.0074373588   7.0963631      742.29011     -15.146375      727.14374    
   3165000   311.73875      0.0074373588   5.2622968      773.43244     -12.747868      760.68457    
   3166000   297.93352      0.0074373588   3.538399       739.18127     -11.956437      727.22484    
   3167000   283.79375      0.0074373588   3.7891225      704.10012     -12.248006      691.85212    
   3168000   298.91717      0.0074373588   4.9794717      741.62175     -9.989567       731.63218    
   3169000   312.89033      0.0074373588   2.7861088      776.28954     -13.413258      762.87628    
   3170000   295.82638      0.0074373588   2.3509379      733.95341     -11.335348      722.61806    
   3171000   298.86822      0.0074373588   5.2752971      741.5003      -11.522407      729.97789    
   3172000   310.98468      0.0074373588   6.2141959      771.56157     -11.659112      759.90246    
   3173000   307.96079      0.0074373588   2.3992448      764.0592      -14.241414      749.81779    
   3174000   298.66842      0.0074373588   4.6744558      741.00459     -12.461245      728.54334    
   3175000   307.49241      0.0074373588   4.9041155      762.89716     -13.115841      749.78132    
   3176000   298.47328      0.0074373588   4.0679549      740.52044     -16.193944      724.3265     
   3177000   296.77986      0.0074373588   3.8916139      736.319       -15.516052      720.80295    
   3178000   310.68314      0.0074373588   4.9598601      770.81344     -13.249087      757.56435    
   3179000   301.43429      0.0074373588   4.5379501      747.86678     -12.540358      735.32642    
   3180000   286.30505      0.0074373588   3.4809754      710.33072     -12.869078      697.46164    
   3181000   307.30949      0.0074373588   4.2075684      762.44332     -14.760321      747.683      
   3182000   313.83591      0.0074373588   4.5484983      778.63555     -12.429577      766.20598    
   3183000   294.25421      0.0074373588   3.5142177      730.05281     -14.180462      715.87235    
   3184000   294.29819      0.0074373588   4.5561557      730.16192     -10.464935      719.69698    
   3185000   306.75962      0.0074373588   3.8611725      761.07907     -13.620966      747.45811    
   3186000   290.99745      0.0074373588   4.188165       721.97269     -13.358547      708.61414    
   3187000   298.85241      0.0074373588   3.4368771      741.46106     -15.282438      726.17862    
   3188000   316.88024      0.0074373588   3.7749617      786.18861     -15.808633      770.37998    
   3189000   290.46709      0.0074373588   5.2673473      720.65685     -16.447155      704.2097     
   3190000   286.33703      0.0074373588   3.1398745      710.41007     -13.825425      696.58464    
   3191000   309.59744      0.0074373588   3.8070585      768.11979     -16.018538      752.10125    
   3192000   305.141        0.0074373588   5.4232946      757.06322     -12.485986      744.57724    
   3193000   305.08472      0.0074373588   4.3551321      756.9236      -12.174844      744.74876    
   3194000   298.4285       0.0074373588   2.8103102      740.40934     -13.993943      726.4154     
   3195000   304.78913      0.0074373588   4.2568543      756.19023     -14.342372      741.84786    
   3196000   313.92357      0.0074373588   4.7761103      778.85302     -17.305281      761.54774    
   3197000   302.92622      0.0074373588   3.8814437      751.5683      -15.811144      735.75716    
   3198000   303.55844      0.0074373588   1.380624       753.13685     -14.896284      738.24057    
   3199000   295.8221       0.0074373588   4.0900938      733.94279     -15.967641      717.97515    
   3200000   299.92608      0.0074373588   4.3974324      744.12488     -15.558088      728.56679    
   3201000   300.89711      0.0074373588   4.8733286      746.53402     -14.594227      731.9398     
   3202000   299.99085      0.0074373588   0.15377472     744.28558     -16.476566      727.80901    
   3203000   297.37559      0.0074373588   4.8914884      737.79704     -14.539322      723.25771    
   3204000   306.55141      0.0074373588   5.7570794      760.56249     -18.830369      741.73212    
   3205000   296.21301      0.0074373588   0.92573008     734.91265     -17.493386      717.41926    
   3206000   290.35787      0.0074373588   5.8756463      720.38589     -15.950073      704.43581    
   3207000   299.69015      0.0074373588   8.3150044      743.53953     -14.634251      728.90528    
   3208000   310.87276      0.0074373588   3.1593986      771.28387     -16.596343      754.68753    
   3209000   302.73731      0.0074373588   3.4182489      751.09961     -16.10884       734.99077    
   3210000   284.54453      0.0074373588   4.9571267      705.96282     -17.789904      688.17291    
   3211000   299.68363      0.0074373588   5.1147467      743.52334     -14.920878      728.60246    
   3212000   314.04016      0.0074373588   4.1855798      779.14231     -15.38622       763.75609    
   3213000   297.01395      0.0074373588   4.4030965      736.8998      -16.270867      720.62893    
   3214000   291.6528       0.0074373588   3.2510206      723.59864     -17.945286      705.65335    
   3215000   314.36272      0.0074373588   3.6673742      779.94256     -18.148629      761.79393    
   3216000   304.02898      0.0074373588   5.4670887      754.30429     -15.674674      738.62961    
   3217000   293.24991      0.0074373588   3.9008804      727.5611      -16.056158      711.50494    
   3218000   302.59666      0.0074373588   4.0010795      750.75064     -15.96223       734.78841    
   3219000   310.32761      0.0074373588   3.7877959      769.93134     -14.423274      755.50807    
   3220000   299.83715      0.0074373588   1.9840615      743.90423     -12.12923       731.775      
   3221000   293.04625      0.0074373588   4.6610031      727.05582     -13.106858      713.94897    
   3222000   309.52998      0.0074373588   5.5417732      767.95241     -16.603007      751.3494     
   3223000   310.13382      0.0074373588   3.9593409      769.45056     -16.864277      752.58629    
   3224000   283.07857      0.0074373588   4.7925885      702.32575     -15.08731       687.23844    
   3225000   299.08948      0.0074373588   5.3646198      742.04925     -14.891941      727.15731    
   3226000   295.65648      0.0074373588   4.1588472      733.53186     -15.331595      718.20027    
   3227000   301.76711      0.0074373588   6.3918972      748.69251     -18.398442      730.29407    
   3228000   294.62533      0.0074373588   4.0207138      730.97357     -14.257324      716.71625    
   3229000   296.35953      0.0074373588   3.1921593      735.27616     -13.65735       721.61881    
   3230000   313.11465      0.0074373588   4.2260107      776.84609     -16.483605      760.36248    
   3231000   303.47048      0.0074373588   4.2704426      752.91862     -17.455149      735.46347    
   3232000   289.09231      0.0074373588   4.0668092      717.246       -14.554823      702.69118    
   3233000   300.35992      0.0074373588   4.293065       745.20123     -18.871109      726.33012    
   3234000   311.5059       0.0074373588   3.9210192      772.85472     -15.454433      757.40029    
   3235000   295.95769      0.0074373588   2.889354       734.27918     -17.686314      716.59287    
   3236000   290.56026      0.0074373588   4.0907123      720.88802     -12.539735      708.34828    
   3237000   299.35828      0.0074373588   4.3943605      742.71616     -13.70849       729.00767    
   3238000   317.86918      0.0074373588   4.4394318      788.6422      -15.378678      773.26352    
   3239000   297.13209      0.0074373588   3.798525       737.1929      -17.110481      720.08242    
   3240000   290.37735      0.0074373588   3.5731257      720.43421     -15.292805      705.14141    
   3241000   285.40663      0.0074373588   4.8084705      708.10173     -13.469609      694.63212    
   3242000   315.04288      0.0074373588   4.6302554      781.63008     -15.002817      766.62726    
   3243000   299.97641      0.0074373588   4.1947621      744.24974     -11.522275      732.72747    
   3244000   280.07026      0.0074373588   4.8510477      694.86203     -11.239944      683.62208    
   3245000   311.59696      0.0074373588   5.2236003      773.08064     -13.454522      759.62612    
   3246000   304.79778      0.0074373588   2.8863364      756.21169     -10.070854      746.14084    
   3247000   288.96897      0.0074373588   5.0943827      716.93999     -11.736335      705.20366    
   3248000   294.87154      0.0074373588   4.0829413      731.58441     -16.625586      714.95883    
   3249000   306.21942      0.0074373588   2.7197966      759.73883     -13.328698      746.41013    
   3250000   298.61276      0.0074373588   3.9265614      740.86649     -17.462785      723.4037     
   3251000   292.09883      0.0074373588   5.3959         724.70525     -13.452882      711.25236    
   3252000   299.47948      0.0074373588   0.50341054     743.01685     -12.186988      730.82986    
   3253000   302.9833       0.0074373588   3.2096631      751.70993     -12.093321      739.6166     
   3254000   294.23636      0.0074373588   3.9706474      730.00853     -12.782255      717.22627    
   3255000   299.52617      0.0074373588   7.2996585      743.13268     -11.953211      731.17947    
   3256000   300.69397      0.0074373588   3.2032121      746.03003     -9.9921226      736.03791    
   3257000   285.67376      0.0074373588   3.482802       708.76447     -9.4373276      699.32714    
   3258000   299.86025      0.0074373588   6.1151042      743.96154     -12.84996       731.11158    
   3259000   296.06004      0.0074373588   5.4763813      734.53312     -16.349637      718.18348    
   3260000   301.97874      0.0074373588   5.7266555      749.21757     -14.274435      734.94313    
   3261000   307.46105      0.0074373588   2.5061813      762.81935     -12.225409      750.59394    
   3262000   283.40306      0.0074373588   4.4875262      703.1308      -10.071741      693.05906    
   3263000   294.4481       0.0074373588   4.645552       730.53385     -11.154014      719.37983    
   3264000   305.40301      0.0074373588   4.2027972      757.71327     -11.583737      746.12954    
   3265000   307.59133      0.0074373588   2.8100927      763.14257     -10.395127      752.74744    
   3266000   296.09592      0.0074373588   3.6516701      734.62214     -11.76682       722.85532    
   3267000   284.48976      0.0074373588   3.7292356      705.82693     -13.14467       692.68226    
   3268000   301.28411      0.0074373588   3.8044221      747.49417     -11.162696      736.33148    
   3269000   315.31295      0.0074373588   4.1447333      782.30013     -8.6057964      773.69433    
   3270000   300.52421      0.0074373588   5.8879663      745.60885     -8.3860155      737.22284    
   3271000   300.05172      0.0074373588   3.9019249      744.43658     -9.1499678      735.28661    
   3272000   303.27898      0.0074373588   3.2231486      752.4435      -12.078533      740.36497    
   3273000   300.93476      0.0074373588   4.2831291      746.62744     -12.665951      733.96149    
   3274000   288.27606      0.0074373588   3.7385237      715.22084     -11.233888      703.98695    
   3275000   303.0409       0.0074373588   3.82289        751.85284     -13.752131      738.10071    
   3276000   302.58248      0.0074373588   3.8236869      750.71549     -13.442018      737.27347    
   3277000   303.1746       0.0074373588   4.0159602      752.18455     -13.584522      738.60002    
   3278000   294.74463      0.0074373588   4.0622712      731.26955     -10.617538      720.65202    
   3279000   304.295        0.0074373588   3.0038337      754.96429     -14.01313       740.95116    
   3280000   311.17624      0.0074373588   4.9196189      772.03683     -15.361013      756.67582    
   3281000   292.05681      0.0074373588   3.9895256      724.601       -14.487958      710.11304    
   3282000   300.33223      0.0074373588   3.1996949      745.13255     -14.709684      730.42287    
   3283000   315.9016       0.0074373588   5.2036094      783.76057     -15.443865      768.31671    
   3284000   320.87901      0.0074373588   4.6203326      796.10966     -18.284493      777.82517    
   3285000   295.22536      0.0074373588   3.9431217      732.46224     -16.140232      716.32201    
   3286000   288.58802      0.0074373588   4.0392475      715.99483     -15.32305       700.67178    
   3287000   318.40705      0.0074373588   4.8266766      789.97666     -13.589821      776.38684    
   3288000   304.55521      0.0074373588   1.5303463      755.60987     -15.680313      739.92956    
   3289000   289.63509      0.0074373588   3.9986216      718.59265     -14.532116      704.06054    
   3290000   323.02638      0.0074373588   4.8026146      801.43736     -15.081619      786.35574    
   3291000   304.92982      0.0074373588   4.1455517      756.5393      -14.401761      742.13753    
   3292000   284.03133      0.0074373588   3.9351999      704.68955     -17.315266      687.37429    
   3293000   293.31955      0.0074373588   4.5694032      727.7339      -13.038962      714.69494    
   3294000   319.58585      0.0074373588   4.1284593      792.9013      -12.518139      780.38316    
   3295000   299.74657      0.0074373588   4.1184343      743.6795      -16.541971      727.13753    
   3296000   284.93296      0.0074373588   4.5030635      706.92653     -15.402523      691.524      
   3297000   297.61132      0.0074373588   3.910675       738.38188     -18.269077      720.1128     
   3298000   316.01546      0.0074373588   4.059817       784.04307     -17.952476      766.09059    
   3299000   296.44753      0.0074373588   4.1646564      735.49449     -13.743913      721.75058    
   3300000   288.35812      0.0074373588   3.8104787      715.42444     -13.259974      702.16447    
   3301000   301.02415      0.0074373588   4.238394       746.8492      -15.942145      730.90706    
   3302000   304.03722      0.0074373588   4.3769232      754.32472     -13.098457      741.22626    
   3303000   301.63777      0.0074373588   7.6518107      748.37162     -15.402639      732.96898    
   3304000   288.09261      0.0074373588   5.2800428      714.76571     -14.897973      699.86774    
   3305000   311.18768      0.0074373588   3.5210279      772.06521     -15.465107      756.60011    
   3306000   294.0238       0.0074373588   2.6929338      729.48116     -16.371838      713.10932    
   3307000   297.93806      0.0074373588   4.5456741      739.19254     -13.022223      726.17032    
   3308000   303.44788      0.0074373588   4.8710106      752.86257     -14.557174      738.30539    
   3309000   308.60579      0.0074373588   6.8235717      765.65946     -15.865943      749.79352    
   3310000   299.56246      0.0074373588   1.6737117      743.22272     -13.613499      729.60922    
   3311000   299.19808      0.0074373588   4.380821       742.31869     -13.923301      728.39539    
   3312000   301.6411       0.0074373588   6.2397138      748.37988     -16.588219      731.79166    
   3313000   308.4947       0.0074373588   6.5726322      765.38386     -13.405713      751.97815    
   3314000   291.64278      0.0074373588   1.4985006      723.57377     -12.56532       711.00845    
   3315000   305.05045      0.0074373588   1.8703262      756.83857     -9.5109642      747.3276     
   3316000   307.90275      0.0074373588   7.1612259      763.91521     -7.8143455      756.10087    
   3317000   288.01466      0.0074373588   8.1512979      714.57232     -8.4370641      706.13525    
   3318000   302.76539      0.0074373588   1.2082375      751.16928     -8.0889484      743.08033    
   3319000   300.46633      0.0074373588   1.8707435      745.46525     -10.191028      735.27422    
   3320000   320.94067      0.0074373588   5.5135019      796.26265     -9.4875635      786.77508    
   3321000   296.33875      0.0074373588   10.418507      735.22461     -12.711049      722.51356    
   3322000   290.20378      0.0074373588   3.0557332      720.00358     -13.461851      706.54172    
   3323000   300.48007      0.0074373588   3.5113256      745.49933     -13.231318      732.26801    
   3324000   305.05488      0.0074373588   4.898988       756.84957     -14.664042      742.18552    
   3325000   294.02688      0.0074373588   4.5174795      729.48879     -14.21087       715.27792    
   3326000   291.66345      0.0074373588   4.786516       723.62505     -11.58749       712.03756    
   3327000   302.40744      0.0074373588   2.7011534      750.28119     -11.540686      738.74051    
   3328000   301.42283      0.0074373588   9.3817353      747.83835     -12.075756      735.7626     
   3329000   298.60944      0.0074373588   1.5044847      740.85824     -12.795312      728.06293    
   3330000   308.49713      0.0074373588   4.0255604      765.38988     -13.720124      751.66976    
   3331000   283.75596      0.0074373588   8.7262158      704.00636     -15.351149      688.65521    
   3332000   301.96149      0.0074373588   0.93883096     749.17477     -11.578652      737.59612    
   3333000   311.10874      0.0074373588   3.0117404      771.86936     -12.818499      759.05087    
   3334000   299.54025      0.0074373588   5.1894942      743.16762     -11.078566      732.08906    
   3335000   295.56349      0.0074373588   5.5532312      733.30116     -13.635934      719.66523    
   3336000   294.30013      0.0074373588   3.8049624      730.16673     -13.154102      717.01263    
   3337000   293.67848      0.0074373588   3.3651899      728.62441     -14.360152      714.26426    
   3338000   309.90349      0.0074373588   4.398519       768.87911     -14.681809      754.1973     
   3339000   300.35214      0.0074373588   4.5163662      745.18195     -11.963152      733.21879    
   3340000   309.27007      0.0074373588   3.9401305      767.30757     -12.798852      754.50871    
   3341000   301.76124      0.0074373588   2.5508687      748.67795     -16.443286      732.23466    
   3342000   299.67692      0.0074373588   4.9653857      743.50671     -15.043116      728.46359    
   3343000   288.30592      0.0074373588   3.0648296      715.29493     -16.542826      698.7521     
   3344000   306.99889      0.0074373588   0.66055131     761.67272     -15.209672      746.46304    
   3345000   313.63041      0.0074373588   5.2894157      778.12569     -17.720923      760.40476    
   3346000   294.51602      0.0074373588   5.7928742      730.70236     -18.164488      712.53787    
   3347000   295.29165      0.0074373588   3.0590809      732.62673     -13.832996      718.79374    
   3348000   297.58534      0.0074373588   3.9840407      738.31743     -16.76785       721.54958    
   3349000   304.61582      0.0074373588   3.566687       755.76025     -18.452128      737.30813    
   3350000   312.68961      0.0074373588   4.1142429      775.79154     -16.359394      759.43214    
   3351000   296.12461      0.0074373588   3.8990352      734.69331     -19.076737      715.61658    
   3352000   289.79907      0.0074373588   4.1641941      718.99949     -17.92159       701.0779     
   3353000   310.24097      0.0074373588   3.5115399      769.71639     -16.216978      753.49941    
   3354000   300.72083      0.0074373588   6.0916905      746.09666     -14.9217        731.17496    
   3355000   285.291        0.0074373588   5.376767       707.81482     -12.836819      694.97801    
   3356000   289.06979      0.0074373588   0.422218       717.19011     -11.826062      705.36405    
   3357000   303.79372      0.0074373588   3.9718332      753.72058     -14.000147      739.72044    
   3358000   301.05833      0.0074373588   7.6762464      746.93401     -11.331476      735.60254    
   3359000   294.98569      0.0074373588   2.7807861      731.86763     -12.657051      719.21058    
   3360000   300.00888      0.0074373588   1.7411579      744.33029     -13.408813      730.92148    
   3361000   298.82285      0.0074373588   7.7299881      741.38773     -16.778718      724.60901    
   3362000   302.01582      0.0074373588   8.6391827      749.30958     -13.1352        736.17438    
   3363000   293.69326      0.0074373588   2.9651188      728.66108     -14.967438      713.69364    
   3364000   311.7373       0.0074373588   2.3462029      773.42883     -13.917323      759.5115     
   3365000   302.06283      0.0074373588   5.4814809      749.42621     -11.621142      737.80507    
   3366000   299.30804      0.0074373588   2.5959585      742.5915      -11.992249      730.59925    
   3367000   304.99349      0.0074373588   0.92120472     756.69726     -13.644841      743.05242    
   3368000   306.90684      0.0074373588   5.7394957      761.44434     -12.3832        749.06114    
   3369000   295.22564      0.0074373588   6.0114169      732.46294     -8.814054       723.64889    
   3370000   301.52912      0.0074373588   7.5856928      748.10206     -9.1754558      738.92661    
   3371000   295.23657      0.0074373588   1.9225882      732.49007     -9.4198429      723.07023    
   3372000   302.22124      0.0074373588   2.5594658      749.81922     -11.463299      738.35592    
   3373000   317.08384      0.0074373588   4.5158069      786.69374     -11.747485      774.94625    
   3374000   300.96911      0.0074373588   5.2413205      746.71266     -12.490741      734.22192    
   3375000   293.34281      0.0074373588   3.8663395      727.79159     -16.954137      710.83745    
   3376000   321.62438      0.0074373588   3.2388198      797.95896     -17.716842      780.24212    
   3377000   300.25636      0.0074373588   4.3060479      744.9443      -14.584197      730.3601     
   3378000   304.15928      0.0074373588   3.786702       754.62756     -13.962661      740.6649     
   3379000   291.82777      0.0074373588   3.4410584      724.03275     -10.772841      713.25991    
   3380000   297.29073      0.0074373588   5.3085166      737.58649     -10.450732      727.13575    
   3381000   296.3556       0.0074373588   4.1829643      735.26641     -13.923521      721.34289    
   3382000   299.04091      0.0074373588   4.5282749      741.92873     -14.248676      727.68006    
   3383000   291.40553      0.0074373588   4.0436582      722.98516     -11.861377      711.12378    
   3384000   310.71008      0.0074373588   4.1690521      770.88026     -12.688744      758.19152    
   3385000   307.74283      0.0074373588   2.9130033      763.51844     -13.067965      750.45048    
   3386000   294.25627      0.0074373588   3.9592493      730.05792     -17.766713      712.2912     
   3387000   307.04085      0.0074373588   4.0133972      761.7768      -15.545936      746.23086    
   3388000   304.4024       0.0074373588   4.6172472      755.23075     -15.109536      740.12121    
   3389000   298.3805       0.0074373588   4.3920897      740.29024     -13.262918      727.02732    
   3390000   305.53532      0.0074373588   2.0922303      758.04155     -15.257113      742.78444    
   3391000   301.74532      0.0074373588   3.8626722      748.63844     -12.879172      735.75927    
   3392000   303.94833      0.0074373588   6.5010327      754.10419     -15.708132      738.39606    
   3393000   300.2527       0.0074373588   4.3155399      744.93523     -11.584076      733.35116    
   3394000   309.635        0.0074373588   3.0133622      768.21298     -15.649928      752.56305    
   3395000   306.6176       0.0074373588   3.444017       760.72672     -18.951791      741.77493    
   3396000   290.8315       0.0074373588   4.3715         721.56098     -15.344035      706.21694    
   3397000   312.7138       0.0074373588   4.8797818      775.85156     -19.503412      756.34814    
   3398000   309.79211      0.0074373588   0.55866248     768.60277     -18.389098      750.21367    
   3399000   291.89101      0.0074373588   2.9198741      724.18965     -16.548266      707.64139    
   3400000   299.32838      0.0074373588   5.3351649      742.64196     -13.508701      729.13326    
   3401000   305.65347      0.0074373588   2.2416512      758.33468     -15.997384      742.3373     
   3402000   306.09104      0.0074373588   3.4975799      759.4203      -15.391484      744.02882    
   3403000   289.85228      0.0074373588   4.9131534      719.13149     -15.504776      703.62672    
   3404000   297.04268      0.0074373588   5.822316       736.97108     -12.759453      724.21162    
   3405000   310.23137      0.0074373588   3.930201       769.69257     -8.3200473      761.37252    
   3406000   301.27375      0.0074373588  -4.4540955      747.46847     -13.760117      733.70835    
   3407000   300.89685      0.0074373588   2.8347747      746.53337     -12.825841      733.70753    
   3408000   276.21533      0.0074373588   3.9423949      685.29785     -16.53179       668.76606    
   3409000   305.25788      0.0074373588   4.2718404      757.35322     -17.244514      740.1087     
   3410000   306.16441      0.0074373588   3.6571668      759.60233     -17.718796      741.88353    
   3411000   293.9742       0.0074373588   4.0137014      729.3581      -15.076571      714.28153    
   3412000   289.11411      0.0074373588   4.134203       717.30008     -15.722489      701.5776     
   3413000   302.3519       0.0074373588   5.1650236      750.14341     -17.572197      732.57121    
   3414000   302.22606      0.0074373588   4.1859067      749.83119     -19.086496      730.7447     
   3415000   314.07586      0.0074373588   4.6188163      779.23087     -15.87771       763.35316    
   3416000   293.02815      0.0074373588   4.5176149      727.01093     -18.20897       708.80196    
   3417000   293.01371      0.0074373588   3.8709372      726.97509     -17.098881      709.8762     
   3418000   311.64323      0.0074373588   4.572387       773.19543     -13.426438      759.769      
   3419000   296.67123      0.0074373588   1.7885973      736.0495      -15.295494      720.754      
   3420000   294.62587      0.0074373588   5.9617083      730.97491     -16.540188      714.43472    
   3421000   306.43535      0.0074373588   6.2580694      760.27454     -16.493909      743.78063    
   3422000   311.92984      0.0074373588   4.9752137      773.90653     -12.957508      760.94902    
   3423000   296.78797      0.0074373588   2.5891663      736.33913     -12.406259      723.93287    
   3424000   282.89105      0.0074373588   7.9809338      701.86048     -14.567002      687.29348    
   3425000   304.61877      0.0074373588   4.8897843      755.76757     -16.393614      739.37395    
   3426000   294.80534      0.0074373588  -7.1207668      731.42017     -13.197706      718.22246    
   3427000   291.85763      0.0074373588   6.5245675      724.10682     -11.424762      712.68206    
   3428000   311.82969      0.0074373588   4.8609454      773.65805     -10.23326       763.42479    
   3429000   301.31264      0.0074373588   3.576421       747.56496     -11.693521      735.87144    
   3430000   293.41441      0.0074373588   2.8415366      727.96923     -11.796194      716.17304    
   3431000   284.54157      0.0074373588   4.8402981      705.95548     -11.386861      694.56862    
   3432000   306.61005      0.0074373588   6.1947641      760.70798     -13.017623      747.69036    
   3433000   311.47856      0.0074373588   2.2137967      772.7869      -11.334284      761.45262    
   3434000   299.29385      0.0074373588   3.6773771      742.5563      -9.896065       732.66024    
   3435000   279.18465      0.0074373588   4.0087461      692.66482     -12.913065      679.75175    
   3436000   306.95503      0.0074373588   3.9755348      761.56388     -12.653494      748.91039    
   3437000   315.24027      0.0074373588   4.5991124      782.11981     -13.798506      768.3213     
   3438000   294.02056      0.0074373588   4.4052857      729.47312     -14.323291      715.14982    
   3439000   301.46001      0.0074373588   3.7838098      747.93059     -16.636167      731.29443    
   3440000   303.1122       0.0074373588   3.5436801      752.02973     -14.901722      737.128      
   3441000   307.79102      0.0074373588   4.4136209      763.63801     -15.099678      748.53834    
   3442000   287.46212      0.0074373588   3.7719824      713.20146     -15.955689      697.24577    
   3443000   293.52085      0.0074373588   4.8894607      728.23332     -18.443553      709.78977    
   3444000   312.60249      0.0074373588   4.6323983      775.57541     -17.012278      758.56313    
   3445000   299.45047      0.0074373588   3.9372649      742.94486     -14.836952      728.10791    
   3446000   300.36528      0.0074373588   2.7489976      745.21453     -17.359377      727.85515    
   3447000   296.0664       0.0074373588   4.3392156      734.54889     -17.391838      717.15705    
   3448000   293.22378      0.0074373588   4.7603205      727.49628     -20.931864      706.56441    
   3449000   297.3598       0.0074373588   4.1055947      737.75787     -17.966885      719.79098    
   3450000   314.0706       0.0074373588   4.6208634      779.21783     -13.107004      766.11082    
   3451000   306.00098      0.0074373588   5.7758074      759.19688     -15.628398      743.56848    
   3452000   289.02776      0.0074373588   3.3615379      717.08583     -13.39964       703.68619    
   3453000   291.62021      0.0074373588   3.4098901      723.51778     -13.79477       709.72301    
   3454000   305.88636      0.0074373588   3.8227389      758.9125      -14.073767      744.83873    
   3455000   305.73263      0.0074373588   4.4364003      758.53109     -14.248858      744.28223    
   3456000   297.35835      0.0074373588   4.2383745      737.75426     -13.721818      724.03244    
   3457000   291.31214      0.0074373588   4.1676781      722.75344     -12.948391      709.80505    
   3458000   298.91068      0.0074373588   1.3444876      741.60563     -12.484422      729.12121    
   3459000   322.46808      0.0074373588   6.9271314      800.0522      -10.10983       789.94237    
   3460000   296.00956      0.0074373588   10.203279      734.40787     -8.661          725.74687    
   3461000   295.89079      0.0074373588   4.471176       734.11321     -9.9083551      724.20485    
   3462000   305.44819      0.0074373588   6.3316812      757.82539     -10.292422      747.53296    
   3463000   307.72147      0.0074373588   4.7922395      763.46545     -10.931371      752.53408    
   3464000   299.89057      0.0074373588   1.2679037      744.03677     -10.325971      733.7108     
   3465000   294.84965      0.0074373588   7.4778265      731.5301      -12.11184       719.41826    
   3466000   291.62033      0.0074373588   5.2452871      723.51807     -12.642975      710.87509    
   3467000   305.43911      0.0074373588   1.4212314      757.80284     -12.889725      744.91312    
   3468000   301.91954      0.0074373588   3.9395646      749.07071     -12.649775      736.42093    
   3469000   298.00227      0.0074373588   5.2827867      739.35185     -14.66765       724.6842     
   3470000   302.90754      0.0074373588   2.9124953      751.52196     -15.069514      736.45244    
   3471000   300.74746      0.0074373588   2.4386032      746.16273     -12.035398      734.12734    
   3472000   301.51967      0.0074373588   4.4455013      748.07862     -11.876739      736.20188    
   3473000   295.27954      0.0074373588   6.4915885      732.59668     -14.492878      718.1038     
   3474000   292.40039      0.0074373588   5.7081931      725.45343     -11.889124      713.56431    
   3475000   283.91453      0.0074373588   1.1523118      704.39978     -15.520743      688.87903    
   3476000   316.75635      0.0074373588   4.9914583      785.88125     -12.920385      772.96086    
   3477000   307.88319      0.0074373588   6.5440869      763.86667     -13.405411      750.46126    
   3478000   291.65577      0.0074373588   6.5387149      723.60601     -17.783406      705.8226     
   3479000   282.6613       0.0074373588   3.3995049      701.29048     -14.004852      687.28562    
   3480000   295.18331      0.0074373588   4.3293689      732.35792     -14.696871      717.66105    
   3481000   306.49564      0.0074373588   3.6206554      760.42412     -13.932748      746.49137    
   3482000   306.8951       0.0074373588   3.8752419      761.41521     -17.460862      743.95435    
   3483000   287.32057      0.0074373588   3.8351261      712.85027     -17.841045      695.00922    
   3484000   286.27338      0.0074373588   4.276006       710.25214     -17.909896      692.34224    
   3485000   309.01777      0.0074373588   4.6687983      766.68161     -19.575443      747.10616    
   3486000   313.49669      0.0074373588   1.050887       777.79394     -13.621371      764.17257    
   3487000   284.05881      0.0074373588   3.4575407      704.75773     -12.282199      692.47553    
   3488000   289.66999      0.0074373588   4.2137579      718.67922     -13.132179      705.54704    
   3489000   313.20908      0.0074373588   5.7014577      777.08036     -11.302384      765.77798    
   3490000   301.03338      0.0074373588  -0.23322199     746.87211     -9.9797117      736.8924     
   3491000   299.23825      0.0074373588   0.75032534     742.41835     -10.193031      732.22532    
   3492000   288.86237      0.0074373588   3.9842548      716.67551     -13.592976      703.08254    
   3493000   305.14632      0.0074373588   6.6726794      757.07643     -14.037653      743.03877    
   3494000   304.70184      0.0074373588   2.6361771      755.97366     -10.923034      745.05063    
   3495000   290.39981      0.0074373588   6.7743703      720.48994     -13.060497      707.42944    
   3496000   296.72777      0.0074373588   4.4554405      736.18978     -13.201979      722.9878     
   3497000   300.82167      0.0074373588   3.8803574      746.34685     -15.408003      730.93884    
   3498000   303.18242      0.0074373588   1.5019816      752.20394     -13.346492      738.85745    
   3499000   301.14855      0.0074373588   4.3464287      747.15785     -14.538104      732.61974    
   3500000   290.22436      0.0074373588   5.5320325      720.05463     -13.90109       706.15354    
   3501000   311.13929      0.0074373588   6.9151037      771.94516     -13.741895      758.20327    
   3502000   300.89512      0.0074373588   2.6661791      746.52908     -18.500484      728.02859    
   3503000   298.1179       0.0074373588   4.0922953      739.63873     -18.517308      721.12142    
   3504000   313.99706      0.0074373588   4.3175983      779.03535     -16.330295      762.70506    
   3505000   290.97522      0.0074373588   4.1316771      721.91754     -15.509559      706.40798    
   3506000   288.27748      0.0074373588   3.932317       715.22437     -14.980693      700.24368    
   3507000   313.67249      0.0074373588   4.2444594      778.23008     -14.27174       763.95834    
   3508000   303.2462       0.0074373588   4.2883118      752.36218     -14.823887      737.53829    
   3509000   295.38247      0.0074373588   4.1330268      732.85206     -14.991242      717.86081    
   3510000   299.90171      0.0074373588   4.0783653      744.06442     -17.870577      726.19384    
   3511000   302.53742      0.0074373588   4.8640665      750.60368     -15.198477      735.40521    
   3512000   303.85649      0.0074373588   3.24066        753.87632     -15.367552      738.50877    
   3513000   295.15849      0.0074373588   3.150718       732.29634     -12.018067      720.27827    
   3514000   302.57798      0.0074373588   6.2117649      750.7043      -8.4743192      742.22999    
   3515000   307.06841      0.0074373588   0.33844678     761.84518     -9.2735722      752.57161    
   3516000   301.94977      0.0074373588   1.0122831      749.14571     -10.841568      738.30414    
   3517000   287.22047      0.0074373588   2.6671899      712.60189     -10.967159      701.63473    
   3518000   294.79221      0.0074373588   6.9857082      731.38759     -13.737509      717.65009    
   3519000   310.77175      0.0074373588   8.2434352      771.03327     -13.930954      757.10232    
   3520000   293.5309       0.0074373588  -1.8565927      728.25826     -10.96302       717.29524    
   3521000   292.11495      0.0074373588   0.30675431     724.74525     -10.520913      714.22434    
   3522000   302.16254      0.0074373588   12.176569      749.6736      -11.325603      738.348      
   3523000   303.39906      0.0074373588   3.4982134      752.74142     -16.786499      735.95493    
   3524000   300.82585      0.0074373588  -0.60035917     746.35723     -15.632598      730.72463    
   3525000   297.77211      0.0074373588   2.0771336      738.78082     -17.901504      720.87932    
   3526000   291.20725      0.0074373588   3.7456879      722.49321     -15.522418      706.97079    
   3527000   293.27874      0.0074373588   14.00603       727.63263     -15.841897      711.79074    
   3528000   315.21338      0.0074373588   3.4565899      782.05308     -15.745682      766.3074     
   3529000   304.93428      0.0074373588  -0.92200674     756.55036     -14.862766      741.68759    
   3530000   292.47152      0.0074373588   0.90137623     725.6299      -16.123664      709.50624    
   3531000   301.45338      0.0074373588   3.8605329      747.91413     -15.588844      732.32529    
   3532000   296.38376      0.0074373588   11.301821      735.33628     -18.580207      716.75607    
   3533000   306.46356      0.0074373588   1.7984577      760.34454     -18.125536      742.219      
   3534000   288.54239      0.0074373588   1.7829558      715.88163     -15.342324      700.53931    
   3535000   294.01542      0.0074373588   15.858946      729.46035     -16.478307      712.98205    
   3536000   311.80575      0.0074373588   2.854171       773.59865     -17.359995      756.23866    
   3537000   286.06199      0.0074373588  -1.8522561      709.72768     -14.181391      695.54629    
   3538000   292.87786      0.0074373588   4.7294626      726.63804     -14.870483      711.76756    
   3539000   299.07448      0.0074373588   8.5053768      742.01203     -14.551723      727.46031    
   3540000   311.51451      0.0074373588   2.5610368      772.87609     -14.726582      758.14951    
   3541000   299.92997      0.0074373588   3.2160326      744.13452     -15.540523      728.594      
   3542000   294.90471      0.0074373588   3.2212265      731.6667      -17.361147      714.30556    
   3543000   297.4096       0.0074373588   9.0395046      737.88142     -13.584058      724.29736    
   3544000   306.82312      0.0074373588   3.1331916      761.23661     -16.040804      745.19581    
   3545000   303.72031      0.0074373588   1.2124011      753.53846     -13.202412      740.33605    
   3546000   300.26428      0.0074373588   1.2776444      744.96396     -14.436733      730.52723    
   3547000   294.46851      0.0074373588   1.9241994      730.58449     -17.70238       712.88211    
   3548000   291.2661       0.0074373588   5.4068326      722.63921     -13.931039      708.70817    
   3549000   311.86667      0.0074373588   6.5631593      773.7498      -12.926519      760.82328    
   3550000   304.81479      0.0074373588   2.6551249      756.2539      -12.720146      743.53375    
   3551000   288.77501      0.0074373588  -2.7308523      716.45876     -8.6536976      707.80506    
   3552000   301.58424      0.0074373588   3.1814466      748.2388      -12.438008      735.80079    
   3553000   306.61038      0.0074373588   4.9990505      760.7088      -13.121167      747.58763    
   3554000   304.41809      0.0074373588   4.3221834      755.26968     -14.392963      740.87672    
   3555000   290.6457       0.0074373588   2.0210719      721.09999     -14.876692      706.2233     
   3556000   293.65412      0.0074373588   6.4736544      728.56396     -16.420871      712.14308    
   3557000   299.20659      0.0074373588   12.224246      742.33979     -15.43125       726.90854    
   3558000   295.30463      0.0074373588   4.6266286      732.65893     -20.116194      712.54274    
   3559000   301.44129      0.0074373588  -2.4518973      747.88416     -18.932323      728.95184    
   3560000   302.55225      0.0074373588   2.6454995      750.64048     -18.778731      731.86175    
   3561000   284.48986      0.0074373588   4.3237046      705.82719     -16.024522      689.80266    
   3562000   308.7115       0.0074373588   7.0020849      765.92174     -14.43775       751.48399    
   3563000   318.2368       0.0074373588   1.7129767      789.55426     -13.928742      775.62552    
   3564000   294.60639      0.0074373588   1.1402015      730.92657     -15.322351      715.60422    
   3565000   285.61683      0.0074373588   0.51264545     708.62322     -13.860876      694.76234    
   3566000   304.0574       0.0074373588   2.8986471      754.3748      -16.794872      737.57992    
   3567000   287.10838      0.0074373588   5.3979851      712.32381     -17.617145      694.70666    
   3568000   300.61404      0.0074373588   4.8128829      745.83172     -13.397473      732.43424    
   3569000   305.5796       0.0074373588   3.6932673      758.1514      -14.846807      743.3046     
   3570000   291.98937      0.0074373588   3.0302569      724.43366     -9.0479979      715.38567    
   3571000   292.94987      0.0074373588   4.767987       726.81669     -10.860543      715.95615    
   3572000   307.55429      0.0074373588   4.2445323      763.05067     -11.761425      751.28924    
   3573000   293.60033      0.0074373588  -0.3838483      728.43052     -14.056938      714.37358    
   3574000   295.64771      0.0074373588   5.3724913      733.51011     -14.302886      719.20722    
   3575000   298.18273      0.0074373588   4.1890702      739.79956     -13.066488      726.73307    
   3576000   298.33689      0.0074373588   2.185474       740.18205     -10.638017      729.54403    
   3577000   303.79488      0.0074373588   8.3430576      753.72348     -14.508627      739.21486    
   3578000   311.85949      0.0074373588   6.0060949      773.73199     -19.051796      754.6802     
   3579000   286.46141      0.0074373588   2.3545407      710.71865     -15.738768      694.97989    
   3580000   297.84567      0.0074373588   6.2990617      738.96332     -17.136579      721.82674    
   3581000   305.89124      0.0074373588   4.0487135      758.9246      -15.344348      743.58025    
   3582000   305.35659      0.0074373588   3.9665052      757.59813     -13.899221      743.69891    
   3583000   288.85794      0.0074373588   3.1927772      716.66451     -13.924169      702.74034    
   3584000   288.91018      0.0074373588   5.8902326      716.79412     -14.229232      702.56489    
   3585000   311.49008      0.0074373588   5.3956803      772.81547     -15.23627       757.5792     
   3586000   299.85929      0.0074373588   2.9444623      743.95916     -13.203099      730.75606    
   3587000   287.21478      0.0074373588   3.7630879      712.58779     -11.770336      700.81746    
   3588000   288.14051      0.0074373588   2.5080423      714.88454     -13.113499      701.77104    
   3589000   311.2516       0.0074373588   0.10365103     772.22379     -14.088936      758.13485    
   3590000   302.87383      0.0074373588   4.4836177      751.43831     -16.647631      734.79068    
   3591000   298.03902      0.0074373588   4.3189577      739.44301     -14.135588      725.30742    
   3592000   297.22869      0.0074373588   5.4576443      737.43258     -13.700221      723.73236    
   3593000   294.85429      0.0074373588   4.0263859      731.54163     -13.097485      718.44415    
   3594000   302.0373       0.0074373588   3.5602155      749.36286     -17.714483      731.64838    
   3595000   299.5697       0.0074373588   5.437477       743.24069     -15.231939      728.00875    
   3596000   301.61438      0.0074373588   5.1132928      748.31359     -17.318804      730.99478    
   3597000   304.78584      0.0074373588   3.4865763      756.18207     -18.630645      737.55143    
   3598000   307.59217      0.0074373588   3.3827946      763.14465     -16.547831      746.59682    
   3599000   305.24593      0.0074373588   6.6185858      757.32357     -13.825578      743.49799    
   3600000   303.18954      0.0074373588   3.343639       752.2216      -14.131295      738.09031    
   3601000   299.62519      0.0074373588   2.3075111      743.37836     -13.632236      729.74613    
   3602000   297.67         0.0074373588   3.995446       738.52746     -13.044362      725.4831     
   3603000   304.25639      0.0074373588   9.4248902      754.86849     -12.771172      742.09732    
   3604000   308.4081       0.0074373588   9.7003412      765.16899     -13.211437      751.95756    
   3605000   288.33528      0.0074373588   2.5589753      715.36777     -12.259398      703.10837    
   3606000   300.10683      0.0074373588  -5.8621162      744.57332     -13.244494      731.32883    
   3607000   305.01657      0.0074373588   5.5201852      756.75452     -13.198048      743.55647    
   3608000   298.56378      0.0074373588   5.8824829      740.74496     -12.088469      728.65649    
   3609000   295.66576      0.0074373588   4.194077       733.5549      -14.66098       718.89392    
   3610000   302.42484      0.0074373588   0.90472025     750.32437     -14.231693      736.09267    
   3611000   311.61865      0.0074373588   7.2330541      773.13445     -12.708163      760.42629    
   3612000   295.91084      0.0074373588   6.9746106      734.16296     -15.862048      718.30091    
   3613000   284.69095      0.0074373588   3.8062504      706.32609     -12.70487       693.62122    
   3614000   301.01623      0.0074373588   1.4816401      746.82956     -15.482797      731.34677    
   3615000   302.47936      0.0074373588   0.97848483     750.45962     -12.618651      737.84097    
   3616000   297.79627      0.0074373588   5.5254456      738.84076     -11.803593      727.03716    
   3617000   305.74625      0.0074373588   6.1720449      758.56487     -13.839107      744.72576    
   3618000   283.59369      0.0074373588   4.8197426      703.60377     -14.641362      688.96241    
   3619000   297.11013      0.0074373588   2.1163639      737.13842     -15.097049      722.04137    
   3620000   308.51682      0.0074373588   3.1955666      765.43873     -13.566486      751.87224    
   3621000   296.94876      0.0074373588   5.7016668      736.73806     -11.564205      725.17385    
   3622000   301.20479      0.0074373588   7.4265789      747.29739     -12.761048      734.53634    
   3623000   298.22092      0.0074373588   3.8847721      739.89433     -14.218973      725.67536    
   3624000   296.65462      0.0074373588   2.4014306      736.0083      -12.247513      723.76079    
   3625000   296.48893      0.0074373588   3.4703127      735.59721     -13.14917       722.44804    
   3626000   298.56179      0.0074373588   7.5005353      740.74003     -10.380154      730.35988    
   3627000   304.72809      0.0074373588   1.3374786      756.03878     -14.183381      741.8554     
   3628000   297.51489      0.0074373588   3.8241628      738.14265     -10.898354      727.2443     
   3629000   297.62653      0.0074373588   7.7330991      738.41963     -15.354649      723.06498    
   3630000   303.28404      0.0074373588   6.1187464      752.45606     -16.543035      735.91303    
   3631000   301.14552      0.0074373588  -2.0814138      747.15033     -20.150681      726.99965    
   3632000   300.93868      0.0074373588   3.0422372      746.63717     -19.921081      726.71609    
   3633000   278.1733       0.0074373588   9.3203322      690.15563     -19.64631       670.50932    
   3634000   297.86579      0.0074373588   2.2919428      739.01325     -17.910867      721.10238    
   3635000   306.51373      0.0074373588   0.97510941     760.469       -17.521588      742.94742    
   3636000   314.52008      0.0074373588   9.7087163      780.33298     -15.603006      764.72998    
   3637000   287.33604      0.0074373588   10.497583      712.88864     -13.532348      699.35629    
   3638000   295.81378      0.0074373588  -3.1381441      733.92213     -11.859153      722.06298    
   3639000   312.10058      0.0074373588   3.8232915      774.33014     -13.289223      761.04092    
   3640000   297.98287      0.0074373588   6.8318616      739.30371     -12.705634      726.59807    
   3641000   300.30307      0.0074373588  -1.8960393      745.06018     -14.387793      730.67239    
   3642000   306.4476       0.0074373588   3.9110921      760.30495     -15.394228      744.91072    
   3643000   298.25678      0.0074373588   9.6711891      739.9833      -16.904526      723.07878    
   3644000   295.00707      0.0074373588   3.0142407      731.92067     -17.15878       714.76189    
   3645000   300.53601      0.0074373588   1.7401558      745.63812     -16.352799      729.28532    
   3646000   313.24725      0.0074373588   4.611534       777.17507     -18.380296      758.79477    
   3647000   289.69865      0.0074373588   8.4469262      718.75034     -14.569436      704.18091    
   3648000   297.21741      0.0074373588   4.3068555      737.40459     -14.374159      723.03043    
   3649000   295.6345       0.0074373588   1.9076448      733.47736     -14.413274      719.06408    
   3650000   320.01953      0.0074373588   3.9614004      793.97729     -12.509968      781.46732    
   3651000   303.06507      0.0074373588   4.8074719      751.91279     -15.094891      736.8179     
   3652000   288.60282      0.0074373588   5.1431599      716.03155     -14.967456      701.0641     
   3653000   287.77237      0.0074373588   3.7785147      713.97118     -14.813257      699.15792    
   3654000   304.44983      0.0074373588   3.4919658      755.34842     -18.430395      736.91802    
   3655000   312.9721       0.0074373588   4.2414021      776.49241     -16.837527      759.65488    
   3656000   293.49774      0.0074373588   4.1870863      728.17598     -16.764626      711.41136    
   3657000   292.48773      0.0074373588   4.0751458      725.67011     -17.835766      707.83435    
   3658000   307.0245       0.0074373588   3.9263456      761.73624     -15.805801      745.93043    
   3659000   294.89296      0.0074373588   3.8702695      731.63756     -13.854395      717.78316    
   3660000   312.33707      0.0074373588   6.5855565      774.91687     -16.559238      758.35763    
   3661000   302.26899      0.0074373588   3.4322213      749.93769     -16.981453      732.95624    
   3662000   288.01106      0.0074373588   2.2551341      714.56339     -12.246788      702.3166     
   3663000   297.30401      0.0074373588   4.5129558      737.61945     -14.372555      723.2469     
   3664000   302.499        0.0074373588   4.6201145      750.50837     -11.651439      738.85693    
   3665000   294.85712      0.0074373588   4.1581556      731.54863     -14.15423       717.3944     
   3666000   306.23289      0.0074373588   0.83739801     759.77224     -20.116135      739.6561     
   3667000   298.70574      0.0074373588   4.1016489      741.09718     -18.408672      722.68851    
   3668000   280.61365      0.0074373588   4.8806439      696.2102      -16.853495      679.3567     
   3669000   301.8409       0.0074373588   8.0566597      748.87559     -13.835267      735.04032    
   3670000   313.48952      0.0074373588   6.0018718      777.77614     -11.141306      766.63483    
   3671000   288.5973       0.0074373588   2.676458       716.01787     -13.466022      702.55185    
   3672000   280.97721      0.0074373588   2.5424073      697.11221     -11.815279      685.29693    
   3673000   303.8806       0.0074373588   4.9003887      753.93615     -12.846472      741.08968    
   3674000   304.44827      0.0074373588   4.7295758      755.34454     -14.526209      740.81834    
   3675000   303.15739      0.0074373588   2.0633967      752.14183     -15.065014      737.07682    
   3676000   289.43609      0.0074373588   2.06385        718.09892     -14.469429      703.62949    
   3677000   294.64489      0.0074373588   4.571376       731.0221      -13.348557      717.67354    
   3678000   310.89513      0.0074373588   6.4386737      771.33939     -13.550277      757.78911    
   3679000   302.79644      0.0074373588   2.8561357      751.24631     -13.260437      737.98588    
   3680000   293.28506      0.0074373588   3.1814751      727.64833     -12.807006      714.84132    
   3681000   299.5108       0.0074373588   5.1278053      743.09455     -8.7649057      734.32964    
   3682000   301.55467      0.0074373588   6.1481772      748.16546     -9.4555658      738.70989    
   3683000   302.59575      0.0074373588   4.2291105      750.74841     -12.676505      738.0719     
   3684000   301.55862      0.0074373588   2.7778039      748.17525     -13.57592       734.59933    
   3685000   296.0305       0.0074373588   5.8723881      734.45983     -12.6593        721.80053    
   3686000   297.79882      0.0074373588   5.8899711      738.84707     -12.78601       726.06106    
   3687000   307.41922      0.0074373588   2.3210606      762.71556     -12.325947      750.38961    
   3688000   301.50892      0.0074373588   2.7004718      748.05194     -13.664435      734.3875     
   3689000   295.47205      0.0074373588   6.3682652      733.07429     -10.528091      722.5462     
   3690000   305.31603      0.0074373588   4.8869929      757.4975      -12.761448      744.73605    
   3691000   307.04876      0.0074373588   2.1907671      761.79645     -13.204268      748.59218    
   3692000   308.97684      0.0074373588  -0.76386828     766.58005     -13.342514      753.23754    
   3693000   299.73544      0.0074373588   4.9412522      743.65188     -12.302998      731.34889    
   3694000   311.77637      0.0074373588   6.2804286      773.52577     -15.731288      757.79448    
   3695000   299.0266       0.0074373588   1.3191349      741.89323     -16.524399      725.36883    
   3696000   299.97491      0.0074373588   3.8116591      744.24603     -15.5116        728.73443    
   3697000   295.51288      0.0074373588   4.589858       733.17561     -11.423585      721.75202    
   3698000   291.96945      0.0074373588   5.966341       724.38426     -10.411824      713.97243    
   3699000   310.75182      0.0074373588   2.8954719      770.98382     -10.354929      760.62889    
   3700000   305.70298      0.0074373588  -0.73651031     758.45751     -11.023242      747.43427    
   3701000   307.68911      0.0074373588   3.2050432      763.38517     -11.58933       751.79584    
   3702000   291.16569      0.0074373588   4.5667167      722.39011     -11.680888      710.70922    
   3703000   295.44494      0.0074373588   10.726475      733.00704     -12.666992      720.34005    
   3704000   301.16742      0.0074373588   4.9363579      747.20467     -13.193935      734.01073    
   3705000   314.6546       0.0074373588   4.9956883      780.66674     -9.2444358      771.42231    
   3706000   294.22051      0.0074373588   3.179329       729.96919     -8.1682428      721.80094    
   3707000   293.92167      0.0074373588   3.9543981      729.22776     -8.4501346      720.77763    
   3708000   292.70914      0.0074373588   6.7366213      726.21944     -7.9730529      718.24639    
   3709000   322.19881      0.0074373588   4.8709425      799.38413     -7.6406277      791.7435     
   3710000   297.77809      0.0074373588  -2.9146783      738.79566     -7.8179469      730.97771    
   3711000   291.2827       0.0074373588   2.0224052      722.6804      -12.933829      709.74657    
   3712000   307.08989      0.0074373588   6.5198073      761.89848     -9.9045842      751.99389    
   3713000   306.40548      0.0074373588   8.5306281      760.20045     -10.376141      749.82431    
   3714000   309.75131      0.0074373588   3.0293154      768.50154     -11.626099      756.87544    
   3715000   292.00544      0.0074373588   2.4158384      724.47353     -8.0105294      716.463      
   3716000   313.44809      0.0074373588   10.096687      777.67335     -10.270088      767.40326    
   3717000   295.44347      0.0074373588  -0.8115055      733.0034      -12.520301      720.4831     
   3718000   296.40429      0.0074373588   5.3855224      735.38723     -9.8641775      725.52305    
   3719000   308.20808      0.0074373588   6.3128925      764.67273     -11.750314      752.92242    
   3720000   298.87749      0.0074373588   3.0876731      741.52328     -11.244026      730.27926    
   3721000   298.27739      0.0074373588   3.7460752      740.03443     -12.379586      727.65485    
   3722000   293.36628      0.0074373588   7.2910856      727.84983     -12.87789       714.97194    
   3723000   303.7663       0.0074373588   6.777848       753.65257     -14.24757       739.405      
   3724000   295.67805      0.0074373588   3.4547987      733.58538     -13.786076      719.79931    
   3725000   294.05449      0.0074373588   1.3626651      729.5573      -14.518161      715.03914    
   3726000   303.30238      0.0074373588   4.2642091      752.50157     -12.039234      740.46234    
   3727000   293.08177      0.0074373588   9.5289771      727.14394     -13.380539      713.7634     
   3728000   296.0391       0.0074373588   4.9751954      734.48116     -12.582798      721.89836    
   3729000   303.32917      0.0074373588   3.1317354      752.56804     -10.628111      741.93993    
   3730000   294.8145       0.0074373588   3.7362801      731.44291     -9.276532       722.16638    
   3731000   301.26828      0.0074373588   5.0594082      747.45491     -8.587979       738.86693    
   3732000   301.34347      0.0074373588   4.2267392      747.64145     -7.3341563      740.3073     
   3733000   300.02567      0.0074373588   3.5220735      744.37197     -11.018626      733.35334    
   3734000   300.04662      0.0074373588   4.0181606      744.42393     -11.448243      732.97568    
   3735000   308.59553      0.0074373588   4.1009744      765.63402     -12.494515      753.13951    
   3736000   295.18764      0.0074373588   3.9279968      732.36868     -11.845684      720.52299    
   3737000   289.71364      0.0074373588   4.2204874      718.78753     -11.561628      707.22591    
   3738000   302.15421      0.0074373588   5.3749637      749.65293     -9.9646932      739.68824    
   3739000   312.72932      0.0074373588   4.2247124      775.89007     -8.8620132      767.02806    
   3740000   298.14859      0.0074373588   3.1766257      739.71488     -14.406252      725.30863    
   3741000   292.2309       0.0074373588   6.2342582      725.03292     -15.081653      709.95127    
   3742000   308.2606       0.0074373588   3.6393448      764.80306     -13.862467      750.94059    
   3743000   298.274        0.0074373588   2.737288       740.02601     -10.644824      729.38118    
   3744000   293.30279      0.0074373588   5.5952061      727.69232     -10.635848      717.05647    
   3745000   292.59404      0.0074373588   6.3436924      725.93387     -11.526403      714.40747    
   3746000   297.372        0.0074373588   4.4633007      737.78813     -11.252164      726.53596    
   3747000   310.97512      0.0074373588   1.0547282      771.53785     -10.753284      760.78457    
   3748000   283.5783       0.0074373588   1.2433206      703.56558     -12.72923       690.83635    
   3749000   300.38023      0.0074373588   6.6218247      745.25162     -9.4856679      735.76596    
   3750000   317.50191      0.0074373588   3.9154153      787.73099     -12.325988      775.40501    
   3751000   304.61986      0.0074373588   2.7469217      755.77027     -11.832238      743.93803    
   3752000   292.21301      0.0074373588   4.2525231      724.98854     -13.098267      711.89027    
   3753000   300.71924      0.0074373588   5.0073476      746.09273     -12.915263      733.17747    
   3754000   306.69049      0.0074373588   3.5974463      760.90757     -13.120928      747.78664    
   3755000   293.82424      0.0074373588   3.5506104      728.98603     -15.842219      713.14381    
   3756000   300.61443      0.0074373588   3.8891701      745.8327      -11.273706      734.55899    
   3757000   303.37021      0.0074373588   4.0350227      752.66985     -9.8573904      742.81245    
   3758000   309.89373      0.0074373588   3.9653399      768.85488     -11.11299       757.74189    
   3759000   286.30708      0.0074373588   3.9857752      710.33576     -10.475122      699.86064    
   3760000   296.19265      0.0074373588   3.4533976      734.86212     -9.4833424      725.37877    
   3761000   312.187        0.0074373588   4.0568618      774.54455     -9.4503756      765.09418    
   3762000   306.10764      0.0074373588   4.807415       759.4615      -12.5196        746.9419     
   3763000   292.06677      0.0074373588   4.1462243      724.62571     -14.721838      709.90388    
   3764000   307.06337      0.0074373588   7.584113       761.83269     -12.648962      749.18373    
   3765000   312.03956      0.0074373588   4.1648977      774.17875     -11.335195      762.84355    
   3766000   306.51019      0.0074373588   0.50908978     760.46023     -14.253836      746.2064     
   3767000   295.0443       0.0074373588   2.5947484      732.01304     -13.582316      718.43073    
   3768000   294.05539      0.0074373588   4.4970946      729.55952     -11.90585       717.65367    
   3769000   309.44244      0.0074373588   7.0953315      767.73521     -11.631759      756.10345    
   3770000   315.53806      0.0074373588   4.9125103      782.85862     -16.233122      766.6255     
   3771000   301.00291      0.0074373588   4.3426675      746.79651     -12.511439      734.28508    
   3772000   297.55076      0.0074373588   3.8052288      738.23163     -17.018854      721.21278    
   3773000   297.85093      0.0074373588   3.4010119      738.97638     -16.524824      722.45155    
   3774000   309.07883      0.0074373588   7.4682391      766.83309     -16.108018      750.72507    
   3775000   301.93482      0.0074373588   4.7166799      749.10862     -18.525248      730.58337    
   3776000   288.69069      0.0074373588   2.7488026      716.24957     -12.335186      703.91438    
   3777000   297.10707      0.0074373588   3.9900023      737.13082     -13.576454      723.55437    
   3778000   306.9648       0.0074373588   4.5262229      761.58813     -15.886406      745.70172    
   3779000   297.26372      0.0074373588   3.6460002      737.51949     -15.616786      721.9027     
   3780000   288.95891      0.0074373588   3.7213328      716.91501     -13.661973      703.25304    
   3781000   307.07097      0.0074373588   4.6196054      761.85154     -11.486929      750.36462    
   3782000   302.86022      0.0074373588   4.2528448      751.40456     -13.409675      737.99489    
   3783000   298.70677      0.0074373588   4.322323       741.09973     -15.068752      726.03098    
   3784000   285.15803      0.0074373588   3.9381121      707.48493     -16.19633       691.2886     
   3785000   303.58382      0.0074373588   4.504698       753.19983     -13.61892       739.58091    
   3786000   309.40684      0.0074373588   4.0973325      767.6469      -16.390811      751.25609    
   3787000   290.60398      0.0074373588   5.348406       720.99648     -13.515994      707.48049    
   3788000   304.76746      0.0074373588   4.0299822      756.13648     -14.787235      741.34925    
   3789000   299.9083       0.0074373588   3.9121514      744.08075     -13.843733      730.23702    
   3790000   288.79388      0.0074373588   2.1235677      716.50557     -13.392762      703.11281    
   3791000   311.26426      0.0074373588   3.3788794      772.2552      -13.847288      758.40791    
   3792000   306.41584      0.0074373588   6.2916649      760.22615     -14.40877       745.81738    
   3793000   288.65106      0.0074373588   4.2002359      716.15124     -13.211175      702.94006    
   3794000   295.72045      0.0074373588   2.2612386      733.6906      -11.613888      722.07671    
   3795000   298.57625      0.0074373588   6.8212779      740.77591     -13.986682      726.78923    
   3796000   297.1016       0.0074373588   4.5303905      737.11726     -13.597522      723.51974    
   3797000   308.51628      0.0074373588   1.5720871      765.43741     -12.087171      753.35024    
   3798000   298.04912      0.0074373588   4.2812614      739.46808     -11.785505      727.68258    
   3799000   300.32807      0.0074373588   4.7932027      745.12222     -13.375108      731.74711    
   3800000   297.66683      0.0074373588   5.1394235      738.5196      -15.260771      723.25883    
   3801000   303.93917      0.0074373588   3.8322417      754.08145     -14.042391      740.03906    
   3802000   311.78753      0.0074373588   2.0204563      773.55345     -9.574858       763.97859    
   3803000   308.41519      0.0074373588   4.2646486      765.18658     -12.034609      753.15198    
   3804000   301.10939      0.0074373588   6.5172973      747.06069     -9.8026617      737.25802    
   3805000   291.07401      0.0074373588   4.6747173      722.16264     -10.243531      711.91911    
   3806000   295.33335      0.0074373588   3.0004587      732.73018     -9.9072695      722.82291    
   3807000   302.22694      0.0074373588   3.1206741      749.83336     -11.675583      738.15778    
   3808000   300.65737      0.0074373588   8.7614641      745.93922     -6.6789364      739.26029    
   3809000   303.55389      0.0074373588   2.8833479      753.12556     -10.988045      742.13752    
   3810000   313.50209      0.0074373588   2.9657824      777.80733     -12.868992      764.93834    
   3811000   296.15161      0.0074373588   6.13387        734.7603      -13.225655      721.53464    
   3812000   288.13783      0.0074373588  -0.59358569     714.8779      -12.744187      702.13371    
   3813000   309.84783      0.0074373588   3.0227008      768.741       -11.432274      757.30872    
   3814000   309.10772      0.0074373588   7.6125442      766.90477     -13.544753      753.36001    
   3815000   286.85394      0.0074373588   4.1959951      711.69252     -15.352607      696.33992    
   3816000   306.66572      0.0074373588   2.653121       760.84611     -13.463359      747.38276    
   3817000   310.18935      0.0074373588   2.2551334      769.58833     -14.370256      755.21808    
   3818000   307.52601      0.0074373588   11.96536       762.98051     -15.488769      747.49174    
   3819000   286.62316      0.0074373588   8.1972587      711.11996     -11.386401      699.73356    
   3820000   287.41294      0.0074373588  -2.2574054      713.07942     -11.546977      701.53244    
   3821000   312.70798      0.0074373588  -1.2140665      775.83711     -16.462733      759.37438    
   3822000   305.45075      0.0074373588   3.6851646      757.83173     -16.465384      741.36635    
   3823000   285.01053      0.0074373588   8.3730412      707.11897     -12.871257      694.24772    
   3824000   288.28135      0.0074373588   0.69800167     715.23397     -10.90448       704.32949    
   3825000   308.8378       0.0074373588   4.2448364      766.2351      -12.248544      753.98656    
   3826000   311.00004      0.0074373588   5.2811581      771.59967     -11.393437      760.20623    
   3827000   288.49906      0.0074373588   0.3149678      715.77411     -9.263967       706.51015    
   3828000   304.99851      0.0074373588   2.3656914      756.7097      -8.2801479      748.42955    
   3829000   312.21698      0.0074373588   9.1394753      774.61893     -8.6624611      765.95647    
   3830000   299.09697      0.0074373588   9.9037986      742.06784     -11.597086      730.47075    
   3831000   291.16678      0.0074373588  -0.54889161     722.3928      -14.522839      707.86996    
   3832000   299.84308      0.0074373588   4.9762297      743.91895     -14.306729      729.61222    
   3833000   301.63813      0.0074373588   4.6138167      748.37252     -14.932063      733.44046    
   3834000   292.79658      0.0074373588   2.1870112      726.43638     -13.673739      712.76264    
   3835000   302.32773      0.0074373588   2.9243026      750.08344     -13.206016      736.87742    
   3836000   317.95705      0.0074373588   2.3893327      788.86021     -11.615097      777.24511    
   3837000   291.65488      0.0074373588   5.0480603      723.60379     -13.31388       710.28991    
   3838000   286.10875      0.0074373588   1.8330731      709.8437      -13.176054      696.66764    
   3839000   304.32         0.0074373588   2.768204       755.02631     -12.757772      742.26854    
   3840000   313.5641       0.0074373588   5.3349325      777.96119     -13.598052      764.36313    
   3841000   297.26922      0.0074373588   7.0939162      737.53314     -12.117547      725.41559    
   3842000   284.50938      0.0074373588   5.2521528      705.87561     -13.034353      692.84126    
   3843000   306.97968      0.0074373588   3.0115255      761.62504     -7.9806653      753.64438    
   3844000   302.79         0.0074373588   6.6002199      751.23033     -10.392022      740.83831    
   3845000   277.02136      0.0074373588   6.4993106      687.29762     -14.394751      672.90287    
   3846000   306.61039      0.0074373588   2.7506492      760.70884     -12.168925      748.53991    
   3847000   299.92095      0.0074373588  -0.69540248     744.11214     -13.628782      730.48336    
   3848000   301.96795      0.0074373588   4.836253       749.1908      -9.9834136      739.20738    
   3849000   302.54464      0.0074373588   7.7440553      750.62158     -11.143991      739.47759    
   3850000   295.47263      0.0074373588   3.5526125      733.07574     -11.319644      721.7561     
   3851000   292.66707      0.0074373588   0.086441272    726.11506     -14.46198       711.65308    
   3852000   310.21793      0.0074373588  -1.5671901      769.65923     -15.600842      754.05839    
   3853000   298.29873      0.0074373588   6.6003685      740.08736     -15.556249      724.53111    
   3854000   273.16875      0.0074373588   5.1796732      677.7392      -15.277934      662.46126    
   3855000   308.92288      0.0074373588   0.84630312     766.44619     -13.664351      752.78184    
   3856000   306.18821      0.0074373588   4.6914841      759.66138     -13.134907      746.52647    
   3857000   286.46532      0.0074373588   5.3069319      710.72837     -13.671228      697.05714    
   3858000   294.09026      0.0074373588   4.157562       729.64604     -17.07075       712.57528    
   3859000   304.90946      0.0074373588  -0.19850074     756.48878     -13.520402      742.96838    
   3860000   306.23928      0.0074373588   2.9244796      759.78809     -13.527441      746.26065    
   3861000   303.81111      0.0074373588   9.4304336      753.76375     -14.384115      739.37963    
   3862000   291.1172       0.0074373588   4.5966176      722.2698      -10.979192      711.29061    
   3863000   307.03334      0.0074373588   0.764724       761.75817     -11.645482      750.11269    
   3864000   317.15903      0.0074373588   5.0141096      786.8803      -13.127496      773.75281    
   3865000   289.4368       0.0074373588   6.2524548      718.10067     -10.201287      707.89938    
   3866000   294.15454      0.0074373588   2.7886835      729.80552     -13.257097      716.54842    
   3867000   303.47053      0.0074373588   3.6244551      752.91874     -11.192671      741.72607    
   3868000   312.20539      0.0074373588   4.729829       774.59017     -11.031543      763.55862    
   3869000   293.59955      0.0074373588   4.9389864      728.42858     -12.381435      716.04714    
   3870000   294.23055      0.0074373588   3.9749114      729.99412     -11.571888      718.42223    
   3871000   299.6783       0.0074373588   4.5069566      743.51012     -14.527195      728.98293    
   3872000   309.3511       0.0074373588   2.702928       767.5086      -14.279593      753.22901    
   3873000   294.32969      0.0074373588   2.9038797      730.24008     -16.067374      714.17271    
   3874000   296.89412      0.0074373588   8.9992871      736.6025      -12.328132      724.27436    
   3875000   298.17371      0.0074373588   3.6226874      739.7772      -11.826586      727.95062    
   3876000   298.66008      0.0074373588   3.6027712      740.98389     -10.795283      730.18861    
   3877000   298.11363      0.0074373588   5.8035741      739.62813     -11.924242      727.70389    
   3878000   301.96475      0.0074373588   5.4004064      749.18288     -12.044089      737.13879    
   3879000   296.93997      0.0074373588   0.33682377     736.71625     -12.885871      723.83038    
   3880000   300.41456      0.0074373588   3.2368322      745.3368      -12.640438      732.69636    
   3881000   302.56596      0.0074373588   4.7954987      750.67449     -12.231373      738.44312    
   3882000   296.13839      0.0074373588   5.7175609      734.7275      -9.1431951      725.5843     
   3883000   304.10516      0.0074373588   4.0606706      754.49329     -10.094504      744.39879    
   3884000   292.06162      0.0074373588   2.7884061      724.61294     -12.274464      712.33847    
   3885000   308.40263      0.0074373588   4.8428015      765.15542     -14.669683      750.48574    
   3886000   298.87217      0.0074373588   5.8511695      741.51009     -10.504241      731.00585    
   3887000   295.6078       0.0074373588   6.0137695      733.4111      -13.106211      720.30489    
   3888000   312.71527      0.0074373588   4.7096619      775.85521     -13.34413       762.51108    
   3889000   300.34874      0.0074373588   0.17099642     745.17351     -15.598222      729.57529    
   3890000   290.19084      0.0074373588   4.1112578      719.97148     -14.555565      705.41592    
   3891000   301.54264      0.0074373588   4.4044298      748.13559     -18.53453       729.60106    
   3892000   296.36846      0.0074373588   2.8433139      735.29831     -17.079002      718.21931    
   3893000   296.11314      0.0074373588   7.8261178      734.66487     -12.639834      722.02503    
   3894000   297.12551      0.0074373588   8.0971224      737.17658     -11.19061       725.98597    
   3895000   303.24097      0.0074373588   0.57691049     752.34922     -12.923645      739.42557    
   3896000   291.99686      0.0074373588  -0.11147377     724.45225     -11.504605      712.94765    
   3897000   299.90956      0.0074373588   7.7477737      744.08388     -13.244789      730.83909    
   3898000   304.25314      0.0074373588   11.137814      754.86044     -13.626353      741.23408    
   3899000   304.6118       0.0074373588  -3.0688644      755.75027     -11.869407      743.88087    
   3900000   293.31432      0.0074373588   6.734696       727.72091     -12.729586      714.99133    
   3901000   298.89413      0.0074373588   6.8244224      741.56459     -13.901074      727.66351    
   3902000   311.44457      0.0074373588   7.9288501      772.70258     -13.857966      758.84461    
   3903000   307.62238      0.0074373588   2.4109595      763.21961     -12.670808      750.5488     
   3904000   281.74444      0.0074373588  -3.3491674      699.01573     -13.774849      685.24088    
   3905000   292.2101       0.0074373588   6.481328       724.98131     -12.22918       712.75213    
   3906000   316.83873      0.0074373588   13.743409      786.08563     -13.134362      772.95127    
   3907000   305.86178      0.0074373588   1.1082501      758.85152     -13.017876      745.83364    
   3908000   281.2102       0.0074373588   6.7221566      697.69026     -15.524643      682.16562    
   3909000   302.39489      0.0074373588   8.5229939      750.25007     -14.638518      735.61155    
   3910000   317.92163      0.0074373588  -5.8037636      788.77232     -19.127967      769.64435    
   3911000   288.27046      0.0074373588   1.6517513      715.20695     -18.490851      696.7161     
   3912000   277.51972      0.0074373588   5.8891178      688.53407     -19.621172      668.9129     
   3913000   292.06761      0.0074373588   4.7652938      724.6278      -15.244079      709.38372    
   3914000   299.75592      0.0074373588   7.1910741      743.7027      -13.283148      730.41955    
   3915000   312.86766      0.0074373588   1.9657242      776.2333      -13.854418      762.37888    
   3916000   310.05731      0.0074373588   3.2825928      769.26074     -12.0142        757.24654    
   3917000   308.01736      0.0074373588   16.874201      764.19956     -10.178186      754.02137    
   3918000   298.96516      0.0074373588  -1.0391203      741.74081     -11.877559      729.86325    
   3919000   289.07004      0.0074373588  -0.735077       717.19074     -10.45316       706.73758    
   3920000   303.79061      0.0074373588   14.803485      753.71288     -10.758409      742.95447    
   3921000   311.06857      0.0074373588   8.2681831      771.76971     -13.140289      758.62942    
   3922000   297.8798       0.0074373588   4.3249896      739.04801     -8.6812738      730.36673    
   3923000   302.46971      0.0074373588  -1.1964255      750.4357      -13.410365      737.02534    
   3924000   299.65675      0.0074373588   1.7372773      743.45666     -10.475263      732.9814     
   3925000   307.96514      0.0074373588   5.7337444      764.07001     -15.240396      748.82962    
   3926000   297.87874      0.0074373588   8.8600959      739.04536     -14.357508      724.68785    
   3927000   304.83758      0.0074373588   6.4947338      756.31045     -18.038691      738.27176    
   3928000   302.87568      0.0074373588  -1.6939008      751.44292     -12.998314      738.44461    
   3929000   286.97548      0.0074373588   5.3800339      711.99408     -11.554741      700.43934    
   3930000   301.16172      0.0074373588   10.138972      747.19052     -10.010814      737.17971    
   3931000   305.03587      0.0074373588   0.85275405     756.80239     -11.641098      745.1613     
   3932000   302.38466      0.0074373588   0.83194351     750.22467     -11.487913      738.73676    
   3933000   288.23719      0.0074373588  -0.33753154     715.12441     -9.5787705      705.54564    
   3934000   300.48367      0.0074373588   7.285357       745.50827     -10.349182      735.15908    
   3935000   304.84824      0.0074373588   7.7432727      756.33688     -9.3226456      747.01423    
   3936000   304.92791      0.0074373588   0.02003142     756.53454     -11.313649      745.22089    
   3937000   291.96094      0.0074373588   0.48736343     724.36315     -13.278558      711.08459    
   3938000   290.24555      0.0074373588   3.9956057      720.1072      -12.195445      707.91176    
   3939000   312.43522      0.0074373588   7.8530319      775.1604      -10.403748      764.75665    
   3940000   318.63065      0.0074373588   3.2341742      790.53142     -9.4894411      781.04198    
   3941000   301.72786      0.0074373588   2.1764916      748.59513     -13.630644      734.96449    
   3942000   286.70947      0.0074373588   2.3314847      711.33409     -11.251603      700.08248    
   3943000   294.42483      0.0074373588   4.913395       730.47612     -16.174294      714.30183    
   3944000   307.61325      0.0074373588   4.3225112      763.19695     -12.846212      750.35074    
   3945000   313.22882      0.0074373588   2.5690456      777.12933     -9.999455       767.12987    
   3946000   293.81911      0.0074373588   1.2698472      728.9733      -11.59109       717.38221    
   3947000   292.68898      0.0074373588   6.7021044      726.16944     -13.512037      712.6574     
   3948000   302.97559      0.0074373588   6.3795266      751.69079     -11.996201      739.69459    
   3949000   315.09604      0.0074373588   3.8454757      781.76197     -13.555348      768.20662    
   3950000   302.7034       0.0074373588   2.9962672      751.01548     -12.776866      738.23861    
   3951000   295.59511      0.0074373588   3.6134991      733.37962     -13.785718      719.5939     
   3952000   297.70852      0.0074373588   5.0834052      738.62303     -15.689481      722.93355    
   3953000   304.0449       0.0074373588   6.1830368      754.34378     -15.530944      738.81283    
   3954000   305.83009      0.0074373588   5.335346       758.77288     -16.539274      742.23361    
   3955000   299.3374       0.0074373588   2.2270359      742.66435     -17.278476      725.38588    
   3956000   289.73536      0.0074373588   3.3633583      718.84141     -13.283198      705.55821    
   3957000   308.59649      0.0074373588   6.12403        765.63639     -11.628178      754.00821    
   3958000   301.81054      0.0074373588   4.2734312      748.80027     -9.555423       739.24485    
   3959000   299.24951      0.0074373588   3.6208605      742.44628     -9.7966614      732.64962    
   3960000   291.02326      0.0074373588   2.6433864      722.03674     -9.8539238      712.18282    
   3961000   302.45362      0.0074373588   4.1647218      750.39578     -9.3866115      741.00917    
   3962000   307.07251      0.0074373588   3.7978269      761.85537     -11.918626      749.93674    
   3963000   304.822        0.0074373588   5.1817804      756.27178     -11.226746      745.04504    
   3964000   287.52742      0.0074373588   3.4942387      713.36345     -12.698497      700.66495    
   3965000   316.68368      0.0074373588   3.1289817      785.70095     -15.383069      770.31788    
   3966000   300.81031      0.0074373588   4.7054306      746.31868     -13.138553      733.18013    
   3967000   301.40085      0.0074373588   1.1554462      747.78382     -12.308055      735.47576    
   3968000   303.22794      0.0074373588   3.6899072      752.31688     -11.328264      740.98861    
   3969000   300.20077      0.0074373588   6.0351585      744.80638     -12.410673      732.3957     
   3970000   299.33         0.0074373588  -3.2775516      742.64599     -12.768549      729.87744    
   3971000   292.75498      0.0074373588   7.2550536      726.33318     -13.472973      712.86021    
   3972000   304.8805       0.0074373588   8.01718        756.41692     -11.301692      745.11523    
   3973000   294.99843      0.0074373588  -2.8675622      731.89924     -11.170302      720.72894    
   3974000   296.71526      0.0074373588   2.1499164      736.15875     -10.501733      725.65701    
   3975000   298.76254      0.0074373588   0.28125341     741.23811     -8.3381916      732.89992    
   3976000   310.61556      0.0074373588   6.4172002      770.64577     -8.7460393      761.89973    
   3977000   298.72914      0.0074373588   1.776694       741.15523     -11.57079       729.58444    
   3978000   286.26246      0.0074373588  -0.19218595     710.22506     -13.877936      696.34712    
   3979000   298.38336      0.0074373588   3.9521548      740.29735     -13.292517      727.00483    
   3980000   305.20219      0.0074373588   4.3081665      757.21505     -13.589692      743.62536    
   3981000   300.0011       0.0074373588   7.2739645      744.311       -15.871078      728.43992    
   3982000   291.91108      0.0074373588   3.6221533      724.23944     -11.292657      712.94679    
   3983000   312.4794       0.0074373588   1.9074821      775.27        -14.293668      760.97633    
   3984000   306.43871      0.0074373588   5.3097573      760.28288     -13.787466      746.49542    
   3985000   290.63134      0.0074373588   7.421323       721.06438     -12.260463      708.80391    
   3986000   298.29384      0.0074373588   1.3933719      740.07524     -9.8036122      730.27163    
   3987000   307.05377      0.0074373588   1.4176219      761.80887     -11.577468      750.23141    
   3988000   311.68546      0.0074373588   4.6530995      773.30022     -10.776729      762.52349    
   3989000   292.48903      0.0074373588   7.1107859      725.67336     -11.614551      714.0588     
   3990000   294.56309      0.0074373588   6.2096034      730.81914     -12.240933      718.57821    
   3991000   301.74016      0.0074373588  -1.5319108      748.62566     -11.143829      737.48183    
   3992000   319.03216      0.0074373588  -0.86643949     791.52758     -12.973264      778.55431    
   3993000   300.36434      0.0074373588   10.741637      745.21221     -12.5499        732.66231    
   3994000   297.1959       0.0074373588   7.8925276      737.35121     -12.80342       724.54779    
   3995000   304.04646      0.0074373588  -6.7643868      754.34765     -10.521886      743.82577    
   3996000   301.82512      0.0074373588   3.3681207      748.83643     -11.146975      737.68946    
   3997000   299.96595      0.0074373588   4.1430627      744.22378     -9.8668036      734.35698    
   3998000   299.19529      0.0074373588   7.1146443      742.31175     -9.2130728      733.09868    
   3999000   305.37612      0.0074373588   7.8090772      757.64657     -11.534649      746.11192    
   4000000   284.43052      0.0074373588   2.0660879      705.67996     -14.117492      691.56247    
Loop time of 15328.7 on 1 procs for 4000000 steps with 1500 atoms

Performance: 5.636 ns/day, 4.258 hours/ns, 260.948 timesteps/s, 391.422 katom-step/s
99.3% CPU use with 1 MPI tasks x 1 OpenMP threads

MPI task timing breakdown:
Section |  min time  |  avg time  |  max time  |%varavg| %total
---------------------------------------------------------------
Pair    | 888.15     | 888.15     | 888.15     |   0.0 |  5.79
Bond    | 185.11     | 185.11     | 185.11     |   0.0 |  1.21
Kspace  | 13350      | 13350      | 13350      |   0.0 | 87.09
Neigh   | 0.052582   | 0.052582   | 0.052582   |   0.0 |  0.00
Comm    | 35.737     | 35.737     | 35.737     |   0.0 |  0.23
Output  | 0.13523    | 0.13523    | 0.13523    |   0.0 |  0.00
Modify  | 847.5      | 847.5      | 847.5      |   0.0 |  5.53
Other   |            | 21.75      |            |       |  0.14

Nlocal:           1500 ave        1500 max        1500 min
Histogram: 1 0 0 0 0 0 0 0 0 0
Nghost:            956 ave         956 max         956 min
Histogram: 1 0 0 0 0 0 0 0 0 0
Neighs:              0 ave           0 max           0 min
Histogram: 1 0 0 0 0 0 0 0 0 0

Total # of neighbors = 0
Ave neighs/atom = 0
Ave special neighs/atom = 2
Neighbor list builds = 19598
Dangerous builds = 0
write_data	last_conf.data pair ij
System init for write_data ...
PPPM initialization ...
  using 12-bit tables for long-range coulomb (src/kspace.cpp:342)
  G vector (1/distance) = 0.15604469
  grid = 32 32 32
  stencil order = 5
  estimated absolute RMS force accuracy = 0.034826331
  estimated relative force accuracy = 0.00010487846
  using double precision FFTW3
  3d grid and FFT values/proc = 50653 32768
Generated 1 of 1 mixed pair_coeff terms from arithmetic mixing rule
Total wall time: 4:15:28
