LAMMPS (29 Aug 2024 - Update 1)
  using 1 OpenMP thread(s) per MPI task
package gpu 1 gpuID 0
# GCMC for CO2 molecular fluid, rigid/small/nvt dynamics
# Rigid CO2 TraPPE model
# [Potoff and J.I. Siepmann, Vapor-liquid equilibria of
# mixtures containing alkanes, carbon dioxide and
# nitrogen AIChE J., 47,1676-1682 (2001)].

# global model settings

units           real
atom_style      full
boundary        p p p
pair_style      lj/cut/coul/long  12
pair_modify     mix arithmetic shift yes
kspace_style    pppm 1.0e-4
bond_style      harmonic
angle_style     harmonic
neigh_modify    one 4000

# box, start molecules on simple cubic lattice
region          mbox block 0 ${lbox} 0 ${lbox} 0 ${lbox} units box
region          mbox block 0 133 0 ${lbox} 0 ${lbox} units box
region          mbox block 0 133 0 133 0 ${lbox} units box
region          mbox block 0 133 0 133 0 133 units box
create_box      2 mbox                                       bond/types 1                                angle/types 1                               extra/bond/per/atom 2                       extra/angle/per/atom 1                      extra/special/per/atom 2
Created orthogonal box = (0 0 0) to (133 133 133)
  1 by 1 by 1 MPI processor grid
molecule        co2mol ../CO2.txt
Read molecule template co2mol:
# CO2 molecule file. TraPPE model.
  1 molecules
  0 fragments
  3 atoms with max type 2
  2 bonds with max type 1
  1 angles with max type 1
  0 dihedrals with max type 0
  0 impropers with max type 0
create_atoms   	0 random ${nmols} 34578 mbox mol co2mol 464563 overlap 1.2
create_atoms   	0 random 500 34578 mbox mol co2mol 464563 overlap 1.2
Created 1500 atoms
  using lattice units in orthogonal box = (0 0 0) to (133 133 133)
  create_atoms CPU = 0.013 seconds

# rigid CO2 TraPPE model

pair_coeff      1   1  0.053649   2.800
pair_coeff      2   2  0.156973   3.050
bond_coeff      1       0       1.16
angle_coeff     1       0       180

# masses

mass 1 12.0107
mass 2 15.9994

write_data init_conf.data  pair ij
System init for write_data ...
PPPM initialization ...
  using 12-bit tables for long-range coulomb (src/kspace.cpp:342)
  G vector (1/distance) = 0.16213167
  grid = 27 27 27
  stencil order = 5
  estimated absolute RMS force accuracy = 0.038078778
  estimated relative force accuracy = 0.00011467311
  using double precision FFTW3
  3d grid and FFT values/proc = 32768 19683
Generated 1 of 1 mixed pair_coeff terms from arithmetic mixing rule

# MD settings

group           co2 type 1 2
1500 atoms in group co2
velocity       	all create 300 54654
timestep        0.25

# rigid constraints with thermostat
fix             myrigidnvt co2 rigid/nvt molecule temp 300 300 $(100*dt)
fix             myrigidnvt co2 rigid/nvt molecule temp 300 300 25
  500 rigid bodies with 1500 atoms

thermo 1000
thermo_style custom step temp density press ke pe etotal


variable    mvol equal vol
variable    mden equal density
variable	mtmp equal temp
variable    mpre equal press

fix mydat all ave/time 1 4000 4000 v_mtmp v_mden v_mpre file statistics.dat ## every 1ps

run 4000000 ## 1ns

CITE-CITE-CITE-CITE-CITE-CITE-CITE-CITE-CITE-CITE-CITE-CITE-CITE

Your simulation uses code contributions which should be cited:

- GPU package (short-range, long-range and three-body potentials): doi:10.1016/j.cpc.2010.12.021, doi:10.1016/j.cpc.2011.10.012, doi:10.1016/j.cpc.2013.08.002, doi:10.1016/j.commatsci.2014.10.068, doi:10.1016/j.cpc.2016.10.020, doi:10.3233/APC200086

@Article{Brown11,
 author = {W. M. Brown and P. Wang and S. J. Plimpton and A. N. Tharrington},
 title = {Implementing Molecular Dynamics on Hybrid High Performance Computers---Short Range Forces},
 journal = {Comput.\ Phys.\ Commun.},
 year =    2011,
 volume =  182,
 pages =   {898--911},
 doi =     {10.1016/j.cpc.2010.12.021}
}

@Article{Brown12,
 author = {W. M. Brown and A. Kohlmeyer and S. J. Plimpton and A. N. Tharrington},
 title = {Implementing Molecular Dynamics on Hybrid High Performance Computers - Particle-Particle Particle-Mesh},
 journal = {Comput.\ Phys.\ Commun.},
 year =    2012,
 volume =  183,
 doi =     {10.1016/j.cpc.2011.10.012},
 pages =   {449--459}
}

@Article{Brown13,
 author = {W. M. Brown and Y. Masako},
 title = {Implementing Molecular Dynamics on Hybrid High Performance Computers---Three-Body Potentials},
 journal = {Comput.\ Phys.\ Commun.},
 year =    2013,
 volume =  184,
 pages =   {2785--2793},
 doi =     {10.1016/j.cpc.2013.08.002},
}

@Article{Trung15,
 author = {T. D. Nguyen and S. J. Plimpton},
 title = {Accelerating Dissipative Particle Dynamics Simulations for Soft Matter Systems},
 journal = {Comput.\ Mater.\ Sci.},
 year =    2015,
 doi =     {10.1016/j.commatsci.2014.10.068},
 volume =  100,
 pages =   {173--180}
}

@Article{Trung17,
 author = {T. D. Nguyen},
 title = {{GPU}-Accelerated {T}ersoff Potentials for Massively Parallel
    Molecular Dynamics Simulations},
 journal = {Comput.\ Phys.\ Commun.},
 year =    2017,
 doi =     {10.1016/j.cpc.2016.10.020},
 volume =  212,
 pages =   {113--122}
}

@inproceedings{Nikolskiy19,
 author = {V. Nikolskiy and V. Stegailov},
 title = {{GPU} Acceleration of Four-Site Water Models in {LAMMPS}},
 booktitle = {Proceedings of the International Conference on Parallel
    Computing (ParCo 2019), Prague, Czech Republic},
 doi =     {10.3233/APC200086},
 year =    2019
}

CITE-CITE-CITE-CITE-CITE-CITE-CITE-CITE-CITE-CITE-CITE-CITE-CITE

PPPM initialization ...
  using 12-bit tables for long-range coulomb (src/kspace.cpp:342)
  G vector (1/distance) = 0.16213167
  grid = 27 27 27
  stencil order = 5
  estimated absolute RMS force accuracy = 0.038078778
  estimated relative force accuracy = 0.00011467311
  using double precision FFTW3
  3d grid and FFT values/proc = 32768 19683
Generated 1 of 1 mixed pair_coeff terms from arithmetic mixing rule
Per MPI rank memory allocation (min/avg/max) = 10.39 | 10.39 | 10.39 Mbytes
   Step          Temp         Density         Press          KinEng         PotEng         TotEng    
         0   307.41471      0.015531399   -181.39325      762.70438      25145.606      25908.31     
      1000   312.85348      0.015531399    13.007603      776.1981      -19.519209      756.6789     
      2000   312.72242      0.015531399    5.1036105      775.87294     -26.049296      749.82364    
      3000   283.71502      0.015531399    10.466171      703.90479     -30.84613       673.05866    
      4000   308.13929      0.015531399    18.062191      764.50206     -37.934263      726.5678     
      5000   313.34771      0.015531399    9.5917894      777.42431     -41.901703      735.52261    
      6000   299.44406      0.015531399    14.475953      742.92897     -44.095944      698.83303    
      7000   282.81143      0.015531399    7.8836025      701.66296     -46.282976      655.37998    
      8000   303.66746      0.015531399    7.5016164      753.40733     -53.314002      700.09333    
      9000   309.22773      0.015531399    8.2491182      767.20253     -57.388312      709.81422    
     10000   294.12962      0.015531399    7.4841818      729.7437      -57.54519       672.19851    
     11000   299.35537      0.015531399    8.9738322      742.70892     -57.42521       685.28371    
     12000   307.87436      0.015531399    11.273599      763.84477     -52.248121      711.59665    
     13000   299.80295      0.015531399    7.6964005      743.81938     -57.574269      686.24512    
     14000   298.83388      0.015531399    9.4546035      741.41511     -58.457175      682.95793    
     15000   303.0099       0.015531399    10.901656      751.77591     -61.651866      690.12404    
     16000   290.30333      0.015531399    5.2289824      720.25056     -65.221793      655.02876    
     17000   293.50227      0.015531399    9.901967       728.18722     -61.589099      666.59812    
     18000   307.95988      0.015531399    9.6576599      764.05694     -65.659541      698.3974     
     19000   302.63723      0.015531399    8.813801       750.8513      -65.923293      684.92801    
     20000   302.83158      0.015531399    6.6117694      751.33349     -65.412483      685.92101    
     21000   288.66821      0.015531399    6.2528638      716.19378     -67.192167      649.00161    
     22000   300.57942      0.015531399    12.288181      745.74583     -67.951565      677.79426    
     23000   290.89862      0.015531399    6.5150462      721.7275      -69.855405      651.8721     
     24000   294.18131      0.015531399    8.1243702      729.87194     -76.168113      653.70382    
     25000   308.02641      0.015531399    8.7634821      764.22201     -77.646923      686.57509    
     26000   298.65435      0.015531399    8.3003014      740.96967     -77.25695       663.71272    
     27000   302.25424      0.015531399    5.6621744      749.90109     -82.046142      667.85495    
     28000   301.06888      0.015531399    8.3934053      746.96018     -80.135489      666.82469    
     29000   302.76149      0.015531399    10.341992      751.1596      -79.037885      672.12171    
     30000   305.42462      0.015531399    11.005898      757.7669      -85.777906      671.98899    
     31000   295.05053      0.015531399    5.420957       732.02851     -81.313337      650.71517    
     32000   305.58872      0.015531399    4.5456143      758.17405     -83.37282       674.80123    
     33000   306.70515      0.015531399    6.9673004      760.94392     -86.729253      674.21467    
     34000   289.13328      0.015531399    15.14228       717.34763     -87.65628       629.69135    
     35000   290.07297      0.015531399    10.662712      719.67902     -85.693707      633.98532    
     36000   301.86252      0.015531399    7.3513383      748.92924     -86.270308      662.65894    
     37000   305.35308      0.015531399    5.9504073      757.58941     -89.499667      668.08974    
     38000   293.86273      0.015531399    7.223732       729.08153     -90.372348      638.70918    
     39000   305.90885      0.015531399    18.764933      758.9683      -88.72878       670.23952    
     40000   293.56964      0.015531399    7.4738708      728.35437     -86.33012       642.02425    
     41000   307.85706      0.015531399    7.8228229      763.80185     -86.898043      676.90381    
     42000   304.07806      0.015531399    8.3050675      754.42604     -85.26288       669.16316    
     43000   284.88577      0.015531399    13.643614      706.80945     -91.195433      615.61402    
     44000   288.83053      0.015531399    5.3782725      716.59652     -91.704408      624.89211    
     45000   318.39482      0.015531399   -6.2946792      789.94632     -91.11585       698.83047    
     46000   311.8385       0.015531399    6.5630275      773.6799      -87.71151       685.96839    
     47000   297.05557      0.015531399    14.607066      737.00306     -93.057651      643.94541    
     48000   290.37667      0.015531399    7.272157       720.43253     -90.421393      630.01113    
     49000   313.82358      0.015531399    8.5143926      778.60496     -92.715856      685.8891     
     50000   304.99739      0.015531399    7.6750725      756.70693     -91.619292      665.08763    
     51000   283.07786      0.015531399    6.6065097      702.32397     -94.298994      608.02497    
     52000   294.23695      0.015531399    10.324257      730.00998     -94.565961      635.44402    
     53000   314.12994      0.015531399    12.024632      779.36504     -96.435139      682.9299     
     54000   302.88002      0.015531399    5.8968887      751.45369     -93.614257      657.83943    
     55000   283.01212      0.015531399    7.2892706      702.16087     -88.860833      613.30003    
     56000   301.91248      0.015531399    12.767543      749.05317     -89.755099      659.29807    
     57000   308.84923      0.015531399    5.799134       766.26344     -94.968699      671.29474    
     58000   299.48779      0.015531399    7.72418        743.03747     -100.67346      642.36401    
     59000   299.34333      0.015531399    8.3790647      742.67904     -96.781549      645.8975     
     60000   298.40712      0.015531399    6.6555101      740.3563      -98.515312      641.84099    
     61000   297.81834      0.015531399    7.8311453      738.8955      -98.247207      640.6483     
     62000   297.19839      0.015531399    16.380839      737.3574      -99.937164      637.42024    
     63000   286.15949      0.015531399    4.2306275      709.96957     -102.66696      607.30261    
     64000   311.72854      0.015531399    3.4087495      773.40711     -101.90755      671.49956    
     65000   306.72104      0.015531399    10.147148      760.98335     -101.49431      659.48904    
     66000   295.46371      0.015531399    8.1364877      733.0536      -99.619788      633.43381    
     67000   292.04614      0.015531399    8.0521042      724.57452     -105.64271      618.93182    
     68000   309.80945      0.015531399    10.696529      768.64578     -108.71439      659.93139    
     69000   299.90018      0.015531399    5.207568       744.06062     -102.20643      641.85419    
     70000   292.97871      0.015531399    9.8462769      726.88826     -105.0969       621.79135    
     71000   304.19579      0.015531399    8.6417487      754.71815     -106.52841      648.18974    
     72000   296.5276       0.015531399    3.5035994      735.69315     -109.26891      626.42425    
     73000   296.75026      0.015531399    10.077789      736.24557     -105.59243      630.65314    
     74000   314.00479      0.015531399    10.643843      779.05454     -114.55934      664.4952     
     75000   302.12907      0.015531399    3.8343         749.59055     -113.9391       635.65144    
     76000   295.71529      0.015531399    7.9173207      733.67778     -112.8631       620.81468    
     77000   304.2245       0.015531399    10.210958      754.78938     -111.07009      643.71929    
     78000   299.68777      0.015531399    5.0151329      743.53361     -110.45447      633.07914    
     79000   308.77138      0.015531399   -1.3736844      766.0703      -115.11854      650.95177    
     80000   302.11651      0.015531399    7.7887182      749.55939     -110.93902      638.62037    
     81000   286.33309      0.015531399    11.120821      710.4003      -111.07173      599.32857    
     82000   301.68974      0.015531399    9.114865       748.50056     -105.68437      642.81618    
     83000   299.5118       0.015531399    11.477739      743.09703     -106.16569      636.93133    
     84000   292.73749      0.015531399    9.3459719      726.28979     -106.14456      620.14524    
     85000   300.35729      0.015531399    2.4572286      745.19471     -110.53463      634.66008    
     86000   302.38008      0.015531399    2.7412214      750.21332     -111.42205      638.79127    
     87000   303.47648      0.015531399    12.617778      752.9335      -102.85935      650.07415    
     88000   303.14685      0.015531399    0.75672409     752.1157      -109.94656      642.16914    
     89000   297.09942      0.015531399    7.8262858      737.11186     -107.88906      629.2228     
     90000   302.6235       0.015531399    3.916799       750.81725     -100.72391      650.09334    
     91000   299.09972      0.015531399    13.698718      742.07465     -107.25431      634.82034    
     92000   297.76038      0.015531399    6.9545658      738.75171     -107.7614       630.99031    
     93000   293.1722       0.015531399    18.513771      727.3683      -108.94419      618.42411    
     94000   302.52388      0.015531399    1.2481304      750.57008     -107.2736       643.29648    
     95000   296.14338      0.015531399    9.4837171      734.73989     -111.00608      623.73382    
     96000   292.71287      0.015531399    9.18982        726.2287      -110.92948      615.29922    
     97000   300.72903      0.015531399    5.7845688      746.11701     -112.84386      633.27315    
     98000   287.26792      0.015531399    4.2322433      712.71963     -105.60331      607.11632    
     99000   299.65746      0.015531399    6.1964072      743.45842     -112.42615      631.03227    
    100000   305.62738      0.015531399    3.1017874      758.26997     -106.12344      652.14653    
    101000   299.6575       0.015531399    8.2782214      743.45852     -101.29649      642.16204    
    102000   317.21159      0.015531399    19.743173      787.01069     -102.13855      684.87214    
    103000   298.63686      0.015531399    9.3230479      740.92629     -108.77845      632.14784    
    104000   300.56268      0.015531399   -0.0075712242   745.70429     -109.74998      635.95431    
    105000   305.53086      0.015531399    9.2786538      758.03049     -110.27653      647.75396    
    106000   287.47293      0.015531399    10.412206      713.22826     -113.18843      600.03983    
    107000   297.02464      0.015531399    6.2551668      736.92631     -106.78527      630.14104    
    108000   297.48831      0.015531399   -2.9294162      738.07669     -109.34043      628.73626    
    109000   302.70289      0.015531399    7.8019088      751.01422     -105.01952      645.99471    
    110000   289.67995      0.015531399    9.2663674      718.70394     -109.03424      609.6697     
    111000   295.3484       0.015531399    6.881928       732.76753     -113.56941      619.19812    
    112000   310.91361      0.015531399    6.1584085      771.38525     -111.2174       660.16785    
    113000   301.80877      0.015531399    10.461941      748.79588     -107.59571      641.20018    
    114000   289.35234      0.015531399    12.193805      717.89112     -109.40416      608.48696    
    115000   295.23466      0.015531399    7.8312695      732.48533     -110.00424      622.48109    
    116000   299.85293      0.015531399    5.9381377      743.94338     -108.22764      635.71574    
    117000   301.92522      0.015531399    10.892204      749.08479     -108.81404      640.27075    
    118000   276.28219      0.015531399    10.869753      685.46374     -107.80962      577.65411    
    119000   304.46402      0.015531399    2.5739535      755.38364     -106.0678       649.31584    
    120000   304.10695      0.015531399    19.667409      754.49772     -110.75451      643.74321    
    121000   292.08339      0.015531399    10.953028      724.66694     -110.55677      614.11017    
    122000   301.73721      0.015531399   -4.9844501      748.61834     -103.64342      644.97492    
    123000   304.55926      0.015531399   -8.6510624      755.61992     -104.97643      650.64349    
    124000   307.70606      0.015531399    2.3426089      763.42722     -111.57206      651.85516    
    125000   294.42028      0.015531399    14.278367      730.46483     -112.6292       617.83563    
    126000   295.9123       0.015531399   -3.5133859      734.16658     -105.4676       628.69898    
    127000   316.04556      0.015531399    4.5272025      784.11775     -106.60912      677.50863    
    128000   300.43194      0.015531399    11.488248      745.37993     -112.91313      632.4668     
    129000   292.37662      0.015531399    7.5791809      725.39445     -106.6662       618.72825    
    130000   308.79385      0.015531399    0.76010514     766.12605     -104.16888      661.95717    
    131000   293.99142      0.015531399    11.848564      729.40082     -100.1043       629.29652    
    132000   297.35998      0.015531399    9.072086       737.75832     -103.87267      633.88564    
    133000   302.97013      0.015531399    4.3444352      751.67724     -102.69251      648.98472    
    134000   298.69939      0.015531399    9.4391138      741.08143     -108.18255      632.89888    
    135000   296.15057      0.015531399    16.504018      734.75773     -102.04844      632.70929    
    136000   297.23655      0.015531399    6.3675123      737.45207     -111.21366      626.23841    
    137000   296.32805      0.015531399    5.2109688      735.19805     -104.7032       630.49484    
    138000   301.96933      0.015531399    6.1606962      749.19423     -108.10483      641.0894     
    139000   309.98268      0.015531399    16.732538      769.07557     -101.3897       667.68587    
    140000   299.69734      0.015531399    10.169381      743.55737     -105.65077      637.9066     
    141000   287.93732      0.015531399    2.5697348      714.38042     -105.25288      609.12754    
    142000   307.71554      0.015531399    7.2586513      763.45072     -107.93635      655.51438    
    143000   306.8283       0.015531399    13.296033      761.24947     -106.66777      654.5817     
    144000   283.16338      0.015531399    2.0940801      702.53614     -106.7193       595.81684    
    145000   294.5327       0.015531399    4.6228523      730.74374     -107.53761      623.20612    
    146000   297.01141      0.015531399    7.9999493      736.8935      -107.83707      629.05643    
    147000   296.94552      0.015531399    14.875891      736.73003     -105.26252      631.46751    
    148000   294.27323      0.015531399    11.160562      730.1         -107.73485      622.36514    
    149000   308.74983      0.015531399    3.7128991      766.01684     -101.58397      664.43286    
    150000   301.78986      0.015531399    4.3494665      748.74897     -107.49194      641.25703    
    151000   297.23509      0.015531399    7.6256863      737.44846     -103.49837      633.95009    
    152000   305.12772      0.015531399    8.5306911      757.03029     -111.2205       645.80979    
    153000   290.09353      0.015531399    6.0385459      719.73004     -110.06527      609.66477    
    154000   285.48944      0.015531399    5.6255577      708.30718     -103.61115      604.69602    
    155000   311.12548      0.015531399    6.1939385      771.9109      -103.58875      668.32214    
    156000   307.00567      0.015531399    10.753603      761.68954     -104.7806       656.90894    
    157000   284.1608       0.015531399    6.4647942      705.01077     -103.80564      601.20514    
    158000   307.73959      0.015531399    6.5880113      763.51041     -111.81526      651.69515    
    159000   307.35033      0.015531399    9.1466441      762.54464     -109.8416       652.70303    
    160000   305.57887      0.015531399    6.8009348      758.1496      -110.26543      647.88417    
    161000   303.30361      0.015531399    7.8091567      752.50461     -109.24807      643.25654    
    162000   287.23596      0.015531399    8.1485392      712.64032     -108.45772      604.1826     
    163000   316.27736      0.015531399    8.4846714      784.69285     -104.15131      680.54154    
    164000   304.42683      0.015531399    8.4977856      755.29135     -102.54015      652.75119    
    165000   300.08937      0.015531399    8.3712404      744.53001     -106.44481      638.0852     
    166000   308.26875      0.015531399    7.7120303      764.82327     -109.1379       655.68537    
    167000   297.8002       0.015531399    6.852705       738.85052     -104.16709      634.68343    
    168000   290.51376      0.015531399    8.473809       720.77265     -109.58687      611.18578    
    169000   312.13324      0.015531399    7.8258299      774.41118     -103.69508      670.7161     
    170000   307.23506      0.015531399    7.4346287      762.25866     -104.6343       657.62436    
    171000   310.16099      0.015531399   -1.5193114      769.51795     -111.36294      658.15502    
    172000   293.58238      0.015531399    2.7867279      728.38598     -107.94719      620.43878    
    173000   285.249        0.015531399    14.786275      707.71062     -104.37843      603.33219    
    174000   315.89284      0.015531399    9.6166643      783.73884     -109.73407      674.00477    
    175000   304.8694       0.015531399    3.5252319      756.38938     -108.75906      647.63033    
    176000   286.51494      0.015531399    8.4440815      710.85145     -107.43645      603.415      
    177000   313.84207      0.015531399    12.71845       778.65081     -104.0201       674.63071    
    178000   310.50955      0.015531399    7.2912575      770.38275     -106.30408      664.07868    
    179000   293.15685      0.015531399    6.3338793      727.33022     -104.99458      622.33564    
    180000   293.64952      0.015531399    7.6796417      728.55256     -106.02656      622.526      
    181000   304.99704      0.015531399    6.8778875      756.70608     -100.45706      656.24902    
    182000   304.99502      0.015531399    7.7500791      756.70105     -100.9389       655.76216    
    183000   296.27047      0.015531399    6.3380645      735.0552      -96.947368      638.10784    
    184000   293.49686      0.015531399    7.7193552      728.17381     -102.51162      625.6622     
    185000   306.62455      0.015531399    9.3213816      760.74397     -103.93627      656.8077     
    186000   305.1309       0.015531399    9.2263024      757.03818     -103.86569      653.17249    
    187000   308.92244      0.015531399    7.0059512      766.44508     -99.843403      666.60168    
    188000   303.47599      0.015531399    7.0360378      752.93229     -98.448219      654.48407    
    189000   299.64777      0.015531399    9.3198073      743.43438     -108.7024       634.73198    
    190000   315.29424      0.015531399    9.31387        782.25369     -108.13997      674.11372    
    191000   297.28646      0.015531399    8.3711503      737.5759      -101.68773      635.88817    
    192000   286.65792      0.015531399    3.9959274      711.2062      -109.00915      602.19705    
    193000   309.95246      0.015531399    11.45608       769.00059     -111.19503      657.80556    
    194000   295.34582      0.015531399    17.334308      732.76112     -100.95637      631.80474    
    195000   297.98863      0.015531399    15.6859        739.31801     -98.187414      641.13059    
    196000   294.00769      0.015531399    6.4937612      729.44119     -98.509444      630.93175    
    197000   303.24316      0.015531399    5.4418132      752.35464     -90.503409      661.85123    
    198000   317.59302      0.015531399    4.0539607      787.95704     -99.97392       687.98312    
    199000   295.06916      0.015531399    10.30084       732.07473     -98.482808      633.59192    
    200000   285.30213      0.015531399    13.075526      707.84245     -97.108103      610.73435    
    201000   313.76246      0.015531399    4.5522774      778.45332     -95.604893      682.84843    
    202000   311.52141      0.015531399    8.3697657      772.8932      -99.824025      673.06918    
    203000   280.27562      0.015531399    9.2491544      695.37154     -105.28071      590.09083    
    204000   292.12808      0.015531399    6.8215481      724.77783     -97.351436      627.42639    
    205000   297.83034      0.015531399    5.2274703      738.92528     -99.616288      639.30899    
    206000   307.67962      0.015531399    3.5495197      763.36163     -95.115984      668.24564    
    207000   301.41636      0.015531399    8.014129       747.8223      -85.191304      662.63099    
    208000   300.23676      0.015531399    8.0280636      744.89568     -86.154977      658.7407     
    209000   306.94479      0.015531399    10.378835      761.53849     -86.845735      674.69275    
    210000   294.48108      0.015531399    8.288808       730.61568     -82.482655      648.13303    
    211000   296.14709      0.015531399    5.9596686      734.7491      -84.046096      650.703      
    212000   301.20539      0.015531399    7.4126563      747.29888     -84.72079       662.57809    
    213000   295.15107      0.015531399    7.5511489      732.27794     -80.492855      651.78508    
    214000   300.49196      0.015531399    6.4992651      745.52884     -78.954254      666.57459    
    215000   315.68948      0.015531399    11.507125      783.23429     -80.82794       702.40635    
    216000   302.80198      0.015531399    8.0560875      751.26005     -88.819374      662.44068    
    217000   296.75375      0.015531399    5.3282347      736.25423     -85.455006      650.79922    
    218000   301.17782      0.015531399    2.2048386      747.23048     -84.444816      662.78566    
    219000   298.50918      0.015531399    10.48464       740.60951     -84.998727      655.61078    
    220000   298.39248      0.015531399    2.9997133      740.31996     -83.447714      656.87225    
    221000   294.11538      0.015531399    7.8380346      729.70835     -84.530713      645.17764    
    222000   291.50605      0.015531399    9.8065543      723.23454     -82.426692      640.80785    
    223000   305.03604      0.015531399    8.2918101      756.80281     -80.63191       676.1709     
    224000   287.42014      0.015531399    10.269133      713.0973      -83.667858      629.42944    
    225000   287.89275      0.015531399    6.1869238      714.26986     -81.944245      632.32561    
    226000   293.73837      0.015531399    5.0821957      728.773       -82.591571      646.18143    
    227000   302.4688       0.015531399    6.4248671      750.43343     -76.030994      674.40244    
    228000   294.55325      0.015531399    9.1185684      730.79473     -80.568308      650.22643    
    229000   298.85612      0.015531399    8.1585156      741.47028     -77.618845      663.85144    
    230000   292.11076      0.015531399    7.456096       724.73485     -74.198536      650.53631    
    231000   309.77214      0.015531399    7.7324797      768.55322     -83.9207        684.63252    
    232000   295.56646      0.015531399    8.0196868      733.30853     -75.961681      657.34685    
    233000   300.83361      0.015531399    7.7043477      746.37647     -74.90895       671.46752    
    234000   292.19415      0.015531399    7.4841567      724.94173     -76.721771      648.21996    
    235000   282.74435      0.015531399    10.975501      701.49652     -83.719206      617.77732    
    236000   299.7317       0.015531399    7.4747854      743.64262     -79.893541      663.74908    
    237000   309.35467      0.015531399    8.548467       767.51747     -78.459633      689.05783    
    238000   297.23719      0.015531399    7.7392279      737.45366     -74.226451      663.22721    
    239000   307.90583      0.015531399    7.0461603      763.92286     -73.37224       690.55062    
    240000   305.38411      0.015531399    8.4161966      757.66638     -73.458202      684.20818    
    241000   301.71611      0.015531399    7.4233037      748.566       -79.464312      669.10168    
    242000   294.96642      0.015531399    7.5625733      731.81981     -79.176714      652.6431     
    243000   312.1104       0.015531399    10.115911      774.3545      -74.601725      699.75278    
    244000   297.27971      0.015531399    8.013166       737.55915     -69.401653      668.1575     
    245000   298.37412      0.015531399    7.2085761      740.27442     -75.344883      664.92954    
    246000   314.72977      0.015531399    16.832533      780.85324     -81.058837      699.7944     
    247000   298.40967      0.015531399    6.4054972      740.36262     -83.970552      656.39206    
    248000   298.53459      0.015531399    2.0531044      740.67255     -84.065398      656.60716    
    249000   307.84567      0.015531399    7.8368724      763.77359     -84.001107      679.77248    
    250000   309.69448      0.015531399    15.01451       768.36055     -84.969518      683.39103    
    251000   312.16599      0.015531399    3.6991704      774.49243     -78.335298      696.15713    
    252000   297.49436      0.015531399    1.1366624      738.09171     -80.869496      657.22221    
    253000   304.72334      0.015531399    8.8502108      756.02699     -76.814014      679.21298    
    254000   289.39869      0.015531399    15.202         718.00612     -78.330315      639.6758     
    255000   307.37292      0.015531399    1.9402622      762.60068     -84.88985       677.71083    
    256000   300.22685      0.015531399    3.0641508      744.87109     -80.661525      664.20957    
    257000   276.11086      0.015531399    8.2293224      685.03865     -80.63274       604.40592    
    258000   294.76376      0.015531399    10.705799      731.31702     -77.352031      653.96499    
    259000   311.92807      0.015531399    11.668079      773.90214     -76.449696      697.45244    
    260000   297.9641       0.015531399    4.8276978      739.25715     -77.841961      661.41518    
    261000   293.78503      0.015531399    7.4176617      728.88875     -79.218832      649.66992    
    262000   296.14576      0.015531399    8.1429139      734.7458      -76.12071       658.62509    
    263000   309.09718      0.015531399    10.590146      766.87863     -75.791357      691.08727    
    264000   291.13684      0.015531399    5.593545       722.31853     -74.840851      647.47768    
    265000   289.18584      0.015531399    8.4480765      717.47804     -74.643075      642.83496    
    266000   311.00184      0.015531399    11.138502      771.60413     -73.505327      698.09881    
    267000   319.52739      0.015531399    8.9667306      792.75626     -64.573525      728.18273    
    268000   300.12927      0.015531399    8.3349251      744.62899     -69.836723      674.79227    
    269000   284.72429      0.015531399    3.2517336      706.40881     -64.46416       641.94465    
    270000   299.00132      0.015531399    9.5300103      741.83051     -67.866738      673.96377    
    271000   303.22461      0.015531399    10.75976       752.30861     -62.568578      689.74003    
    272000   312.36703      0.015531399    9.5737683      774.99122     -67.597848      707.39337    
    273000   303.92586      0.015531399    6.7814982      754.04843     -70.786568      683.26187    
    274000   307.21572      0.015531399   -0.96737209     762.21067     -66.081871      696.1288     
    275000   288.40439      0.015531399    6.7121727      715.53925     -67.258824      648.28042    
    276000   300.72839      0.015531399    8.7584131      746.11543     -73.351395      672.76404    
    277000   301.81319      0.015531399    8.5008286      748.80683     -76.466934      672.3399     
    278000   307.10593      0.015531399    8.1248461      761.93828     -71.608865      690.32942    
    279000   308.08585      0.015531399    11.806992      764.36949     -72.568548      691.80094    
    280000   297.3983       0.015531399    5.6596142      737.85337     -69.661091      668.19228    
    281000   301.34126      0.015531399    8.5006938      747.63596     -69.422696      678.21327    
    282000   293.5303       0.015531399    8.3234815      728.25676     -67.695074      660.56168    
    283000   310.20731      0.015531399    8.0749633      769.63288     -62.964509      706.66837    
    284000   291.08663      0.015531399    8.5929803      722.19395     -58.483746      663.71021    
    285000   299.94899      0.015531399    8.0119081      744.18171     -62.745707      681.43601    
    286000   310.59691      0.015531399    9.6831708      770.59949     -65.636441      704.96305    
    287000   302.70897      0.015531399    6.5273157      751.02929     -64.570922      686.45837    
    288000   297.19364      0.015531399    6.0039249      737.34562     -63.917494      673.42813    
    289000   304.02971      0.015531399    10.307912      754.30608     -61.321953      692.98413    
    290000   303.5492       0.015531399    6.9588877      753.11393     -62.89651       690.21742    
    291000   298.50393      0.015531399    7.9215726      740.59649     -59.939677      680.65681    
    292000   304.57863      0.015531399    7.8264644      755.66799     -56.023604      699.64438    
    293000   287.8882       0.015531399    9.202462       714.25855     -59.5112        654.74735    
    294000   299.91289      0.015531399    7.5949906      744.09215     -59.677066      684.41508    
    295000   316.30632      0.015531399    10.123084      784.7647      -53.549185      731.21552    
    296000   293.72133      0.015531399    8.1458798      728.73073     -57.843659      670.88707    
    297000   298.65199      0.015531399    3.26519        740.96381     -57.085521      683.87829    
    298000   310.69236      0.015531399    10.6775        770.83631     -60.540949      710.29536    
    299000   306.12192      0.015531399    9.720108       759.49692     -67.258596      692.23832    
    300000   292.43135      0.015531399    5.5494026      725.53023     -65.59955       659.93068    
    301000   293.63733      0.015531399    8.761559       728.52232     -65.998432      662.52389    
    302000   309.13635      0.015531399    8.9366489      766.9758      -61.836085      705.13971    
    303000   294.75138      0.015531399    7.7550063      731.28629     -63.249446      668.03685    
    304000   304.62373      0.015531399    7.465506       755.77988     -58.213328      697.56655    
    305000   304.47846      0.015531399    14.510432      755.41946     -60.609785      694.80967    
    306000   302.29926      0.015531399    8.7237941      750.0128      -52.228676      697.78412    
    307000   308.89913      0.015531399    7.23283        766.38726     -53.569199      712.81806    
    308000   294.02541      0.015531399    7.8858752      729.48516     -53.103829      676.38133    
    309000   297.63878      0.015531399    13.314419      738.45002     -56.625498      681.82452    
    310000   294.14553      0.015531399    11.134089      729.78316     -54.695842      675.08732    
    311000   302.54684      0.015531399    8.2364024      750.62706     -48.430828      702.19623    
    312000   293.0652       0.015531399    8.0083968      727.10283     -50.237729      676.86511    
    313000   312.49371      0.015531399    8.3764299      775.30551     -53.971967      721.33354    
    314000   300.63484      0.015531399    9.5758012      745.88333     -56.741418      689.14191    
    315000   288.34845      0.015531399    12.9132        715.40046     -59.601555      655.7989     
    316000   301.18928      0.015531399    6.9736364      747.2589      -55.263628      691.99527    
    317000   299.83802      0.015531399    5.1147368      743.90638     -58.354896      685.55149    
    318000   296.57389      0.015531399    5.437266       735.80801     -55.309735      680.49827    
    319000   299.9734       0.015531399    10.870744      744.24228     -51.045756      693.19652    
    320000   304.34817      0.015531399    8.922809       755.0962      -51.191221      703.90498    
    321000   294.60528      0.015531399    4.8943423      730.92383     -54.955124      675.96871    
    322000   299.2845       0.015531399    8.2643889      742.53308     -54.384032      688.14905    
    323000   304.63974      0.015531399    7.3403003      755.81959     -62.141574      693.67801    
    324000   299.91376      0.015531399    9.4310729      744.09429     -61.629031      682.46526    
    325000   302.98232      0.015531399    8.2536353      751.70748     -59.996852      691.71063    
    326000   308.01824      0.015531399    10.654292      764.20174     -62.696853      701.50488    
    327000   307.99295      0.015531399    8.7138282      764.139       -58.568313      705.57069    
    328000   295.6141       0.015531399    9.3334234      733.42672     -60.816491      672.61023    
    329000   292.75441      0.015531399    4.476117       726.33176     -58.639179      667.69258    
    330000   306.57144      0.015531399    8.4461138      760.61218     -66.957509      693.65467    
    331000   304.22925      0.015531399    10.040504      754.80115     -66.421789      688.37937    
    332000   298.19077      0.015531399    7.4206377      739.81953     -68.607941      671.21159    
    333000   302.31316      0.015531399    7.5387419      750.04728     -63.521584      686.5257     
    334000   306.03774      0.015531399    8.699261       759.28807     -56.496883      702.79119    
    335000   309.1554       0.015531399    7.8284835      767.02307     -58.453242      708.56983    
    336000   301.70291      0.015531399    8.4681951      748.53324     -55.331696      693.20155    
    337000   293.57647      0.015531399    8.3990193      728.37131     -53.546296      674.82501    
    338000   301.4007       0.015531399    9.9687216      747.78345     -50.378099      697.40535    
    339000   296.25254      0.015531399    7.7207038      735.01072     -55.268587      679.74213    
    340000   304.97993      0.015531399    7.5114117      756.66361     -53.598161      703.06544    
    341000   300.75189      0.015531399    7.8776504      746.17373     -56.439373      689.73435    
    342000   295.37873      0.015531399    9.3950875      732.84276     -56.947141      675.89562    
    343000   311.22165      0.015531399    8.5908193      772.14948     -62.197859      709.95162    
    344000   303.97363      0.015531399    8.4053585      754.16695     -61.963895      692.20305    
    345000   294.95073      0.015531399    7.9034585      731.7809      -56.253781      675.52712    
    346000   286.15373      0.015531399    6.4541129      709.95529     -56.4933        653.46199    
    347000   312.44566      0.015531399    2.6343296      775.18629     -57.173153      718.01314    
    348000   303.88903      0.015531399    11.704364      753.95707     -57.749445      696.20762    
    349000   295.80168      0.015531399    13.300302      733.89212     -57.054507      676.83762    
    350000   304.79504      0.015531399    7.5909815      756.2049      -56.815183      699.38972    
    351000   307.96626      0.015531399    7.5458307      764.07279     -58.595181      705.47761    
    352000   301.66939      0.015531399    7.3681762      748.45008     -53.944836      694.50524    
    353000   288.69328      0.015531399    6.6399113      716.256       -54.857217      661.39878    
    354000   281.51416      0.015531399    9.7619187      698.44439     -54.505157      643.93924    
    355000   304.10547      0.015531399    8.6521978      754.49405     -55.101441      699.39261    
    356000   316.97773      0.015531399    7.6135332      786.4305      -57.516057      728.91444    
    357000   302.6066       0.015531399    6.4468164      750.77533     -59.573524      691.2018     
    358000   294.99187      0.015531399    7.9009791      731.88297     -54.503101      677.37987    
    359000   296.80446      0.015531399    9.0356092      736.38004     -51.513172      684.86687    
    360000   306.282        0.015531399    8.5983726      759.89409     -56.69469       703.1994     
    361000   301.31685      0.015531399    7.5732976      747.5754      -54.698205      692.8772     
    362000   300.06211      0.015531399    8.1734264      744.46237     -51.857455      692.60492    
    363000   290.48197      0.015531399    8.9706757      720.69378     -57.860183      662.8336     
    364000   303.00178      0.015531399    9.8045055      751.75577     -51.841047      699.91473    
    365000   294.29598      0.015531399    8.5480033      730.15644     -57.105797      673.05065    
    366000   297.6554       0.015531399    6.4843986      738.49126     -52.544081      685.94718    
    367000   308.31396      0.015531399    2.7048446      764.93543     -53.850099      711.08533    
    368000   300.51133      0.015531399    9.2056531      745.57688     -53.705613      691.87127    
    369000   301.20641      0.015531399    13.183713      747.3014      -50.689341      696.61206    
    370000   296.39529      0.015531399    4.4858015      735.36488     -46.160843      689.20404    
    371000   300.69278      0.015531399    9.5483837      746.02708     -51.818995      694.20808    
    372000   295.40699      0.015531399    9.4165406      732.91289     -46.154022      686.75886    
    373000   292.8601       0.015531399    4.4433182      726.59398     -45.377458      681.21653    
    374000   303.30715      0.015531399    6.8763021      752.51339     -46.169912      706.34348    
    375000   301.82604      0.015531399    11.120476      748.83872     -50.604447      698.23427    
    376000   295.14411      0.015531399    8.1819663      732.26067     -52.277018      679.98365    
    377000   308.23231      0.015531399    7.9076586      764.73286     -50.905521      713.82734    
    378000   302.57178      0.015531399    9.2634328      750.68892     -46.201347      704.48758    
    379000   300.63797      0.015531399    8.3429087      745.8911      -46.96221       698.92889    
    380000   291.3933       0.015531399    7.5083754      722.95482     -45.294019      677.6608     
    381000   299.04043      0.015531399    8.3661472      741.92755     -46.23761       695.68994    
    382000   306.51015      0.015531399    5.9990275      760.46012     -51.170488      709.28963    
    383000   298.86484      0.015531399    8.5202582      741.49191     -46.80425       694.68766    
    384000   305.50614      0.015531399    7.4840541      757.96915     -44.637492      713.33166    
    385000   307.82615      0.015531399    8.5282449      763.72516     -47.076536      716.64862    
    386000   292.24472      0.015531399    8.6035355      725.0672      -43.120238      681.94696    
    387000   291.2587       0.015531399    7.945766       722.62087     -48.179049      674.44182    
    388000   302.03535      0.015531399    8.7043008      749.35804     -44.961588      704.39645    
    389000   303.77524      0.015531399    8.1248031      753.67475     -45.813011      707.86174    
    390000   296.88207      0.015531399    11.652541      736.57261     -47.356129      689.21648    
    391000   301.02052      0.015531399    11.038423      746.84022     -51.005803      695.83442    
    392000   302.04273      0.015531399    3.5617715      749.37635     -47.794007      701.58234    
    393000   300.53518      0.015531399    5.9999942      745.63606     -42.369535      703.26653    
    394000   292.87643      0.015531399    6.3152543      726.63449     -41.618226      685.01626    
    395000   301.71019      0.015531399    20.01506       748.55129     -41.25713       707.29416    
    396000   302.47045      0.015531399    15.577413      750.43753     -42.698035      707.7395     
    397000   300.63179      0.015531399    12.80649       745.87576     -42.945966      702.92979    
    398000   311.4547       0.015531399    4.9343068      772.72771     -44.72082       728.00689    
    399000   297.81937      0.015531399    3.5339121      738.89808     -45.326265      693.57181    
    400000   294.63342      0.015531399    9.8518748      730.99363     -44.763034      686.23059    
    401000   311.94297      0.015531399    13.597428      773.93912     -48.521044      725.41807    
    402000   314.56558      0.015531399    3.8371283      780.44587     -39.595623      740.85024    
    403000   286.0887       0.015531399    7.3457317      709.79396     -42.40518       667.38878    
    404000   295.78213      0.015531399    8.3985068      733.84362     -45.762493      688.08113    
    405000   324.52113      0.015531399    12.597379      805.14588     -43.989451      761.15643    
    406000   299.77598      0.015531399    5.8076757      743.75247     -48.859178      694.8933     
    407000   296.73834      0.015531399    7.7146084      736.21601     -46.088713      690.1273     
    408000   300.27918      0.015531399    7.4506229      745.00091     -43.923131      701.07778    
    409000   295.74138      0.015531399    7.3382974      733.74252     -40.829419      692.9131     
    410000   298.17169      0.015531399    7.704106       739.77218     -45.346656      694.42552    
    411000   307.76728      0.015531399    7.5659441      763.57909     -47.236015      716.34308    
    412000   291.73403      0.015531399    7.2686834      723.80018     -48.175579      675.6246     
    413000   313.154        0.015531399    13.519253      776.9437      -46.779647      730.16405    
    414000   291.12929      0.015531399    3.7552637      722.2998      -47.595093      674.70471    
    415000   293.85538      0.015531399    7.8356498      729.06331     -51.017649      678.04566    
    416000   304.9221       0.015531399    9.8684996      756.52014     -50.284876      706.23526    
    417000   301.38309      0.015531399    4.9189242      747.73976     -49.949003      697.79076    
    418000   290.06807      0.015531399    7.5088604      719.66689     -53.984736      665.68215    
    419000   307.18701      0.015531399    7.8451957      762.13945     -54.417198      707.72225    
    420000   309.12198      0.015531399    7.5830168      766.94016     -52.133522      714.80664    
    421000   288.51628      0.015531399    7.2148827      715.81684     -50.670018      665.14682    
    422000   291.24218      0.015531399    8.2467676      722.57988     -50.305349      672.27453    
    423000   288.84492      0.015531399    9.578504       716.6322      -47.233231      669.39897    
    424000   307.22887      0.015531399    12.754843      762.24329     -41.638938      720.60436    
    425000   295.7523       0.015531399    3.6843585      733.76961     -40.69283       693.07678    
    426000   298.3908       0.015531399    13.582544      740.3158      -37.73047       702.58533    
    427000   301.33602      0.015531399    14.352876      747.62297     -40.76422       706.85875    
    428000   313.3478       0.015531399    7.1527266      777.42453     -44.580228      732.84431    
    429000   293.81588      0.015531399    7.9948897      728.96531     -43.708925      685.25638    
    430000   298.59906      0.015531399    9.0331798      740.83251     -46.101905      694.7306     
    431000   312.40164      0.015531399    13.959172      775.07707     -46.424419      728.65265    
    432000   327.27026      0.015531399    5.5252796      811.96653     -40.734601      771.23193    
    433000   297.11304      0.015531399    7.7159453      737.14565     -39.330949      697.8147     
    434000   298.79802      0.015531399    13.801358      741.32613     -39.142756      702.18337    
    435000   306.8404       0.015531399    9.1124559      761.27948     -41.453493      719.82599    
    436000   318.48288      0.015531399    0.88870167     790.16481     -47.079037      743.08577    
    437000   291.98767      0.015531399    7.2914008      724.42945     -52.225782      672.20367    
    438000   289.41487      0.015531399    16.198732      718.04628     -47.611121      670.43516    
    439000   296.75494      0.015531399    4.7690681      736.25719     -41.801901      694.45529    
    440000   298.31856      0.015531399    9.1172671      740.13656     -44.840892      695.29567    
    441000   318.30009      0.015531399    11.954209      789.7113      -44.250758      745.46055    
    442000   293.88102      0.015531399    3.8882479      729.1269      -44.764934      684.36196    
    443000   289.54889      0.015531399    9.1431505      718.37877     -37.046196      681.33258    
    444000   306.28142      0.015531399    9.0152376      759.89265     -38.984753      720.9079     
    445000   296.16498      0.015531399    5.3824711      734.79347     -38.522821      696.27065    
    446000   289.5085       0.015531399    7.8855018      718.27858     -37.887026      680.39155    
    447000   297.46984      0.015531399    11.496772      738.03087     -39.201791      698.82908    
    448000   306.2783       0.015531399    10.742646      759.8849      -37.994905      721.88999    
    449000   298.91295      0.015531399    7.6842018      741.61127     -38.600435      703.01083    
    450000   298.70749      0.015531399    4.0788932      741.10152     -38.696448      702.40508    
    451000   286.47917      0.015531399    16.050924      710.76271     -33.150204      677.6125     
    452000   308.96682      0.015531399    9.4823202      766.55521     -29.388319      737.16689    
    453000   306.84301      0.015531399    3.4818073      761.28596     -32.546906      728.73905    
    454000   298.51456      0.015531399    8.8351245      740.62285     -33.956607      706.66624    
    455000   299.01482      0.015531399    9.8718641      741.86401     -35.628002      706.236      
    456000   317.76021      0.015531399    7.9281722      788.37184     -30.296546      758.07529    
    457000   293.96062      0.015531399    7.4354562      729.3244      -35.183495      694.14091    
    458000   294.57339      0.015531399    10.324427      730.8447      -35.699892      695.14481    
    459000   305.49632      0.015531399    7.5803209      757.94479     -34.050014      723.89478    
    460000   298.45876      0.015531399    7.787172       740.4844      -36.016697      704.4677     
    461000   289.81499      0.015531399    10.110443      719.03897     -33.670594      685.36838    
    462000   304.32528      0.015531399    9.9864096      755.03942     -35.521666      719.51775    
    463000   311.49681      0.015531399    9.0684103      772.83218     -38.264932      734.56725    
    464000   300.60955      0.015531399    8.554819       745.82057     -36.614867      709.2057     
    465000   294.29497      0.015531399    8.4305876      730.15394     -31.650581      698.50336    
    466000   289.31958      0.015531399    8.8140125      717.80986     -26.445176      691.36468    
    467000   287.66511      0.015531399    9.1029481      713.70507     -20.488536      693.21653    
    468000   307.20331      0.015531399    11.857601      762.17989     -25.32612       736.85377    
    469000   299.94464      0.015531399    13.870207      744.17092     -22.455941      721.71498    
    470000   286.38214      0.015531399    6.5011594      710.52197     -28.066139      682.45583    
    471000   295.49616      0.015531399    6.431793       733.13412     -24.62966       708.50446    
    472000   306.50867      0.015531399    8.4651331      760.45646     -30.59775       729.85871    
    473000   307.71684      0.015531399    9.5111951      763.45396     -32.041009      731.41295    
    474000   293.54808      0.015531399    7.9068615      728.30088     -29.579926      698.72095    
    475000   308.78037      0.015531399    7.3845441      766.0926      -31.902077      734.19052    
    476000   296.13019      0.015531399    10.661224      734.70716     -26.981562      707.7256     
    477000   303.95279      0.015531399    8.7032013      754.11526     -26.402617      727.71264    
    478000   310.42201      0.015531399   -0.098239414    770.16556     -30.34141       739.82415    
    479000   301.66006      0.015531399    10.812326      748.42692     -29.308931      719.11799    
    480000   273.11318      0.015531399    4.1847807      677.60133     -31.110711      646.49062    
    481000   302.47493      0.015531399    4.5699096      750.44864     -30.921146      719.5275     
    482000   305.76938      0.015531399    7.9891017      758.62226     -28.485865      730.1364     
    483000   295.76798      0.015531399    9.8052937      733.80851     -30.168594      703.63991    
    484000   297.84746      0.015531399    5.5856554      738.96776     -31.12833       707.83943    
    485000   305.46216      0.015531399    5.7046788      757.86003     -31.201248      726.65879    
    486000   311.96712      0.015531399    14.858183      773.99903     -28.178318      745.82072    
    487000   296.89779      0.015531399    10.207724      736.6116      -28.691965      707.91964    
    488000   310.04575      0.015531399    3.6135845      769.23205     -26.656748      742.5753     
    489000   310.16532      0.015531399    13.656951      769.5287      -22.253674      747.27502    
    490000   295.02999      0.015531399    9.725788       731.97753     -23.557342      708.42019    
    491000   284.32779      0.015531399    5.7050708      705.42508     -26.099639      679.32544    
    492000   314.19929      0.015531399    8.963007       779.5371      -29.891639      749.64546    
    493000   303.95277      0.015531399    7.1619484      754.11519     -30.706674      723.40852    
    494000   293.20221      0.015531399    7.5648978      727.44277     -33.259141      694.18363    
    495000   297.42204      0.015531399    8.6541603      737.91229     -27.0728        710.83949    
    496000   301.70587      0.015531399    9.6612105      748.54058     -26.273009      722.26757    
    497000   291.15092      0.015531399    9.3816275      722.35345     -23.599196      698.75425    
    498000   295.3111       0.015531399    1.7016826      732.67498     -33.779102      698.89588    
    499000   293.5577       0.015531399    11.391029      728.32476     -32.158658      696.1661     
    500000   293.011        0.015531399    13.617792      726.96836     -31.988152      694.98021    
    501000   306.90161      0.015531399    11.537473      761.43135     -26.278296      735.15305    
    502000   311.57421      0.015531399    5.1529311      773.02421     -24.190562      748.83365    
    503000   294.67548      0.015531399    2.400319       731.09798     -22.336337      708.76164    
    504000   290.4119       0.015531399    6.728074       720.51992     -21.483085      699.03684    
    505000   297.52133      0.015531399    12.304583      738.15863     -18.553748      719.60488    
    506000   315.11344      0.015531399    7.2735666      781.80514     -20.812225      760.99291    
    507000   280.10737      0.015531399    6.8559283      694.95411     -22.910642      672.04347    
    508000   294.56901      0.015531399    10.427496      730.83384     -22.273213      708.56063    
    509000   313.34502      0.015531399    11.209747      777.41763     -17.889675      759.52796    
    510000   306.38799      0.015531399    7.8282144      760.15706     -19.673209      740.48385    
    511000   290.56254      0.015531399    9.7655001      720.89366     -24.427656      696.46601    
    512000   296.82917      0.015531399    6.0235811      736.44136     -23.73376       712.70759    
    513000   308.32179      0.015531399    8.0807568      764.95486     -20.552241      744.40262    
    514000   291.29753      0.015531399    9.060729       722.71721     -24.52023       698.19698    
    515000   295.26847      0.015531399    8.6868651      732.56921     -24.962647      707.60656    
    516000   304.22136      0.015531399   -3.8032382      754.78159     -22.970129      731.81146    
    517000   311.03658      0.015531399    10.093044      771.69032     -26.3246        745.36572    
    518000   297.45873      0.015531399    12.382956      738.00331     -24.933177      713.07013    
    519000   285.21261      0.015531399    4.6956634      707.62034     -23.686372      683.93397    
    520000   308.4609       0.015531399    5.2703351      765.3         -25.562541      739.73746    
    521000   322.15842      0.015531399    9.8262854      799.28393     -20.84556       778.43837    
    522000   282.29675      0.015531399    11.13468       700.38603     -19.71376       680.67227    
    523000   291.19468      0.015531399    6.8868553      722.46204     -22.813417      699.64862    
    524000   300.38515      0.015531399    7.4188315      745.26385     -22.074402      723.18944    
    525000   306.95737      0.015531399    8.9645003      761.5697      -21.762299      739.8074     
    526000   299.68886      0.015531399    7.0195024      743.53631     -17.928316      725.608      
    527000   295.07749      0.015531399    9.3804725      732.09538     -23.247786      708.84759    
    528000   291.85009      0.015531399    12.101536      724.08813     -22.876232      701.2119     
    529000   305.11349      0.015531399    9.4048293      756.99499     -27.885409      729.10958    
    530000   308.10158      0.015531399    10.309075      764.40851     -28.434513      735.974      
    531000   284.95716      0.015531399    9.5687028      706.98657     -25.835776      681.1508     
    532000   287.3662       0.015531399    5.3040538      712.96346     -24.057796      688.90567    
    533000   310.41583      0.015531399    9.3676983      770.15024     -20.396838      749.7534     
    534000   295.99645      0.015531399    8.1105122      734.37536     -22.709209      711.66615    
    535000   285.00598      0.015531399    6.1455921      707.10769     -22.902363      684.20533    
    536000   316.23839      0.015531399    11.362505      784.59616     -22.317905      762.27826    
    537000   303.70221      0.015531399    10.414971      753.49355     -24.133771      729.35978    
    538000   290.98626      0.015531399    3.9350134      721.94493     -29.489406      692.45553    
    539000   303.40199      0.015531399    7.8941902      752.74871     -26.322762      726.42595    
    540000   309.40449      0.015531399    14.919431      767.64107     -33.699134      733.94194    
    541000   290.91221      0.015531399    11.354559      721.76121     -30.025754      691.73546    
    542000   296.28211      0.015531399    3.5299198      735.08408     -28.66877       706.41531    
    543000   301.84739      0.015531399    19.789102      748.89169     -24.728091      724.1636     
    544000   312.58311      0.015531399    16.258145      775.52731     -26.308016      749.2193     
    545000   288.88509      0.015531399    8.087642       716.73187     -29.206479      687.52539    
    546000   290.63779      0.015531399    11.305606      721.08037     -30.403367      690.677      
    547000   290.80151      0.015531399    2.9266729      721.48655     -26.920603      694.56595    
    548000   312.41233      0.015531399    14.319753      775.10359     -25.877409      749.22618    
    549000   309.51775      0.015531399    26.126849      767.92206     -26.386369      741.53569    
    550000   283.77318      0.015531399    12.876702      704.04908     -29.055718      674.99336    
    551000   297.19727      0.015531399    4.7079255      737.35462     -24.768843      712.58578    
    552000   310.66278      0.015531399    8.323905       770.76291     -20.306582      750.45633    
    553000   306.56052      0.015531399    9.5158637      760.5851      -23.16059       737.42451    
    554000   281.44417      0.015531399    10.122969      698.27074     -24.191442      674.07929    
    555000   298.68171      0.015531399    5.4565618      741.03756     -25.554677      715.48289    
    556000   290.19393      0.015531399    1.0878206      719.97914     -23.748625      696.23052    
    557000   308.97177      0.015531399    6.9113725      766.56747     -23.045398      743.52207    
    558000   301.52262      0.015531399    9.0851128      748.08593     -24.056201      724.02973    
    559000   297.54854      0.015531399    7.2204887      738.22613     -27.531987      710.69415    
    560000   298.90778      0.015531399    9.5858395      741.59844     -23.291713      718.30672    
    561000   303.8747       0.015531399    6.9374427      753.92151     -27.175575      726.74593    
    562000   309.61102      0.015531399    8.6414757      768.15347     -28.827832      739.32563    
    563000   288.76155      0.015531399    8.9547759      716.42537     -30.215555      686.20981    
    564000   307.33526      0.015531399    8.9652821      762.50726     -24.570824      737.93643    
    565000   303.52536      0.015531399    7.9203625      753.05479     -25.910081      727.14471    
    566000   296.2117       0.015531399    8.3149931      734.9094      -26.775128      708.13428    
    567000   291.73348      0.015531399    12.009654      723.7988      -21.986536      701.81226    
    568000   305.02618      0.015531399    6.012454       756.77836     -26.055983      730.72238    
    569000   305.61865      0.015531399    6.95524        758.2483      -26.381311      731.86699    
    570000   296.17215      0.015531399    15.372927      734.81127     -24.461061      710.35021    
    571000   296.98468      0.015531399    11.92891       736.82719     -28.057241      708.76995    
    572000   314.46399      0.015531399    0.58325176     780.19384     -26.769493      753.42434    
    573000   306.81991      0.015531399    9.1956168      761.22866     -29.11319       732.11547    
    574000   305.81016      0.015531399    10.548541      758.72345     -32.267176      726.45627    
    575000   307.54621      0.015531399    8.6079302      763.03063     -33.435079      729.59555    
    576000   294.93053      0.015531399    4.9610729      731.73077     -32.481731      699.24904    
    577000   296.11258      0.015531399    7.1991901      734.66348     -28.694531      705.96895    
    578000   321.50314      0.015531399    11.818678      797.65816     -26.350067      771.3081     
    579000   297.72746      0.015531399    9.1498063      738.67003     -29.622124      709.0479     
    580000   294.32823      0.015531399    8.1156718      730.23645     -30.173099      700.06335    
    581000   306.43571      0.015531399    12.577205      760.27545     -31.003728      729.27172    
    582000   309.72218      0.015531399    5.7413045      768.42926     -27.062175      741.36709    
    583000   295.70463      0.015531399    0.71205663     733.65134     -23.190952      710.46039    
    584000   303.79056      0.015531399    10.565729      753.71276     -27.094263      726.61849    
    585000   296.35606      0.015531399    11.557433      735.26755     -28.850601      706.41695    
    586000   306.20983      0.015531399    6.8234554      759.71504     -29.454171      730.26087    
    587000   287.50328      0.015531399    4.2574748      713.30356     -29.870006      683.43355    
    588000   305.84691      0.015531399    9.3343719      758.8146      -26.944507      731.8701     
    589000   299.42287      0.015531399    7.945647       742.87639     -31.435617      711.44077    
    590000   290.73378      0.015531399    5.1400637      721.31852     -27.90519       693.41333    
    591000   303.96906      0.015531399    12.2503        754.15562     -30.894474      723.26115    
    592000   312.81655      0.015531399    8.325377       776.10649     -25.4578        750.64869    
    593000   295.381        0.015531399    4.0576994      732.84841     -29.754871      703.09354    
    594000   300.59477      0.015531399    6.8441829      745.78391     -35.297612      710.48629    
    595000   298.27248      0.015531399    10.501175      740.02224     -31.306768      708.71548    
    596000   296.79557      0.015531399    13.900107      736.35798     -29.286915      707.07107    
    597000   300.67427      0.015531399    6.142721       745.98116     -26.350623      719.63053    
    598000   309.10226      0.015531399    3.8116035      766.89124     -24.255286      742.63595    
    599000   289.62754      0.015531399    12.329724      718.5739      -25.440258      693.13364    
    600000   288.94715      0.015531399    12.530405      716.88583     -29.034918      687.85091    
    601000   303.38712      0.015531399    9.3829647      752.71181     -28.403459      724.30835    
    602000   309.83213      0.015531399    7.6870781      768.70206     -33.879024      734.82304    
    603000   292.10166      0.015531399    5.8876568      724.71226     -30.272045      694.44022    
    604000   285.83154      0.015531399    6.2420216      709.15593     -29.899633      679.25629    
    605000   305.64448      0.015531399    14.58726       758.31239     -27.98653       730.32586    
    606000   307.49625      0.015531399    7.7443213      762.90666     -31.769391      731.13727    
    607000   298.21727      0.015531399    8.4235498      739.88526     -32.270564      707.6147     
    608000   284.4172       0.015531399    7.2299822      705.64692     -34.373713      671.27321    
    609000   298.45414      0.015531399    7.5412873      740.47296     -38.798291      701.67467    
    610000   318.22749      0.015531399    7.9547483      789.53118     -30.642863      758.88832    
    611000   296.09433      0.015531399    9.2073269      734.61818     -32.206193      702.41199    
    612000   295.29086      0.015531399    8.1577749      732.62475     -31.365816      701.25894    
    613000   302.57656      0.015531399    7.961965       750.70079     -28.573919      722.12687    
    614000   314.04834      0.015531399    9.9375785      779.16259     -29.086339      750.07625    
    615000   307.33585      0.015531399    8.9879341      762.50872     -25.17869       737.33003    
    616000   294.39547      0.015531399    6.4508725      730.40328     -29.309474      701.0938     
    617000   287.00837      0.015531399    7.1834056      712.07568     -28.754874      683.3208     
    618000   309.17094      0.015531399    8.3558301      767.06163     -21.98436       745.07727    
    619000   291.58452      0.015531399    8.4931575      723.42922     -25.013099      698.41612    
    620000   291.77779      0.015531399    7.7271853      723.90874     -28.285911      695.62283    
    621000   311.38298      0.015531399    6.5399043      772.54975     -23.694174      748.85557    
    622000   308.12796      0.015531399    9.4816834      764.47396     -28.200034      736.27392    
    623000   288.4565       0.015531399    10.467083      715.66853     -31.074656      684.59387    
    624000   295.48984      0.015531399    7.0569014      733.11845     -29.859093      703.25936    
    625000   313.89043      0.015531399    6.2774374      778.77081     -29.018872      749.75194    
    626000   315.76965      0.015531399    9.5256118      783.43321     -30.233698      753.19951    
    627000   279.88938      0.015531399    6.9236435      694.41327     -25.006447      669.40683    
    628000   296.55716      0.015531399    6.6760968      735.76648     -27.430778      708.33571    
    629000   306.48767      0.015531399    7.4071598      760.40436     -22.452458      737.95191    
    630000   296.36704      0.015531399    13.49703       735.2948      -22.060561      713.23424    
    631000   295.67307      0.015531399    13.77399       733.57304     -23.862389      709.71065    
    632000   308.5482       0.015531399    6.3900607      765.51658     -23.421251      742.09533    
    633000   318.76818      0.015531399    7.2549621      790.87265     -23.611451      767.2612     
    634000   299.12542      0.015531399    12.481062      742.1384      -28.983786      713.15461    
    635000   297.41295      0.015531399    12.66907       737.88972     -27.438068      710.45165    
    636000   300.55889      0.015531399    0.92468358     745.69488     -28.700782      716.9941     
    637000   299.59223      0.015531399    10.995714      743.29657     -28.484567      714.812      
    638000   281.91599      0.015531399    9.3521898      699.44133     -30.225323      669.21601    
    639000   305.54125      0.015531399    7.2707817      758.05627     -26.86177       731.1945     
    640000   299.2536       0.015531399    5.4093035      742.45644     -30.497531      711.95891    
    641000   307.64915      0.015531399    9.9690204      763.28603     -30.952672      732.33336    
    642000   286.02041      0.015531399    9.6844843      709.62452     -26.512069      683.11245    
    643000   301.02402      0.015531399    6.7009474      746.8489      -26.957021      719.89188    
    644000   314.34969      0.015531399    7.1041179      779.91025     -28.2415        751.66875    
    645000   303.36628      0.015531399    11.934842      752.66009     -28.503392      724.1567     
    646000   293.7514       0.015531399    10.39924       728.80532     -30.26909       698.53623    
    647000   286.9725       0.015531399    6.2673997      711.98668     -37.597696      674.38899    
    648000   307.67868      0.015531399    8.1914113      763.35929     -32.762663      730.59663    
    649000   312.83105      0.015531399    12.911766      776.14246     -33.094958      743.0475     
    650000   290.84398      0.015531399    8.4616754      721.59194     -30.812471      690.77947    
    651000   294.11857      0.015531399    6.1273725      729.71629     -29.920678      699.79561    
    652000   305.99513      0.015531399    7.4421281      759.18235     -29.269014      729.91333    
    653000   302.93606      0.015531399    8.1957288      751.59272     -32.164856      719.42786    
    654000   301.60147      0.015531399    9.897136       748.28157     -30.131874      718.14969    
    655000   304.60517      0.015531399    10.64087       755.73382     -28.089878      727.64394    
    656000   296.39901      0.015531399    2.4667711      735.37412     -32.171109      703.20301    
    657000   291.82072      0.015531399    6.782269       724.01525     -25.369633      698.64561    
    658000   303.89457      0.015531399    15.277817      753.9708      -29.959594      724.0112     
    659000   301.35023      0.015531399    8.6855272      747.65822     -25.899889      721.75833    
    660000   299.42105      0.015531399    8.2168511      742.87189     -22.84065       720.03124    
    661000   306.05867      0.015531399    4.7707424      759.34        -27.664568      731.67543    
    662000   294.20731      0.015531399    10.465998      729.93646     -22.11068       707.82578    
    663000   289.71107      0.015531399    6.7123697      718.78116     -23.966076      694.81509    
    664000   301.18158      0.015531399    7.2882002      747.23981     -22.428113      724.81169    
    665000   304.12505      0.015531399    11.014103      754.54262     -26.926288      727.61633    
    666000   297.72189      0.015531399    8.7528237      738.65621     -30.552924      708.10329    
    667000   298.90079      0.015531399    8.4313136      741.58109     -28.199203      713.38189    
    668000   311.85675      0.015531399    7.8680001      773.72518     -28.555206      745.16998    
    669000   305.56918      0.015531399    8.6382238      758.12557     -28.000565      730.12501    
    670000   290.89095      0.015531399    7.6659518      721.70848     -27.817409      693.89107    
    671000   291.08538      0.015531399    10.529519      722.19086     -29.242161      692.9487     
    672000   308.43715      0.015531399    8.7072739      765.24108     -29.591005      735.65007    
    673000   300.61973      0.015531399    8.2533033      745.84583     -29.282956      716.56288    
    674000   286.20595      0.015531399    6.2141516      710.08486     -30.576069      679.50879    
    675000   287.39204      0.015531399    8.8882317      713.02757     -32.534483      680.49309    
    676000   299.95028      0.015531399    8.7030428      744.18492     -31.879149      712.30577    
    677000   306.11403      0.015531399    8.8718621      759.47735     -31.809078      727.66827    
    678000   285.85224      0.015531399    6.5766124      709.20728     -28.168082      681.0392     
    679000   297.99454      0.015531399    9.6646942      739.33266     -29.192158      710.1405     
    680000   314.21947      0.015531399    11.643892      779.58716     -29.55481       750.03235    
    681000   312.49734      0.015531399    8.0716009      775.3145      -27.346716      747.96779    
    682000   302.14771      0.015531399    8.4771931      749.63679     -27.642616      721.99418    
    683000   297.7973       0.015531399    7.4612015      738.84332     -30.366808      708.47651    
    684000   295.98538      0.015531399    8.3745383      734.34789     -30.306079      704.04181    
    685000   306.09543      0.015531399    7.3500223      759.43121     -33.235106      726.1961     
    686000   307.94107      0.015531399    6.4103037      764.01029     -31.527552      732.48274    
    687000   285.9604       0.015531399    7.3846771      709.47564     -31.168936      678.30671    
    688000   298.48097      0.015531399    12.9143        740.53952     -29.779707      710.75981    
    689000   317.9976       0.015531399    7.6718803      788.96081     -27.707483      761.25333    
    690000   293.30206      0.015531399    4.5529474      727.6905      -27.946         699.7445     
    691000   296.9799       0.015531399    8.4300178      736.81531     -28.28198       708.53333    
    692000   307.09526      0.015531399    9.5418339      761.9118      -27.506699      734.4051     
    693000   297.59384      0.015531399    8.5173072      738.33852     -24.756928      713.58159    
    694000   303.08079      0.015531399    6.5137505      751.95179     -27.610591      724.3412     
    695000   298.87408      0.015531399    8.1930375      741.51483     -25.995144      715.51969    
    696000   295.14521      0.015531399    10.858257      732.26341     -25.91028       706.35313    
    697000   298.92927      0.015531399    9.111929       741.65177     -25.511758      716.14001    
    698000   299.85836      0.015531399    8.3864976      743.95686     -27.661925      716.29493    
    699000   299.18733      0.015531399    5.9365376      742.29201     -28.121661      714.17035    
    700000   296.78341      0.015531399    9.6324302      736.32782     -25.601352      710.72646    
    701000   314.07163      0.015531399    10.187113      779.22038     -26.839868      752.38051    
    702000   307.51638      0.015531399    7.589497       762.95662     -25.668942      737.28768    
    703000   288.94351      0.015531399    6.9780827      716.87681     -32.217134      684.65967    
    704000   303.40125      0.015531399    10.383928      752.74686     -31.806271      720.94059    
    705000   321.54165      0.015531399    13.837439      797.75369     -25.415044      772.33864    
    706000   311.83254      0.015531399    6.7102753      773.66512     -26.850995      746.81413    
    707000   296.25425      0.015531399    6.9913153      735.01496     -30.059441      704.95552    
    708000   294.78029      0.015531399    11.78632       731.35804     -27.485608      703.87243    
    709000   310.00697      0.015531399    14.132869      769.13584     -30.724196      738.41164    
    710000   319.22294      0.015531399    10.590694      792.0009      -30.028166      761.97274    
    711000   286.43473      0.015531399    5.6178976      710.65245     -28.234433      682.41802    
    712000   299.67922      0.015531399    12.448331      743.5124      -28.569692      714.94271    
    713000   308.43706      0.015531399   -4.5877991      765.24085     -28.649859      736.591      
    714000   303.65414      0.015531399    8.4833013      753.3743      -30.665713      722.70859    
    715000   281.58822      0.015531399    9.9712245      698.62813     -26.162725      672.4654     
    716000   301.97857      0.015531399    16.472032      749.21716     -26.99469       722.22247    
    717000   322.44478      0.015531399   -2.4459584      799.99439     -22.628576      777.36582    
    718000   297.41225      0.015531399    6.6855929      737.88799     -20.191443      717.69654    
    719000   293.54037      0.015531399    9.065          728.28174     -22.227971      706.05377    
    720000   300.85061      0.015531399    22.981833      746.41865     -26.658584      719.76006    
    721000   311.48694      0.015531399    6.0841764      772.80768     -29.491043      743.31664    
    722000   290.60206      0.015531399   -1.1533486      720.99172     -23.176347      697.81537    
    723000   291.96395      0.015531399    11.518947      724.3706      -29.06616       695.30444    
    724000   308.6078       0.015531399    6.6613901      765.66445     -26.298401      739.36605    
    725000   305.07745      0.015531399    6.3567083      756.90555     -27.678561      729.22699    
    726000   293.44661      0.015531399    9.4321579      728.04913     -30.765325      697.2838     
    727000   305.69575      0.015531399    16.845124      758.43957     -33.786678      724.65289    
    728000   295.86423      0.015531399    5.8529581      734.04731     -29.188853      704.85845    
    729000   297.06818      0.015531399    7.3287593      737.03435     -28.53231       708.50204    
    730000   288.72563      0.015531399    10.129426      716.33625     -23.913809      692.42244    
    731000   303.42278      0.015531399    12.460577      752.80028     -18.357735      734.44255    
    732000   304.79354      0.015531399    6.6290816      756.20117     -21.563933      734.63724    
    733000   300.38009      0.015531399    6.8348693      745.25129     -21.255292      723.996      
    734000   285.20186      0.015531399    7.3574932      707.59367     -23.029543      684.56413    
    735000   309.52658      0.015531399    9.1210125      767.94397     -23.802108      744.14186    
    736000   300.24357      0.015531399    7.700874       744.91256     -29.892715      715.01985    
    737000   292.67918      0.015531399    6.7538411      726.14512     -27.907464      698.23765    
    738000   305.22926      0.015531399    9.4471179      757.28221     -26.891874      730.39034    
    739000   305.40685      0.015531399    8.6482956      757.72282     -28.380847      729.34197    
    740000   292.63289      0.015531399   -2.1040426      726.03027     -27.949913      698.08035    
    741000   293.57442      0.015531399    8.5717394      728.36624     -22.242388      706.12385    
    742000   310.21185      0.015531399    12.707455      769.64416     -25.632875      744.01128    
    743000   302.30706      0.015531399    4.3952605      750.03215     -23.557965      726.47418    
    744000   301.09077      0.015531399    8.8156495      747.0145      -26.022616      720.99188    
    745000   304.19393      0.015531399    18.943943      754.71353     -29.776183      724.93735    
    746000   312.41875      0.015531399    11.957241      775.11954     -28.7998        746.31974    
    747000   289.38078      0.015531399    6.0800903      717.96169     -30.83979       687.1219     
    748000   301.64053      0.015531399    8.3655397      748.37848     -32.398492      715.97999    
    749000   310.45693      0.015531399    8.6630321      770.25221     -33.861735      736.39047    
    750000   289.42723      0.015531399    7.3315482      718.07693     -27.784118      690.29281    
    751000   294.32778      0.015531399    8.3575021      730.23532     -30.284946      699.95038    
    752000   313.65069      0.015531399    9.1114077      778.17602     -31.738318      746.4377     
    753000   299.07284      0.015531399    7.5770055      742.00796     -29.846473      712.16149    
    754000   290.67213      0.015531399    5.3135964      721.16556     -26.210974      694.95459    
    755000   298.46098      0.015531399    10.73883       740.48992     -27.950733      712.53919    
    756000   309.94323      0.015531399    8.2895626      768.97771     -26.402223      742.57548    
    757000   296.2405       0.015531399    8.494598       734.98085     -26.420492      708.56036    
    758000   298.65703      0.015531399    7.9912348      740.97632     -24.639172      716.33715    
    759000   300.23659      0.015531399    10.285943      744.89526     -21.450833      723.44442    
    760000   319.96265      0.015531399    8.5677065      793.83615     -25.135457      768.7007     
    761000   300.7272       0.015531399    8.3054188      746.11247     -27.001563      719.11091    
    762000   298.27573      0.015531399    7.2522406      740.03031     -27.724879      712.30543    
    763000   303.7289       0.015531399    9.7613331      753.55977     -28.320615      725.23915    
    764000   316.78767      0.015531399    11.000819      785.95894     -30.063634      755.89531    
    765000   304.81958      0.015531399    8.9604477      756.26578     -28.149892      728.11589    
    766000   297.31068      0.015531399    10.245633      737.63599     -32.014198      705.62179    
    767000   301.0189       0.015531399    8.3939327      746.83619     -30.91873       715.91746    
    768000   298.11127      0.015531399    7.5131164      739.62227     -29.740409      709.88186    
    769000   299.26661      0.015531399    8.6741326      742.48872     -25.841825      716.64689    
    770000   314.04985      0.015531399    9.4238949      779.16633     -28.314186      750.85214    
    771000   293.8523       0.015531399    7.6791473      729.05565     -30.566291      698.48936    
    772000   303.97511      0.015531399    7.2699485      754.17062     -25.637319      728.5333     
    773000   292.8528       0.015531399    10.931341      726.57587     -28.986496      697.58938    
    774000   301.68955      0.015531399    7.2930591      748.5001      -28.949925      719.55017    
    775000   310.88299      0.015531399    7.8466081      771.30927     -30.718743      740.59052    
    776000   286.32486      0.015531399    7.4146789      710.37987     -29.087273      681.2926     
    777000   294.613        0.015531399    8.2231601      730.94296     -24.222652      706.72031    
    778000   306.44918      0.015531399    8.6197653      760.30887     -26.626987      733.68189    
    779000   308.90635      0.015531399    8.6635564      766.40517     -24.516758      741.88842    
    780000   297.7354       0.015531399    7.8253103      738.68974     -25.208318      713.48142    
    781000   307.55851      0.015531399    9.2524568      763.06114     -27.063866      735.99728    
    782000   296.53208      0.015531399    11.53888       735.70426     -28.110771      707.59349    
    783000   303.27997      0.015531399    8.1508411      752.44596     -27.959296      724.48667    
    784000   308.95249      0.015531399    7.5247466      766.51964     -28.039166      738.48047    
    785000   287.99963      0.015531399    3.7225128      714.53502     -25.827735      688.70728    
    786000   295.93893      0.015531399    12.251078      734.23265     -24.257151      709.9755     
    787000   308.93091      0.015531399    8.0891406      766.4661      -27.709174      738.75693    
    788000   306.83196      0.015531399   -3.6196517      761.25856     -21.887706      739.37085    
    789000   296.1499       0.015531399    10.860467      734.75607     -22.764311      711.99176    
    790000   301.62015      0.015531399    9.0689669      748.32791     -25.29902       723.02889    
    791000   307.82287      0.015531399    6.6370421      763.71702     -25.567248      738.14977    
    792000   286.2654       0.015531399    6.192285       710.23234     -22.791532      687.44081    
    793000   296.56441      0.015531399    10.240076      735.78446     -26.176875      709.60759    
    794000   309.06439      0.015531399    9.5568257      766.79726     -25.202473      741.59479    
    795000   298.79127      0.015531399    4.0046752      741.30937     -25.0318        716.27757    
    796000   288.88216      0.015531399    7.3639045      716.7246      -25.866802      690.8578     
    797000   298.53804      0.015531399    10.421043      740.6811      -25.893926      714.78718    
    798000   325.04604      0.015531399    9.1294187      806.44819     -29.407948      777.04024    
    799000   283.04661      0.015531399    7.0087832      702.24645     -30.235609      672.01084    
    800000   298.85146      0.015531399    13.400301      741.4587      -28.252424      713.20628    
    801000   313.97577      0.015531399    7.164819       778.98255     -32.529886      746.45266    
    802000   292.14113      0.015531399    4.3722359      724.8102      -28.935132      695.87507    
    803000   298.29704      0.015531399    10.552188      740.08319     -29.416935      710.66625    
    804000   302.74591      0.015531399    8.5325585      751.12094     -30.168462      720.95248    
    805000   304.17303      0.015531399    10.307083      754.66168     -32.93657       721.72511    
    806000   297.6485       0.015531399    8.254625       738.47414     -34.343063      704.13108    
    807000   293.25658      0.015531399    8.0031398      727.57765     -34.578588      692.99906    
    808000   304.68189      0.015531399    8.8611768      755.92418     -30.782188      725.14199    
    809000   318.95515      0.015531399    8.9338274      791.33651     -28.059578      763.27693    
    810000   300.94153      0.015531399    8.4847951      746.64422     -28.088426      718.55579    
    811000   286.6614       0.015531399    6.8869891      711.21483     -29.307597      681.90723    
    812000   305.69341      0.015531399    8.4731989      758.43378     -28.299314      730.13447    
    813000   304.49285      0.015531399    10.796485      755.45515     -27.653486      727.80166    
    814000   303.73862      0.015531399    7.9123685      753.58389     -32.89177       720.69212    
    815000   283.75908      0.015531399    8.3640797      704.0141      -32.047306      671.9668     
    816000   299.63119      0.015531399    8.0336912      743.39324     -34.019758      709.37348    
    817000   291.01257      0.015531399    7.2932824      722.01022     -31.29592       690.7143     
    818000   315.30523      0.015531399    6.8154632      782.28097     -32.464311      749.81665    
    819000   297.02801      0.015531399    7.8182926      736.93468     -34.892635      702.04205    
    820000   307.33552      0.015531399    9.2986185      762.50789     -31.106894      731.401      
    821000   308.37712      0.015531399    7.1482016      765.09214     -26.365623      738.72652    
    822000   296.10852      0.015531399    9.4876571      734.65339     -31.821728      702.83166    
    823000   284.75346      0.015531399    7.7580191      706.48118     -27.123592      679.35759    
    824000   300.55663      0.015531399    6.3776793      745.6893      -27.663755      718.02554    
    825000   308.12322      0.015531399    10.396937      764.46219     -31.308929      733.15326    
    826000   296.73678      0.015531399    10.254875      736.21213     -29.867599      706.34453    
    827000   292.90158      0.015531399    8.3053928      726.69691     -28.534916      698.16199    
    828000   286.09805      0.015531399    6.4484057      709.81715     -30.741745      679.07541    
    829000   308.6499       0.015531399    7.5735466      765.76891     -28.974631      736.79428    
    830000   300.13007      0.015531399    7.9816592      744.63097     -29.714157      714.91682    
    831000   290.66616      0.015531399    8.4396668      721.15075     -28.796954      692.3538     
    832000   299.73015      0.015531399    8.4520487      743.63876     -28.853506      714.78525    
    833000   304.4545       0.015531399    6.926956       755.36002     -29.496317      725.8637     
    834000   307.18757      0.015531399    7.4530677      762.14084     -28.403063      733.73777    
    835000   305.50394      0.015531399    8.454979       757.96369     -26.902662      731.06103    
    836000   308.31119      0.015531399    9.0905364      764.92856     -32.035557      732.893      
    837000   295.92129      0.015531399    8.5877296      734.18889     -35.289741      698.89914    
    838000   293.9824       0.015531399    8.2341859      729.37845     -33.463006      695.91544    
    839000   312.22988      0.015531399    5.2021861      774.65093     -33.473356      741.17758    
    840000   310.74331      0.015531399    7.3154007      770.96271     -30.987807      739.97491    
    841000   300.05022      0.015531399    14.324125      744.43287     -27.161202      717.27167    
    842000   286.99416      0.015531399    7.4737429      712.04043     -27.642681      684.39775    
    843000   292.77983      0.015531399    0.17140444     726.39483     -27.133889      699.26094    
    844000   313.8857       0.015531399    6.4515162      778.75908     -29.253076      749.506      
    845000   293.58326      0.015531399    15.755542      728.38816     -28.537592      699.85057    
    846000   296.82648      0.015531399    7.766291       736.43469     -27.065196      709.36949    
    847000   306.14035      0.015531399    7.5683549      759.54264     -27.457895      732.08475    
    848000   301.38765      0.015531399    9.3347781      747.75108     -23.749669      724.00141    
    849000   297.18561      0.015531399    8.988545       737.32568     -22.930704      714.39498    
    850000   298.84823      0.015531399    7.1028485      741.4507      -21.964043      719.48665    
    851000   302.05906      0.015531399    7.3127839      749.41686     -25.405906      724.01096    
    852000   309.68082      0.015531399    9.043698       768.32665     -28.024662      740.30198    
    853000   312.04038      0.015531399    7.68258        774.18078     -29.634971      744.54581    
    854000   296.20444      0.015531399    5.9838783      734.89137     -25.995674      708.8957     
    855000   289.99112      0.015531399    6.0742618      719.47595     -27.799359      691.67659    
    856000   304.09873      0.015531399    8.5978714      754.47734     -32.731624      721.74572    
    857000   303.95216      0.015531399    14.061345      754.11368     -33.851101      720.26258    
    858000   312.60529      0.015531399    10.869318      775.58235     -35.987554      739.59479    
    859000   299.86481      0.015531399    8.3723016      743.97286     -31.908102      712.06476    
    860000   289.78717      0.015531399    8.3664162      718.96995     -27.404176      691.56577    
    861000   301.5632       0.015531399    8.5422046      748.18661     -26.866322      721.32029    
    862000   302.78087      0.015531399    8.7921847      751.20767     -28.78938       722.41829    
    863000   291.63323      0.015531399    8.6068831      723.55008     -27.689375      695.8607     
    864000   304.05715      0.015531399    7.767313       754.37416     -31.376574      722.99759    
    865000   307.42117      0.015531399    8.4389148      762.72039     -30.710993      732.0094     
    866000   298.22659      0.015531399    7.1606332      739.90839     -26.44853       713.45986    
    867000   298.68129      0.015531399    9.9173572      741.03652     -28.892285      712.14424    
    868000   294.17899      0.015531399    12.766085      729.86619     -28.119         701.74719    
    869000   317.55066      0.015531399    14.130263      787.85195     -27.169966      760.68198    
    870000   296.51009      0.015531399    8.0116375      735.64971     -28.379835      707.26987    
    871000   300.25512      0.015531399    6.4745657      744.94124     -26.541065      718.40017    
    872000   305.34352      0.015531399    9.4044149      757.56568     -28.695564      728.87012    
    873000   305.86917      0.015531399    10.6667        758.86985     -27.353137      731.51672    
    874000   306.68565      0.015531399    12.175759      760.89556     -24.881317      736.01424    
    875000   305.84018      0.015531399    6.8137309      758.79791     -23.6975        735.10041    
    876000   300.50682      0.015531399    3.0817773      745.56571     -25.21887       720.34684    
    877000   296.32646      0.015531399    8.8543094      735.19411     -25.235554      709.95856    
    878000   299.06373      0.015531399    12.669188      741.98536     -25.007883      716.97747    
    879000   294.03031      0.015531399    4.6667807      729.49731     -24.399448      705.09786    
    880000   301.32029      0.015531399    7.5028266      747.58395     -23.597588      723.98637    
    881000   288.13746      0.015531399    18.02215       714.87698     -27.089888      687.78709    
    882000   293.08796      0.015531399    9.4676028      727.15932     -27.014956      700.14436    
    883000   302.71532      0.015531399    6.1872105      751.04505     -28.266347      722.7787     
    884000   299.09607      0.015531399    3.8264507      742.0656      -31.115521      710.95008    
    885000   296.77743      0.015531399    9.9638599      736.31297     -26.558458      709.75452    
    886000   306.29734      0.015531399    10.91286       759.93214     -25.656237      734.2759     
    887000   301.12022      0.015531399    4.2846897      747.08756     -28.645799      718.44176    
    888000   294.59379      0.015531399    8.863581       730.89532     -25.407274      705.48805    
    889000   298.72667      0.015531399    8.013334       741.14911     -29.228366      711.92074    
    890000   300.01504      0.015531399    19.689376      744.34557     -25.120555      719.22502    
    891000   307.71562      0.015531399    7.4138553      763.45093     -20.491566      742.95936    
    892000   302.78366      0.015531399    8.9346305      751.21461     -21.9922        729.22241    
    893000   305.79078      0.015531399    5.6848106      758.67535     -19.136544      739.53881    
    894000   307.02742      0.015531399    7.9293252      761.74349     -26.177386      735.56611    
    895000   300.76032      0.015531399    7.9635695      746.19465     -28.0571        718.13755    
    896000   309.10162      0.015531399    6.035186       766.88963     -20.040583      746.84905    
    897000   307.75476      0.015531399    12.008496      763.54803     -20.003061      743.54497    
    898000   291.76205      0.015531399    9.6646857      723.86968     -20.994961      702.87472    
    899000   310.98408      0.015531399    3.1534271      771.56006     -22.35746       749.2026     
    900000   309.64646      0.015531399    12.009589      768.2414      -21.141556      747.09984    
    901000   288.1012       0.015531399    15.113561      714.78702     -22.271612      692.5154     
    902000   285.78113      0.015531399    11.723201      709.03085     -23.775152      685.2557     
    903000   300.23431      0.015531399    6.5978788      744.8896      -21.672155      723.21744    
    904000   313.70949      0.015531399    2.7393211      778.32189     -24.480186      753.8417     
    905000   296.58429      0.015531399    11.7231        735.83381     -24.644839      711.18897    
    906000   285.35382      0.015531399    12.936892      707.97069     -21.819595      686.15109    
    907000   301.21667      0.015531399    7.7010741      747.32686     -23.259624      724.06724    
    908000   302.91703      0.015531399    7.8495288      751.54551     -22.2627        729.28281    
    909000   300.4817       0.015531399    9.3063216      745.50339     -22.606969      722.89642    
    910000   296.93772      0.015531399    10.336917      736.71068     -25.378494      711.33218    
    911000   292.49326      0.015531399    9.7008181      725.68384     -23.981063      701.70278    
    912000   291.02379      0.015531399    5.4678835      722.03806     -19.306987      702.73107    
    913000   305.59178      0.015531399    7.910759       758.18162     -24.681932      733.49969    
    914000   295.83185      0.015531399    11.493819      733.96697     -23.917872      710.0491     
    915000   295.30523      0.015531399    7.8348018      732.66041     -23.838488      708.82192    
    916000   297.61164      0.015531399    7.4204299      738.38268     -27.507018      710.87566    
    917000   308.23504      0.015531399    8.6751866      764.73963     -26.760633      737.979      
    918000   298.80961      0.015531399    9.8891981      741.35489     -22.908936      718.44595    
    919000   290.93341      0.015531399    4.5520499      721.81382     -20.789519      701.0243     
    920000   303.54083      0.015531399    10.538468      753.09317     -21.402245      731.69093    
    921000   303.44597      0.015531399    9.1252716      752.85781     -22.654494      730.20331    
    922000   290.88178      0.015531399    8.7610589      721.68573     -23.40881       698.27692    
    923000   295.47404      0.015531399    6.8197458      733.07924     -23.335864      709.74338    
    924000   295.13229      0.015531399    8.1001257      732.23135     -25.029867      707.20148    
    925000   299.43893      0.015531399    8.5117689      742.91625     -26.563613      716.35263    
    926000   299.57642      0.015531399    8.9680011      743.25735     -20.931056      722.32629    
    927000   303.51673      0.015531399    8.8802705      753.03336     -25.99745       727.03591    
    928000   315.50499      0.015531399    6.6653531      782.77659     -28.633873      754.14272    
    929000   292.83456      0.015531399    3.0434808      726.5306      -23.437685      703.09292    
    930000   301.28644      0.015531399    6.9801913      747.49997     -20.921758      726.57821    
    931000   294.66394      0.015531399    8.7384485      731.06936     -23.034919      708.03444    
    932000   307.23804      0.015531399    9.8412197      762.26604     -26.234945      736.0311     
    933000   294.85937      0.015531399    7.6587732      731.55423     -26.437528      705.1167     
    934000   308.80635      0.015531399    8.1837037      766.15708     -25.943168      740.21391    
    935000   311.22629      0.015531399    8.7271708      772.16101     -21.512693      750.64832    
    936000   298.38974      0.015531399    9.488146       740.31317     -22.418874      717.8943     
    937000   291.9007       0.015531399    7.7595967      724.21367     -21.229063      702.98461    
    938000   289.82949      0.015531399    7.482959       719.07496     -23.144969      695.92999    
    939000   295.77179      0.015531399    5.9107888      733.81797     -23.491093      710.32687    
    940000   314.87761      0.015531399    9.2856362      781.22003     -21.213271      760.00676    
    941000   304.65542      0.015531399    10.132055      755.85849     -21.905202      733.95329    
    942000   291.02485      0.015531399    11.724732      722.04066     -24.319072      697.72159    
    943000   297.94122      0.015531399    7.1373203      739.20039     -22.747005      716.45338    
    944000   299.50034      0.015531399    8.04124        743.0686      -22.544714      720.52389    
    945000   300.12389      0.015531399    8.6523606      744.61566     -24.993888      719.62177    
    946000   291.05474      0.015531399    8.5237845      722.11484     -27.059633      695.05521    
    947000   296.49372      0.015531399    10.392643      735.60909     -29.797329      705.81176    
    948000   307.8316       0.015531399    9.1068278      763.73869     -29.118405      734.62028    
    949000   304.64411      0.015531399    4.0521527      755.83044     -28.293322      727.53711    
    950000   295.76618      0.015531399    8.7528161      733.80405     -24.87964       708.92441    
    951000   299.71504      0.015531399    15.825012      743.60128     -25.12643       718.47485    
    952000   310.49803      0.015531399    1.6535025      770.35417     -23.06595       747.28822    
    953000   292.068        0.015531399    6.276401       724.62875     -23.579885      701.04886    
    954000   300.93884      0.015531399    14.045097      746.63756     -21.500668      725.13689    
    955000   307.69684      0.015531399    7.3996017      763.40433     -21.330286      742.07405    
    956000   291.59992      0.015531399    8.8165628      723.46744     -26.112709      697.35473    
    957000   303.57823      0.015531399    8.695803       753.18596     -28.054872      725.13108    
    958000   296.79808      0.015531399    3.5029937      736.36422     -30.449336      705.91488    
    959000   290.78789      0.015531399    5.5330712      721.45277     -24.465051      696.98772    
    960000   297.0411       0.015531399    9.6748573      736.96716     -27.622485      709.34468    
    961000   303.2665       0.015531399    8.4811681      752.41254     -29.767755      722.64479    
    962000   298.56259      0.015531399    8.9691279      740.74203     -26.738962      714.00306    
    963000   284.08813      0.015531399    8.0086321      704.83049     -23.241404      681.58908    
    964000   307.55479      0.015531399    8.2248996      763.05192     -24.594011      738.45791    
    965000   310.64751      0.015531399    11.510513      770.72502     -21.011608      749.71342    
    966000   298.96428      0.015531399    7.8708717      741.73863     -24.697663      717.04096    
    967000   290.02427      0.015531399    8.5004852      719.5582      -23.810913      695.74728    
    968000   313.73013      0.015531399    8.5819957      778.3731      -24.885209      753.48789    
    969000   300.64716      0.015531399    8.1388693      745.91389     -26.115442      719.79845    
    970000   288.9455       0.015531399    8.3017124      716.88176     -28.478429      688.40333    
    971000   293.28872      0.015531399    10.272137      727.6574      -30.847674      696.80972    
    972000   316.89557      0.015531399    8.256195       786.22664     -29.220235      757.00641    
    973000   302.129        0.015531399    5.3888872      749.59037     -26.984227      722.60614    
    974000   281.10836      0.015531399    6.4718941      697.43758     -25.641362      671.79622    
    975000   299.63339      0.015531399    11.2024        743.3987      -27.650817      715.74788    
    976000   316.32404      0.015531399    8.6258614      784.80866     -24.082948      760.72571    
    977000   284.60106      0.015531399    8.0061634      706.10308     -27.267741      678.83534    
    978000   299.69144      0.015531399    5.5023337      743.54272     -25.33665       718.20607    
    979000   306.0509       0.015531399    8.516227       759.32072     -24.301327      735.01939    
    980000   291.42105      0.015531399    8.0641421      723.02365     -27.783471      695.24018    
    981000   298.02227      0.015531399    8.5515601      739.40146     -25.717759      713.6837     
    982000   291.21714      0.015531399    3.0368074      722.51776     -27.154529      695.36323    
    983000   299.8307       0.015531399    8.8384809      743.88823     -23.587514      720.30072    
    984000   304.00315      0.015531399    11.49251       754.2402      -26.659521      727.58068    
    985000   312.60418      0.015531399    8.3393558      775.57959     -25.945974      749.63361    
    986000   299.45546      0.015531399    8.9167422      742.95726     -24.442778      718.51448    
    987000   295.23979      0.015531399    7.5319398      732.49805     -24.607782      707.89027    
    988000   300.12252      0.015531399    7.4373924      744.61224     -23.239668      721.37257    
    989000   299.3422       0.015531399    9.3064126      742.67626     -21.956566      720.71969    
    990000   295.45324      0.015531399    7.9712357      733.02764     -25.040449      707.98719    
    991000   300.50963      0.015531399    7.4422563      745.57268     -25.52204       720.05064    
    992000   299.75589      0.015531399    8.8210522      743.70263     -20.902422      722.80021    
    993000   290.26954      0.015531399    7.5202847      720.16674     -27.395403      692.77134    
    994000   300.07591      0.015531399    3.7471354      744.49661     -19.918114      724.5785     
    995000   314.68468      0.015531399    9.3495127      780.74137     -22.125914      758.61546    
    996000   302.74175      0.015531399    10.9657        751.11064     -22.776309      728.33433    
    997000   291.34632      0.015531399    6.9421276      722.83824     -26.040353      696.79789    
    998000   307.14962      0.015531399    3.5568722      762.04667     -24.01222       738.03445    
    999000   307.87308      0.015531399    1.9865476      763.84159     -24.992304      738.84929    
   1000000   308.07956      0.015531399    8.4114974      764.35389     -28.702185      735.6517     
   1001000   286.14373      0.015531399    10.667468      709.93049     -30.107527      679.82296    
   1002000   308.84129      0.015531399    6.1333458      766.24376     -27.977686      738.26607    
   1003000   309.67892      0.015531399    9.9662677      768.32195     -25.282073      743.03988    
   1004000   289.27338      0.015531399    8.2068155      717.69523     -23.693989      694.00124    
   1005000   288.38217      0.015531399    5.9111774      715.48412     -22.48574       692.99838    
   1006000   306.19423      0.015531399    6.6117802      759.67633     -23.881269      735.79506    
   1007000   300.74741      0.015531399    20.933786      746.16262     -20.18997       725.97265    
   1008000   288.66595      0.015531399    8.9006021      716.18819     -24.183411      692.00478    
   1009000   291.70469      0.015531399    1.1932329      723.72739     -24.618703      699.10869    
   1010000   312.47521      0.015531399    3.9215188      775.2596      -25.286536      749.97307    
   1011000   289.39422      0.015531399    13.357382      717.99504     -21.712421      696.28262    
   1012000   298.53018      0.015531399    1.5405587      740.6616      -24.576568      716.08503    
   1013000   318.67022      0.015531399    11.297938      790.62959     -28.09944       762.53015    
   1014000   296.8326       0.015531399    16.861364      736.44985     -25.972131      710.47772    
   1015000   294.56696      0.015531399    6.9091106      730.82874     -29.836354      700.99239    
   1016000   297.78171      0.015531399    4.0487009      738.80463     -24.433175      714.37146    
   1017000   313.83704      0.015531399    8.7197283      778.63834     -24.756052      753.88229    
   1018000   310.33637      0.015531399    14.71541       769.95308     -25.366165      744.58692    
   1019000   290.98504      0.015531399    4.4798695      721.9419      -28.019887      693.92201    
   1020000   304.68844      0.015531399    5.6118099      755.94041     -21.868772      734.07164    
   1021000   315.04193      0.015531399    7.6124497      781.62772     -22.588737      759.03898    
   1022000   310.8584       0.015531399    9.397577       771.24826     -23.207055      748.0412     
   1023000   290.85317      0.015531399    9.2162626      721.61472     -26.000307      695.61441    
   1024000   302.48589      0.015531399    8.5623536      750.47583     -27.35021       723.12562    
   1025000   310.77295      0.015531399    7.482965       771.03625     -25.103219      745.93304    
   1026000   289.86827      0.015531399    8.0793987      719.17117     -29.384367      689.7868     
   1027000   297.81604      0.015531399    9.9228935      738.88981     -22.366126      716.52368    
   1028000   303.74574      0.015531399    6.6941878      753.60155     -25.134622      728.46693    
   1029000   293.67503      0.015531399    5.8742695      728.61585     -27.317923      701.29793    
   1030000   296.98557      0.015531399    8.5690207      736.8294      -25.682465      711.14693    
   1031000   299.28767      0.015531399    9.6970882      742.54095     -29.521703      713.01924    
   1032000   310.77956      0.015531399    7.2448494      771.05266     -31.788496      739.26416    
   1033000   304.51761      0.015531399    8.7653272      755.51658     -25.809755      729.70682    
   1034000   289.98774      0.015531399    8.2377335      719.46757     -28.062023      691.40555    
   1035000   292.29584      0.015531399    3.7411311      725.19404     -25.885555      699.30848    
   1036000   301.72797      0.015531399    8.5419024      748.59542     -24.334439      724.26098    
   1037000   289.14896      0.015531399    8.0378204      717.38655     -24.335016      693.05153    
   1038000   298.23875      0.015531399    7.6095248      739.93855     -24.617357      715.32119    
   1039000   310.70497      0.015531399    7.6241492      770.86759     -26.273526      744.59406    
   1040000   297.17814      0.015531399    8.9402992      737.30715     -19.881485      717.42567    
   1041000   281.82788      0.015531399    6.6500825      699.22274     -18.340768      680.88197    
   1042000   306.84415      0.015531399    7.2016813      761.2888      -16.268791      745.02001    
   1043000   316.75319      0.015531399    9.0684065      785.87339     -18.040204      767.83319    
   1044000   287.46429      0.015531399    8.3445827      713.20682     -17.514991      695.69183    
   1045000   296.19826      0.015531399    8.5365294      734.87605     -19.847531      715.02852    
   1046000   308.37014      0.015531399    8.2749056      765.07481     -17.463963      747.61085    
   1047000   307.15539      0.015531399    7.7443809      762.061       -20.727901      741.3331     
   1048000   294.58717      0.015531399    10.504099      730.87888     -25.645941      705.23294    
   1049000   290.17317      0.015531399    7.6261832      719.92763     -23.418772      696.50886    
   1050000   303.93537      0.015531399    6.4939961      754.07204     -21.643472      732.42857    
   1051000   309.49821      0.015531399    9.6268469      767.87358     -20.65188       747.2217     
   1052000   303.48486      0.015531399    12.208866      752.9543      -20.810096      732.1442     
   1053000   291.95084      0.015531399    7.1035852      724.33809     -23.057134      701.28096    
   1054000   307.44579      0.015531399    5.4275531      762.78148     -28.210699      734.57078    
   1055000   310.4764       0.015531399    13.296193      770.30052     -22.52825       747.77227    
   1056000   300.55266      0.015531399    11.367976      745.67944     -24.048046      721.63139    
   1057000   288.03835      0.015531399    6.0826698      714.6311      -24.693053      689.93804    
   1058000   296.97435      0.015531399    7.8846281      736.80154     -23.629828      713.17171    
   1059000   309.55622      0.015531399    8.9632865      768.01751     -24.38572       743.63179    
   1060000   298.63239      0.015531399    8.4628295      740.91519     -28.732905      712.18229    
   1061000   294.31468      0.015531399    7.9718545      730.20282     -28.676555      701.52627    
   1062000   297.89464      0.015531399    8.4363704      739.08481     -25.478051      713.60676    
   1063000   326.14957      0.015531399    9.2015568      809.18606     -21.173635      788.01243    
   1064000   295.55763      0.015531399    8.7326414      733.28663     -21.812747      711.47388    
   1065000   296.05239      0.015531399    9.1025687      734.51414     -26.825488      707.68866    
   1066000   299.89018      0.015531399    5.8591406      744.0358      -28.43438       715.60142    
   1067000   304.02595      0.015531399    8.5230944      754.29677     -31.186278      723.1105     
   1068000   287.57371      0.015531399    8.0583587      713.4783      -29.428277      684.05003    
   1069000   296.97481      0.015531399    8.590689       736.8027      -24.256408      712.54629    
   1070000   304.27631      0.015531399    9.8940906      754.91791     -23.605662      731.31225    
   1071000   293.2322       0.015531399    5.2725492      727.51717     -25.601816      701.91535    
   1072000   291.43372      0.015531399    8.5024912      723.05508     -28.208316      694.84676    
   1073000   299.98409      0.015531399    11.594106      744.26879     -30.135197      714.13359    
   1074000   306.25969      0.015531399    7.9980698      759.83874     -29.648585      730.19016    
   1075000   301.24383      0.015531399    6.6260789      747.39424     -24.537341      722.8569     
   1076000   284.39398      0.015531399    8.4103527      705.58932     -26.129225      679.46009    
   1077000   297.29856      0.015531399    9.7858265      737.60592     -29.488576      708.11734    
   1078000   316.2635       0.015531399    6.4543198      784.65846     -30.431381      754.22708    
   1079000   293.27692      0.015531399    8.3670836      727.62813     -32.91456       694.71357    
   1080000   294.48685      0.015531399    12.316107      730.62999     -35.054235      695.57576    
   1081000   304.37771      0.015531399    1.9941926      755.16948     -26.843026      728.32645    
   1082000   298.42661      0.015531399    8.4519072      740.40464     -23.845155      716.55948    
   1083000   307.37525      0.015531399    11.018034      762.60648     -21.287664      741.31881    
   1084000   300.42894      0.015531399    7.8232965      745.37248     -21.94137       723.43111    
   1085000   301.57597      0.015531399    3.1925727      748.21829     -24.168735      724.04956    
   1086000   305.9976       0.015531399    8.1203735      759.18847     -22.829469      736.359      
   1087000   299.801        0.015531399    14.271961      743.81453     -25.944127      717.87041    
   1088000   309.78203      0.015531399    5.5372284      768.57774     -26.420222      742.15752    
   1089000   305.66809      0.015531399    5.6353049      758.37097     -23.925102      734.44587    
   1090000   282.91224      0.015531399    9.4987435      701.91307     -24.798324      677.11474    
   1091000   300.40946      0.015531399    7.5837998      745.32414     -29.346683      715.97746    
   1092000   309.43686      0.015531399    8.3359014      767.72138     -30.388219      737.33316    
   1093000   299.77176      0.015531399    8.8698469      743.74201     -34.253663      709.48835    
   1094000   295.07098      0.015531399    10.089996      732.07922     -34.407304      697.67192    
   1095000   305.84767      0.015531399    8.0489219      758.81651     -29.858301      728.95821    
   1096000   305.75766      0.015531399    7.6199785      758.59318     -31.208875      727.3843     
   1097000   295.7999       0.015531399    10.336298      733.8877      -33.995935      699.89176    
   1098000   308.56295      0.015531399    9.9539153      765.55318     -33.60302       731.95016    
   1099000   298.67708      0.015531399    6.5202426      741.02606     -34.107039      706.91902    
   1100000   292.87269      0.015531399    11.647676      726.62523     -30.364452      696.26077    
   1101000   308.57689      0.015531399    8.9796117      765.58778     -31.981356      733.60642    
   1102000   305.65937      0.015531399    7.9955933      758.34933     -32.440869      725.90846    
   1103000   288.01067      0.015531399    7.5483853      714.56241     -33.579534      680.98288    
   1104000   300.07936      0.015531399    8.8403441      744.50517     -35.780943      708.72423    
   1105000   310.2889       0.015531399    9.7459879      769.83532     -37.993505      731.84181    
   1106000   296.81539      0.015531399    8.6049199      736.40716     -35.962236      700.44492    
   1107000   301.2728       0.015531399    8.8923344      747.46611     -33.32922       714.13689    
   1108000   298.57215      0.015531399    8.0120135      740.76573     -33.37319       707.39254    
   1109000   297.61126      0.015531399    8.0755762      738.38173     -33.753866      704.62787    
   1110000   297.52087      0.015531399    8.7924881      738.15748     -36.084851      702.07263    
   1111000   296.95011      0.015531399    8.661693       736.74142     -36.829624      699.91179    
   1112000   308.12387      0.015531399    6.3880139      764.46382     -38.400548      726.06327    
   1113000   327.92396      0.015531399    8.3936436      813.58837     -36.343722      777.24465    
   1114000   298.1832       0.015531399    8.4759882      739.80075     -34.129069      705.67168    
   1115000   292.00891      0.015531399    7.694997       724.48215     -32.012286      692.46986    
   1116000   303.52436      0.015531399    9.2086208      753.05231     -31.646325      721.40598    
   1117000   311.29182      0.015531399    7.8649659      772.32358     -32.931338      739.39225    
   1118000   290.11785      0.015531399    7.1751564      719.79037     -35.865415      683.92496    
   1119000   296.36682      0.015531399    9.2973281      735.29425     -35.513406      699.78084    
   1120000   314.79899      0.015531399    15.140654      781.02497     -32.51738       748.50759    
   1121000   296.76389      0.015531399    7.9789931      736.2794      -32.976552      703.30284    
   1122000   299.02966      0.015531399    4.6955601      741.90083     -28.714094      713.18674    
   1123000   294.73282      0.015531399    12.414085      731.24025     -28.710126      702.53012    
   1124000   294.087        0.015531399    14.960584      729.63795     -31.180799      698.45715    
   1125000   298.85106      0.015531399    9.5212044      741.45772     -28.212369      713.24535    
   1126000   312.34573      0.015531399    6.8657075      774.93837     -26.628876      748.3095     
   1127000   313.70675      0.015531399    6.9003755      778.3151      -24.284126      754.03098    
   1128000   290.30864      0.015531399    4.7948084      720.26373     -20.745666      699.51806    
   1129000   297.75095      0.015531399    7.3628797      738.72831     -22.54167       716.18664    
   1130000   312.28642      0.015531399    11.459707      774.79123     -21.068197      753.72303    
   1131000   312.54653      0.015531399    6.3088225      775.43657     -24.809682      750.62689    
   1132000   305.96992      0.015531399    5.9637151      759.11981     -26.331135      732.78868    
   1133000   287.15783      0.015531399    3.4418835      712.4465      -23.376047      689.07045    
   1134000   299.11766      0.015531399    10.005693      742.11915     -23.99254       718.12661    
   1135000   313.91587      0.015531399    10.423755      778.83393     -22.041187      756.79274    
   1136000   307.54389      0.015531399    2.1438115      763.02487     -27.836214      735.18865    
   1137000   304.03133      0.015531399    8.0999409      754.31011     -31.6161        722.69401    
   1138000   306.64658      0.015531399    13.623107      760.79863     -31.74592       729.05271    
   1139000   309.9939       0.015531399    11.684253      769.10341     -30.988822      738.11458    
   1140000   286.37427      0.015531399    6.4543026      710.50246     -28.508828      681.99363    
   1141000   296.94105      0.015531399    9.3546575      736.71893     -28.220688      708.49824    
   1142000   310.32127      0.015531399    13.54402       769.91562     -31.865524      738.05009    
   1143000   292.39349      0.015531399    5.2727497      725.4363      -30.062138      695.37416    
   1144000   298.80845      0.015531399    8.141298       741.35199     -33.041761      708.31023    
   1145000   311.12881      0.015531399    8.1555805      771.91915     -29.599129      742.32002    
   1146000   293.69722      0.015531399    9.8583306      728.67091     -29.032733      699.63817    
   1147000   292.88206      0.015531399    7.9889987      726.64847     -29.175493      697.47297    
   1148000   305.9977       0.015531399    7.4928527      759.18873     -30.772983      728.41574    
   1149000   308.36702      0.015531399    8.8036136      765.06707     -27.812186      737.25488    
   1150000   296.28009      0.015531399    8.6693636      735.07907     -26.389407      708.68967    
   1151000   292.78497      0.015531399    3.9886046      726.40759     -26.394745      700.01284    
   1152000   305.40865      0.015531399    8.6391501      757.72728     -24.822203      732.90508    
   1153000   313.41412      0.015531399    7.2966272      777.58906     -25.475886      752.11318    
   1154000   301.32589      0.015531399    14.241784      747.59783     -23.182482      724.41535    
   1155000   295.82837      0.015531399    8.9878635      733.95833     -23.564924      710.39341    
   1156000   314.29644      0.015531399    7.0926974      779.77814     -22.797796      756.98035    
   1157000   304.00782      0.015531399    10.523186      754.25179     -25.008835      729.24295    
   1158000   288.55501      0.015531399    9.2072496      715.91293     -26.020032      689.8929     
   1159000   295.76956      0.015531399   -2.454656       733.81244     -25.822044      707.9904     
   1160000   309.41539      0.015531399    10.605522      767.6681      -29.40553       738.26257    
   1161000   302.08974      0.015531399    11.151343      749.49297     -24.806194      724.68678    
   1162000   279.27901      0.015531399    2.3099103      692.89892     -26.633679      666.26525    
   1163000   304.93924      0.015531399    5.7670109      756.56265     -29.151994      727.41066    
   1164000   308.29714      0.015531399    12.62454       764.8937      -29.273829      735.61987    
   1165000   291.87476      0.015531399    9.3312369      724.14933     -30.749835      693.3995     
   1166000   293.28711      0.015531399   -0.31559745     727.6534      -31.008838      696.64456    
   1167000   308.17552      0.015531399    4.9610625      764.59195     -30.430725      734.16122    
   1168000   294.49785      0.015531399    10.883748      730.65728     -34.175164      696.48212    
   1169000   302.10642      0.015531399    9.3367554      749.53434     -28.226742      721.3076     
   1170000   306.44187      0.015531399    10.884749      760.29073     -26.532379      733.75835    
   1171000   297.52833      0.015531399    8.937241       738.17599     -25.887775      712.28822    
   1172000   291.95395      0.015531399    8.2376736      724.3458      -30.979946      693.36585    
   1173000   300.57308      0.015531399    9.2481994      745.7301      -28.981165      716.74894    
   1174000   292.27021      0.015531399    5.2876232      725.13045     -32.14015       692.9903     
   1175000   298.15805      0.015531399    5.331506       739.73834     -30.018525      709.71981    
   1176000   303.8698       0.015531399    12.274226      753.90934     -34.291208      719.61813    
   1177000   291.13135      0.015531399    5.7031694      722.30491     -36.93418       685.37073    
   1178000   301.67348      0.015531399    7.0702466      748.46021     -34.163261      714.29695    
   1179000   318.41784      0.015531399    8.3467843      790.00344     -30.816867      759.18658    
   1180000   315.51348      0.015531399    9.4889659      782.79763     -32.430777      750.36685    
   1181000   293.64232      0.015531399    8.3974928      728.53469     -25.637897      702.89679    
   1182000   292.28192      0.015531399    8.3740567      725.15951     -25.67571       699.4838     
   1183000   304.32117      0.015531399    9.7390444      755.0292      -26.49039       728.53881    
   1184000   294.22436      0.015531399    7.4176305      729.97874     -26.665506      703.31323    
   1185000   293.76191      0.015531399    8.8113107      728.83139     -22.602181      706.22921    
   1186000   305.54871      0.015531399    9.807904       758.07477     -25.041058      733.03371    
   1187000   293.86228      0.015531399    8.1754643      729.08041     -22.923163      706.15725    
   1188000   291.26887      0.015531399    4.9666093      722.64609     -29.133613      693.51248    
   1189000   293.6305       0.015531399    8.6150072      728.50537     -25.415142      703.09023    
   1190000   311.4201       0.015531399    9.5430417      772.64186     -23.091494      749.55037    
   1191000   316.04577      0.015531399    7.0796717      784.11826     -21.467866      762.65039    
   1192000   301.21208      0.015531399    6.3983311      747.31548     -25.60146       721.71402    
   1193000   295.517        0.015531399    12.234925      733.18582     -26.58793       706.59789    
   1194000   298.88896      0.015531399    8.2719932      741.55175     -29.913778      711.63797    
   1195000   293.25633      0.015531399    8.8864776      727.57705     -26.847113      700.72994    
   1196000   295.27826      0.015531399    7.9199568      732.59349     -28.197257      704.39624    
   1197000   307.98222      0.015531399    8.6691539      764.11237     -26.273958      737.83841    
   1198000   296.53972      0.015531399    6.97172        735.72322     -25.328187      710.39503    
   1199000   296.49364      0.015531399    7.7028094      735.60889     -26.239447      709.36945    
   1200000   301.95502      0.015531399    9.7286639      749.15873     -22.027563      727.13117    
   1201000   308.49336      0.015531399    8.4290036      765.38052     -21.604822      743.7757     
   1202000   295.89791      0.015531399    7.4013715      734.13087     -21.203885      712.92699    
   1203000   289.59366      0.015531399    11.284223      718.48985     -22.46162       696.02823    
   1204000   311.81303      0.015531399    16.042077      773.61673     -21.29315       752.32358    
   1205000   297.73801      0.015531399    8.8658482      738.69621     -23.531378      715.16484    
   1206000   287.22044      0.015531399   -1.6915682      712.60184     -23.538106      689.06373    
   1207000   295.90386      0.015531399    12.612337      734.14564     -23.89054       710.2551     
   1208000   303.61181      0.015531399    11.952892      753.26926     -23.381189      729.88807    
   1209000   313.85656      0.015531399   -5.3262181      778.68678     -22.587397      756.09938    
   1210000   297.77984      0.015531399    5.9136568      738.79999     -21.675724      717.12426    
   1211000   292.35352      0.015531399    19.680432      725.33714     -20.380094      704.95705    
   1212000   312.88641      0.015531399    7.5468744      776.2798      -19.76508       756.51472    
   1213000   310.85858      0.015531399   -5.7519145      771.2487      -19.844576      751.40412    
   1214000   281.86242      0.015531399   -0.003986193    699.30844     -22.844685      676.46375    
   1215000   298.49013      0.015531399    11.751727      740.56223     -23.676839      716.88539    
   1216000   313.17993      0.015531399    8.2135402      777.00803     -23.688372      753.31966    
   1217000   293.41713      0.015531399    7.3273601      727.97599     -21.299346      706.67665    
   1218000   298.83871      0.015531399    9.7119205      741.42708     -24.139255      717.28783    
   1219000   309.16262      0.015531399    11.502511      767.04098     -23.459788      743.58119    
   1220000   314.62833      0.015531399    10.692217      780.60157     -19.566298      761.03527    
   1221000   299.61027      0.015531399   -1.6819293      743.34135     -21.541331      721.80002    
   1222000   292.61873      0.015531399    11.055959      725.99512     -21.739292      704.25583    
   1223000   301.63522      0.015531399    8.639648       748.36528     -23.517787      724.8475     
   1224000   305.22681      0.015531399    7.7710863      757.27614     -24.092788      733.18335    
   1225000   296.85034      0.015531399    5.2050967      736.49388     -27.724572      708.76931    
   1226000   294.16925      0.015531399    7.1162839      729.84203     -27.289927      702.5521     
   1227000   299.81405      0.015531399    12.612576      743.84693     -24.089392      719.75753    
   1228000   311.28006      0.015531399    4.4358427      772.29442     -21.657577      750.63684    
   1229000   289.06364      0.015531399    0.24654383     717.17486     -23.174153      694.0007     
   1230000   298.39695      0.015531399    9.7563189      740.33105     -25.360004      714.97104    
   1231000   307.34939      0.015531399    22.657594      762.54231     -27.075954      735.46635    
   1232000   303.3813       0.015531399    7.0634402      752.69736     -24.768517      727.92884    
   1233000   286.77167      0.015531399    8.0743375      711.48841     -23.093301      688.39511    
   1234000   295.91947      0.015531399    10.595316      734.18435     -22.726535      711.45782    
   1235000   308.6104       0.015531399    8.0597643      765.67091     -24.757592      740.91332    
   1236000   312.10865      0.015531399    9.1938187      774.35017     -23.380045      750.97013    
   1237000   294.30202      0.015531399    7.6346885      730.17142     -19.038415      711.13301    
   1238000   287.91671      0.015531399    7.8899855      714.32928     -20.345941      693.98334    
   1239000   313.07486      0.015531399    13.036495      776.74737     -17.891594      758.85577    
   1240000   306.71452      0.015531399    6.5821143      760.96717     -21.931749      739.03542    
   1241000   291.08021      0.015531399    8.1786343      722.17802     -25.795732      696.38229    
   1242000   287.31273      0.015531399    16.451835      712.83079     -25.705464      687.12533    
   1243000   301.73066      0.015531399    10.965727      748.60207     -25.857681      722.74439    
   1244000   315.28171      0.015531399    7.870258       782.2226      -30.152208      752.0704     
   1245000   309.73037      0.015531399    6.286663       768.4496      -27.741795      740.7078     
   1246000   304.39725      0.015531399    4.2876318      755.21796     -30.674094      724.54386    
   1247000   289.90785      0.015531399    6.9983772      719.26937     -28.040432      691.22894    
   1248000   304.47266      0.015531399    10.396707      755.40506     -25.039378      730.36568    
   1249000   307.17556      0.015531399    8.8434957      762.11104     -31.142663      730.96837    
   1250000   311.96015      0.015531399    3.4751648      773.98172     -31.047359      742.93436    
   1251000   294.34032      0.015531399    5.7698589      730.26646     -31.638261      698.6282     
   1252000   284.2          0.015531399    8.8146323      705.10804     -32.751062      672.35698    
   1253000   308.87073      0.015531399    9.7543694      766.31679     -32.075136      734.24165    
   1254000   306.75017      0.015531399    4.9954         761.05562     -30.001774      731.05385    
   1255000   297.00119      0.015531399    2.9917577      736.86813     -29.400821      707.46731    
   1256000   295.95362      0.015531399    9.2005639      734.26908     -27.877036      706.39205    
   1257000   308.13497      0.015531399    14.04202       764.49136     -22.252789      742.23857    
   1258000   311.16856      0.015531399    7.5479499      772.01778     -27.837796      744.17998    
   1259000   291.63625      0.015531399    7.8326383      723.55758     -25.999134      697.55844    
   1260000   303.97663      0.015531399    9.4011889      754.1744      -27.476982      726.69741    
   1261000   312.84284      0.015531399    7.8819879      776.17172     -29.715021      746.4567     
   1262000   303.18847      0.015531399    9.7421217      752.21895     -31.230391      720.98856    
   1263000   291.39493      0.015531399    7.7244373      722.95885     -30.415154      692.5437     
   1264000   300.99305      0.015531399    3.0399134      746.77205     -31.040548      715.7315     
   1265000   309.44505      0.015531399    8.5774436      767.7417      -37.014266      730.72743    
   1266000   298.43906      0.015531399    8.2073025      740.43553     -33.890943      706.54459    
   1267000   298.33092      0.015531399    7.0593836      740.16724     -36.439762      703.72747    
   1268000   314.13075      0.015531399    5.4007617      779.36705     -34.68501       744.68204    
   1269000   304.01131      0.015531399    20.217763      754.26044     -31.995368      722.26508    
   1270000   297.68615      0.015531399    2.4072992      738.56755     -30.411432      708.15612    
   1271000   298.70104      0.015531399    9.0467511      741.08552     -26.596566      714.48896    
   1272000   284.6356       0.015531399    7.1178471      706.18877     -23.378511      682.81026    
   1273000   313.20316      0.015531399    4.7444656      777.06567     -24.212151      752.85352    
   1274000   312.80624      0.015531399    10.399294      776.08091     -30.305897      745.77501    
   1275000   287.531        0.015531399    10.287735      713.37233     -20.962568      692.40976    
   1276000   296.53909      0.015531399    7.0372205      735.72165     -25.179549      710.5421     
   1277000   306.81538      0.015531399    13.788862      761.21741     -23.656931      737.56048    
   1278000   299.28433      0.015531399    9.654919       742.53268     -26.267004      716.26567    
   1279000   291.81362      0.015531399    6.1212602      723.99765     -29.222741      694.77491    
   1280000   297.45023      0.015531399    7.3096328      737.98223     -29.183412      708.79881    
   1281000   299.39835      0.015531399    15.597337      742.81555     -29.914396      712.90116    
   1282000   301.14074      0.015531399    6.6212083      747.13848     -24.958853      722.17963    
   1283000   305.40513      0.015531399    7.1633212      757.71854     -25.152835      732.5657     
   1284000   303.5581       0.015531399    11.834471      753.13601     -25.323598      727.81241    
   1285000   298.63099      0.015531399    9.5699287      740.91172     -25.025105      715.88661    
   1286000   303.87955      0.015531399    3.1175433      753.93354     -24.692336      729.2412     
   1287000   303.28539      0.015531399    6.1624704      752.4594      -28.030632      724.42877    
   1288000   287.86659      0.015531399    20.634906      714.20494     -33.547306      680.65763    
   1289000   294.24768      0.015531399    5.9878005      730.03661     -31.461269      698.57535    
   1290000   307.3839       0.015531399    3.4844138      762.62794     -32.268787      730.35915    
   1291000   313.48284      0.015531399    9.7289189      777.75956     -31.810202      745.94935    
   1292000   280.18284      0.015531399    13.745213      695.14135     -33.044309      662.09704    
   1293000   292.2712       0.015531399    9.4265569      725.13292     -34.741908      690.39101    
   1294000   309.50927      0.015531399    1.9804898      767.90104     -34.297455      733.60358    
   1295000   304.22051      0.015531399    8.1736501      754.77947     -29.018127      725.76134    
   1296000   294.36945      0.015531399    9.1466652      730.33873     -31.061624      699.2771     
   1297000   297.95054      0.015531399    7.6378387      739.22351     -27.81305       711.41046    
   1298000   293.89701      0.015531399    8.0531569      729.16659     -30.937502      698.22908    
   1299000   301.1715       0.015531399    10.182068      747.21479     -26.740031      720.47476    
   1300000   315.47692      0.015531399    7.4873918      782.70694     -26.269251      756.43769    
   1301000   295.88688      0.015531399    8.0683836      734.1035      -32.077377      702.02612    
   1302000   295.82877      0.015531399    13.497153      733.95934     -32.239342      701.71999    
   1303000   300.28981      0.015531399    2.957007       745.02729     -26.602759      718.42453    
   1304000   299.17288      0.015531399    15.654146      742.25616     -28.493386      713.76277    
   1305000   297.52726      0.015531399    10.261513      738.17333     -24.455309      713.71802    
   1306000   312.46698      0.015531399    7.6675383      775.23918     -25.718095      749.52109    
   1307000   296.87766      0.015531399   -1.6353744      736.56165     -23.062108      713.49955    
   1308000   299.76591      0.015531399    9.0231248      743.72748     -22.12934       721.59814    
   1309000   306.17515      0.015531399    14.452462      759.62899     -25.531298      734.09769    
   1310000   303.84622      0.015531399    4.5597489      753.85086     -23.77947       730.07139    
   1311000   309.6247       0.015531399    8.360389       768.18743     -32.385817      735.80161    
   1312000   294.0962       0.015531399    13.960752      729.66077     -27.933992      701.72677    
   1313000   303.58693      0.015531399    18.932182      753.20754     -25.825127      727.38242    
   1314000   305.28336      0.015531399    7.409047       757.41644     -27.415448      730.00099    
   1315000   294.11246      0.015531399    9.0044554      729.70112     -26.816847      702.88427    
   1316000   291.36625      0.015531399    11.043933      722.88769     -22.686305      700.20139    
   1317000   308.16787      0.015531399    9.9553233      764.57297     -26.165269      738.4077     
   1318000   314.57593      0.015531399    7.5467124      780.47156     -24.840666      755.6309     
   1319000   282.43144      0.015531399    6.985693       700.7202      -25.286583      675.43362    
   1320000   302.23672      0.015531399    11.848496      749.85762     -24.264663      725.59296    
   1321000   307.77649      0.015531399    6.5425127      763.60195     -22.883919      740.71803    
   1322000   294.24195      0.015531399    8.4465916      730.0224      -25.229975      704.79242    
   1323000   289.31226      0.015531399    7.2224414      717.79168     -29.938776      687.8529     
   1324000   314.25458      0.015531399    8.1526214      779.67427     -33.373295      746.30098    
   1325000   301.66951      0.015531399    8.9335327      748.45037     -39.046927      709.40344    
   1326000   307.47435      0.015531399    8.535814       762.85234     -37.433467      725.41887    
   1327000   302.28016      0.015531399    6.8134213      749.96541     -35.628374      714.33704    
   1328000   305.80863      0.015531399    7.63726        758.71964     -35.769783      722.94986    
   1329000   292.39894      0.015531399    9.7282961      725.44983     -35.659062      689.79077    
   1330000   301.53193      0.015531399    8.6067815      748.10904     -32.643277      715.46576    
   1331000   295.24612      0.015531399    8.3707757      732.51377     -32.960298      699.55347    
   1332000   301.62465      0.015531399    9.0598904      748.33908     -29.151752      719.18732    
   1333000   308.26324      0.015531399    9.1845845      764.80959     -25.460603      739.34898    
   1334000   300.46231      0.015531399    6.8199988      745.45527     -26.878454      718.57681    
   1335000   297.3612       0.015531399    9.0127531      737.76134     -27.019313      710.74202    
   1336000   298.85143      0.015531399    10.051412      741.45863     -28.262431      713.1962     
   1337000   303.4239       0.015531399    8.9077613      752.80307     -25.309278      727.49379    
   1338000   301.04067      0.015531399    5.7717907      746.89021     -29.27921       717.611      
   1339000   298.04011      0.015531399    7.6314026      739.44573     -30.227229      709.2185     
   1340000   301.32075      0.015531399    13.280702      747.5851      -29.486632      718.09846    
   1341000   304.06606      0.015531399    4.5428881      754.39627     -28.465429      725.93084    
   1342000   296.5491       0.015531399    9.03805        735.74649     -27.943308      707.80319    
   1343000   304.90525      0.015531399    7.9401084      756.47832     -23.849334      732.62899    
   1344000   304.65865      0.015531399    8.1667774      755.86651     -28.755654      727.11086    
   1345000   293.51157      0.015531399    8.376278       728.21029     -20.338478      707.87181    
   1346000   298.73063      0.015531399    3.9597816      741.15892     -25.180017      715.9789     
   1347000   298.1828       0.015531399    8.981452       739.79974     -28.787454      711.01229    
   1348000   300.8218       0.015531399    12.326674      746.34718     -30.681147      715.66603    
   1349000   304.44471      0.015531399    6.4625434      755.33572     -28.244883      727.09083    
   1350000   294.4037       0.015531399    12.048829      730.42369     -24.197417      706.22627    
   1351000   300.07014      0.015531399    10.526523      744.48228     -23.572037      720.91025    
   1352000   304.02927      0.015531399    7.6995734      754.305       -24.454955      729.85005    
   1353000   303.32324      0.015531399    6.7893351      752.55332     -24.24293       728.31039    
   1354000   298.09628      0.015531399    12.935068      739.5851      -20.80995       718.77515    
   1355000   297.91847      0.015531399    10.405035      739.14393     -19.099159      720.04477    
   1356000   305.4015       0.015531399    8.8723683      757.70955     -17.694031      740.01552    
   1357000   309.50713      0.015531399    9.2009026      767.89573     -18.314355      749.58137    
   1358000   296.30384      0.015531399    8.2086018      735.13799     -21.219412      713.91858    
   1359000   293.22221      0.015531399    7.747264       727.49239     -19.68708       707.80531    
   1360000   286.28899      0.015531399    6.6318048      710.29087     -19.704143      690.58673    
   1361000   307.14247      0.015531399    7.7448182      762.02894     -23.590786      738.43816    
   1362000   297.37719      0.015531399    13.120726      737.80101     -23.234512      714.5665     
   1363000   293.57181      0.015531399    9.6215199      728.35975     -22.424833      705.93492    
   1364000   287.13895      0.015531399    7.3551681      712.39965     -23.334152      689.0655     
   1365000   287.6622       0.015531399    8.1448754      713.69784     -25.189985      688.50785    
   1366000   308.07247      0.015531399    5.4946512      764.33628     -25.384212      738.95207    
   1367000   303.38674      0.015531399    12.332629      752.71088     -27.196682      725.51419    
   1368000   302.16147      0.015531399    12.347191      749.67094     -25.432054      724.23888    
   1369000   292.64529      0.015531399    12.714469      726.06104     -26.703299      699.35774    
   1370000   297.62435      0.015531399    6.1082959      738.41422     -23.748613      714.66561    
   1371000   306.85383      0.015531399    7.4826875      761.31282     -25.639306      735.67351    
   1372000   302.70231      0.015531399    8.4724987      751.01278     -25.532556      725.48022    
   1373000   292.80461      0.015531399    9.5531836      726.45631     -22.463983      703.99233    
   1374000   296.67438      0.015531399    6.2617514      736.05732     -29.409062      706.64826    
   1375000   305.27688      0.015531399    7.5840088      757.40034     -32.674427      724.72592    
   1376000   303.89505      0.015531399    7.7762774      753.972       -30.797423      723.17458    
   1377000   292.82061      0.015531399    8.0561313      726.49599     -30.573102      695.92289    
   1378000   300.59157      0.015531399    8.3331287      745.77597     -26.510375      719.26559    
   1379000   303.4994       0.015531399    7.4923654      752.99038     -28.146981      724.84339    
   1380000   303.04634      0.015531399    11.643448      751.86633     -27.819055      724.04727    
   1381000   295.22724      0.015531399    7.6347427      732.46692     -27.844293      704.62263    
   1382000   295.78861      0.015531399    8.1055838      733.8597      -26.39441       707.46529    
   1383000   300.96073      0.015531399    8.4482079      746.69187     -27.806582      718.88529    
   1384000   299.4779       0.015531399    10.744437      743.01293     -26.622694      716.39023    
   1385000   285.60808      0.015531399    7.40581        708.60152     -22.511524      686.09       
   1386000   294.14195      0.015531399    8.2603527      729.77427     -21.673567      708.10071    
   1387000   293.62508      0.015531399    7.7174073      728.49191     -17.717438      710.77447    
   1388000   306.58048      0.015531399    8.4352302      760.63463     -26.433562      734.20107    
   1389000   298.98521      0.015531399    7.2127452      741.79054     -27.413518      714.37702    
   1390000   300.26075      0.015531399    8.311422       744.9552      -22.251198      722.704      
   1391000   315.0336       0.015531399    8.3820498      781.60704     -26.512615      755.09443    
   1392000   288.9847       0.015531399    9.0661129      716.97901     -29.339999      687.63901    
   1393000   294.55721      0.015531399    8.3441915      730.80456     -25.913699      704.89086    
   1394000   312.94284      0.015531399    8.3043313      776.41981     -28.12141       748.2984     
   1395000   302.69797      0.015531399    8.494899       751.00201     -25.660311      725.3417     
   1396000   292.18387      0.015531399    7.5569723      724.91624     -24.218736      700.6975     
   1397000   293.18208      0.015531399    8.0697328      727.39282     -27.788961      699.60386    
   1398000   299.70038      0.015531399    10.593581      743.56491     -30.830726      712.73419    
   1399000   295.19581      0.015531399    8.5491223      732.38895     -32.243653      700.1453     
   1400000   303.98081      0.015531399    8.8643569      754.18478     -33.159633      721.02515    
   1401000   309.15         0.015531399    8.4602611      767.00967     -29.129242      737.88043    
   1402000   306.59244      0.015531399    8.1240397      760.66428     -32.007845      728.65644    
   1403000   293.30911      0.015531399    9.4989428      727.708       -30.00567       697.70233    
   1404000   309.80726      0.015531399    7.8739844      768.64036     -36.584285      732.05607    
   1405000   297.56263      0.015531399    7.8685445      738.26108     -28.265403      709.99567    
   1406000   302.39612      0.015531399    13.047009      750.2531      -27.158758      723.09434    
   1407000   286.77716      0.015531399    2.7164488      711.50205     -30.188923      681.31313    
   1408000   290.06187      0.015531399    8.211568       719.6515      -27.83843       691.81307    
   1409000   302.34155      0.015531399    7.8429047      750.11773     -29.934692      720.18304    
   1410000   321.84206      0.015531399    10.651122      798.49901     -33.602081      764.89693    
   1411000   291.84678      0.015531399    11.063258      724.0799      -33.11603       690.96387    
   1412000   289.37705      0.015531399    6.7273054      717.95244     -33.174919      684.77752    
   1413000   308.41497      0.015531399    4.9168475      765.18604     -31.930216      733.25582    
   1414000   303.71852      0.015531399    8.4717432      753.53403     -33.430948      720.10308    
   1415000   294.92481      0.015531399    9.4674126      731.71659     -32.817989      698.8986     
   1416000   294.15204      0.015531399    7.9517013      729.79932     -32.763642      697.03568    
   1417000   308.36732      0.015531399    4.7373714      765.06783     -30.747682      734.32015    
   1418000   303.29587      0.015531399    8.1856598      752.48542     -33.857685      718.62773    
   1419000   307.64873      0.015531399    8.6782174      763.28497     -31.939663      731.34531    
   1420000   301.80564      0.015531399    7.6648672      748.78812     -30.387534      718.40058    
   1421000   303.38517      0.015531399    6.4914807      752.70697     -34.12177       718.5852     
   1422000   295.47688      0.015531399    8.4966556      733.08629     -37.383011      695.70328    
   1423000   290.18859      0.015531399    7.5208559      719.96588     -31.80908       688.1568     
   1424000   307.05504      0.015531399    8.9734649      761.81202     -32.651333      729.16068    
   1425000   308.42934      0.015531399    8.5356354      765.2217      -32.309872      732.91183    
   1426000   306.051        0.015531399    8.1647299      759.32097     -29.855995      729.46497    
   1427000   284.94029      0.015531399    9.0021814      706.94471     -29.037738      677.90697    
   1428000   301.23379      0.015531399    7.5550922      747.36933     -34.147706      713.22162    
   1429000   309.42168      0.015531399    8.5290379      767.68372     -29.64261       738.04111    
   1430000   301.10916      0.015531399    8.5760024      747.06012     -27.08808       719.97204    
   1431000   291.1586       0.015531399    7.8053449      722.37252     -27.501405      694.87112    
   1432000   295.19921      0.015531399    8.9002732      732.39738     -25.874044      706.52333    
   1433000   315.70323      0.015531399    11.593111      783.26843     -25.25073       758.0177     
   1434000   308.66323      0.015531399    9.0095329      765.80198     -30.206332      735.59565    
   1435000   300.24254      0.015531399   -0.11605475     744.91001     -25.803074      719.10694    
   1436000   305.96231      0.015531399    6.7515488      759.10093     -25.813945      733.28698    
   1437000   309.60313      0.015531399    10.91271       768.1339      -29.980562      738.15334    
   1438000   295.45814      0.015531399    3.7426876      733.03979     -25.528653      707.51114    
   1439000   296.83666      0.015531399    9.5068885      736.45993     -26.404379      710.05555    
   1440000   305.06964      0.015531399    9.9483362      756.88617     -27.260642      729.62553    
   1441000   310.75225      0.015531399    8.5705251      770.9849      -29.160191      741.82471    
   1442000   290.35488      0.015531399    7.124629       720.37845     -30.990223      689.38823    
   1443000   296.69355      0.015531399    8.2985246      736.10487     -30.795626      705.30924    
   1444000   305.97596      0.015531399    16.001538      759.1348      -29.400052      729.73475    
   1445000   313.46325      0.015531399    1.7476567      777.71096     -32.176526      745.53443    
   1446000   301.54701      0.015531399    2.0295565      748.14645     -28.469635      719.67682    
   1447000   294.04296      0.015531399    9.1830084      729.5287      -32.166117      697.36258    
   1448000   299.7681       0.015531399    10.303061      743.73291     -34.179517      709.55339    
   1449000   292.68435      0.015531399    7.575035       726.15793     -34.324746      691.83318    
   1450000   294.11941      0.015531399    6.5055151      729.71837     -39.246663      690.4717     
   1451000   307.12577      0.015531399    14.852061      761.98751     -35.356096      726.63141    
   1452000   312.15009      0.015531399    8.3530881      774.45298     -33.624914      740.82806    
   1453000   296.69107      0.015531399   -0.7317734      736.09872     -31.833244      704.26547    
   1454000   286.13195      0.015531399    4.9119903      709.90124     -29.957411      679.94383    
   1455000   312.45176      0.015531399    11.428201      775.20143     -33.958164      741.24326    
   1456000   304.15573      0.015531399    4.9080498      754.61874     -31.714079      722.90466    
   1457000   278.0324       0.015531399    7.6742803      689.80604     -32.483354      657.32269    
   1458000   292.24738      0.015531399    11.046608      725.0738      -29.73919       695.33461    
   1459000   304.15867      0.015531399    8.4108275      754.62605     -31.080575      723.54548    
   1460000   315.05236      0.015531399    9.1907124      781.65359     -27.245662      754.40793    
   1461000   286.98381      0.015531399    9.1489456      712.01474     -25.584861      686.42988    
   1462000   300.01804      0.015531399    7.8984656      744.35303     -25.420341      718.93268    
   1463000   305.19592      0.015531399    7.7184832      757.1995      -22.624928      734.57457    
   1464000   301.21978      0.015531399    8.7467023      747.33458     -21.165522      726.16906    
   1465000   292.1541       0.015531399    7.7078042      724.84236     -25.424571      699.41779    
   1466000   310.30279      0.015531399    4.5378277      769.86979     -25.69343       744.17636    
   1467000   307.7955       0.015531399    10.540551      763.64912     -28.89545       734.75367    
   1468000   287.51016      0.015531399    5.1112164      713.32064     -31.350707      681.96993    
   1469000   290.32172      0.015531399    4.5902518      720.29618     -28.880514      691.41566    
   1470000   295.61103      0.015531399   -1.5959697      733.41912     -30.520858      702.89826    
   1471000   286.25375      0.015531399    12.677186      710.20345     -29.481126      680.72232    
   1472000   294.67783      0.015531399    5.4200022      731.10383     -31.406323      699.69751    
   1473000   306.53924      0.015531399    7.4756478      760.5323      -32.769131      727.76317    
   1474000   296.35502      0.015531399    11.322614      735.26497     -37.373137      697.89183    
   1475000   298.31461      0.015531399    2.3258772      740.12678     -32.768543      707.35824    
   1476000   308.11242      0.015531399    3.6105841      764.4354      -30.784835      733.65056    
   1477000   305.69637      0.015531399    13.097541      758.44112     -31.623832      726.81729    
   1478000   290.43639      0.015531399    11.972559      720.58068     -34.105237      686.47545    
   1479000   303.17899      0.015531399    7.1869564      752.19544     -30.310077      721.88536    
   1480000   295.60497      0.015531399   -0.58912833     733.40408     -31.177566      702.22652    
   1481000   301.01336      0.015531399    11.515931      746.82244     -34.300716      712.52172    
   1482000   304.7464       0.015531399    15.434826      756.08423     -30.236038      725.84819    
   1483000   302.44609      0.015531399    0.97682585     750.37709     -27.731632      722.64546    
   1484000   298.49022      0.015531399    11.700503      740.56246     -29.432062      711.1304     
   1485000   290.72107      0.015531399    14.841935      721.287       -31.605477      689.68152    
   1486000   311.16569      0.015531399    1.741554       772.01067     -33.462218      738.54845    
   1487000   302.07256      0.015531399    22.351879      749.45036     -31.540953      717.90941    
   1488000   295.36139      0.015531399    9.5438446      732.79975     -34.951666      697.84808    
   1489000   296.45572      0.015531399   -5.0156687      735.51481     -34.267921      701.24689    
   1490000   316.40076      0.015531399    6.9430577      784.99901     -38.451739      746.54727    
   1491000   304.65123      0.015531399    13.112477      755.84809     -41.221393      714.6267     
   1492000   289.84416      0.015531399    8.608081       719.11135     -38.615356      680.496      
   1493000   287.15106      0.015531399   -4.1017659      712.42969     -35.758001      676.67169    
   1494000   311.6677       0.015531399   -1.7966038      773.25616     -36.686142      736.57002    
   1495000   308.07002      0.015531399    8.5547868      764.3302      -30.600031      733.73017    
   1496000   285.07512      0.015531399    11.58674       707.27923     -36.039705      671.23952    
   1497000   302.90096      0.015531399    7.6695363      751.50564     -33.015409      718.49023    
   1498000   302.41901      0.015531399    8.9303407      750.30991     -32.385115      717.92479    
   1499000   297.32283      0.015531399    8.1606329      737.66614     -32.67845       704.98769    
   1500000   303.25991      0.015531399    8.8189677      752.39619     -34.15285       718.24334    
   1501000   291.49162      0.015531399    8.1600068      723.19876     -30.978708      692.22005    
   1502000   302.9541       0.015531399    7.6377885      751.63748     -37.362367      714.27511    
   1503000   298.23995      0.015531399    7.0195945      739.94155     -31.192695      708.74885    
   1504000   295.70569      0.015531399    9.1428629      733.65396     -30.159488      703.49447    
   1505000   297.91862      0.015531399    9.1212948      739.14431     -31.628013      707.5163     
   1506000   303.76013      0.015531399    7.4733065      753.63725     -34.524002      719.11325    
   1507000   303.5478       0.015531399    7.5802903      753.11045     -32.36071       720.74974    
   1508000   291.82017      0.015531399    6.1487186      724.01388     -35.401179      688.6127     
   1509000   309.82805      0.015531399    8.4387476      768.69193     -31.821311      736.87062    
   1510000   306.51998      0.015531399    8.4193745      760.48452     -30.113267      730.37125    
   1511000   294.14822      0.015531399    8.2397221      729.78984     -30.846667      698.94317    
   1512000   285.33759      0.015531399    7.7599864      707.93042     -29.366588      678.56383    
   1513000   296.24722      0.015531399    6.5997486      734.99751     -28.316127      706.68138    
   1514000   305.21269      0.015531399    9.0308002      757.2411      -27.891253      729.34984    
   1515000   290.95856      0.015531399    9.6711554      721.87621     -27.961496      693.91471    
   1516000   298.62702      0.015531399    7.0839085      740.90187     -26.587452      714.31442    
   1517000   309.259        0.015531399    8.728647       767.28012     -26.190166      741.08995    
   1518000   307.5258       0.015531399    6.9484224      762.98        -24.527287      738.45271    
   1519000   296.50913      0.015531399    8.5055191      735.64733     -28.199369      707.44796    
   1520000   297.65564      0.015531399    10.145877      738.49184     -27.294781      711.19706    
   1521000   305.08645      0.015531399    9.7437191      756.92789     -24.972863      731.95503    
   1522000   320.51535      0.015531399    8.7542795      795.20742     -30.260675      764.94675    
   1523000   297.37806      0.015531399    8.7398281      737.80316     -25.600933      712.20222    
   1524000   294.80612      0.015531399    7.5643294      731.42212     -25.312033      706.11008    
   1525000   310.13197      0.015531399    8.4766272      769.44596     -29.388538      740.05742    
   1526000   310.63599      0.015531399    9.2095103      770.69645     -29.395041      741.30141    
   1527000   311.15793      0.015531399    8.4706024      771.99141     -32.248471      739.74294    
   1528000   290.36492      0.015531399    5.3429895      720.40337     -32.503224      687.90014    
   1529000   300.49754      0.015531399    8.0836959      745.54267     -32.994997      712.54767    
   1530000   308.04355      0.015531399    8.6561935      764.26455     -33.091755      731.17279    
   1531000   296.20925      0.015531399    7.5995105      734.90331     -32.02956       702.87375    
   1532000   285.47528      0.015531399    11.087376      708.27205     -32.157797      676.11425    
   1533000   296.89775      0.015531399    7.5570124      736.61149     -31.566792      705.0447     
   1534000   292.68596      0.015531399    7.8288642      726.16194     -28.162151      697.99979    
   1535000   295.78205      0.015531399    9.2960071      733.84343     -35.159669      698.68376    
   1536000   298.27333      0.015531399    14.87569       740.02435     -30.394087      709.63027    
   1537000   305.95616      0.015531399    12.560498      759.08568     -30.103186      728.98249    
   1538000   304.12552      0.015531399    7.8670369      754.54379     -30.421418      724.12238    
   1539000   292.80944      0.015531399    6.1920963      726.4683      -32.161469      694.30683    
   1540000   309.57587      0.015531399    8.3693778      768.06626     -33.800484      734.26578    
   1541000   299.38437      0.015531399    8.5927339      742.78087     -34.76909       708.01178    
   1542000   279.61582      0.015531399    4.1156659      693.73455     -36.682888      657.05166    
   1543000   291.68688      0.015531399    9.3577428      723.68319     -36.369192      687.314      
   1544000   306.50597      0.015531399    12.961137      760.44977     -30.668859      729.78091    
   1545000   312.81583      0.015531399    12.424482      776.10469     -33.324594      742.78009    
   1546000   303.69019      0.015531399    4.3494656      753.46373     -32.567969      720.89577    
   1547000   288.60006      0.015531399    8.436183       716.02469     -30.267662      685.75703    
   1548000   304.04739      0.015531399    13.849027      754.34995     -33.888811      720.46114    
   1549000   323.1467       0.015531399    1.4730553      801.73587     -36.102601      765.63327    
   1550000   284.47567      0.015531399   -4.4024675      705.79198     -37.776051      668.01593    
   1551000   284.11647      0.015531399    6.3228331      704.9008      -39.14073       665.76007    
   1552000   306.52509      0.015531399    10.703013      760.49719     -38.545276      721.95191    
   1553000   306.71487      0.015531399    9.0678539      760.96806     -34.458591      726.50947    
   1554000   294.29468      0.015531399    7.9553849      730.15321     -33.569154      696.58406    
   1555000   289.75704      0.015531399    7.4556177      718.8952      -34.16013       684.73507    
   1556000   307.5079       0.015531399    8.7769476      762.93558     -25.674275      737.26131    
   1557000   315.18         0.015531399    8.2125762      781.97028     -32.40895       749.56133    
   1558000   285.72551      0.015531399    6.641129       708.89287     -30.176549      678.71632    
   1559000   303.72466      0.015531399    13.333253      753.54925     -26.386528      727.16272    
   1560000   311.78125      0.015531399    8.5373526      773.53787     -30.358955      743.17891    
   1561000   296.46537      0.015531399    5.1853036      735.53875     -33.869041      701.66971    
   1562000   292.46122      0.015531399    8.0355961      725.60434     -29.037728      696.56662    
   1563000   295.19286      0.015531399    9.9100502      732.38163     -29.254742      703.12689    
   1564000   302.7873       0.015531399    12.782401      751.22364     -28.371369      722.85227    
   1565000   326.12494      0.015531399    11.116074      809.12497     -29.444683      779.68029    
   1566000   300.0661       0.015531399    7.3608145      744.47227     -34.023255      710.44901    
   1567000   295.24732      0.015531399    7.2977856      732.51675     -36.997966      695.51878    
   1568000   289.87443      0.015531399    8.6354586      719.18644     -30.680637      688.50581    
   1569000   303.77229      0.015531399    9.6175272      753.66742     -34.927455      718.73996    
   1570000   308.30664      0.015531399    9.8440201      764.91728     -31.629992      733.28728    
   1571000   296.94636      0.015531399    6.8492062      736.7321      -33.497053      703.23505    
   1572000   299.6949       0.015531399    7.7635889      743.55132     -31.841433      711.70988    
   1573000   297.11583      0.015531399    8.2725214      737.15257     -33.945163      703.2074     
   1574000   294.5591       0.015531399    9.3066136      730.80924     -32.583877      698.22537    
   1575000   302.62074      0.015531399    9.9054133      750.8104      -27.22915       723.58125    
   1576000   302.64687      0.015531399    6.9049639      750.87523     -25.430246      725.44498    
   1577000   295.46674      0.015531399    6.2486387      733.06112     -29.525876      703.53525    
   1578000   287.98956      0.015531399    15.232266      714.51004     -25.608541      688.9015     
   1579000   294.98575      0.015531399    10.714481      731.86778     -28.631037      703.23674    
   1580000   311.60632      0.015531399    2.236297       773.10388     -31.208149      741.89573    
   1581000   298.71469      0.015531399    7.7894122      741.11937     -31.776461      709.34291    
   1582000   303.71826      0.015531399    10.202638      753.53337     -37.068072      716.4653     
   1583000   303.61756      0.015531399    4.2940951      753.28354     -32.788619      720.49492    
   1584000   302.52919      0.015531399    8.2171643      750.58326     -34.603961      715.97929    
   1585000   298.77132      0.015531399    7.8417687      741.25987     -30.611397      710.64847    
   1586000   305.57657      0.015531399    8.398737       758.14388     -27.582953      730.56093    
   1587000   295.64074      0.015531399    10.693887      733.49283     -27.407083      706.08575    
   1588000   293.7524       0.015531399    10.31869       728.80781     -26.135046      702.67277    
   1589000   306.048        0.015531399    7.3674713      759.31354     -24.825609      734.48793    
   1590000   303.87234      0.015531399    8.666291       753.91566     -29.230042      724.68562    
   1591000   283.14694      0.015531399    9.8603398      702.49536     -27.137017      675.35834    
   1592000   284.57725      0.015531399    6.6721654      706.044       -29.000743      677.04326    
   1593000   299.65714      0.015531399    5.3030339      743.45761     -26.49262       716.96499    
   1594000   315.86594      0.015531399    11.914185      783.6721      -29.067765      754.60434    
   1595000   293.54126      0.015531399    12.08262       728.28395     -29.733734      698.55022    
   1596000   291.72937      0.015531399    8.3036508      723.78862     -26.902864      696.88575    
   1597000   296.12742      0.015531399    7.9193959      734.70029     -31.438408      703.26188    
   1598000   308.14677      0.015531399    9.4368513      764.52064     -28.944437      735.5762     
   1599000   310.454        0.015531399    8.7673231      770.24494     -28.15753       742.08741    
   1600000   291.13326      0.015531399    3.3972703      722.30965     -31.800307      690.50935    
   1601000   291.46304      0.015531399    8.9280685      723.12784     -28.840209      694.28763    
   1602000   306.53769      0.015531399    8.613871       760.52846     -30.785824      729.74264    
   1603000   300.65717      0.015531399    6.8417529      745.93873     -30.585125      715.35361    
   1604000   286.32873      0.015531399   -1.0924844      710.38947     -30.919626      679.46984    
   1605000   295.93029      0.015531399    11.39236       734.2112      -27.919387      706.29182    
   1606000   302.77127      0.015531399    23.072335      751.18387     -32.55745       718.62642    
   1607000   299.06083      0.015531399    6.8693865      741.97816     -32.219141      709.75902    
   1608000   292.72497      0.015531399    1.1273799      726.25872     -30.298287      695.96044    
   1609000   297.61491      0.015531399    10.397034      738.3908      -36.316064      702.07473    
   1610000   298.12445      0.015531399    11.811912      739.65498     -37.320398      702.33458    
   1611000   302.91552      0.015531399    7.1566853      751.54174     -32.940151      718.60159    
   1612000   312.64306      0.015531399    7.2344478      775.67605     -33.950731      741.72532    
   1613000   290.69671      0.015531399    7.1331492      721.22654     -32.163637      689.0629     
   1614000   301.46379      0.015531399    11.402177      747.93998     -30.065817      717.87416    
   1615000   293.87555      0.015531399   -2.7643019      729.11335     -28.692218      700.42113    
   1616000   297.63976      0.015531399    8.9021638      738.45244     -31.810352      706.64209    
   1617000   304.1729       0.015531399    8.6451494      754.66135     -31.838166      722.82319    
   1618000   296.7809       0.015531399    7.7947961      736.3216      -30.781711      705.53988    
   1619000   295.32714      0.015531399    8.2052529      732.71477     -31.454398      701.26037    
   1620000   294.61856      0.015531399    8.7660344      730.95677     -29.110997      701.84577    
   1621000   301.15157      0.015531399    2.8055163      747.16533     -29.541074      717.62426    
   1622000   314.0442       0.015531399    4.8706745      779.15232     -25.764226      753.3881     
   1623000   293.63427      0.015531399    12.016971      728.51473     -27.245468      701.26926    
   1624000   300.39951      0.015531399    7.5306375      745.29946     -27.48659       717.81287    
   1625000   293.24289      0.015531399    2.310955       727.54368     -23.95153       703.59215    
   1626000   299.64944      0.015531399    7.914648       743.43852     -25.802935      717.63558    
   1627000   302.76934      0.015531399    10.308745      751.17907     -27.050488      724.12858    
   1628000   302.67288      0.015531399    10.383218      750.93976     -28.303213      722.63655    
   1629000   302.57794      0.015531399    6.2528525      750.7042      -27.45074       723.25346    
   1630000   311.07917      0.015531399    8.0746944      771.796       -28.806955      742.98905    
   1631000   293.30338      0.015531399    8.6909537      727.69377     -27.811133      699.88263    
   1632000   298.06534      0.015531399    7.5772233      739.50832     -29.808003      709.70031    
   1633000   297.57497      0.015531399    6.9674836      738.29171     -28.360627      709.93108    
   1634000   311.79294      0.015531399    8.9060847      773.56687     -23.953543      749.61333    
   1635000   304.40065      0.015531399    8.5706898      755.2264      -24.07306       731.15334    
   1636000   284.64399      0.015531399    7.7470391      706.20959     -26.280887      679.9287     
   1637000   303.68649      0.015531399    7.4887693      753.45455     -28.254163      725.20039    
   1638000   298.47429      0.015531399    7.3577957      740.52294     -26.867377      713.65557    
   1639000   297.25099      0.015531399    14.1693        737.48791     -24.219631      713.26828    
   1640000   304.87477      0.015531399    10.027768      756.40271     -25.092909      731.3098     
   1641000   297.48696      0.015531399    7.1617451      738.07335     -23.770545      714.3028     
   1642000   297.55717      0.015531399    7.6167608      738.24754     -21.182606      717.06493    
   1643000   299.22415      0.015531399    10.835647      742.38336     -23.880642      718.50272    
   1644000   286.7117       0.015531399    6.9290908      711.33963     -23.620795      687.71883    
   1645000   294.40615      0.015531399    8.7855946      730.42978     -24.198219      706.23156    
   1646000   293.42317      0.015531399    7.2919351      727.99097     -28.405251      699.58572    
   1647000   307.80547      0.015531399    4.8227726      763.67385     -26.236337      737.43752    
   1648000   306.90448      0.015531399    11.161179      761.43849     -23.273954      738.16453    
   1649000   292.63458      0.015531399    7.1211252      726.03445     -26.786303      699.24815    
   1650000   298.0353       0.015531399    9.2298232      739.43379     -26.951887      712.4819     
   1651000   292.75517      0.015531399    7.1011992      726.33365     -31.43773       694.89592    
   1652000   297.17246      0.015531399    7.2159841      737.29305     -29.550902      707.74215    
   1653000   306.51796      0.015531399    4.7425556      760.47951     -30.001304      730.47821    
   1654000   308.40224      0.015531399    7.07338        765.15446     -31.311922      733.84253    
   1655000   295.20414      0.015531399    9.4304361      732.40961     -25.5766        706.83301    
   1656000   287.1992       0.015531399    7.3683437      712.54914     -22.77583       689.77331    
   1657000   307.35111      0.015531399    8.6162459      762.54658     -21.082861      741.46372    
   1658000   305.43505      0.015531399    9.1146022      757.79278     -24.03421       733.75857    
   1659000   298.02634      0.015531399    15.271925      739.41155     -27.081201      712.33035    
   1660000   293.19466      0.015531399    4.5617243      727.42404     -29.20542       698.21862    
   1661000   312.79805      0.015531399    6.8318577      776.06059     -26.651771      749.40882    
   1662000   305.54198      0.015531399    11.365988      758.05808     -28.325125      729.73295    
   1663000   300.65202      0.015531399    11.956316      745.92595     -30.428697      715.49725    
   1664000   300.83375      0.015531399    5.2114001      746.37682     -29.254998      717.12183    
   1665000   305.99486      0.015531399    7.5411856      759.18168     -27.124171      732.05751    
   1666000   296.33977      0.015531399    12.975515      735.22714     -29.053728      706.17341    
   1667000   293.77224      0.015531399    2.2111103      728.85703     -28.019505      700.83752    
   1668000   310.82573      0.015531399    6.2309442      771.16721     -27.546159      743.62105    
   1669000   307.33804      0.015531399    14.872871      762.51414     -33.100989      729.41315    
   1670000   287.51277      0.015531399    8.654109       713.32711     -33.783307      679.5438     
   1671000   311.12934      0.015531399    5.3527926      771.92047     -35.986056      735.93441    
   1672000   308.62496      0.015531399    9.607739       765.70705     -34.31452       731.39253    
   1673000   279.77092      0.015531399    9.3263325      694.11936     -33.891664      660.22769    
   1674000   298.28755      0.015531399    8.2463696      740.05962     -31.783545      708.27608    
   1675000   298.41379      0.015531399    8.5460155      740.37285     -28.092796      712.28005    
   1676000   304.69038      0.015531399    8.1027047      755.94524     -28.195952      727.74929    
   1677000   278.59502      0.015531399    5.819658       691.20193     -29.122428      662.0795     
   1678000   294.11325      0.015531399    8.9979028      729.70308     -27.432697      702.27038    
   1679000   319.62147      0.015531399    9.0268622      792.98968     -27.734406      765.25528    
   1680000   309.16058      0.015531399    9.337163       767.03593     -24.914858      742.12107    
   1681000   294.34086      0.015531399    6.8827354      730.26778     -21.971284      708.29649    
   1682000   303.61649      0.015531399    7.6213557      753.28087     -25.084293      728.19658    
   1683000   305.59028      0.015531399    10.977033      758.1779      -20.647658      737.53024    
   1684000   304.11699      0.015531399    10.717724      754.52264     -22.207105      732.31554    
   1685000   313.07453      0.015531399    3.4389685      776.74653     -25.369574      751.37696    
   1686000   290.57073      0.015531399    1.2418199      720.91399     -22.413615      698.50038    
   1687000   299.68835      0.015531399    8.4574873      743.53505     -22.370812      721.16424    
   1688000   303.52214      0.015531399    12.383045      753.04679     -25.748797      727.298      
   1689000   301.79722      0.015531399    3.9446757      748.76721     -24.063434      724.70378    
   1690000   290.89945      0.015531399    7.9574618      721.72955     -23.99692       697.73263    
   1691000   302.78543      0.015531399    9.5144649      751.219       -25.687658      725.53135    
   1692000   304.82823      0.015531399    8.2171598      756.28724     -21.333646      734.95359    
   1693000   306.34115      0.015531399    8.1015851      760.04085     -15.49249       744.54836    
   1694000   293.17901      0.015531399    6.483431       727.38521     -19.451526      707.93368    
   1695000   298.99606      0.015531399    9.3281701      741.81747     -23.643425      718.17404    
   1696000   308.96691      0.015531399    13.281806      766.55543     -21.623026      744.9324     
   1697000   290.9233       0.015531399    7.8576086      721.78872     -23.139104      698.64962    
   1698000   301.77457      0.015531399    7.7509892      748.71102     -25.960398      722.75062    
   1699000   305.70846      0.015531399    12.907985      758.47113     -21.034862      737.43627    
   1700000   302.56283      0.015531399    21.537958      750.66673     -20.704928      729.9618     
   1701000   298.31481      0.015531399    4.7114523      740.12728     -24.934064      715.19321    
   1702000   292.96399      0.015531399    7.6278711      726.85173     -23.561076      703.29065    
   1703000   291.85235      0.015531399    8.6874102      724.09373     -23.76506       700.32867    
   1704000   318.00358      0.015531399    8.9967576      788.97565     -21.219226      767.75642    
   1705000   296.06372      0.015531399    11.305396      734.54225     -26.977389      707.56487    
   1706000   295.24663      0.015531399    8.1040196      732.51502     -22.730759      709.78426    
   1707000   307.11978      0.015531399    8.176756       761.97263     -27.613229      734.3594     
   1708000   307.74088      0.015531399    8.5028595      763.51361     -23.972945      739.54066    
   1709000   290.02918      0.015531399    8.5866036      719.57038     -29.400142      690.17024    
   1710000   288.16162      0.015531399    7.8437352      714.93692     -27.013214      687.92371    
   1711000   310.24849      0.015531399    8.5283778      769.73506     -23.529305      746.20576    
   1712000   303.83866      0.015531399    11.862399      753.83208     -22.664595      731.16749    
   1713000   280.15169      0.015531399    10.877261      695.06405     -21.494288      673.56977    
   1714000   303.30187      0.015531399    3.9913969      752.5003      -16.873019      735.62728    
   1715000   302.69139      0.015531399    9.9441399      750.98569     -19.446973      731.53872    
   1716000   286.09831      0.015531399    7.1946396      709.8178      -23.612701      686.2051     
   1717000   296.32255      0.015531399    8.5412775      735.18442     -21.011491      714.17293    
   1718000   298.28769      0.015531399    7.1290023      740.05998     -16.03459       724.02539    
   1719000   298.14246      0.015531399    8.0587903      739.69966     -22.684534      717.01513    
   1720000   301.72204      0.015531399    8.5148636      748.5807      -18.574409      730.00629    
   1721000   293.17406      0.015531399    8.0835581      727.37292     -21.079323      706.29359    
   1722000   299.39556      0.015531399    9.3409539      742.80865     -17.761093      725.04755    
   1723000   301.82021      0.015531399    8.0926796      748.82426     -17.335195      731.48907    
   1724000   291.86048      0.015531399    8.8797853      724.11389     -15.119115      708.99477    
   1725000   295.17512      0.015531399    9.3433316      732.3376      -18.854457      713.48315    
   1726000   316.80439      0.015531399    9.1832339      786.00043     -22.08399       763.91644    
   1727000   294.31739      0.015531399    8.2060963      730.20956     -22.095591      708.11397    
   1728000   293.76707      0.015531399    11.337985      728.84419     -21.292081      707.55211    
   1729000   301.94192      0.015531399    12.38813       749.12622     -20.726443      728.39978    
   1730000   297.17872      0.015531399    9.386824       737.3086      -24.064278      713.24432    
   1731000   298.20121      0.015531399    7.8008244      739.84543     -24.163806      715.68163    
   1732000   305.57172      0.015531399    11.672745      758.13186     -22.789141      735.34272    
   1733000   299.9336       0.015531399    8.968829       744.14353     -18.163897      725.97964    
   1734000   295.47234      0.015531399    8.4249993      733.07501     -20.507286      712.56772    
   1735000   296.05682      0.015531399    7.6421167      734.52514     -22.73358       711.79156    
   1736000   313.25182      0.015531399    6.893325       777.1864      -24.977422      752.20897    
   1737000   300.06189      0.015531399    11.726158      744.46182     -25.749753      718.71206    
   1738000   304.16002      0.015531399    8.3908649      754.62939     -27.289105      727.34028    
   1739000   291.79053      0.015531399    8.1223593      723.94036     -23.576434      700.36393    
   1740000   299.14207      0.015531399    8.55864        742.17972     -31.54632       710.6334     
   1741000   296.96637      0.015531399    8.3401284      736.78176     -29.240558      707.5412     
   1742000   294.88617      0.015531399    7.5819039      731.62071     -27.560301      704.06041    
   1743000   300.40435      0.015531399    8.2426991      745.31148     -24.193867      721.11761    
   1744000   300.71306      0.015531399    8.7963523      746.0774      -24.670158      721.40724    
   1745000   304.10074      0.015531399    8.8195288      754.48232     -27.675638      726.80669    
   1746000   312.66585      0.015531399    8.3809624      775.73259     -27.042948      748.68964    
   1747000   294.75538      0.015531399    8.2743178      731.29621     -27.813453      703.48276    
   1748000   295.73192      0.015531399    7.0158999      733.71905     -23.711718      710.00733    
   1749000   316.45387      0.015531399    6.5645301      785.13077     -23.289082      761.84169    
   1750000   295.71664      0.015531399    7.9704517      733.68115     -23.626174      710.05497    
   1751000   281.04516      0.015531399    9.9607585      697.28078     -23.492469      673.78831    
   1752000   300.32058      0.015531399    9.8119873      745.10364     -21.743506      723.36014    
   1753000   301.07664      0.015531399    7.7670608      746.97945     -24.202658      722.77679    
   1754000   305.02667      0.015531399   -1.7621172      756.77957     -29.667134      727.11244    
   1755000   293.75042      0.015531399    8.967911       728.80288     -35.603447      693.19943    
   1756000   290.76021      0.015531399    14.501757      721.3841      -34.301852      687.08224    
   1757000   306.36586      0.015531399    5.3874772      760.10214     -28.032014      732.07013    
   1758000   309.09994      0.015531399    4.0257664      766.88546     -30.843697      736.04177    
   1759000   293.83893      0.015531399    2.3162417      729.02248     -25.409456      703.61303    
   1760000   297.96225      0.015531399    10.192476      739.25257     -28.04221       711.21036    
   1761000   285.37141      0.015531399    5.3751756      708.01433     -25.899206      682.11512    
   1762000   296.63451      0.015531399    19.077624      735.95839     -25.683363      710.27503    
   1763000   313.5707       0.015531399    10.366577      777.97756     -20.700322      757.27723    
   1764000   297.61646      0.015531399    3.6883868      738.39464     -21.177269      717.21737    
   1765000   301.03506      0.015531399    8.1466619      746.87627     -23.721607      723.15466    
   1766000   296.74749      0.015531399    2.747948       736.2387      -23.120415      713.11828    
   1767000   300.2541       0.015531399    9.1231824      744.93869     -24.771007      720.16768    
   1768000   302.30987      0.015531399    11.897071      750.03912     -24.435671      725.60345    
   1769000   311.05689      0.015531399    4.2373175      771.74071     -21.842441      749.89827    
   1770000   299.0722       0.015531399    5.1507335      742.00638     -21.728814      720.27757    
   1771000   281.42719      0.015531399    11.041534      698.22861     -21.040475      677.18814    
   1772000   314.64565      0.015531399    18.722983      780.64452     -24.154242      756.49028    
   1773000   311.43665      0.015531399    4.2320021      772.68291     -20.297684      752.38523    
   1774000   300.06492      0.015531399    4.1899771      744.46933     -20.674599      723.79474    
   1775000   291.10538      0.015531399    14.70594       722.24048     -21.323181      700.9173     
   1776000   311.12717      0.015531399    10.746947      771.91508     -20.372542      751.54254    
   1777000   308.05668      0.015531399    0.89273724     764.2971      -18.762069      745.53503    
   1778000   296.05602      0.015531399    2.4642253      734.52314     -26.156585      708.36656    
   1779000   289.36798      0.015531399    2.9762373      717.92994     -27.470246      690.4597     
   1780000   303.23387      0.015531399    11.728086      752.3316      -29.365476      722.96613    
   1781000   314.85225      0.015531399    13.858585      781.15712     -27.632673      753.52445    
   1782000   288.97847      0.015531399    7.5818882      716.96354     -27.509701      689.45384    
   1783000   294.41267      0.015531399    4.2298672      730.44594     -33.373207      697.07273    
   1784000   297.54817      0.015531399    12.156974      738.22522     -30.565183      707.66004    
   1785000   299.2423       0.015531399    10.107466      742.42839     -31.160104      711.26828    
   1786000   307.70256      0.015531399    9.7085902      763.41854     -22.892237      740.52631    
   1787000   300.97974      0.015531399    5.6139531      746.73904     -24.12747       722.61157    
   1788000   301.64935      0.015531399    10.734163      748.40035     -23.754416      724.64593    
   1789000   308.15348      0.015531399    8.0693795      764.53727     -24.537804      739.99946    
   1790000   307.83243      0.015531399    2.3227669      763.74074     -25.325832      738.41491    
   1791000   283.33471      0.015531399    5.5782104      702.96124     -24.64639       678.31485    
   1792000   289.11139      0.015531399    7.6476373      717.29333     -25.562149      691.73118    
   1793000   312.47979      0.015531399    14.979822      775.27098     -29.625849      745.64513    
   1794000   294.0122       0.015531399    11.416528      729.45238     -28.653262      700.79912    
   1795000   304.33126      0.015531399    6.9421005      755.05425     -28.480126      726.57412    
   1796000   297.58583      0.015531399    7.4146578      738.31865     -26.611837      711.70681    
   1797000   302.51653      0.015531399    9.8406963      750.55185     -27.305218      723.24663    
   1798000   293.11553      0.015531399    9.038472       727.2277      -31.405419      695.82228    
   1799000   293.50006      0.015531399    9.2280077      728.18175     -24.387427      703.79432    
   1800000   296.83034      0.015531399    7.512389       736.44425     -21.955951      714.4883     
   1801000   301.9182       0.015531399    7.74632        749.06738     -26.806462      722.26092    
   1802000   303.0242       0.015531399    8.4677149      751.81139     -26.846251      724.96514    
   1803000   299.79246      0.015531399    8.8592174      743.79337     -26.87103       716.92234    
   1804000   287.24452      0.015531399    7.7795029      712.66156     -26.675603      685.98596    
   1805000   294.94145      0.015531399    6.4882934      731.75786     -23.571663      708.1862     
   1806000   308.44146      0.015531399    8.3549453      765.25175     -25.919341      739.33241    
   1807000   303.47901      0.015531399    11.294772      752.9398      -25.80483       727.13497    
   1808000   294.97371      0.015531399    8.9264974      731.83792     -27.873557      703.96436    
   1809000   291.23604      0.015531399    7.4948077      722.56463     -24.946172      697.61846    
   1810000   313.49529      0.015531399    10.952135      777.79046     -28.889068      748.9014     
   1811000   299.40766      0.015531399    13.876963      742.83866     -31.767132      711.07153    
   1812000   295.23133      0.015531399    7.0413755      732.47707     -27.81899       704.65808    
   1813000   297.16333      0.015531399    2.8744978      737.27041     -27.182328      710.08808    
   1814000   313.32043      0.015531399    12.094903      777.35662     -29.161452      748.19517    
   1815000   288.37499      0.015531399    14.253468      715.46631     -34.344385      681.12192    
   1816000   285.73446      0.015531399    0.53240718     708.91508     -38.245481      670.6696     
   1817000   309.90054      0.015531399    1.5204884      768.87179     -25.536347      743.33545    
   1818000   314.06925      0.015531399    5.0979717      779.21446     -26.299643      752.91482    
   1819000   300.09097      0.015531399    11.5165        744.53398     -23.579421      720.95455    
   1820000   295.10028      0.015531399    6.6131575      732.15192     -24.64946       707.50246    
   1821000   303.566        0.015531399   -1.6440305      753.15562     -22.006357      731.14926    
   1822000   309.63133      0.015531399    12.862291      768.20387     -19.993549      748.21032    
   1823000   305.01003      0.015531399    17.438954      756.73829     -20.510731      736.22756    
   1824000   289.54677      0.015531399    7.5844842      718.37353     -19.709359      698.66417    
   1825000   304.32576      0.015531399    6.3055109      755.0406      -26.550781      728.48982    
   1826000   309.75492      0.015531399    15.326372      768.51049     -25.082323      743.42816    
   1827000   296.61973      0.015531399    12.963798      735.92172     -23.127748      712.79398    
   1828000   288.55002      0.015531399    7.0229717      715.90055     -21.787519      694.11303    
   1829000   292.29097      0.015531399   -3.4955821      725.18195     -24.235713      700.94624    
   1830000   303.78482      0.015531399    7.8904691      753.69851     -22.50977       731.18874    
   1831000   305.33981      0.015531399    7.9163372      757.55649     -21.422704      736.13378    
   1832000   302.42725      0.015531399    8.822055       750.33034     -18.372974      731.95736    
   1833000   299.00194      0.015531399    9.1864435      741.83204     -22.966536      718.86551    
   1834000   300.02539      0.015531399    9.5805729      744.37127     -25.516789      718.85448    
   1835000   297.59425      0.015531399    7.2223101      738.33954     -23.748633      714.5909     
   1836000   312.22895      0.015531399    5.555907       774.64864     -27.50408       747.14456    
   1837000   302.14984      0.015531399    10.543286      749.64209     -26.61804       723.02405    
   1838000   299.51456      0.015531399    4.038958       743.10388     -25.216633      717.88724    
   1839000   308.14751      0.015531399    8.7533821      764.52246     -26.977799      737.54466    
   1840000   294.36809      0.015531399    24.754633      730.33534     -23.887181      706.44816    
   1841000   292.5762       0.015531399    4.1565765      725.88963     -21.531182      704.35844    
   1842000   317.59697      0.015531399    4.157833       787.96683     -22.734743      765.23209    
   1843000   287.94691      0.015531399    11.124751      714.40423     -27.551903      686.85233    
   1844000   284.47241      0.015531399    1.4158617      705.78388     -28.486701      677.29718    
   1845000   311.7286       0.015531399    10.415882      773.40726     -29.984614      743.42264    
   1846000   294.60218      0.015531399    9.0421873      730.91612     -30.033781      700.88234    
   1847000   290.17563      0.015531399    2.327701       719.93373     -25.384059      694.54967    
   1848000   311.45189      0.015531399    11.019756      772.72072     -27.100247      745.62048    
   1849000   302.77413      0.015531399    9.1850357      751.19097     -25.577458      725.61352    
   1850000   297.97423      0.015531399    8.3173388      739.28228     -21.736208      717.54608    
   1851000   295.85418      0.015531399    8.2672524      734.02236     -21.958547      712.06382    
   1852000   302.36478      0.015531399    9.0324703      750.17536     -24.752303      725.42306    
   1853000   307.30356      0.015531399    12.346737      762.42861     -26.044285      736.38433    
   1854000   285.55616      0.015531399    7.7161658      708.47271     -33.035021      675.43769    
   1855000   298.97245      0.015531399    8.6742721      741.75888     -27.514245      714.24463    
   1856000   302.46265      0.015531399    8.3967605      750.41817     -31.542318      718.87585    
   1857000   306.4425       0.015531399    10.369028      760.2923      -24.372212      735.92009    
   1858000   297.15171      0.015531399    8.633428       737.24158     -26.227091      711.01449    
   1859000   299.61811      0.015531399    8.4644835      743.36078     -24.386999      718.97379    
   1860000   291.33887      0.015531399    8.8812618      722.81976     -23.466654      699.3531     
   1861000   294.67475      0.015531399    8.6958806      731.09617     -24.784585      706.31159    
   1862000   312.49677      0.015531399    8.8443618      775.3131      -24.945944      750.36715    
   1863000   300.46984      0.015531399    8.5438509      745.47397     -22.54234       722.93163    
   1864000   298.77575      0.015531399    7.2984359      741.27088     -24.388187      716.88269    
   1865000   309.85986      0.015531399    11.696006      768.77085     -25.057192      743.71366    
   1866000   300.84394      0.015531399    10.966852      746.4021      -25.237759      721.16434    
   1867000   303.01141      0.015531399    6.839225       751.77965     -26.071147      725.7085     
   1868000   302.23275      0.015531399    8.2622173      749.84778     -27.771347      722.07643    
   1869000   299.72961      0.015531399    9.6597876      743.63742     -28.662877      714.97454    
   1870000   303.72834      0.015531399    9.0003699      753.55839     -26.06525       727.49314    
   1871000   300.21508      0.015531399    7.9002214      744.8419      -28.206245      716.63565    
   1872000   302.21766      0.015531399    8.8837829      749.81035     -30.060019      719.75033    
   1873000   306.74774      0.015531399    3.4257944      761.04961     -27.116701      733.93291    
   1874000   294.06279      0.015531399    7.0053956      729.5779      -31.617499      697.9604     
   1875000   295.93359      0.015531399    10.852943      734.2194      -30.490929      703.72847    
   1876000   314.4376       0.015531399    10.149205      780.12835     -29.177455      750.95089    
   1877000   301.13672      0.015531399    7.0138393      747.12851     -30.825363      716.30314    
   1878000   298.90144      0.015531399    6.8285916      741.5827      -34.532891      707.04981    
   1879000   281.78691      0.015531399    11.574439      699.1211      -26.880728      672.24037    
   1880000   302.39746      0.015531399    11.263126      750.25644     -28.504209      721.75223    
   1881000   304.54201      0.015531399    9.8370982      755.57712     -28.321705      727.25542    
   1882000   299.78259      0.015531399    8.3707026      743.76887     -31.430715      712.33815    
   1883000   292.68275      0.015531399    4.9427293      726.15397     -29.842547      696.31142    
   1884000   298.3884       0.015531399    12.272435      740.30985     -26.226294      714.08356    
   1885000   314.19015      0.015531399    6.8698057      779.51441     -27.155104      752.35931    
   1886000   295.87645      0.015531399    6.1462045      734.07762     -31.275058      702.80257    
   1887000   287.82106      0.015531399    7.7685867      714.09198     -28.458529      685.63345    
   1888000   296.9369       0.015531399    12.479627      736.70864     -25.345395      711.36324    
   1889000   303.68284      0.015531399    11.431328      753.4455      -26.810741      726.63476    
   1890000   298.58099      0.015531399    10.757262      740.78766     -24.292297      716.49536    
   1891000   310.42037      0.015531399    5.088158       770.1615      -25.291294      744.87021    
   1892000   299.49683      0.015531399    5.8839774      743.05989     -26.259457      716.80043    
   1893000   302.89442      0.015531399    25.102916      751.48941     -25.138039      726.35137    
   1894000   306.55828      0.015531399    13.696974      760.57954     -23.491719      737.08782    
   1895000   296.70279      0.015531399   -2.252907       736.12781     -26.585253      709.54256    
   1896000   307.25391      0.015531399    9.6794601      762.30543     -28.004947      734.30048    
   1897000   304.55453      0.015531399    11.57515       755.60819     -27.231941      728.37625    
   1898000   295.03831      0.015531399   -3.638631       731.99818     -27.340228      704.65795    
   1899000   292.8633       0.015531399    3.5826535      726.60191     -24.454742      702.14717    
   1900000   298.00334      0.015531399    7.6230749      739.35451     -20.713258      718.64125    
   1901000   294.97816      0.015531399    18.538962      731.84895     -24.766756      707.08219    
   1902000   307.47302      0.015531399    7.5489494      762.84903     -25.67903       737.17       
   1903000   299.90637      0.015531399   -0.47585936     744.07597     -27.420579      716.65539    
   1904000   290.64808      0.015531399    6.0896337      721.10589     -26.745751      694.36014    
   1905000   295.77154      0.015531399    15.210409      733.81734     -30.570069      703.24728    
   1906000   300.77716      0.015531399    12.362511      746.23643     -31.061674      715.17476    
   1907000   306.70415      0.015531399    5.7487548      760.94146     -30.786811      730.15465    
   1908000   289.38369      0.015531399    7.2452376      717.96891     -30.661489      687.30743    
   1909000   283.71354      0.015531399    7.8534929      703.90112     -26.389982      677.51113    
   1910000   304.72394      0.015531399    9.2243571      756.0285      -28.590468      727.43803    
   1911000   309.18171      0.015531399    6.9090827      767.08834     -30.776346      736.312      
   1912000   286.89576      0.015531399    1.2056802      711.79629     -26.131598      685.66469    
   1913000   298.41198      0.015531399    10.552884      740.36835     -26.346056      714.0223     
   1914000   316.44539      0.015531399    12.168598      785.10972     -26.106619      759.00311    
   1915000   301.06716      0.015531399    9.1787194      746.95593     -29.273751      717.68218    
   1916000   286.88587      0.015531399    1.4595945      711.77175     -28.021776      683.74998    
   1917000   293.28216      0.015531399    9.1530263      727.64112     -28.923833      698.71729    
   1918000   309.95492      0.015531399    15.261392      769.0067      -22.787269      746.21943    
   1919000   306.08324      0.015531399    11.309113      759.40095     -21.651652      737.74929    
   1920000   295.04387      0.015531399    9.6606274      732.01197     -22.050707      709.96127    
   1921000   295.85954      0.015531399    4.5405217      734.03568     -24.191727      709.84396    
   1922000   295.48429      0.015531399    9.1910628      733.10466     -23.812806      709.29185    
   1923000   312.84874      0.015531399    9.2925461      776.18635     -27.130682      749.05567    
   1924000   305.66446      0.015531399    8.2531402      758.36196     -28.774603      729.58735    
   1925000   283.66894      0.015531399    7.9175518      703.79047     -25.758768      678.0317     
   1926000   290.73772      0.015531399    4.9916363      721.3283      -25.760057      695.56824    
   1927000   300.14721      0.015531399    6.7790248      744.6735      -25.710106      718.9634     
   1928000   307.7342       0.015531399    13.253039      763.49702     -24.742348      738.75467    
   1929000   301.62874      0.015531399    8.3542422      748.34923     -25.822498      722.52673    
   1930000   293.72777      0.015531399    4.5038347      728.74669     -25.112696      703.634      
   1931000   308.54455      0.015531399    10.649937      765.50753     -28.105241      737.40229    
   1932000   300.36762      0.015531399    13.486366      745.22034     -28.182392      717.03795    
   1933000   301.85914      0.015531399    8.4917456      748.92085     -27.884501      721.03635    
   1934000   291.25137      0.015531399    7.1566253      722.60268     -29.020035      693.58264    
   1935000   297.29824      0.015531399    9.0618193      737.60513     -29.628545      707.97659    
   1936000   307.5121       0.015531399    9.4649262      762.94599     -28.160453      734.78553    
   1937000   309.44182      0.015531399    8.7060653      767.73368     -25.605889      742.12779    
   1938000   289.49624      0.015531399    7.6458383      718.24816     -26.040108      692.20805    
   1939000   296.21468      0.015531399    12.0882        734.9168      -23.780605      711.13619    
   1940000   310.95964      0.015531399    11.046785      771.49945     -23.68845       747.811      
   1941000   303.57279      0.015531399    6.9174978      753.17247     -24.793006      728.37946    
   1942000   292.13284      0.015531399    4.198527       724.78962     -28.748893      696.04073    
   1943000   287.97508      0.015531399    9.2481796      714.47411     -25.141081      689.33303    
   1944000   310.29895      0.015531399    9.0746974      769.86024     -25.491931      744.36831    
   1945000   306.92761      0.015531399    7.6366896      761.49587     -22.27962       739.21625    
   1946000   299.85165      0.015531399    2.8690082      743.94021     -23.339565      720.60065    
   1947000   287.67724      0.015531399    12.254661      713.73517     -24.235013      689.50015    
   1948000   315.47268      0.015531399    14.996735      782.69641     -22.446862      760.24954    
   1949000   309.56607      0.015531399    4.7147686      768.04195     -26.976344      741.06561    
   1950000   293.71886      0.015531399    10.595954      728.72459     -23.086862      705.63773    
   1951000   312.19245      0.015531399    9.5680592      774.55806     -22.510241      752.04782    
   1952000   296.79371      0.015531399    5.3162647      736.35338     -23.037673      713.3157     
   1953000   298.79344      0.015531399    6.4617901      741.31477     -28.628596      712.68617    
   1954000   287.54038      0.015531399    13.255884      713.39562     -27.003207      686.39241    
   1955000   306.84137      0.015531399    12.20571       761.2819      -22.786211      738.49569    
   1956000   306.06743      0.015531399    4.6806473      759.36174     -24.050665      735.31107    
   1957000   291.87509      0.015531399    9.0385963      724.15014     -24.33794       699.8122     
   1958000   294.46091      0.015531399    8.6650236      730.56564     -27.002608      703.56303    
   1959000   301.30228      0.015531399    8.7769791      747.53927     -29.94514       717.59413    
   1960000   304.44697      0.015531399    9.1814103      755.34133     -36.338241      719.00309    
   1961000   298.17979      0.015531399    9.5347479      739.79227     -33.902221      705.89005    
   1962000   304.34085      0.015531399    6.3710287      755.07803     -31.868073      723.20996    
   1963000   307.04129      0.015531399    8.7448358      761.7779      -31.27252       730.50538    
   1964000   287.09566      0.015531399    11.968124      712.29224     -25.98772       686.30452    
   1965000   298.08692      0.015531399    7.593466       739.56187     -28.107286      711.45458    
   1966000   308.39256      0.015531399    7.3916539      765.13044     -24.221685      740.90876    
   1967000   306.29776      0.015531399    9.5769204      759.93318     -24.917326      735.01585    
   1968000   289.3204       0.015531399    7.0056777      717.81189     -27.942258      689.86963    
   1969000   317.26655      0.015531399    10.897071      787.14706     -27.463485      759.68358    
   1970000   303.88986      0.015531399    10.477162      753.95911     -27.704336      726.25477    
   1971000   287.44158      0.015531399    9.6284013      713.15047     -22.739896      690.41058    
   1972000   283.249        0.015531399    6.1147549      702.74858     -25.81655       676.93203    
   1973000   303.97886      0.015531399    7.5939026      754.17993     -22.90769       731.27224    
   1974000   316.75775      0.015531399    8.6717444      785.88472     -24.064956      761.81976    
   1975000   304.2015       0.015531399    7.8224349      754.73229     -21.684849      733.04745    
   1976000   292.00358      0.015531399    8.6934545      724.46892     -24.816688      699.65223    
   1977000   285.08814      0.015531399    8.96727        707.31154     -22.116518      685.19503    
   1978000   323.78301      0.015531399    10.548947      803.31457     -21.490145      781.82443    
   1979000   311.31799      0.015531399    9.2398274      772.38851     -29.025301      743.36321    
   1980000   290.10953      0.015531399    7.5233139      719.76974     -28.473481      691.29626    
   1981000   295.82016      0.015531399    8.5300815      733.93796     -34.924621      699.01334    
   1982000   317.07136      0.015531399    9.8412336      786.66277     -31.443621      755.21915    
   1983000   307.9793       0.015531399    8.7330229      764.10512     -31.949717      732.1554     
   1984000   289.30757      0.015531399    5.1445335      717.78005     -26.238884      691.54116    
   1985000   293.08763      0.015531399    8.8139563      727.15848     -24.963132      702.19535    
   1986000   316.1951       0.015531399    8.4768306      784.48875     -26.264624      758.22413    
   1987000   299.19281      0.015531399    5.1146309      742.3056      -29.778618      712.52698    
   1988000   293.78938      0.015531399    8.679159       728.89954     -27.450872      701.44867    
   1989000   296.95359      0.015531399    8.4661682      736.75005     -24.007167      712.74288    
   1990000   327.62164      0.015531399    9.9659093      812.83832     -28.720389      784.11793    
   1991000   304.84773      0.015531399    9.1413034      756.33561     -28.602109      727.7335     
   1992000   295.6693       0.015531399    10.371919      733.56368     -24.005981      709.5577     
   1993000   292.50763      0.015531399    8.5973496      725.7195      -22.523524      703.19597    
   1994000   297.69111      0.015531399    2.2339908      738.57984     -20.175499      718.40434    
   1995000   307.99079      0.015531399    9.4440161      764.13364     -28.047262      736.08638    
   1996000   304.90049      0.015531399    11.757572      756.46651     -26.089349      730.37716    
   1997000   283.82939      0.015531399    8.2180185      704.18855     -27.557762      676.63079    
   1998000   290.72412      0.015531399    4.5597885      721.29456     -24.054325      697.24023    
   1999000   321.44297      0.015531399    3.6135601      797.50886     -22.065367      775.44349    
   2000000   302.79208      0.015531399    9.5790034      751.23551     -21.844025      729.39148    
   2001000   285.7138       0.015531399    8.2995485      708.86381     -21.735422      687.12839    
   2002000   297.70222      0.015531399    8.2187416      738.60741     -28.126509      710.4809     
   2003000   312.48535      0.015531399    7.9142602      775.28476     -30.772924      744.51183    
   2004000   299.35937      0.015531399    10.91824       742.71884     -27.957867      714.76098    
   2005000   277.09027      0.015531399    8.0104114      687.46861     -34.759778      652.70883    
   2006000   297.27589      0.015531399    6.229647       737.54968     -28.983761      708.56591    
   2007000   309.21222      0.015531399    8.5880708      767.16405     -27.784502      739.37955    
   2008000   306.79297      0.015531399    9.0585907      761.16182     -29.023866      732.13796    
   2009000   285.67952      0.015531399    6.9929979      708.77875     -25.320661      683.45809    
   2010000   284.80829      0.015531399    9.4910596      706.61723     -24.905054      681.71217    
   2011000   296.68386      0.015531399    6.3758324      736.08083     -24.213479      711.86735    
   2012000   300.51138      0.015531399    8.4223757      745.57701     -30.163406      715.41361    
   2013000   307.95934      0.015531399    10.574191      764.05561     -28.125034      735.93058    
   2014000   298.94766      0.015531399    6.5692281      741.69738     -35.541729      706.15565    
   2015000   304.46233      0.015531399    3.7708839      755.37943     -28.638846      726.74059    
   2016000   294.5129       0.015531399    19.083132      730.69463     -26.793662      703.90097    
   2017000   305.95618      0.015531399    10.622637      759.08571     -30.132438      728.95327    
   2018000   308.51894      0.015531399    15.265031      765.44401     -29.678824      735.76518    
   2019000   285.96748      0.015531399    8.3306295      709.49319     -24.977232      684.51596    
   2020000   295.08712      0.015531399    5.2303222      732.11927     -28.974556      703.14472    
   2021000   305.04351      0.015531399    8.3845085      756.82135     -28.762768      728.05858    
   2022000   306.01578      0.015531399    12.568166      759.23358     -30.536621      728.69696    
   2023000   292.14616      0.015531399    15.738593      724.82267     -28.35402       696.46865    
   2024000   295.55565      0.015531399    1.9624833      733.2817      -26.13437       707.14733    
   2025000   305.97891      0.015531399    16.98224       759.14212     -22.94856       736.19356    
   2026000   305.72435      0.015531399    17.200452      758.51053     -22.966024      735.54451    
   2027000   297.17933      0.015531399   -1.5096594      737.31012     -25.188455      712.12166    
   2028000   297.67619      0.015531399    7.018984       738.54282     -27.420983      711.12184    
   2029000   306.22746      0.015531399    8.8029504      759.75877     -29.804916      729.95385    
   2030000   300.73633      0.015531399    9.176767       746.13512     -24.361367      721.77375    
   2031000   296.95288      0.015531399    9.491416       736.74828     -23.08068       713.6676     
   2032000   283.16828      0.015531399   -9.9129066      702.54831     -22.55588       679.99243    
   2033000   299.92196      0.015531399   -5.1555844      744.11466     -27.289359      716.8253     
   2034000   307.47448      0.015531399    14.403205      762.85267     -30.819255      732.03341    
   2035000   285.10155      0.015531399    4.1379427      707.3448      -32.15837       675.18643    
   2036000   289.69464      0.015531399    0.50779279     718.7404      -26.229178      692.51122    
   2037000   296.75771      0.015531399    8.5615284      736.26406     -27.434559      708.8295     
   2038000   299.59105      0.015531399    14.829255      743.29364     -29.458493      713.83515    
   2039000   302.44826      0.015531399    7.6062114      750.38248     -29.376663      721.00582    
   2040000   301.16271      0.015531399    7.3622472      747.19299     -30.495992      716.697      
   2041000   304.0943       0.015531399    11.091282      754.46635     -32.680296      721.78605    
   2042000   294.88361      0.015531399    6.7076145      731.61436     -34.400805      697.21356    
   2043000   313.91773      0.015531399    3.3019235      778.83855     -30.09806       748.74049    
   2044000   302.0862       0.015531399    9.9677646      749.48419     -29.350422      720.13377    
   2045000   305.50045      0.015531399    9.8240781      757.95504     -28.326018      729.62903    
   2046000   292.08928      0.015531399    4.6657853      724.68154     -30.379617      694.30193    
   2047000   295.27922      0.015531399    6.8496691      732.5959      -26.144042      706.45185    
   2048000   312.09688      0.015531399    11.900897      774.32097     -28.494927      745.82605    
   2049000   308.32062      0.015531399    9.9803695      764.95195     -29.390174      735.56178    
   2050000   293.98984      0.015531399    7.8418798      729.39689     -29.022049      700.37484    
   2051000   300.18699      0.015531399    8.1418825      744.77221     -29.022806      715.7494     
   2052000   311.86319      0.015531399    8.6351615      773.74118     -26.959209      746.78197    
   2053000   301.21193      0.015531399    6.6727745      747.31511     -29.802964      717.51215    
   2054000   284.86613      0.015531399    8.3511623      706.76073     -28.079426      678.6813     
   2055000   295.01793      0.015531399    8.1702902      731.94761     -33.232462      698.71515    
   2056000   305.84925      0.015531399    8.9397944      758.82042     -31.536935      727.28349    
   2057000   301.86505      0.015531399    8.8665199      748.93551     -27.787747      721.14777    
   2058000   295.7584       0.015531399    6.7309435      733.78474     -30.714418      703.07032    
   2059000   293.87975      0.015531399    8.2977545      729.12377     -33.718258      695.40551    
   2060000   316.79441      0.015531399    12.101581      785.97567     -30.092881      755.88278    
   2061000   304.46345      0.015531399    7.4412276      755.3822      -32.331147      723.05106    
   2062000   283.23675      0.015531399    8.7365452      702.71818     -29.742681      672.9755     
   2063000   288.48424      0.015531399    12.197692      715.73734     -31.983665      683.75368    
   2064000   307.01121      0.015531399    11.245349      761.70328     -25.610958      736.09232    
   2065000   304.78733      0.015531399    3.8974324      756.18577     -29.710302      726.47547    
   2066000   301.37305      0.015531399    4.246051       747.71485     -28.480319      719.23453    
   2067000   296.78699      0.015531399    7.5372527      736.33671     -28.180684      708.15602    
   2068000   292.69546      0.015531399    13.325723      726.1855      -26.125051      700.06045    
   2069000   318.87412      0.015531399    6.1766814      791.13549     -30.427418      760.70807    
   2070000   307.35934      0.015531399    5.7859442      762.56699     -29.047391      733.5196     
   2071000   283.0317       0.015531399    0.93818311     702.20946     -27.829007      674.38045    
   2072000   302.79056      0.015531399    10.504838      751.23172     -26.203555      725.02816    
   2073000   298.53032      0.015531399    9.090842       740.66195     -22.93683       717.72512    
   2074000   309.4577       0.015531399    14.165624      767.77309     -28.526516      739.24657    
   2075000   302.60088      0.015531399    7.7372736      750.76113     -22.600886      728.16024    
   2076000   283.87086      0.015531399    2.0577777      704.29142     -22.427391      681.86403    
   2077000   291.38922      0.015531399    10.57666       722.94468     -23.999775      698.9449     
   2078000   303.33773      0.015531399    12.08193       752.58928     -25.405669      727.18361    
   2079000   306.80869      0.015531399    7.5549169      761.20083     -24.923806      736.27702    
   2080000   282.99942      0.015531399    7.6741244      702.12937     -26.603361      675.526      
   2081000   294.20189      0.015531399    9.4634672      729.92299     -22.289619      707.63337    
   2082000   305.15257      0.015531399    9.669595       757.09195     -25.97244       731.11951    
   2083000   315.39953      0.015531399    5.0826262      782.51493     -25.287477      757.22745    
   2084000   298.17709      0.015531399    5.8849676      739.78558     -30.569068      709.21651    
   2085000   280.75698      0.015531399    13.263054      696.56582     -26.21426       670.35156    
   2086000   309.33414      0.015531399    9.637064       767.46653     -31.669444      735.79708    
   2087000   310.02096      0.015531399    7.7407747      769.17056     -31.033392      738.13717    
   2088000   288.96726      0.015531399    6.7970805      716.93573     -24.371363      692.56436    
   2089000   289.86616      0.015531399    9.3609982      719.16592     -26.457377      692.70855    
   2090000   312.01874      0.015531399    8.5916412      774.12709     -28.81012       745.31697    
   2091000   299.12068      0.015531399    3.3614285      742.12666     -24.165911      717.96075    
   2092000   294.16566      0.015531399    9.1783589      729.83311     -25.096747      704.73636    
   2093000   311.41873      0.015531399    10.755337      772.63846     -28.940362      743.6981     
   2094000   298.04326      0.015531399    10.1604        739.45355     -26.046374      713.40718    
   2095000   284.4236       0.015531399    8.0241361      705.66279     -21.043099      684.61969    
   2096000   313.78747      0.015531399    8.4784392      778.51536     -25.117342      753.39802    
   2097000   302.14045      0.015531399    8.0047354      749.61879     -26.619446      722.99934    
   2098000   303.8803       0.015531399    8.93572        753.93541     -24.792256      729.14315    
   2099000   300.0021       0.015531399    9.2225638      744.31347     -27.894836      716.41864    
   2100000   303.43748      0.015531399    8.7768411      752.83675     -26.325203      726.51155    
   2101000   294.01653      0.015531399    8.4988163      729.46312     -28.882771      700.58035    
   2102000   292.6366       0.015531399    7.6089863      726.03948     -27.671049      698.36843    
   2103000   303.42331      0.015531399    8.2449872      752.8016      -30.056219      722.74538    
   2104000   308.63286      0.015531399    8.111931       765.72663     -30.273347      735.45328    
   2105000   295.6379       0.015531399    7.8411861      733.48578     -25.624247      707.86154    
   2106000   294.08615      0.015531399    7.0143257      729.63583     -26.225052      703.41078    
   2107000   307.3103       0.015531399    8.5439596      762.44533     -34.332794      728.11253    
   2108000   302.57077      0.015531399    7.4442242      750.68641     -33.301172      717.38524    
   2109000   295.10279      0.015531399    7.1748244      732.15815     -36.111844      696.04631    
   2110000   298.34342      0.015531399    8.1080054      740.19826     -27.639736      712.55852    
   2111000   299.84211      0.015531399    12.941219      743.91655     -34.41628       709.50027    
   2112000   296.53884      0.015531399    7.9500663      735.72105     -31.628919      704.09213    
   2113000   304.2117       0.015531399    7.2100741      754.75762     -31.386658      723.37096    
   2114000   308.85361      0.015531399    8.4292341      766.27432     -34.951672      731.32264    
   2115000   300.91213      0.015531399    9.4833004      746.57129     -32.109862      714.46143    
   2116000   310.2948       0.015531399    9.0757034      769.84995     -27.506447      742.34351    
   2117000   289.8847       0.015531399    8.0084312      719.21192     -28.26587       690.94605    
   2118000   290.7175       0.015531399    6.2901257      721.27814     -28.03299       693.24515    
   2119000   314.84425      0.015531399    8.6400952      781.13727     -25.086019      756.05125    
   2120000   302.37979      0.015531399    7.0629946      750.2126      -26.202631      724.00997    
   2121000   288.51717      0.015531399    8.2351157      715.81904     -23.169788      692.64925    
   2122000   292.06136      0.015531399    8.2015275      724.61228     -23.407218      701.20506    
   2123000   309.23474      0.015531399    8.9549518      767.2199      -25.456424      741.76348    
   2124000   300.79889      0.015531399    9.6863462      746.29033     -21.399853      724.89047    
   2125000   299.82202      0.015531399    7.8146067      743.8667      -29.243417      714.62329    
   2126000   294.41587      0.015531399    8.449299       730.45389     -30.089055      700.36484    
   2127000   305.7207       0.015531399    8.8650218      758.50148     -25.875679      732.6258     
   2128000   308.09349      0.015531399    8.7851631      764.38845     -27.68416       736.70429    
   2129000   300.20013      0.015531399    6.3508381      744.8048      -29.105545      715.69926    
   2130000   292.17325      0.015531399    7.9109272      724.88988     -25.847344      699.04254    
   2131000   293.91643      0.015531399    10.749904      729.21476     -24.407068      704.80769    
   2132000   304.15112      0.015531399    8.6435985      754.60732     -27.983232      726.62408    
   2133000   312.20949      0.015531399    8.1880642      774.60036     -26.445054      748.1553     
   2134000   304.43665      0.015531399    7.9868369      755.31573     -25.277278      730.03845    
   2135000   285.50565      0.015531399    10.774874      708.34738     -24.525389      683.82199    
   2136000   303.32644      0.015531399    9.2988024      752.56126     -23.870164      728.69109    
   2137000   320.73287      0.015531399    8.5913335      795.74708     -26.760816      768.98627    
   2138000   302.88706      0.015531399    7.9205088      751.47116     -31.16043       720.31073    
   2139000   295.34455      0.015531399    9.6408354      732.75796     -29.21992       703.53804    
   2140000   318.96437      0.015531399    10.793812      791.35939     -29.090767      762.26862    
   2141000   299.5774       0.015531399    6.8586097      743.2598      -26.661031      716.59877    
   2142000   299.55485      0.015531399    18.209201      743.20383     -27.143568      716.06027    
   2143000   297.81678      0.015531399    4.4693234      738.89164     -34.401991      704.48965    
   2144000   302.0827       0.015531399   -1.2041528      749.4755      -29.432815      720.04269    
   2145000   299.55437      0.015531399    15.062284      743.20265     -25.801979      717.40067    
   2146000   305.18885      0.015531399    10.031232      757.18194     -31.396573      725.78537    
   2147000   295.08986      0.015531399    6.5188776      732.12608     -31.854636      700.27144    
   2148000   290.59583      0.015531399    9.3661009      720.97627     -31.425162      689.55111    
   2149000   298.88634      0.015531399    8.9774228      741.54524     -27.793209      713.75203    
   2150000   304.00098      0.015531399    8.7747177      754.23482     -28.614507      725.62031    
   2151000   314.78812      0.015531399    10.19253       780.99801     -31.67866       749.31935    
   2152000   304.88136      0.015531399    8.5909204      756.41906     -27.018734      729.40033    
   2153000   322.26925      0.015531399    9.0523568      799.55889     -27.010662      772.54823    
   2154000   291.72145      0.015531399    7.4842973      723.76896     -25.672286      698.09667    
   2155000   296.8984       0.015531399    8.5427196      736.6131      -32.25908       704.35402    
   2156000   290.10313      0.015531399    8.618546       719.75385     -33.168355      686.5855     
   2157000   305.15707      0.015531399    9.6526583      757.1031      -30.845382      726.25772    
   2158000   294.11141      0.015531399    4.8211466      729.69851     -33.411154      696.28736    
   2159000   303.63969      0.015531399    7.8415424      753.33843     -32.330187      721.00825    
   2160000   302.2249       0.015531399    7.3476939      749.82831     -36.203221      713.62509    
   2161000   290.83629      0.015531399    15.795541      721.57286     -35.607481      685.96538    
   2162000   297.88968      0.015531399    14.727426      739.07251     -32.555744      706.51676    
   2163000   313.13868      0.015531399    6.6629736      776.90569     -30.796073      746.10962    
   2164000   293.49234      0.015531399    5.4301137      728.1626      -29.860134      698.30246    
   2165000   279.71408      0.015531399    18.383334      693.97834     -30.071252      663.90709    
   2166000   303.64744      0.015531399    7.6625096      753.35768     -25.911679      727.446      
   2167000   311.21754      0.015531399    6.1048848      772.13928     -22.929758      749.20953    
   2168000   285.23829      0.015531399    2.7521011      707.68407     -26.846142      680.83793    
   2169000   295.26632      0.015531399    14.034194      732.56387     -21.294706      711.26917    
   2170000   319.90094      0.015531399    11.157174      793.68304     -23.056403      770.62664    
   2171000   298.48238      0.015531399   -0.52168721     740.54302     -24.38549       716.15753    
   2172000   292.49263      0.015531399    5.0927241      725.68228     -25.867781      699.8145     
   2173000   318.4824       0.015531399    17.245487      790.16361     -24.524625      765.63898    
   2174000   301.97805      0.015531399    7.0605621      749.21586     -30.369887      718.84597    
   2175000   295.40929      0.015531399    5.1295128      732.91858     -33.475348      699.44324    
   2176000   290.87333      0.015531399    14.438552      721.66474     -27.884809      693.77993    
   2177000   312.16804      0.015531399    9.5547566      774.49752     -28.984988      745.51253    
   2178000   290.47358      0.015531399    6.3516779      720.67296     -30.112823      690.56014    
   2179000   296.65246      0.015531399    18.090929      736.00292     -33.609024      702.3939     
   2180000   304.27087      0.015531399    11.901149      754.90441     -29.061367      725.84304    
   2181000   311.82358      0.015531399    0.49218482     773.64291     -25.664127      747.97878    
   2182000   292.99453      0.015531399    5.3188878      726.92751     -24.947822      701.97969    
   2183000   289.93392      0.015531399    15.916247      719.33405     -27.196079      692.13798    
   2184000   304.49861      0.015531399    19.189714      755.46946     -23.531446      731.93801    
   2185000   304.48075      0.015531399    17.709982      755.42512     -20.779354      734.64577    
   2186000   315.01356      0.015531399    3.4528021      781.55733     -20.429311      761.12802    
   2187000   302.18158      0.015531399    0.28767673     749.72083     -20.153556      729.56728    
   2188000   296.39069      0.015531399    10.957038      735.35348     -20.997775      714.35571    
   2189000   297.69499      0.015531399    20.614729      738.58947     -21.956429      716.63304    
   2190000   293.37103      0.015531399    10.142865      727.86162     -21.142216      706.7194     
   2191000   302.73803      0.015531399   -6.665067       751.10141     -23.190736      727.91067    
   2192000   312.97632      0.015531399    10.19505       776.50287     -29.085766      747.41711    
   2193000   292.87859      0.015531399    10.185005      726.63987     -25.737966      700.9019     
   2194000   297.15809      0.015531399    11.626816      737.2574      -24.213654      713.04375    
   2195000   304.61217      0.015531399    8.7382849      755.75119     -27.389148      728.36204    
   2196000   300.11786      0.015531399   -2.2933004      744.60069     -21.59365       723.00704    
   2197000   291.36993      0.015531399    2.5921159      722.89683     -23.869233      699.02759    
   2198000   298.90444      0.015531399    17.808002      741.59016     -25.52684       716.06332    
   2199000   315.64926      0.015531399    13.226631      783.13452     -23.823324      759.3112     
   2200000   301.22622      0.015531399   -1.9661666      747.35056     -25.117885      722.23267    
   2201000   295.22566      0.015531399    2.6962825      732.463       -27.623337      704.83966    
   2202000   298.93737      0.015531399    4.9605037      741.67186     -21.814007      719.85785    
   2203000   291.37533      0.015531399    17.760994      722.91023     -26.536532      696.3737     
   2204000   310.88163      0.015531399    9.8957135      771.30589     -22.986547      748.31934    
   2205000   310.37244      0.015531399    4.4763223      770.04259     -23.695626      746.34696    
   2206000   295.03956      0.015531399    7.8323076      732.00128     -23.121764      708.87952    
   2207000   293.74485      0.015531399    9.2911092      728.78908     -22.081702      706.70738    
   2208000   307.39398      0.015531399    9.1572677      762.65293     -20.36132       742.29161    
   2209000   301.6748       0.015531399    5.7958007      748.4635      -22.67184       725.79166    
   2210000   288.3156       0.015531399    7.1804218      715.31895     -20.082936      695.23601    
   2211000   299.22935      0.015531399    7.6439274      742.39626     -27.339993      715.05627    
   2212000   303.15352      0.015531399    9.3546876      752.13225     -23.553917      728.57833    
   2213000   293.84366      0.015531399    9.0440733      729.03421     -29.908862      699.12535    
   2214000   295.30234      0.015531399   -7.0916948      732.65325     -26.346599      706.30666    
   2215000   303.71726      0.015531399    11.926192      753.5309      -23.588397      729.9425     
   2216000   308.89455      0.015531399    10.337316      766.3759      -24.471785      741.90412    
   2217000   295.78689      0.015531399    5.6788734      733.85543     -25.659795      708.19564    
   2218000   299.24832      0.015531399    6.7493562      742.44334     -28.105888      714.33745    
   2219000   291.25942      0.015531399    12.453806      722.62266     -22.419247      700.20341    
   2220000   297.28771      0.015531399    7.7832316      737.579       -29.581963      707.99704    
   2221000   303.23223      0.015531399    3.081439       752.32751     -26.174994      726.15252    
   2222000   299.24786      0.015531399    8.5336142      742.44218     -21.973565      720.46862    
   2223000   295.68875      0.015531399    9.8221104      733.61193     -19.843175      713.76875    
   2224000   314.26117      0.015531399    7.400411       779.69062     -23.909953      755.78067    
   2225000   297.42472      0.015531399    5.1185179      737.91893     -21.428858      716.49007    
   2226000   313.48309      0.015531399    10.82338       777.76018     -23.093905      754.66627    
   2227000   294.89914      0.015531399    16.718569      731.65289     -23.486657      708.16624    
   2228000   296.90677      0.015531399    8.9063408      736.63388     -23.495125      713.13876    
   2229000   294.83801      0.015531399    2.1469778      731.50124     -21.373089      710.12815    
   2230000   316.44404      0.015531399    8.4486967      785.10638     -25.694664      759.41172    
   2231000   304.50461      0.015531399    10.43672       755.48432     -23.601462      731.88286    
   2232000   288.2164       0.015531399    7.6365623      715.07284     -21.298799      693.77404    
   2233000   309.49188      0.015531399    8.3090111      767.85789     -22.306059      745.55183    
   2234000   302.23679      0.015531399    6.0556817      749.8578      -23.808766      726.04904    
   2235000   304.22318      0.015531399    6.9704964      754.78609     -24.027106      730.75899    
   2236000   297.23781      0.015531399    15.655927      737.4552      -26.67335       710.78185    
   2237000   298.5717       0.015531399    10.695221      740.76462     -25.309054      715.45557    
   2238000   302.16362      0.015531399    6.7286261      749.67626     -22.003824      727.67243    
   2239000   296.67357      0.015531399    9.2575278      736.0553      -21.431437      714.62387    
   2240000   298.29936      0.015531399    9.9498603      740.08892     -22.954257      717.13467    
   2241000   303.65792      0.015531399    8.8473266      753.38367     -23.887503      729.49617    
   2242000   298.26444      0.015531399    7.1868228      740.00231     -24.36921       715.6331     
   2243000   298.06068      0.015531399    8.0214299      739.49676     -27.210409      712.28635    
   2244000   309.71329      0.015531399    11.079751      768.40722     -23.853436      744.55378    
   2245000   301.66215      0.015531399    8.9823533      748.4321      -22.24104       726.19106    
   2246000   292.12249      0.015531399    0.95536578     724.76395     -25.549306      699.21464    
   2247000   299.55722      0.015531399    8.4864459      743.20973     -23.431218      719.77851    
   2248000   307.67452      0.015531399    16.14136       763.34897     -26.681162      736.66781    
   2249000   299.44768      0.015531399    8.9819022      742.93795     -24.05904       718.87891    
   2250000   294.01568      0.015531399   -0.58858254     729.461       -24.415736      705.04527    
   2251000   299.9424       0.015531399    14.075778      744.16537     -20.903658      723.26172    
   2252000   301.15519      0.015531399    5.8774206      747.17434     -29.540912      717.63342    
   2253000   307.26545      0.015531399    6.961929       762.33406     -23.402428      738.93164    
   2254000   294.05162      0.015531399    14.962153      729.55017     -26.553279      702.99689    
   2255000   284.57376      0.015531399   -1.3610462      706.03535     -24.616752      681.4186     
   2256000   311.52427      0.015531399    1.3630063      772.9003      -27.792758      745.10754    
   2257000   306.11333      0.015531399    7.976046       759.47561     -20.879377      738.59623    
   2258000   284.48926      0.015531399    19.929412      705.82569     -24.542062      681.28362    
   2259000   296.43776      0.015531399    4.7081163      735.47026     -23.538333      711.93193    
   2260000   314.70907      0.015531399   -2.9259803      780.80188     -22.351113      758.45077    
   2261000   302.00988      0.015531399    15.728252      749.29483     -19.990053      729.30477    
   2262000   291.0801       0.015531399    28.376627      722.17775     -25.82862       696.34913    
   2263000   299.54419      0.015531399    8.0281481      743.17739     -25.346366      717.83103    
   2264000   307.16142      0.015531399    11.756039      762.07596     -25.672505      736.40345    
   2265000   317.08065      0.015531399    12.580353      786.68583     -28.713515      757.97232    
   2266000   305.01512      0.015531399    10.243324      756.75092     -29.836381      726.91454    
   2267000   306.82873      0.015531399    8.2315095      761.25054     -22.912615      738.33792    
   2268000   295.95542      0.015531399    5.492538       734.27355     -21.168954      713.1046     
   2269000   302.93243      0.015531399    10.723727      751.58371     -24.627612      726.9561     
   2270000   298.65781      0.015531399    11.107058      740.97827     -25.058543      715.91973    
   2271000   298.58447      0.015531399    4.150664       740.7963      -25.077677      715.71863    
   2272000   307.55359      0.015531399    10.040659      763.04893     -20.223177      742.82576    
   2273000   295.85943      0.015531399    11.543764      734.03541     -23.132367      710.90305    
   2274000   296.21775      0.015531399    7.921641       734.92441     -21.102117      713.82229    
   2275000   306.24336      0.015531399    0.62808228     759.79822     -24.158453      735.63977    
   2276000   301.56692      0.015531399    5.071513       748.19584     -22.67224       725.5236     
   2277000   304.82083      0.015531399    7.7971098      756.26888     -24.16172       732.10716    
   2278000   307.34521      0.015531399    8.7090033      762.53195     -25.705881      736.82607    
   2279000   298.27653      0.015531399    9.2111266      740.03229     -19.627772      720.40452    
   2280000   298.19805      0.015531399    7.1374417      739.83758     -23.62018       716.2174     
   2281000   322.50902      0.015531399    10.910717      800.15378     -26.541949      773.61183    
   2282000   297.40648      0.015531399    8.500139       737.87368     -24.311096      713.56258    
   2283000   306.24759      0.015531399    7.5101096      759.80871     -24.050366      735.75834    
   2284000   313.86709      0.015531399    8.6218569      778.71291     -25.416092      753.29682    
   2285000   299.93661      0.015531399    8.3035269      744.151       -26.509871      717.64113    
   2286000   293.54977      0.015531399    8.3372949      728.30506     -25.267515      703.03755    
   2287000   299.6684       0.015531399    10.308217      743.48556     -26.799987      716.68558    
   2288000   296.10137      0.015531399    5.3910151      734.63567     -26.922323      707.71335    
   2289000   303.35776      0.015531399    9.4127         752.63896     -20.971494      731.66747    
   2290000   301.93611      0.015531399    8.7830676      749.11181     -23.059002      726.05281    
   2291000   302.47211      0.015531399    8.1968311      750.44164     -20.577445      729.86419    
   2292000   301.96094      0.015531399    8.2263379      749.17342     -23.975048      725.19837    
   2293000   299.09441      0.015531399    8.0118511      742.06146     -26.171647      715.88982    
   2294000   306.29989      0.015531399    8.3584275      759.93847     -27.106911      732.83156    
   2295000   300.87836      0.015531399    8.9400693      746.48749     -24.318638      722.16885    
   2296000   294.37943      0.015531399    7.7515759      730.36347     -22.196001      708.16747    
   2297000   294.06633      0.015531399    9.7766212      729.58668     -24.287906      705.29878    
   2298000   304.00442      0.015531399    8.8393729      754.24334     -23.825696      730.41765    
   2299000   301.72331      0.015531399    10.276399      748.58384     -25.929816      722.65403    
   2300000   303.26838      0.015531399    8.1155214      752.4172      -26.098823      726.31838    
   2301000   311.42608      0.015531399    8.2299675      772.6567      -24.614453      748.04225    
   2302000   297.33551      0.015531399    9.2828835      737.69759     -20.144753      717.55284    
   2303000   300.10854      0.015531399    8.511695       744.57757     -25.566454      719.01112    
   2304000   312.03835      0.015531399    9.8507388      774.17574     -24.731119      749.44462    
   2305000   304.32813      0.015531399    6.5701512      755.04648     -25.882724      729.16376    
   2306000   293.88571      0.015531399    8.3508514      729.13856     -27.787924      701.35063    
   2307000   303.68542      0.015531399    8.8611526      753.4519      -25.039345      728.41256    
   2308000   304.62214      0.015531399    8.3408424      755.77593     -24.288713      731.48722    
   2309000   295.17866      0.015531399    7.6692607      732.34639     -25.932116      706.41428    
   2310000   303.05502      0.015531399    11.073123      751.88787     -20.638197      731.24967    
   2311000   294.74956      0.015531399    13.000158      731.28178     -22.18493       709.09685    
   2312000   306.19087      0.015531399    8.3247568      759.66798     -26.092337      733.57564    
   2313000   295.13303      0.015531399    6.9112159      732.23318     -21.643512      710.58967    
   2314000   303.37814      0.015531399    12.252296      752.68953     -20.370607      732.31892    
   2315000   290.27438      0.015531399    12.669378      720.17873     -27.992074      692.18666    
   2316000   276.52651      0.015531399    12.478298      686.0699      -20.450657      665.61924    
   2317000   306.6828       0.015531399    9.8211764      760.88848     -23.811406      737.07707    
   2318000   309.81344      0.015531399    2.9947702      768.65569     -18.736244      749.91945    
   2319000   301.52633      0.015531399    5.9880502      748.09513     -22.859289      725.23584    
   2320000   291.61826      0.015531399    6.6063722      723.51295     -23.524365      699.98858    
   2321000   288.57182      0.015531399    19.332789      715.95464     -25.686799      690.26784    
   2322000   290.09181      0.015531399    8.5642953      719.72578     -24.52324       695.20254    
   2323000   303.59773      0.015531399    5.3141004      753.23433     -23.58058       729.65375    
   2324000   301.28765      0.015531399    7.3751144      747.50296     -25.084257      722.4187     
   2325000   288.76893      0.015531399    10.792539      716.44367     -21.48757       694.9561     
   2326000   285.88911      0.015531399    19.893287      709.29876     -23.558943      685.73982    
   2327000   305.97481      0.015531399    24.731402      759.13194     -22.243181      736.88875    
   2328000   310.49495      0.015531399    4.8760984      770.34652     -20.082061      750.26446    
   2329000   308.11577      0.015531399   -5.5953914      764.44372     -15.061765      749.38195    
   2330000   288.06455      0.015531399    12.056173      714.69608     -20.468367      694.22771    
   2331000   299.86929      0.015531399    13.316766      743.98398     -17.752642      726.23134    
   2332000   309.90431      0.015531399    6.6054273      768.88115     -21.509768      747.37138    
   2333000   293.08111      0.015531399   -9.11051        727.14231     -23.492786      703.64953    
   2334000   284.33108      0.015531399    15.192791      705.43323     -21.459416      683.97382    
   2335000   287.9709       0.015531399    25.243177      714.46374     -21.806615      692.65713    
   2336000   302.80302      0.015531399    13.113967      751.26263     -24.449547      726.81308    
   2337000   307.01524      0.015531399   -4.7947934      761.71328     -21.378073      740.3352     
   2338000   316.42444      0.015531399    9.4607849      785.05776     -27.418471      757.63928    
   2339000   296.02138      0.015531399    3.8218905      734.4372      -27.321089      707.11611    
   2340000   277.59583      0.015531399    12.397411      688.72291     -29.273331      659.44958    
   2341000   303.72585      0.015531399    9.9016917      753.55221     -26.475778      727.07643    
   2342000   309.5114       0.015531399    10.795287      767.9063      -23.167451      744.73885    
   2343000   305.0066       0.015531399    4.8442842      756.72978     -20.14098       736.5888     
   2344000   288.72133      0.015531399    6.0134135      716.32558     -24.180486      692.14509    
   2345000   291.08462      0.015531399    8.6012556      722.18895     -24.156184      698.03277    
   2346000   301.86099      0.015531399    10.825522      748.92543     -24.330682      724.59475    
   2347000   303.75772      0.015531399    9.6130875      753.63127     -25.697809      727.93346    
   2348000   308.18424      0.015531399    8.9285453      764.61359     -26.623575      737.99002    
   2349000   301.58911      0.015531399    8.2850801      748.25088     -22.708343      725.54254    
   2350000   287.74594      0.015531399    7.7993658      713.90561     -23.220826      690.68479    
   2351000   289.61532      0.015531399    9.240835       718.5436      -20.4045        698.13909    
   2352000   298.11455      0.015531399    8.0948971      739.63042     -24.016035      715.61439    
   2353000   308.3632       0.015531399    9.6062747      765.05761     -28.087013      736.9706     
   2354000   304.72338      0.015531399    5.9288928      756.02711     -24.175347      731.85176    
   2355000   305.70945      0.015531399    7.6747688      758.47357     -25.278971      733.1946     
   2356000   298.96214      0.015531399    6.5659196      741.73331     -22.898871      718.83444    
   2357000   316.32701      0.015531399    12.540292      784.81604     -26.857269      757.95877    
   2358000   291.18734      0.015531399    10.131566      722.44383     -28.312576      694.13125    
   2359000   300.15752      0.015531399    7.5307559      744.69907     -25.306751      719.39232    
   2360000   294.03176      0.015531399    7.2454314      729.50091     -24.515967      704.98495    
   2361000   301.66416      0.015531399    9.2036135      748.43709     -23.686335      724.75075    
   2362000   311.93691      0.015531399    7.4108811      773.92408     -25.189712      748.73437    
   2363000   296.70854      0.015531399    8.7718405      736.14208     -24.085267      712.05681    
   2364000   307.82593      0.015531399    10.312762      763.72462     -25.895649      737.82897    
   2365000   309.44578      0.015531399    7.0508112      767.74351     -26.911861      740.83165    
   2366000   311.08948      0.015531399    6.923667       771.82158     -24.314377      747.5072     
   2367000   292.35842      0.015531399    8.5001614      725.34929     -24.4225        700.92679    
   2368000   283.40234      0.015531399    14.082753      703.12901     -20.122176      683.00683    
   2369000   311.04282      0.015531399    10.587394      771.7058      -23.675288      748.03052    
   2370000   300.40684      0.015531399    7.390009       745.31764     -20.05973       725.25791    
   2371000   298.20241      0.015531399    14.267022      739.84841     -19.26099       720.58742    
   2372000   290.63622      0.015531399    7.0067083      721.07648     -22.071082      699.0054     
   2373000   294.75756      0.015531399    7.9548059      731.30163     -22.513998      708.78763    
   2374000   309.86581      0.015531399    9.9855771      768.7856      -22.88563       745.89997    
   2375000   300.10164      0.015531399    6.9376756      744.56043     -21.819253      722.74118    
   2376000   285.96982      0.015531399    7.2228458      709.49901     -24.873872      684.62514    
   2377000   309.16932      0.015531399    8.0727414      767.0576      -24.820014      742.23758    
   2378000   309.38287      0.015531399    9.4581974      767.58743     -20.616526      746.9709     
   2379000   300.14422      0.015531399    10.948662      744.66608     -23.10623       721.55985    
   2380000   292.31474      0.015531399    9.6578319      725.24094     -24.40037       700.84057    
   2381000   306.84598      0.015531399    8.8374677      761.29334     -24.423496      736.86984    
   2382000   286.81691      0.015531399    9.5503954      711.60065     -24.064464      687.53618    
   2383000   295.71639      0.015531399    5.8951832      733.68052     -22.315892      711.36462    
   2384000   323.06698      0.015531399    4.3006374      801.53808     -26.264662      775.27342    
   2385000   303.58396      0.015531399    9.5328215      753.20017     -27.150354      726.04981    
   2386000   293.94351      0.015531399    10.285074      729.28194     -30.191691      699.09025    
   2387000   286.39763      0.015531399    6.2471952      710.56041     -31.640734      678.91968    
   2388000   309.2875       0.015531399    8.5444995      767.35082     -24.602503      742.74832    
   2389000   305.30333      0.015531399    8.5456853      757.46597     -24.632909      732.83306    
   2390000   283.37053      0.015531399    7.4219963      703.05011     -22.304864      680.74524    
   2391000   296.68183      0.015531399    11.523685      736.07581     -22.920935      713.15487    
   2392000   315.72916      0.015531399    8.3297374      783.33276     -24.215257      759.1175     
   2393000   296.66243      0.015531399    5.3564784      736.02767     -25.384431      710.64324    
   2394000   286.4845       0.015531399    9.4633842      710.77594     -22.462795      688.31314    
   2395000   303.72698      0.015531399    9.8462581      753.55502     -27.796643      725.75838    
   2396000   304.19708      0.015531399    9.2986857      754.72134     -26.55158       728.16976    
   2397000   301.6243       0.015531399    8.2901401      748.3382      -26.894717      721.44348    
   2398000   311.18049      0.015531399    7.4389973      772.04736     -25.87316       746.1742     
   2399000   309.04721      0.015531399    8.1304427      766.75465     -23.951932      742.80272    
   2400000   298.37609      0.015531399    13.365485      740.27929     -22.84143       717.43786    
   2401000   293.58987      0.015531399    9.2686784      728.40456     -21.169249      707.23531    
   2402000   297.70468      0.015531399    5.8957574      738.61351     -23.210621      715.40289    
   2403000   302.09498      0.015531399    8.9294753      749.50597     -22.922418      726.58355    
   2404000   288.91332      0.015531399    11.784995      716.80191     -22.470736      694.33118    
   2405000   302.03734      0.015531399    3.7786145      749.36296     -27.400591      721.96237    
   2406000   301.16858      0.015531399    5.4254334      747.20754     -28.621902      718.58564    
   2407000   297.10953      0.015531399    7.031819       737.13693     -30.579282      706.55764    
   2408000   310.94688      0.015531399    14.638211      771.46779     -26.048156      745.41964    
   2409000   297.47781      0.015531399    10.129571      738.05065     -29.495384      708.55527    
   2410000   302.05763      0.015531399    3.5469132      749.41331     -26.775083      722.63823    
   2411000   313.38434      0.015531399    10.290212      777.51519     -33.395081      744.1201     
   2412000   301.54161      0.015531399    10.885734      748.13303     -32.388643      715.74439    
   2413000   294.05962      0.015531399    8.7474939      729.57003     -27.701207      701.86882    
   2414000   307.72712      0.015531399    7.4582635      763.47948     -26.653551      736.82593    
   2415000   303.47475      0.015531399    12.850736      752.92922     -23.53808       729.39114    
   2416000   295.31966      0.015531399    9.642527       732.69621     -25.729044      706.96716    
   2417000   300.11632      0.015531399    8.749896       744.59685     -22.899407      721.69745    
   2418000   305.76141      0.015531399    9.2028775      758.6025      -26.844779      731.75772    
   2419000   292.15619      0.015531399    6.7949559      724.84757     -26.100413      698.74716    
   2420000   293.81503      0.015531399    10.606588      728.9632      -26.801693      702.16151    
   2421000   310.84437      0.015531399    8.65609        771.21344     -28.178191      743.03525    
   2422000   296.4076       0.015531399    9.9639605      735.39542     -18.413612      716.9818     
   2423000   284.49998      0.015531399    7.3930108      705.85228     -21.928237      683.92404    
   2424000   312.31537      0.015531399    7.9490795      774.86303     -21.394036      753.46899    
   2425000   307.50539      0.015531399    8.465258       762.92936     -23.105701      739.82366    
   2426000   295.58151      0.015531399    10.469031      733.34587     -19.932326      713.41354    
   2427000   299.06744      0.015531399    7.8283841      741.99457     -21.309846      720.68472    
   2428000   287.60578      0.015531399    7.6779102      713.55786     -23.702247      689.85561    
   2429000   301.74729      0.015531399    8.9265148      748.64336     -25.86176       722.7816     
   2430000   313.57505      0.015531399    9.0429986      777.98833     -29.567521      748.42081    
   2431000   305.54564      0.015531399    9.8829234      758.06716     -28.41794       729.64922    
   2432000   293.11554      0.015531399    7.4515983      727.22774     -25.067666      702.16007    
   2433000   294.16809      0.015531399    8.8582853      729.83915     -28.530309      701.30884    
   2434000   307.42897      0.015531399    8.5003202      762.73976     -31.826232      730.91353    
   2435000   299.05371      0.015531399    7.1090244      741.96049     -30.989054      710.97144    
   2436000   297.74104      0.015531399    8.220924       738.70373     -33.888727      704.81501    
   2437000   305.34272      0.015531399    9.6055541      757.5637      -32.466968      725.09673    
   2438000   311.22462      0.015531399    8.4490911      772.15686     -31.767734      740.38913    
   2439000   293.82671      0.015531399    7.4598185      728.99217     -27.457884      701.53429    
   2440000   291.04511      0.015531399    8.3242296      722.09093     -27.710948      694.37999    
   2441000   293.72927      0.015531399    7.9567996      728.75041     -28.857413      699.893      
   2442000   304.96476      0.015531399    9.1478067      756.62597     -31.01657       725.6094     
   2443000   294.81119      0.015531399    2.5100766      731.43468     -33.376647      698.05803    
   2444000   288.72411      0.015531399    10.341038      716.33248     -28.280224      688.05225    
   2445000   302.0645       0.015531399    10.724027      749.43034     -24.198169      725.23217    
   2446000   305.66157      0.015531399    11.825722      758.35478     -23.040496      735.31428    
   2447000   298.26461      0.015531399    8.009411       740.00272     -30.480393      709.52233    
   2448000   294.47698      0.015531399    0.90545587     730.6055      -24.951915      705.65358    
   2449000   302.73017      0.015531399    9.3939935      751.08189     -28.459784      722.62211    
   2450000   310.36121      0.015531399    10.97128       770.01471     -32.612675      737.40204    
   2451000   301.28333      0.015531399    7.3670739      747.49224     -35.158687      712.33356    
   2452000   288.79539      0.015531399    8.0528914      716.50932     -32.06122       684.4481     
   2453000   287.94583      0.015531399    10.25013       714.40154     -33.930866      680.47068    
   2454000   318.72637      0.015531399    5.0859848      790.76891     -29.963584      760.80532    
   2455000   306.85858      0.015531399    5.3617951      761.3246      -30.236338      731.08826    
   2456000   286.79474      0.015531399    4.0733516      711.54566     -27.835285      683.71038    
   2457000   281.07017      0.015531399    13.169073      697.34285     -31.950064      665.39278    
   2458000   310.84637      0.015531399    13.310937      771.21841     -31.190704      740.02771    
   2459000   307.75667      0.015531399    5.9238489      763.55277     -31.053834      732.49894    
   2460000   294.43033      0.015531399    12.268395      730.48976     -27.700977      702.78878    
   2461000   290.88674      0.015531399    8.4529919      721.69801     -26.85494       694.84307    
   2462000   310.33224      0.015531399    5.2011347      769.94283     -30.874204      739.06863    
   2463000   297.4577       0.015531399    0.079347105    738.00076     -25.404656      712.5961     
   2464000   292.15368      0.015531399    10.762136      724.84132     -28.945892      695.89543    
   2465000   291.887        0.015531399    21.755247      724.1797      -23.846349      700.33335    
   2466000   304.40962      0.015531399    9.770887       755.24865     -21.405305      733.84335    
   2467000   302.81089      0.015531399    8.5179538      751.28217     -22.020923      729.26125    
   2468000   291.21023      0.015531399    1.1274934      722.50062     -23.288605      699.21201    
   2469000   297.56838      0.015531399    13.629077      738.27536     -21.59499       716.68037    
   2470000   300.13263      0.015531399    9.3860504      744.63733     -22.70592       721.93141    
   2471000   304.98106      0.015531399    0.0075698976   756.66642     -22.858338      733.80808    
   2472000   305.17202      0.015531399   -2.8901171      757.14018     -20.175401      736.96478    
   2473000   291.77917      0.015531399    17.352514      723.91217     -24.332445      699.57972    
   2474000   297.7549       0.015531399    6.2361699      738.73811     -26.597862      712.14025    
   2475000   298.08599      0.015531399   -0.26129134     739.55957     -23.816699      715.74287    
   2476000   299.76379      0.015531399    10.024869      743.72223     -24.266348      719.45589    
   2477000   304.10809      0.015531399    3.1810932      754.50055     -24.313878      730.18667    
   2478000   282.6626       0.015531399    3.9593759      701.2937      -23.83706       677.45664    
   2479000   293.94664      0.015531399    9.7468426      729.28972     -27.43458       701.85514    
   2480000   302.77264      0.015531399    12.901522      751.18727     -28.35961       722.82766    
   2481000   312.03883      0.015531399    5.9156391      774.17695     -28.671325      745.50562    
   2482000   290.11388      0.015531399    7.6479515      719.78053     -34.348056      685.43248    
   2483000   290.88932      0.015531399    12.927271      721.70442     -31.131479      690.57294    
   2484000   311.79072      0.015531399    11.344225      773.56137     -26.972455      746.58892    
   2485000   313.22393      0.015531399    7.0505151      777.11721     -29.060111      748.0571     
   2486000   294.60437      0.015531399    2.5899992      730.92157     -24.995249      705.92632    
   2487000   286.78917      0.015531399    9.5819626      711.53184     -28.328819      683.20302    
   2488000   298.90186      0.015531399    13.247091      741.58374     -29.432771      712.15097    
   2489000   312.29377      0.015531399    10.84156       774.80945     -25.729166      749.08028    
   2490000   319.91355      0.015531399   -6.2836668      793.71435     -26.279616      767.43473    
   2491000   298.18021      0.015531399    0.31254606     739.79332     -31.025685      708.76763    
   2492000   293.69621      0.015531399    16.151846      728.6684      -33.445054      695.22335    
   2493000   320.38741      0.015531399    8.4263194      794.89        -32.883688      762.00631    
   2494000   294.58728      0.015531399   -1.1289149      730.87916     -29.433104      701.44605    
   2495000   300.88124      0.015531399    6.4818122      746.49464     -27.107849      719.38679    
   2496000   291.93532      0.015531399    11.286659      724.29958     -29.407711      694.89187    
   2497000   293.97685      0.015531399    19.837765      729.36466     -31.447733      697.91693    
   2498000   304.29262      0.015531399    4.8951623      754.95838     -31.90728       723.0511     
   2499000   294.34754      0.015531399    10.406595      730.28435     -30.85213       699.43222    
   2500000   304.9536       0.015531399    10.106722      756.59828     -23.576126      733.02216    
   2501000   297.33199      0.015531399    7.3702284      737.68887     -24.89265       712.79622    
   2502000   293.23183      0.015531399    9.6539962      727.51626     -34.813178      692.70308    
   2503000   311.50114      0.015531399    8.0992835      772.84292     -30.260287      742.58263    
   2504000   297.86319      0.015531399    6.5935181      739.00679     -30.228169      708.77862    
   2505000   288.54604      0.015531399    13.806538      715.89068     -30.609521      685.28116    
   2506000   317.29599      0.015531399    15.42757       787.2201      -28.498584      758.72152    
   2507000   309.45436      0.015531399    6.4178009      767.76479     -30.571954      737.19284    
   2508000   295.23887      0.015531399    8.2828912      732.49577     -22.156497      710.33927    
   2509000   292.67568      0.015531399    9.8320602      726.13642     -24.937292      701.19913    
   2510000   308.98817      0.015531399    8.3401485      766.60816     -23.777559      742.8306     
   2511000   308.94821      0.015531399    6.4871201      766.50903     -25.271134      741.2379     
   2512000   288.84999      0.015531399    7.1077698      716.6448      -31.637667      685.00713    
   2513000   298.52548      0.015531399    10.397505      740.64995     -30.432673      710.21728    
   2514000   327.67244      0.015531399    7.3815428      812.96434     -26.546112      786.41823    
   2515000   307.72047      0.015531399    5.7443633      763.46296     -24.208001      739.25496    
   2516000   288.91783      0.015531399    7.1808584      716.81309     -31.233818      685.57928    
   2517000   303.16165      0.015531399    8.7444526      752.15241     -29.669038      722.48337    
   2518000   301.41137      0.015531399    12.732605      747.80991     -27.330813      720.4791     
   2519000   292.5659       0.015531399    8.3302813      725.86407     -29.876017      695.98805    
   2520000   293.24814      0.015531399    8.7377985      727.55672     -28.021512      699.53521    
   2521000   326.34056      0.015531399    9.0731339      809.65992     -24.828427      784.83149    
   2522000   296.048        0.015531399    12.400505      734.50324     -21.780731      712.72251    
   2523000   290.49844      0.015531399    5.5722701      720.73464     -21.367547      699.36709    
   2524000   304.87598      0.015531399    5.4941765      756.40572     -20.220262      736.18546    
   2525000   313.22386      0.015531399    16.060241      777.11703     -23.492415      753.62461    
   2526000   292.67238      0.015531399    17.208345      726.12824     -25.500288      700.62795    
   2527000   294.39941      0.015531399    2.7983668      730.41306     -27.320035      703.09302    
   2528000   311.62889      0.015531399    5.7710511      773.15986     -28.969188      744.19067    
   2529000   312.35174      0.015531399    13.078746      774.95328     -23.814221      751.13906    
   2530000   293.16809      0.015531399    12.156256      727.35812     -23.136059      704.22207    
   2531000   291.79591      0.015531399   -12.685137      723.9537      -25.255489      698.69821    
   2532000   295.86938      0.015531399    7.9090845      734.06009     -26.587834      707.47225    
   2533000   303.74039      0.015531399    9.9794038      753.58829     -26.506989      727.0813     
   2534000   296.07157      0.015531399    18.380714      734.56172     -22.26557       712.29615    
   2535000   299.33649      0.015531399    5.3944806      742.66208     -20.197092      722.46499    
   2536000   301.97514      0.015531399   -1.9074463      749.20866     -18.997429      730.21123    
   2537000   303.82585      0.015531399    17.145505      753.80032     -20.938293      732.86203    
   2538000   301.14932      0.015531399    12.817767      747.15976     -20.496157      726.66361    
   2539000   284.0931       0.015531399    1.5762144      704.84281     -25.713336      679.12947    
   2540000   299.20186      0.015531399   -2.7350129      742.32806     -23.395708      718.93235    
   2541000   314.20769      0.015531399    7.7222931      779.55793     -18.902526      760.65541    
   2542000   308.37159      0.015531399    3.6573591      765.07842     -17.244703      747.83372    
   2543000   298.17289      0.015531399    10.880251      739.77515     -23.741361      716.03379    
   2544000   283.79706      0.015531399    8.6579732      704.10834     -21.537924      682.57042    
   2545000   301.98765      0.015531399    4.3563479      749.23968     -24.114556      725.12513    
   2546000   301.70951      0.015531399    13.690661      748.54961     -21.280046      727.26957    
   2547000   290.80187      0.015531399    6.4697251      721.48745     -27.162953      694.3245     
   2548000   306.80639      0.015531399    7.9192442      761.1951      -24.298188      736.89691    
   2549000   303.91744      0.015531399    7.1721917      754.02754     -23.533085      730.49445    
   2550000   298.14354      0.015531399    18.504467      739.70235     -27.57458       712.12777    
   2551000   299.11045      0.015531399    9.413663       742.10127     -27.954173      714.14709    
   2552000   309.13783      0.015531399    5.2920818      766.97947     -23.74223       743.23724    
   2553000   310.45371      0.015531399    9.7079362      770.24422     -22.172042      748.07218    
   2554000   307.37905      0.015531399    11.386053      762.61591     -21.25835       741.35756    
   2555000   302.8035       0.015531399    8.3122267      751.26382     -20.665856      730.59796    
   2556000   292.65089      0.015531399    9.3228907      726.07493     -19.806699      706.26823    
   2557000   296.67825      0.015531399    7.9226181      736.0669      -27.338757      708.72815    
   2558000   307.20463      0.015531399    8.792293       762.18315     -26.490059      735.69309    
   2559000   309.01812      0.015531399    10.746414      766.68248     -26.668292      740.01419    
   2560000   286.95786      0.015531399    8.8126565      711.95036     -23.685668      688.26469    
   2561000   289.97121      0.015531399    7.2094092      719.42657     -22.353035      697.07353    
   2562000   309.39345      0.015531399    8.7695777      767.61368     -23.250611      744.36307    
   2563000   291.01867      0.015531399    9.5806312      722.02535     -18.785133      703.24021    
   2564000   291.18284      0.015531399    7.8383748      722.43265     -22.179725      700.25292    
   2565000   315.31167      0.015531399    9.3174487      782.29695     -22.313998      759.98295    
   2566000   304.23315      0.015531399    9.3286317      754.81084     -28.810602      726.00023    
   2567000   295.99948      0.015531399    8.5086494      734.38287     -30.467324      703.91554    
   2568000   290.7735       0.015531399    8.7809035      721.41707     -32.812397      688.60467    
   2569000   316.41043      0.015531399    9.6685995      785.02299     -33.580963      751.44203    
   2570000   307.9653       0.015531399    9.034559       764.0704      -33.769037      730.30137    
   2571000   282.94189      0.015531399    7.4167652      701.98663     -31.2244        670.76223    
   2572000   313.73059      0.015531399    8.5422957      778.37424     -31.722255      746.65198    
   2573000   309.28166      0.015531399    8.8071617      767.33632     -28.655477      738.68085    
   2574000   297.15456      0.015531399    7.1298929      737.24865     -31.98463       705.26402    
   2575000   295.22703      0.015531399    5.8916119      732.46639     -29.346108      703.12028    
   2576000   282.4497       0.015531399    6.7498379      700.7655      -25.743001      675.0225     
   2577000   293.56344      0.015531399    8.9954051      728.33899     -24.223407      704.11558    
   2578000   310.87868      0.015531399    8.5234749      771.29857     -23.919123      747.37945    
   2579000   311.12003      0.015531399    8.7535251      771.89738     -23.460563      748.43682    
   2580000   304.42822      0.015531399    5.367942       755.29479     -22.939455      732.35534    
   2581000   299.36665      0.015531399    7.9843689      742.7369      -28.250846      714.48606    
   2582000   298.73821      0.015531399    8.3566298      741.17774     -26.567601      714.61014    
   2583000   310.84629      0.015531399    8.461789       771.21822     -28.21622       743.002      
   2584000   306.23334      0.015531399    5.684629       759.77335     -28.135067      731.63828    
   2585000   290.26084      0.015531399    7.8849175      720.14515     -28.900987      691.24416    
   2586000   278.02625      0.015531399    7.5024085      689.79079     -29.85531       659.93548    
   2587000   306.61429      0.015531399    8.3478805      760.71851     -27.846409      732.8721     
   2588000   298.61648      0.015531399    3.4017319      740.87572     -23.360441      717.51528    
   2589000   289.72619      0.015531399    7.4484098      718.81867     -21.427699      697.39097    
   2590000   296.646        0.015531399    6.5420349      735.9869      -25.4524        710.5345     
   2591000   301.11456      0.015531399    14.885964      747.07353     -26.072264      721.00127    
   2592000   309.8842       0.015531399    10.513335      768.83125     -26.399696      742.43155    
   2593000   305.30407      0.015531399    8.9721831      757.46782     -26.384458      731.08336    
   2594000   297.37172      0.015531399    9.0008319      737.78742     -27.835006      709.95242    
   2595000   291.81156      0.015531399    8.4145985      723.99252     -28.635858      695.35666    
   2596000   299.20576      0.015531399    8.4175367      742.33773     -28.064243      714.27349    
   2597000   299.98958      0.015531399    10.74138       744.28241     -24.029736      720.25267    
   2598000   294.84132      0.015531399    8.673866       731.50944     -25.683516      705.82593    
   2599000   294.77045      0.015531399    7.9438577      731.33361     -24.321933      707.01168    
   2600000   311.18938      0.015531399    9.5743222      772.06943     -22.793518      749.27591    
   2601000   299.73062      0.015531399    9.328737       743.63993     -22.998443      720.64149    
   2602000   287.22586      0.015531399    9.3709564      712.61527     -23.551605      689.06367    
   2603000   301.62137      0.015531399    7.3828162      748.33094     -26.815919      721.51502    
   2604000   301.04451      0.015531399    8.1242453      746.89972     -30.352083      716.54764    
   2605000   288.93099      0.015531399    8.4985005      716.84576     -29.093037      687.75272    
   2606000   290.23175      0.015531399    4.3116927      720.07297     -25.470758      694.60221    
   2607000   310.41345      0.015531399    8.783682       770.14433     -25.126952      745.01738    
   2608000   295.65086      0.015531399    9.7124225      733.51792     -18.549757      714.96817    
   2609000   292.50864      0.015531399    3.404308       725.72199     -20.134927      705.58706    
   2610000   302.99729      0.015531399    10.13549       751.74463     -22.525442      729.21919    
   2611000   288.61953      0.015531399    5.5624749      716.073       -22.97          693.103      
   2612000   309.66967      0.015531399    7.5342321      768.29898     -24.379539      743.91945    
   2613000   299.51084      0.015531399    7.8336444      743.09464     -28.212303      714.88234    
   2614000   294.55806      0.015531399    12.745707      730.80666     -28.103687      702.70298    
   2615000   297.71282      0.015531399    9.8935963      738.63372     -28.101372      710.53235    
   2616000   298.69882      0.015531399    3.4471168      741.08        -26.945008      714.13499    
   2617000   310.97196      0.015531399    14.533157      771.52999     -24.479527      747.05047    
   2618000   295.97669      0.015531399    15.194618      734.32633     -25.209855      709.11647    
   2619000   293.18186      0.015531399    7.2430672      727.39227     -30.923262      696.46901    
   2620000   309.83135      0.015531399    6.3861868      768.70012     -24.323674      744.37645    
   2621000   300.89516      0.015531399    11.724781      746.52919     -25.811163      720.71803    
   2622000   283.9464       0.015531399    11.766329      704.47883     -20.873234      683.6056     
   2623000   301.43981      0.015531399    5.7053753      747.88049     -25.040168      722.84032    
   2624000   304.52875      0.015531399    13.806291      755.54423     -21.627204      733.91702    
   2625000   297.13375      0.015531399    21.962939      737.19702     -17.66123       719.53579    
   2626000   306.29558      0.015531399    5.1864692      759.92777     -22.170531      737.75724    
   2627000   301.64926      0.015531399    8.415713       748.40012     -20.536444      727.86368    
   2628000   290.89382      0.015531399    17.799927      721.71558     -17.943457      703.77212    
   2629000   291.87971      0.015531399   -2.0313703      724.1616      -16.8254        707.3362     
   2630000   315.02658      0.015531399    7.2332444      781.58963     -21.196361      760.39327    
   2631000   310.91055      0.015531399    20.236986      771.37765     -21.015657      750.36199    
   2632000   295.08106      0.015531399    22.701132      732.10423     -22.422223      709.68201    
   2633000   309.58761      0.015531399    5.3610881      768.09538     -23.263285      744.8321     
   2634000   298.59821      0.015531399    28.820667      740.8304      -23.841583      716.98881    
   2635000   287.63367      0.015531399    10.649498      713.62706     -24.71643       688.91063    
   2636000   286.76777      0.015531399    3.5183329      711.47873     -22.720666      688.75807    
   2637000   307.28452      0.015531399    0.37986556     762.38135     -22.585399      739.79596    
   2638000   304.97561      0.015531399    7.6418695      756.65289     -26.037182      730.61571    
   2639000   296.84144      0.015531399    13.589612      736.4718      -25.977596      710.49421    
   2640000   305.97295      0.015531399    10.530151      759.12732     -25.520015      733.6073     
   2641000   303.24919      0.015531399    14.716772      752.3696      -25.068552      727.30105    
   2642000   295.53105      0.015531399    7.8229706      733.22069     -27.568497      705.65219    
   2643000   304.54887      0.015531399    2.2120154      755.59413     -18.756342      736.83779    
   2644000   308.9718       0.015531399    16.080053      766.56755     -24.251499      742.31605    
   2645000   298.77071      0.015531399    15.0388        741.25836     -24.424469      716.8339     
   2646000   294.30813      0.015531399    6.834429       730.18658     -21.197235      708.98934    
   2647000   292.83189      0.015531399    6.3315939      726.52398     -22.662683      703.8613     
   2648000   312.37553      0.015531399    12.454488      775.0123      -21.03453       753.97777    
   2649000   302.77701      0.015531399    9.2186893      751.1981      -17.621774      733.57633    
   2650000   294.23451      0.015531399    8.4859081      730.00392     -21.522644      708.48128    
   2651000   312.39931      0.015531399    8.3208629      775.07131     -22.5216        752.54971    
   2652000   297.5714       0.015531399    6.7389603      738.28284     -16.058128      722.22471    
   2653000   291.38224      0.015531399    8.6193012      722.92738     -18.212068      704.71531    
   2654000   295.53142      0.015531399    10.890239      733.2216      -15.246957      717.97464    
   2655000   310.92741      0.015531399    11.380187      771.41948     -17.986067      753.43341    
   2656000   304.31222      0.015531399    7.7020162      755.00702     -23.327789      731.67923    
   2657000   292.62111      0.015531399    8.3255993      726.00105     -23.234542      702.76651    
   2658000   296.50345      0.015531399    9.1726687      735.63323     -23.957784      711.67545    
   2659000   316.62888      0.015531399    11.048328      785.56497     -26.91058       758.65439    
   2660000   307.06869      0.015531399    9.0232378      761.84588     -25.206676      736.63921    
   2661000   291.49127      0.015531399    8.0488597      723.19789     -26.865727      696.33216    
   2662000   302.89881      0.015531399    8.3370031      751.50029     -27.072481      724.42781    
   2663000   306.89225      0.015531399    8.1781036      761.40812     -26.225983      735.18214    
   2664000   291.52647      0.015531399    10.118823      723.28522     -28.765515      694.5197     
   2665000   277.39469      0.015531399    7.5660011      688.22386     -23.177728      665.04613    
   2666000   301.01137      0.015531399    9.5236196      746.81749     -26.107039      720.71045    
   2667000   315.10904      0.015531399    2.5210104      781.79421     -26.51818       755.27603    
   2668000   295.03219      0.015531399    8.4379659      731.98299     -27.89296       704.09003    
   2669000   298.80703      0.015531399    10.765479      741.34848     -24.709758      716.63872    
   2670000   304.12226      0.015531399    7.6783668      754.53571     -26.631799      727.90391    
   2671000   300.34633      0.015531399    4.9948075      745.16753     -25.10134       720.06619    
   2672000   289.70861      0.015531399    4.1415306      718.77505     -23.140776      695.63428    
   2673000   284.84968      0.015531399    11.72172       706.71991     -18.603972      688.11593    
   2674000   304.30691      0.015531399    12.757944      754.99383     -22.425658      732.56817    
   2675000   304.21738      0.015531399    11.676124      754.7717      -19.940611      734.83108    
   2676000   303.16056      0.015531399    2.9395256      752.1497      -17.471001      734.6787     
   2677000   298.45603      0.015531399    4.6380301      740.47764     -24.905066      715.57258    
   2678000   301.52144      0.015531399    4.7408845      748.083       -22.847882      725.23512    
   2679000   294.87827      0.015531399    12.879891      731.60111     -23.632298      707.96881    
   2680000   292.49939      0.015531399    8.4008535      725.69904     -22.122077      703.57697    
   2681000   306.85664      0.015531399    4.3236498      761.31977     -23.229326      738.09045    
   2682000   309.22554      0.015531399    2.4919982      767.19709     -25.400296      741.79679    
   2683000   307.06518      0.015531399    8.2724887      761.83718     -26.20475       735.63243    
   2684000   301.93576      0.015531399    14.099381      749.11094     -24.193392      724.91755    
   2685000   304.22193      0.015531399    2.9301593      754.783       -26.518118      728.26489    
   2686000   297.69238      0.015531399    6.3248246      738.58301     -23.717971      714.86503    
   2687000   309.75259      0.015531399    34.026642      768.50472     -24.12221       744.38251    
   2688000   307.47634      0.015531399    5.5293754      762.85727     -24.570129      738.28714    
   2689000   300.60223      0.015531399   -7.3258475      745.80243     -24.386873      721.41555    
   2690000   302.32978      0.015531399    2.9274788      750.08853     -28.009759      722.07877    
   2691000   299.47898      0.015531399    12.68064       743.0156      -30.025424      712.99017    
   2692000   296.64017      0.015531399    11.636847      735.97243     -31.856097      704.11634    
   2693000   305.78606      0.015531399    4.4858659      758.66363     -26.687992      731.97564    
   2694000   301.4998       0.015531399    7.9372787      748.02931     -32.043122      715.98619    
   2695000   292.41311      0.015531399    8.5331569      725.48498     -30.563763      694.92122    
   2696000   300.84491      0.015531399    8.8482414      746.40452     -29.197325      717.2072     
   2697000   312.7932       0.015531399    7.5806835      776.04854     -28.450038      747.59851    
   2698000   303.05624      0.015531399    10.818317      751.89089     -25.706891      726.184      
   2699000   286.71442      0.015531399    7.8586663      711.34637     -24.998151      686.34822    
   2700000   312.89493      0.015531399    7.7469642      776.30096     -27.284878      749.01608    
   2701000   309.74371      0.015531399    10.881463      768.48269     -24.068325      744.41437    
   2702000   297.33932      0.015531399    7.7889976      737.70705     -24.99162       712.71543    
   2703000   299.32962      0.015531399    7.2949406      742.64504     -28.378433      714.2666     
   2704000   305.39788      0.015531399    8.9803592      757.70056     -32.698164      725.00239    
   2705000   308.68337      0.015531399    9.4717502      765.85194     -24.854949      740.99699    
   2706000   293.0036       0.015531399    7.8877054      726.95001     -23.411134      703.53888    
   2707000   299.61448      0.015531399    10.376464      743.35177     -22.640648      720.71113    
   2708000   311.67503      0.015531399    7.2960225      773.27435     -29.36116       743.91319    
   2709000   288.92766      0.015531399    8.9855325      716.83749     -20.588958      696.24854    
   2710000   286.54228      0.015531399    8.9906109      710.9193      -20.588872      690.33043    
   2711000   300.71109      0.015531399    8.7566517      746.0725      -23.307376      722.76513    
   2712000   298.37551      0.015531399    8.3420149      740.27787     -17.093412      723.18446    
   2713000   302.49371      0.015531399    7.4049474      750.49523     -22.167306      728.32792    
   2714000   301.085        0.015531399    8.315748       747.00017     -24.2617        722.73847    
   2715000   299.47674      0.015531399    9.8481076      743.01005     -24.94759       718.06246    
   2716000   297.14182      0.015531399    8.1397142      737.21704     -22.975544      714.24149    
   2717000   303.39629      0.015531399    7.4090746      752.73456     -18.515419      734.21914    
   2718000   322.40874      0.015531399    10.276293      799.90497     -23.977266      775.9277     
   2719000   294.36895      0.015531399    10.680902      730.33749     -25.158965      705.17852    
   2720000   297.77982      0.015531399    8.4311909      738.79994     -22.266301      716.53364    
   2721000   305.78632      0.015531399    7.2480026      758.6643      -23.19472       735.46958    
   2722000   300.85416      0.015531399    10.62838       746.42746     -22.903501      723.52396    
   2723000   298.02517      0.015531399    8.7439806      739.40865     -27.069689      712.33896    
   2724000   304.99641      0.015531399    8.1576986      756.70451     -30.028103      726.67641    
   2725000   316.46258      0.015531399    7.7033587      785.15239     -27.713249      757.43914    
   2726000   286.10409      0.015531399    9.5409827      709.83214     -27.307447      682.5247     
   2727000   289.33581      0.015531399    10.035899      717.85012     -28.275452      689.57467    
   2728000   295.89705      0.015531399    4.0400614      734.12873     -30.727237      703.40149    
   2729000   312.09221      0.015531399    8.6641563      774.30937     -25.120999      749.18837    
   2730000   301.5262       0.015531399    11.966022      748.09482     -27.017254      721.07757    
   2731000   294.88386      0.015531399    8.052193       731.61498     -29.25393       702.36105    
   2732000   319.19135      0.015531399    3.9718277      791.92254     -29.639996      762.28254    
   2733000   292.69157      0.015531399    15.554908      726.17586     -26.750884      699.42497    
   2734000   291.38053      0.015531399    7.1515229      722.92313     -27.41867       695.50446    
   2735000   300.2745       0.015531399    6.9455589      744.98931     -26.758011      718.23129    
   2736000   305.68607      0.015531399    8.8000659      758.41556     -29.111017      729.30454    
   2737000   294.17848      0.015531399    9.0608099      729.86491     -31.077182      698.78773    
   2738000   306.26116      0.015531399    8.4184214      759.84239     -32.7758        727.06659    
   2739000   276.44142      0.015531399    8.7415368      685.85879     -34.163628      651.69516    
   2740000   303.74699      0.015531399    13.510391      753.60465     -30.656062      722.94859    
   2741000   307.60661      0.015531399    8.8590643      763.18049     -26.395624      736.78487    
   2742000   297.07289      0.015531399    7.6434858      737.04603     -28.493444      708.55259    
   2743000   298.25311      0.015531399    6.7504028      739.97419     -30.451318      709.52287    
   2744000   303.37394      0.015531399    10.154548      752.67911     -28.658549      724.02056    
   2745000   299.24096      0.015531399    8.6873191      742.42506     -28.710824      713.71424    
   2746000   304.26951      0.015531399    8.5807422      754.90105     -30.202293      724.69876    
   2747000   303.66032      0.015531399    9.938037       753.38963     -25.804299      727.58533    
   2748000   287.12516      0.015531399    6.6999601      712.36545     -29.763305      682.60214    
   2749000   317.59504      0.015531399    8.0979354      787.96205     -30.228889      757.73316    
   2750000   303.05614      0.015531399    8.4671593      751.89065     -22.752824      729.13782    
   2751000   307.61521      0.015531399    9.3433433      763.20181     -24.938209      738.2636     
   2752000   296.13813      0.015531399    9.1782169      734.72686     -24.832802      709.89406    
   2753000   306.97494      0.015531399    7.6477915      761.6133      -22.499904      739.1134     
   2754000   309.78209      0.015531399    17.599847      768.57791     -25.169579      743.40833    
   2755000   301.26854      0.015531399    8.2750928      747.45555     -24.708947      722.7466     
   2756000   297.6128       0.015531399    8.9485008      738.38556     -24.277952      714.10761    
   2757000   298.51752      0.015531399    8.0441556      740.6302      -31.462848      709.16735    
   2758000   308.69436      0.015531399    8.816919       765.87921     -27.171412      738.7078     
   2759000   299.95311      0.015531399    6.5781752      744.19193     -29.105496      715.08643    
   2760000   290.00319      0.015531399    6.8797317      719.50591     -31.520908      687.985      
   2761000   296.53265      0.015531399    7.9943626      735.70568     -30.12513       705.58055    
   2762000   298.62342      0.015531399    8.9182154      740.89293     -37.893316      702.99962    
   2763000   293.0734       0.015531399    5.8916164      727.12318     -35.192709      691.93047    
   2764000   308.95627      0.015531399    8.669818       766.52903     -27.672385      738.85665    
   2765000   312.11079      0.015531399    10.014733      774.35548     -30.804048      743.55143    
   2766000   291.124        0.015531399    7.9052756      722.28668     -30.222391      692.06429    
   2767000   318.17796      0.015531399    7.7917272      789.4083      -37.623285      751.78501    
   2768000   308.36762      0.015531399    9.3975743      765.06857     -30.503322      734.56525    
   2769000   302.29938      0.015531399    8.2065364      750.01309     -31.842428      718.17066    
   2770000   294.84582      0.015531399    6.5622881      731.52061     -27.807499      703.71311    
   2771000   289.83716      0.015531399    6.5011069      719.09399     -27.909152      691.18484    
   2772000   307.86119      0.015531399    10.940298      763.81211     -30.729826      733.08228    
   2773000   307.97881      0.015531399    7.0366822      764.10392     -31.449804      732.65412    
   2774000   296.44693      0.015531399    6.3380935      735.493       -32.437915      703.05508    
   2775000   296.62462      0.015531399    6.5359854      735.93386     -30.680659      705.2532     
   2776000   289.49052      0.015531399    10.560306      718.23396     -29.622179      688.61178    
   2777000   283.76476      0.015531399    12.436579      704.0282      -31.001407      673.02679    
   2778000   308.81354      0.015531399    10.626328      766.17491     -29.788908      736.386      
   2779000   307.93929      0.015531399    7.0979515      764.00587     -23.62218       740.38369    
   2780000   281.65339      0.015531399    7.6543461      698.78983     -26.140269      672.64956    
   2781000   289.2592       0.015531399    9.3352761      717.66005     -24.525563      693.13449    
   2782000   307.32534      0.015531399    8.1993096      762.48264     -21.665201      740.81744    
   2783000   307.13056      0.015531399    3.2907035      761.99939     -23.938066      738.06132    
   2784000   297.04996      0.015531399    6.6629714      736.98913     -25.159777      711.82935    
   2785000   293.18966      0.015531399    11.277765      727.41162     -26.845675      700.56595    
   2786000   299.4479       0.015531399    13.046031      742.9385      -28.603266      714.33523    
   2787000   312.12342      0.015531399    9.1716413      774.38682     -29.24598       745.14084    
   2788000   306.52785      0.015531399    7.3262955      760.50403     -25.668858      734.83518    
   2789000   301.09123      0.015531399    7.5555024      747.01565     -25.527291      721.48836    
   2790000   294.21839      0.015531399    7.824772       729.96394     -23.87543       706.08851    
   2791000   289.58057      0.015531399    8.8791183      718.45737     -22.413468      696.04391    
   2792000   307.40585      0.015531399    13.689714      762.68239     -25.225867      737.45652    
   2793000   313.43502      0.015531399    8.8679553      777.64091     -22.746091      754.89482    
   2794000   309.39966      0.015531399   -6.4951521      767.62908     -23.712951      743.91613    
   2795000   282.58535      0.015531399   -7.5667484      701.10204     -22.936209      678.16583    
   2796000   298.33673      0.015531399    13.919473      740.18165     -25.331636      714.85002    
   2797000   325.7768       0.015531399    4.5046907      808.26121     -22.486298      785.77492    
   2798000   304.4702       0.015531399    14.584138      755.39896     -28.955703      726.44326    
   2799000   293.85389      0.015531399   -13.664041      729.0596      -27.21131       701.84829    
   2800000   307.98909      0.015531399    14.894589      764.12941     -37.49917       726.63024    
   2801000   306.7584       0.015531399    4.9918195      761.07605     -36.01838       725.05767    
   2802000   280.83373      0.015531399    7.7923379      696.75624     -35.690692      661.06554    
   2803000   309.59628      0.015531399    9.83765        768.11691     -31.293253      736.82366    
   2804000   315.23745      0.015531399    9.9797194      782.11279     -28.42094       753.69185    
   2805000   290.66093      0.015531399    7.8190707      721.13779     -27.357358      693.78043    
   2806000   292.03306      0.015531399    9.7808808      724.54207     -27.496802      697.04527    
   2807000   306.35648      0.015531399    13.531283      760.07887     -30.30531       729.77356    
   2808000   299.76165      0.015531399    7.7725127      743.71691     -25.935772      717.78114    
   2809000   290.61883      0.015531399    5.7997805      721.03333     -31.640848      689.39248    
   2810000   308.49395      0.015531399    8.4977043      765.38199     -30.982495      734.3995     
   2811000   292.8107       0.015531399    10.775904      726.47142     -29.378312      697.09311    
   2812000   297.51168      0.015531399    13.084141      738.13468     -26.908141      711.22654    
   2813000   308.84424      0.015531399    9.8582023      766.25108     -26.501252      739.74983    
   2814000   306.66111      0.015531399    6.7194028      760.83466     -28.314567      732.52009    
   2815000   291.97543      0.015531399    7.121236       724.39908     -31.783484      692.6156     
   2816000   289.07817      0.015531399    9.5192683      717.21092     -30.93108       686.27984    
   2817000   309.36385      0.015531399    11.398793      767.54024     -31.003161      736.53708    
   2818000   316.69371      0.015531399    7.3938951      785.72582     -28.192858      757.53296    
   2819000   304.12051      0.015531399    8.0364443      754.53138     -29.546917      724.98446    
   2820000   294.19783      0.015531399    8.1990475      729.91292     -25.275305      704.63761    
   2821000   297.51975      0.015531399    9.9725692      738.15471     -26.21369       711.94102    
   2822000   308.69228      0.015531399    10.823606      765.87406     -26.495898      739.37816    
   2823000   308.30487      0.015531399    7.1919361      764.91289     -24.406299      740.50659    
   2824000   298.98781      0.015531399    8.7308048      741.79701     -24.802197      716.99481    
   2825000   295.10658      0.015531399    8.5762521      732.16756     -27.403529      704.76403    
   2826000   290.27413      0.015531399    8.2271838      720.17811     -32.310075      687.86803    
   2827000   301.77492      0.015531399    8.330781       748.71189     -30.260313      718.45158    
   2828000   288.64991      0.015531399    8.1678315      716.14839     -33.365594      682.78279    
   2829000   299.28945      0.015531399    8.8263088      742.54536     -25.344717      717.20065    
   2830000   308.74079      0.015531399    11.261844      765.99441     -29.510504      736.48391    
   2831000   292.53352      0.015531399    7.8930906      725.78373     -26.576399      699.20733    
   2832000   304.717        0.015531399    9.9785986      756.01126     -25.994337      730.01693    
   2833000   301.00977      0.015531399    5.524983       746.81353     -23.857481      722.95605    
   2834000   302.16558      0.015531399    7.8251226      749.68112     -28.679806      721.00132    
   2835000   303.06589      0.015531399    9.9875766      751.91483     -24.762809      727.15202    
   2836000   305.93316      0.015531399    13.254197      759.02859     -26.795828      732.23276    
   2837000   297.42146      0.015531399    8.5671984      737.91083     -27.959977      709.95086    
   2838000   294.09369      0.015531399    8.2086207      729.65456     -26.069984      703.58458    
   2839000   302.10698      0.015531399    6.4295251      749.53575     -26.961087      722.57466    
   2840000   298.82432      0.015531399    9.1967475      741.39137     -23.531754      717.85961    
   2841000   295.14247      0.015531399    11.655712      732.25661     -30.572701      701.68391    
   2842000   305.60882      0.015531399    8.1219522      758.22392     -28.394633      729.82928    
   2843000   294.27055      0.015531399    2.6455132      730.09335     -26.936657      703.15669    
   2844000   295.8041       0.015531399    10.648688      733.89813     -27.231339      706.66679    
   2845000   303.91743      0.015531399    10.255874      754.02753     -28.970404      725.05713    
   2846000   315.91323      0.015531399    8.6997372      783.78943     -30.302019      753.48741    
   2847000   300.61814      0.015531399    6.3379976      745.84188     -27.336126      718.50576    
   2848000   284.87367      0.015531399    6.9388696      706.77942     -31.063749      675.71567    
   2849000   287.34148      0.015531399    11.031659      712.90214     -30.236483      682.66566    
   2850000   307.28676      0.015531399    8.6455155      762.38692     -29.987546      732.39937    
   2851000   289.88851      0.015531399    8.9662558      719.22138     -27.498413      691.72296    
   2852000   289.79594      0.015531399    7.7962253      718.99171     -30.355906      688.6358     
   2853000   297.63901      0.015531399    8.8790537      738.45058     -30.294922      708.15566    
   2854000   297.70082      0.015531399    8.4405283      738.60393     -27.117284      711.48664    
   2855000   305.04159      0.015531399    14.253501      756.81658     -27.679037      729.13755    
   2856000   298.53492      0.015531399    7.8138035      740.67337     -26.671914      714.00146    
   2857000   307.22351      0.015531399    5.9576724      762.23        -21.061423      741.16857    
   2858000   308.43616      0.015531399    7.6982588      765.2386      -22.255039      742.98356    
   2859000   307.97787      0.015531399    8.7450648      764.10158     -22.046329      742.05525    
   2860000   306.87182      0.015531399    14.266532      761.35745     -22.795985      738.56146    
   2861000   301.03769      0.015531399    11.953617      746.8828      -24.0825        722.8003     
   2862000   302.10109      0.015531399    10.486025      749.52114     -26.012634      723.50851    
   2863000   296.80484      0.015531399    4.5124941      736.38099     -30.103013      706.27798    
   2864000   293.14484      0.015531399    7.9686399      727.30042     -22.683174      704.61725    
   2865000   309.08065      0.015531399    13.909396      766.83762     -25.679074      741.15854    
   2866000   306.75634      0.015531399    15.01531       761.07092     -29.93175       731.13917    
   2867000   291.83618      0.015531399    5.1472215      724.05362     -32.108456      691.94516    
   2868000   294.1308       0.015531399    4.0831574      729.74661     -26.748414      702.9982     
   2869000   319.90701      0.015531399    7.6908405      793.69811     -32.137777      761.56033    
   2870000   320.16021      0.015531399    6.6505819      794.3263      -34.872878      759.45343    
   2871000   298.99513      0.015531399    10.77033       741.81517     -32.40945       709.40572    
   2872000   285.1126       0.015531399    6.6568653      707.37223     -32.162304      675.20992    
   2873000   301.88316      0.015531399    3.5208915      748.98044     -26.180303      722.80014    
   2874000   305.91421      0.015531399    11.948394      758.9816      -25.539915      733.44168    
   2875000   307.8968       0.015531399    13.676937      763.90044     -22.816105      741.08434    
   2876000   300.57042      0.015531399    3.1230332      745.7235      -23.397676      722.32583    
   2877000   306.49542      0.015531399    8.2834363      760.42359     -27.20562       733.21797    
   2878000   299.35711      0.015531399    13.215004      742.71323     -22.801996      719.91124    
   2879000   297.70194      0.015531399    4.8079045      738.60673     -27.082932      711.5238     
   2880000   305.7645       0.015531399    6.8563113      758.61015     -25.825959      732.78419    
   2881000   299.77331      0.015531399    9.379988       743.74584     -22.952823      720.79302    
   2882000   299.38842      0.015531399    10.487245      742.79091     -22.725855      720.06506    
   2883000   291.49401      0.015531399    8.5501002      723.20467     -24.171691      699.03298    
   2884000   288.03212      0.015531399    5.7067138      714.61563     -21.589567      693.02606    
   2885000   298.84446      0.015531399    4.7212255      741.44133     -24.510088      716.93124    
   2886000   315.40067      0.015531399    8.5293178      782.51777     -21.768383      760.74938    
   2887000   305.7206       0.015531399    11.55527       758.50123     -22.220228      736.281      
   2888000   296.83091      0.015531399    8.9033192      736.44567     -23.814294      712.63138    
   2889000   297.34848      0.015531399    6.1689186      737.72977     -24.413509      713.31626    
   2890000   323.71831      0.015531399    9.6294872      803.15405     -26.242281      776.91177    
   2891000   301.22751      0.015531399    14.158711      747.35375     -26.102083      721.25167    
   2892000   291.05531      0.015531399    7.7218976      722.11625     -24.169356      697.94689    
   2893000   305.16722      0.015531399    6.5501814      757.1283      -24.652133      732.47616    
   2894000   309.81825      0.015531399    2.024243       768.66761     -27.873673      740.79394    
   2895000   316.58255      0.015531399    17.374039      785.45004     -25.648305      759.80174    
   2896000   291.43864      0.015531399    13.243398      723.06729     -25.830889      697.23641    
   2897000   283.55354      0.015531399   -10.182014      703.50415     -24.467635      679.03651    
   2898000   316.38163      0.015531399   -3.8036924      784.95156     -25.286358      759.6652     
   2899000   311.24966      0.015531399    13.731633      772.219       -29.649848      742.56915    
   2900000   297.17102      0.015531399    15.928476      737.28949     -31.309934      705.97956    
   2901000   287.87849      0.015531399    7.375906       714.23448     -29.268635      684.96584    
   2902000   301.16477      0.015531399    5.1113243      747.19811     -26.241201      720.95691    
   2903000   314.08855      0.015531399    13.413094      779.26235     -25.44059       753.82175    
   2904000   296.43097      0.015531399    14.862513      735.4534      -30.692884      704.76052    
   2905000   289.86042      0.015531399    4.0998983      719.15168     -32.067829      687.08385    
   2906000   298.91757      0.015531399    3.6476899      741.62274     -29.129878      712.49286    
   2907000   316.19853      0.015531399    11.280997      784.49727     -23.089911      761.40736    
   2908000   293.38682      0.015531399    10.871236      727.90078     -21.97113       705.92965    
   2909000   292.65026      0.015531399    6.7426743      726.07337     -24.590922      701.48244    
   2910000   311.48419      0.015531399    4.1327245      772.80086     -25.023661      747.7772     
   2911000   313.86589      0.015531399    9.8632872      778.70993     -27.918402      750.79153    
   2912000   294.34033      0.015531399    9.7370257      730.26646     -32.29453       697.97193    
   2913000   290.28119      0.015531399    6.3636915      720.19564     -27.366759      692.82888    
   2914000   316.40236      0.015531399    3.3197446      785.00298     -28.340836      756.66214    
   2915000   301.92393      0.015531399    11.571089      749.08159     -26.061143      723.02044    
   2916000   279.87944      0.015531399    8.2079398      694.38861     -29.981211      664.4074     
   2917000   289.76892      0.015531399    6.3285282      718.92469     -27.716929      691.20776    
   2918000   322.14686      0.015531399    7.4263211      799.25525     -34.592064      764.66318    
   2919000   308.87132      0.015531399    10.433764      766.31825     -29.933686      736.38456    
   2920000   295.74993      0.015531399    9.0568044      733.76372     -29.990475      703.77325    
   2921000   289.66412      0.015531399    6.2896589      718.66467     -33.946196      684.71847    
   2922000   288.69107      0.015531399    10.751547      716.25051     -30.261741      685.98877    
   2923000   310.05499      0.015531399    14.515179      769.25498     -27.883677      741.37131    
   2924000   316.34518      0.015531399    5.3744107      784.86112     -27.746991      757.11413    
   2925000   299.20628      0.015531399    0.84043604     742.33903     -23.703296      718.63573    
   2926000   295.59538      0.015531399    9.0932911      733.38028     -24.63184       708.74844    
   2927000   313.06972      0.015531399    15.097841      776.7346      -24.287006      752.4476     
   2928000   312.70613      0.015531399    1.5078095      775.83254     -22.736925      753.09562    
   2929000   292.10253      0.015531399    0.61757435     724.71444     -21.726285      702.98815    
   2930000   292.51133      0.015531399    7.7736226      725.72866     -25.949715      699.77895    
   2931000   296.89217      0.015531399    14.481607      736.59767     -25.429762      711.1679     
   2932000   307.92908      0.015531399    18.46943       763.98054     -23.075463      740.90507    
   2933000   295.93403      0.015531399    13.503588      734.22048     -25.121694      709.09879    
   2934000   307.12645      0.015531399    7.7358676      761.98918     -26.486792      735.50239    
   2935000   310.37328      0.015531399    0.011028051    770.04467     -29.507507      740.53716    
   2936000   302.65327      0.015531399    4.8276318      750.89112     -29.129469      721.76165    
   2937000   279.93618      0.015531399    17.766521      694.52937     -27.794782      666.73459    
   2938000   315.16227      0.015531399    17.515933      781.92628     -30.777839      751.14844    
   2939000   302.8042       0.015531399    5.3681187      751.26557     -27.062951      724.20262    
   2940000   283.85711      0.015531399    4.486563       704.25731     -26.657621      677.59969    
   2941000   292.97362      0.015531399    10.292481      726.87562     -21.58236       705.29326    
   2942000   299.24174      0.015531399    14.112983      742.42701     -21.339038      721.08797    
   2943000   314.57591      0.015531399    6.1308559      780.4715      -21.552214      758.91929    
   2944000   300.12469      0.015531399    5.8119743      744.61762     -23.577662      721.03996    
   2945000   297.26803      0.015531399    11.566611      737.53018     -24.311186      713.219      
   2946000   311.62879      0.015531399    9.4597966      773.15962     -24.357832      748.80178    
   2947000   305.93574      0.015531399    7.4510692      759.035       -24.38955       734.64545    
   2948000   286.77634      0.015531399    5.4960437      711.49999     -20.374642      691.12535    
   2949000   285.52495      0.015531399    9.9189516      708.39527     -23.506065      684.88921    
   2950000   308.40968      0.015531399    16.783137      765.17292     -25.377802      739.79512    
   2951000   307.29132      0.015531399    2.939899       762.39823     -26.070105      736.32812    
   2952000   299.90135      0.015531399    7.6279648      744.06351     -26.796102      717.26741    
   2953000   292.55993      0.015531399    5.6660384      725.84925     -25.300236      700.54901    
   2954000   282.55017      0.015531399    12.219628      701.01477     -24.631655      676.38311    
   2955000   305.89899      0.015531399    12.317981      758.94383     -29.555955      729.38788    
   2956000   305.12889      0.015531399    8.5655086      757.03319     -32.605518      724.42767    
   2957000   297.43263      0.015531399    4.0076072      737.93854     -28.863127      709.07542    
   2958000   287.2903       0.015531399    11.88193       712.77515     -26.976323      685.79882    
   2959000   308.10864      0.015531399    8.7733625      764.42603     -28.411143      736.01488    
   2960000   313.96937      0.015531399    9.7491456      778.96666     -27.425948      751.54071    
   2961000   290.52657      0.015531399    7.077168       720.80443     -28.862924      691.94151    
   2962000   289.03135      0.015531399    9.1622284      717.09474     -25.845143      691.2496     
   2963000   303.23301      0.015531399    15.382385      752.32946     -27.859065      724.47039    
   2964000   306.76164      0.015531399    5.6307908      761.08408     -27.952816      733.13127    
   2965000   298.01865      0.015531399    5.985778       739.3925      -20.574931      718.81757    
   2966000   296.91315      0.015531399    13.954017      736.64972     -21.330009      715.31971    
   2967000   302.43915      0.015531399    1.7676098      750.35987     -23.37407       726.9858     
   2968000   305.64699      0.015531399    6.1656853      758.31861     -23.099167      735.21945    
   2969000   300.94622      0.015531399    12.494614      746.65586     -30.441597      716.21426    
   2970000   298.95966      0.015531399    26.943017      741.72717     -28.366944      713.36022    
   2971000   294.09633      0.015531399    6.3196963      729.6611      -25.149147      704.51195    
   2972000   300.2137       0.015531399    5.78348        744.83846     -28.655576      716.18289    
   2973000   301.56444      0.015531399    9.5522107      748.1897      -26.614443      721.57525    
   2974000   299.6419       0.015531399    9.7671386      743.4198      -21.178042      722.24176    
   2975000   290.24612      0.015531399   -5.6434728      720.10862     -25.976187      694.13243    
   2976000   303.1465       0.015531399    10.937132      752.11483     -26.688853      725.42598    
   2977000   323.11061      0.015531399    20.357648      801.64633     -30.432986      771.21334    
   2978000   301.4641       0.015531399    1.8223113      747.94074     -27.858281      720.08246    
   2979000   287.83553      0.015531399    7.3202928      714.12788     -25.752494      688.37539    
   2980000   296.38915      0.015531399    9.2798356      735.34964     -24.614613      710.73503    
   2981000   306.85914      0.015531399    7.9169948      761.32597     -23.286086      738.03989    
   2982000   306.14534      0.015531399    2.5520658      759.55503     -26.657797      732.89723    
   2983000   291.69018      0.015531399    7.9381819      723.69138     -27.743846      695.94753    
   2984000   289.67671      0.015531399    15.777614      718.69591     -27.849649      690.84626    
   2985000   310.25583      0.015531399    11.248908      769.75327     -27.633414      742.11986    
   2986000   297.99724      0.015531399    4.8299679      739.33937     -29.45259       709.88678    
   2987000   283.65493      0.015531399    7.5400236      703.75569     -31.368618      672.38707    
   2988000   305.557        0.015531399    7.2439405      758.09535     -25.760175      732.33517    
   2989000   300.29178      0.015531399    7.9608793      745.03219     -26.436186      718.596      
   2990000   298.71445      0.015531399    9.0728672      741.11878     -24.485475      716.63331    
   2991000   303.76823      0.015531399    7.8054058      753.65734     -24.367742      729.2896     
   2992000   295.0103       0.015531399    7.2886652      731.92869     -20.184397      711.7443     
   2993000   287.07348      0.015531399    6.6715764      712.23722     -23.934921      688.3023     
   2994000   291.81367      0.015531399    4.7937717      723.99777     -24.315281      699.68249    
   2995000   310.08759      0.015531399    8.2224715      769.33587     -26.773361      742.56251    
   2996000   302.75903      0.015531399    9.3138881      751.15351     -23.879796      727.27371    
   2997000   281.6865       0.015531399    16.791958      698.87198     -30.239683      668.6323     
   2998000   297.90596      0.015531399    10.340307      739.11289     -29.867449      709.24544    
   2999000   295.11407      0.015531399    1.9061114      732.18614     -30.190032      701.99611    
   3000000   303.01791      0.015531399    5.7889858      751.79578     -32.687302      719.10848    
   3001000   302.69645      0.015531399    9.6887753      750.99823     -29.327224      721.671      
   3002000   290.38561      0.015531399   -5.9481924      720.45471     -28.662637      691.79207    
   3003000   302.42393      0.015531399    2.3793302      750.32212     -25.927759      724.39436    
   3004000   310.32386      0.015531399    13.60714       769.92205     -25.849835      744.07222    
   3005000   294.07702      0.015531399    19.731948      729.61319     -23.744021      705.86917    
   3006000   287.10826      0.015531399    9.3570971      712.32351     -26.379105      685.94441    
   3007000   297.17654      0.015531399    0.51183127     737.30319     -24.789436      712.51375    
   3008000   318.01388      0.015531399    0.77702173     789.00121     -29.053625      759.94759    
   3009000   307.56135      0.015531399    8.4194388      763.06819     -23.400023      739.66817    
   3010000   295.56625      0.015531399    17.489065      733.30801     -25.441424      707.86659    
   3011000   297.2058       0.015531399    8.888397       737.37578     -21.586391      715.78938    
   3012000   302.90768      0.015531399    7.6575638      751.52231     -27.94901       723.5733     
   3013000   284.42264      0.015531399    5.3493494      705.66042     -29.73815       675.92227    
   3014000   306.47224      0.015531399    13.605337      760.36607     -28.20985       732.15622    
   3015000   294.01513      0.015531399    13.594079      729.45963     -30.208908      699.25073    
   3016000   299.59908      0.015531399    7.9109259      743.31358     -26.671848      716.64174    
   3017000   298.14692      0.015531399    2.6148699      739.71073     -24.991423      714.71931    
   3018000   298.69876      0.015531399    9.5580739      741.07985     -25.688624      715.39123    
   3019000   295.24968      0.015531399    9.3205482      732.52259     -24.161798      708.36079    
   3020000   311.88588      0.015531399   -2.2670985      773.79746     -25.723368      748.07409    
   3021000   301.86419      0.015531399    11.597791      748.93338     -26.298173      722.63521    
   3022000   293.18958      0.015531399    13.926812      727.41143     -28.26294       699.14849    
   3023000   283.11044      0.015531399    9.8650563      702.40481     -28.226244      674.17857    
   3024000   298.79201      0.015531399   -1.3427518      741.31122     -23.956118      717.3551     
   3025000   312.72613      0.015531399    6.1498875      775.88216     -27.080941      748.80122    
   3026000   298.64185      0.015531399    11.154719      740.93866     -26.462566      714.47609    
   3027000   284.36135      0.015531399    3.1927438      705.50835     -25.469884      680.03847    
   3028000   304.45108      0.015531399    6.1758561      755.35152     -22.456446      732.89507    
   3029000   317.20133      0.015531399    12.276895      786.98525     -24.326367      762.65889    
   3030000   296.55266      0.015531399    9.2391835      735.75533     -24.974177      710.78115    
   3031000   301.86774      0.015531399    9.5699596      748.94218     -24.785775      724.15641    
   3032000   294.40915      0.015531399    8.1026041      730.43722     -26.290956      704.14626    
   3033000   299.14118      0.015531399    8.0218701      742.17751     -29.003564      713.17395    
   3034000   299.46339      0.015531399    10.08634       742.97693     -24.700485      718.27644    
   3035000   311.31957      0.015531399    8.4597838      772.39242     -27.332529      745.0599     
   3036000   290.75801      0.015531399    11.577469      721.37863     -26.740891      694.63774    
   3037000   278.49889      0.015531399    3.1768118      690.96341     -30.378947      660.58447    
   3038000   302.36289      0.015531399    8.0762516      750.17067     -28.868659      721.30201    
   3039000   307.92895      0.015531399    8.2285645      763.98021     -30.130025      733.85018    
   3040000   293.76195      0.015531399    7.9755899      728.83151     -28.622108      700.2094     
   3041000   296.63473      0.015531399    8.7844779      735.95895     -35.824184      700.13477    
   3042000   306.21471      0.015531399    7.3685359      759.72714     -36.593926      723.13322    
   3043000   298.69417      0.015531399    8.5698959      741.06847     -31.813919      709.25455    
   3044000   300.20647      0.015531399    11.798911      744.82053     -27.33756       717.48297    
   3045000   310.17541      0.015531399    8.4868227      769.55375     -27.890333      741.66342    
   3046000   303.00208      0.015531399    3.1853065      751.75652     -29.36484       722.39168    
   3047000   305.9718       0.015531399    10.292704      759.12448     -25.91527       733.20921    
   3048000   311.50169      0.015531399    9.8715904      772.84427     -26.029251      746.81502    
   3049000   288.67281      0.015531399    6.1729332      716.20519     -27.012432      689.19276    
   3050000   293.71386      0.015531399    10.76287       728.71218     -25.656667      703.05551    
   3051000   307.92998      0.015531399    11.369521      763.98278     -30.29285       733.68993    
   3052000   310.23997      0.015531399    1.9379195      769.71393     -33.112752      736.60117    
   3053000   287.4314       0.015531399    5.826092       713.12522     -32.058418      681.0668     
   3054000   283.82528      0.015531399    4.8806961      704.17835     -32.13915       672.0392     
   3055000   306.95721      0.015531399    10.645612      761.5693      -32.229621      729.33968    
   3056000   308.39873      0.015531399    14.623627      765.14575     -27.412581      737.73317    
   3057000   303.10491      0.015531399    4.1653281      752.01163     -30.659131      721.3525     
   3058000   297.83657      0.015531399    8.4729066      738.94075     -30.862887      708.07786    
   3059000   303.38613      0.015531399    9.7850027      752.70936     -29.939412      722.76995    
   3060000   305.84072      0.015531399    5.4072061      758.79927     -28.383863      730.4154     
   3061000   290.77082      0.015531399    2.2558408      721.41042     -24.284167      697.12625    
   3062000   298.66909      0.015531399    9.320275       741.00624     -26.008654      714.99759    
   3063000   299.8123       0.015531399    9.5527609      743.84259     -25.094102      718.74849    
   3064000   306.83558      0.015531399    7.6870199      761.26752     -26.136406      735.13112    
   3065000   289.7012       0.015531399    7.3608229      718.75666     -26.499438      692.25722    
   3066000   298.15247      0.015531399    10.248794      739.72451     -27.813239      711.91127    
   3067000   303.57432      0.015531399    10.896603      753.17626     -29.624649      723.55161    
   3068000   302.67253      0.015531399    5.8660891      750.93888     -30.516793      720.42209    
   3069000   296.62473      0.015531399    4.2184744      735.93413     -29.119505      706.81463    
   3070000   290.44679      0.015531399    12.258379      720.60649     -30.048228      690.55826    
   3071000   295.94289      0.015531399    13.983832      734.24248     -30.062164      704.18031    
   3072000   293.40032      0.015531399    17.526544      727.93427     -28.502865      699.43141    
   3073000   308.70838      0.015531399    12.471096      765.91401     -33.905431      732.00857    
   3074000   314.53868      0.015531399    3.0248002      780.37913     -31.205294      749.17384    
   3075000   309.01693      0.015531399   -3.6959107      766.67952     -31.763018      734.9165     
   3076000   291.08691      0.015531399   -2.7131553      722.19465     -28.37828       693.81637    
   3077000   297.62862      0.015531399    9.1258794      738.42481     -26.004446      712.42037    
   3078000   303.04474      0.015531399    10.874399      751.86235     -24.262145      727.60021    
   3079000   303.35223      0.015531399    10.36147       752.62525     -29.991321      722.63393    
   3080000   294.32424      0.015531399    0.65131644     730.22654     -28.903463      701.32308    
   3081000   293.19054      0.015531399    7.5763899      727.41381     -27.900357      699.51346    
   3082000   314.08992      0.015531399    13.733281      779.26575     -27.273769      751.99198    
   3083000   302.32344      0.015531399   -6.1088671      750.07279     -26.821487      723.2513     
   3084000   288.01677      0.015531399    2.6221379      714.57754     -27.694845      686.88269    
   3085000   297.09139      0.015531399    16.382526      737.09193     -34.272363      702.81957    
   3086000   307.67698      0.015531399    8.4875581      763.35507     -28.459524      734.89555    
   3087000   307.20983      0.015531399   -1.7730819      762.19607     -35.552199      726.64387    
   3088000   287.27987      0.015531399    1.2681821      712.74928     -33.228266      679.52102    
   3089000   300.53169      0.015531399    12.618604      745.6274      -34.051239      711.57616    
   3090000   306.5357       0.015531399    15.957267      760.52353     -36.779412      723.74412    
   3091000   300.66827      0.015531399    1.3766899      745.96627     -37.817229      708.14905    
   3092000   291.01022      0.015531399    11.034851      722.00438     -34.736363      687.26802    
   3093000   298.75163      0.015531399    19.028815      741.21103     -36.221094      704.98994    
   3094000   308.1309       0.015531399    8.1212069      764.48125     -32.830902      731.65034    
   3095000   297.36622      0.015531399    7.2793422      737.7738      -32.548728      705.22507    
   3096000   291.34318      0.015531399    8.5421412      722.83047     -24.189479      698.64099    
   3097000   313.20775      0.015531399    8.8734973      777.07705     -28.991249      748.08581    
   3098000   299.89387      0.015531399    8.8915534      744.04496     -30.521154      713.5238     
   3099000   288.05363      0.015531399    8.2741152      714.66901     -29.89149       684.77752    
   3100000   298.11931      0.015531399    9.0981764      739.64222     -29.973414      709.6688     
   3101000   319.81351      0.015531399    7.9171093      793.46614     -26.785091      766.68105    
   3102000   290.72027      0.015531399    8.2487579      721.285       -26.180309      695.10469    
   3103000   303.65773      0.015531399    6.8735517      753.3832      -31.650494      721.73271    
   3104000   307.97487      0.015531399    8.0929498      764.09415     -32.017426      732.07673    
   3105000   308.30919      0.015531399    16.528312      764.92359     -30.146652      734.77693    
   3106000   297.51602      0.015531399    8.5694086      738.14544     -24.426302      713.71914    
   3107000   290.96122      0.015531399    6.2465961      721.8828      -27.657715      694.22508    
   3108000   306.63015      0.015531399    8.690813       760.75786     -27.965496      732.79236    
   3109000   316.33866      0.015531399    8.3085936      784.84493     -24.757157      760.08777    
   3110000   277.93287      0.015531399    7.5027006      689.55912     -27.332619      662.2265     
   3111000   295.50168      0.015531399    6.778566       733.14782     -25.980976      707.16685    
   3112000   315.73904      0.015531399    8.7442775      783.35725     -24.502733      758.85452    
   3113000   294.1877       0.015531399    8.2196453      729.88779     -26.965862      702.92193    
   3114000   294.94915      0.015531399    6.5622358      731.77698     -26.506507      705.27047    
   3115000   306.10342      0.015531399    8.1024707      759.45103     -29.680604      729.77043    
   3116000   299.72231      0.015531399    8.6122362      743.61931     -29.916107      713.7032     
   3117000   299.28162      0.015531399    7.0576518      742.52596     -29.920831      712.60512    
   3118000   300.56111      0.015531399    8.5916879      745.7004      -27.050199      718.6502     
   3119000   312.50157      0.015531399    9.0611332      775.32502     -28.524309      746.80071    
   3120000   294.69027      0.015531399    8.4647067      731.13469     -32.609787      698.5249     
   3121000   288.52268      0.015531399    7.7292304      715.83272     -30.010771      685.82194    
   3122000   295.78313      0.015531399    8.9692286      733.84609     -30.20987       703.63622    
   3123000   300.21153      0.015531399    11.395832      744.83308     -33.606253      711.22683    
   3124000   310.26398      0.015531399    9.0731818      769.77348     -30.100054      739.67343    
   3125000   293.12228      0.015531399    0.036706814    727.24446     -28.819541      698.42492    
   3126000   286.34914      0.015531399    6.2483736      710.44011     -28.89276       681.54735    
   3127000   306.43637      0.015531399    12.679652      760.27709     -28.445076      731.83201    
   3128000   307.11195      0.015531399    11.509332      761.95321     -27.656507      734.2967     
   3129000   294.72546      0.015531399   -2.407805       731.22199     -25.101756      706.12023    
   3130000   294.02608      0.015531399    10.591047      729.48681     -29.063408      700.4234     
   3131000   322.21307      0.015531399    7.9921298      799.41952     -26.320793      773.09872    
   3132000   296.26613      0.015531399    3.8033035      735.04443     -26.962401      708.08203    
   3133000   294.10856      0.015531399    19.001487      729.69146     -26.94205       702.74941    
   3134000   301.87405      0.015531399    9.8826235      748.95783     -25.545642      723.41219    
   3135000   304.26811      0.015531399    4.6617016      754.89758     -23.103344      731.79423    
   3136000   288.28396      0.015531399    9.6201114      715.24046     -24.387907      690.85255    
   3137000   301.94365      0.015531399    15.330487      749.13053     -19.204467      729.92606    
   3138000   301.88861      0.015531399    9.5540467      748.99397     -19.956917      729.03706    
   3139000   298.5389       0.015531399    7.4421832      740.68324     -21.892477      718.79077    
   3140000   292.62774      0.015531399    8.0524625      726.0175      -24.246842      701.77066    
   3141000   307.61022      0.015531399    9.1793576      763.18945     -22.596493      740.59295    
   3142000   309.64652      0.015531399    8.0027275      768.24155     -20.789942      747.45161    
   3143000   300.80007      0.015531399    5.8738837      746.29327     -20.261258      726.03201    
   3144000   297.34743      0.015531399    7.8809479      737.72718     -21.504646      716.22253    
   3145000   299.78324      0.015531399    9.5729322      743.77047     -21.291058      722.47941    
   3146000   300.03106      0.015531399    9.0735421      744.38533     -21.649893      722.73544    
   3147000   309.32274      0.015531399    8.0777         767.43825     -23.161362      744.27689    
   3148000   303.28359      0.015531399    7.598253       752.45495     -26.252252      726.2027     
   3149000   293.33097      0.015531399    9.6007468      727.76223     -25.275982      702.48625    
   3150000   306.96285      0.015531399    8.8525554      761.58329     -22.713642      738.86964    
   3151000   287.7632       0.015531399    4.2499001      713.94843     -20.729939      693.2185     
   3152000   302.61919      0.015531399    8.0290865      750.80656     -21.105196      729.70137    
   3153000   305.92682      0.015531399    17.344475      759.01287     -21.388588      737.62428    
   3154000   301.11605      0.015531399    11.056058      747.07721     -22.106176      724.97103    
   3155000   297.35421      0.015531399    4.4076406      737.744       -20.990502      716.7535     
   3156000   299.98915      0.015531399    7.689231       744.28135     -21.547058      722.7343     
   3157000   297.44213      0.015531399    3.412123       737.96212     -22.935348      715.02677    
   3158000   296.32184      0.015531399    11.342374      735.18266     -22.379231      712.80343    
   3159000   301.36617      0.015531399    9.7180958      747.69779     -21.510337      726.18745    
   3160000   304.02871      0.015531399    7.5753473      754.30361     -21.401394      732.90221    
   3161000   306.74879      0.015531399    4.1557526      761.05219     -24.627513      736.42468    
   3162000   294.86002      0.015531399    4.5441673      731.55585     -22.814959      708.74089    
   3163000   291.05445      0.015531399    9.7530521      722.11412     -25.46735       696.64677    
   3164000   305.81533      0.015531399    12.660006      758.73627     -22.065152      736.67112    
   3165000   307.89168      0.015531399    5.2864805      763.88775     -24.511619      739.37613    
   3166000   295.30333      0.015531399    1.5816142      732.65571     -29.067941      703.58777    
   3167000   298.33573      0.015531399    8.4772814      740.17916     -26.565853      713.61331    
   3168000   307.38273      0.015531399    15.053309      762.62503     -25.808339      736.8167     
   3169000   315.40684      0.015531399    9.7398428      782.53305     -25.075285      757.45777    
   3170000   292.72886      0.015531399    7.319726       726.26837     -24.200944      702.06742    
   3171000   294.79462      0.015531399    7.9037176      731.39358     -24.491357      706.90223    
   3172000   301.73168      0.015531399    7.9235673      748.60461     -23.960726      724.64389    
   3173000   312.84588      0.015531399    6.7959646      776.17925     -22.442317      753.73693    
   3174000   305.63224      0.015531399    8.8727142      758.28201     -23.346046      734.93597    
   3175000   294.20841      0.015531399    8.0724915      729.93918     -25.058436      704.88074    
   3176000   298.62345      0.015531399    8.5517979      740.893       -25.822491      715.07051    
   3177000   295.173        0.015531399    4.567704       732.33235     -24.148729      708.18362    
   3178000   305.73762      0.015531399    7.5334395      758.54347     -27.469767      731.0737     
   3179000   293.29759      0.015531399    12.532551      727.67939     -26.55276       701.12664    
   3180000   283.03992      0.015531399    10.012795      702.22985     -29.244889      672.98496    
   3181000   311.97978      0.015531399    7.1821669      774.03044     -25.992581      748.03786    
   3182000   307.077        0.015531399    13.094002      761.86649     -28.757979      733.10852    
   3183000   290.64617      0.015531399    11.460915      721.10117     -29.780661      691.32051    
   3184000   309.88502      0.015531399   -1.9583039      768.83328     -31.797195      737.03609    
   3185000   301.80574      0.015531399    11.821604      748.78836     -28.972348      719.81601    
   3186000   299.86592      0.015531399    12.998851      743.97562     -32.925972      711.04965    
   3187000   293.8609       0.015531399    9.5082719      729.07701     -31.000645      698.07636    
   3188000   325.69718      0.015531399   -13.061298      808.06368     -27.432975      780.63071    
   3189000   304.01001      0.015531399    14.442337      754.25722     -29.759975      724.49725    
   3190000   282.82476      0.015531399    5.0760496      701.69602     -27.604684      674.09133    
   3191000   287.42242      0.015531399   -6.687697       713.10295     -26.383857      686.71909    
   3192000   312.2249       0.015531399    11.404582      774.63858     -30.176071      744.46251    
   3193000   296.85342      0.015531399    11.178487      736.50151     -26.873936      709.62758    
   3194000   285.8533       0.015531399   -0.44795466     709.20991     -28.434567      680.77534    
   3195000   309.16552      0.015531399    2.4827751      767.04817     -30.832829      736.21534    
   3196000   304.18658      0.015531399    32.08472       754.69529     -30.983         723.71229    
   3197000   297.87914      0.015531399    8.6935988      739.04635     -34.642883      704.40347    
   3198000   298.25138      0.015531399    0.81971697     739.96991     -33.303528      706.66638    
   3199000   303.00031      0.015531399    7.0899107      751.75212     -33.515175      718.23694    
   3200000   300.95924      0.015531399    26.869684      746.68818     -32.543659      714.14452    
   3201000   297.6032       0.015531399    13.515798      738.36175     -26.489741      711.87201    
   3202000   288.00742      0.015531399   -2.0525518      714.55435     -22.348628      692.20573    
   3203000   297.97855      0.015531399   -0.68336839     739.29298     -26.829468      712.46352    
   3204000   314.86171      0.015531399    27.447231      781.18058     -29.768916      751.41167    
   3205000   294.73503      0.015531399    15.278345      731.24572     -26.707384      704.53834    
   3206000   286.22698      0.015531399   -7.4711654      710.13704     -28.699192      681.43785    
   3207000   304.02409      0.015531399    1.5507155      754.29215     -31.086861      723.20529    
   3208000   314.20582      0.015531399    6.7833149      779.5533      -29.221252      750.33205    
   3209000   295.67403      0.015531399    17.0076        733.57542     -28.24009       705.33533    
   3210000   296.39743      0.015531399    13.528922      735.37019     -31.467292      703.90289    
   3211000   308.05834      0.015531399   -7.9081327      764.30124     -33.530621      730.77062    
   3212000   305.99784      0.015531399    1.5288141      759.18909     -32.549077      726.64001    
   3213000   298.91135      0.015531399    11.230499      741.60731     -32.634638      708.97267    
   3214000   292.59124      0.015531399    29.590696      725.92693     -31.786053      694.14087    
   3215000   298.61732      0.015531399    11.89494       740.87781     -29.049945      711.82787    
   3216000   308.55099      0.015531399   -19.352164      765.52351     -27.967361      737.55615    
   3217000   299.54321      0.015531399    13.857944      743.17496     -24.821564      718.3534     
   3218000   307.51728      0.015531399    9.1909085      762.95885     -25.260141      737.69871    
   3219000   292.54402      0.015531399    10.776044      725.80979     -29.041524      696.76826    
   3220000   282.36035      0.015531399    0.24284315     700.54382     -28.416061      672.12776    
   3221000   303.91327      0.015531399    0.036855686    754.0172      -32.269328      721.74788    
   3222000   318.25735      0.015531399    7.1884639      789.60525     -26.906314      762.69893    
   3223000   292.26823      0.015531399    21.393687      725.12554     -23.566943      701.5586     
   3224000   269.13413      0.015531399    19.104017      667.72921     -16.829674      650.89953    
   3225000   299.85246      0.015531399    5.9322813      743.94223     -20.046929      723.8953     
   3226000   306.26822      0.015531399   -4.3785763      759.85989     -24.439669      735.42023    
   3227000   303.48781      0.015531399    12.725445      752.96162     -25.277521      727.6841     
   3228000   284.73048      0.015531399    9.2794015      706.42417     -24.530952      681.89321    
   3229000   300.14019      0.015531399    4.5153636      744.65608     -27.307546      717.34854    
   3230000   306.48163      0.015531399    10.448658      760.38937     -28.1428        732.24657    
   3231000   305.53574      0.015531399    9.4348485      758.04261     -25.822645      732.21996    
   3232000   295.77128      0.015531399    6.9618753      733.81671     -30.115678      703.70103    
   3233000   286.30334      0.015531399    10.433953      710.32649     -29.241388      681.0851     
   3234000   306.48036      0.015531399    9.5751348      760.38622     -29.665654      730.72057    
   3235000   313.50606      0.015531399    10.373728      777.81719     -28.607923      749.20927    
   3236000   311.82047      0.015531399    7.5606852      773.63518     -31.85285       741.78233    
   3237000   294.14917      0.015531399    6.8726711      729.7922      -31.792544      697.99965    
   3238000   300.08312      0.015531399    10.462693      744.5145      -28.869288      715.64521    
   3239000   304.85361      0.015531399    12.212785      756.3502      -30.279726      726.07047    
   3240000   302.68507      0.015531399    3.8810464      750.97001     -28.800338      722.16967    
   3241000   296.86118      0.015531399    5.6769487      736.52077     -33.512999      703.00777    
   3242000   298.16768      0.015531399    9.2460623      739.76223     -33.696648      706.06559    
   3243000   305.12635      0.015531399    12.30773       757.02689     -26.05675       730.97014    
   3244000   287.21357      0.015531399    6.3562348      712.58479     -28.584049      684.00075    
   3245000   299.7584       0.015531399    4.1385875      743.70886     -30.850621      712.85824    
   3246000   296.7889       0.015531399    8.7137969      736.34144     -32.049856      704.29158    
   3247000   306.25997      0.015531399    10.71272       759.83943     -33.427465      726.41197    
   3248000   308.87611      0.015531399    2.5819319      766.33015     -30.165784      736.16437    
   3249000   298.56541      0.015531399    7.6275958      740.749       -32.842189      707.90681    
   3250000   292.77205      0.015531399    10.272313      726.37552     -34.203377      692.17214    
   3251000   295.46397      0.015531399    8.0822977      733.05427     -35.070402      697.98386    
   3252000   301.56618      0.015531399    4.0147536      748.194       -31.743032      716.45097    
   3253000   303.9938       0.015531399    10.692466      754.21699     -34.026259      720.19073    
   3254000   302.40187      0.015531399    10.413036      750.26738     -32.465251      717.80213    
   3255000   310.39509      0.015531399    4.6914341      770.09879     -29.97576       740.12303    
   3256000   299.71695      0.015531399    7.1073174      743.60602     -29.807795      713.79822    
   3257000   303.69208      0.015531399    14.047857      753.46843     -32.576299      720.89213    
   3258000   303.99613      0.015531399    6.9877046      754.22277     -29.272519      724.95025    
   3259000   298.91035      0.015531399    4.7816191      741.60481     -27.316109      714.2887     
   3260000   288.43584      0.015531399    10.614244      715.61727     -26.185823      689.43144    
   3261000   306.36598      0.015531399    10.503253      760.10243     -28.398155      731.70428    
   3262000   319.64102      0.015531399    1.8359227      793.03818     -25.696863      767.34132    
   3263000   299.60071      0.015531399    7.7288802      743.31762     -27.764115      715.55351    
   3264000   287.96934      0.015531399    9.8321091      714.45988     -25.873646      688.58623    
   3265000   313.74477      0.015531399    7.7469602      778.40943     -28.292755      750.11667    
   3266000   306.74086      0.015531399    7.2109236      761.03253     -27.266803      733.76573    
   3267000   304.67923      0.015531399    7.52549        755.91757     -29.092309      726.82526    
   3268000   303.67431      0.015531399    10.392507      753.42432     -24.322694      729.10163    
   3269000   296.64215      0.015531399    10.444478      735.97735     -26.107958      709.8694     
   3270000   293.52922      0.015531399    8.2428845      728.25409     -25.66818       702.58591    
   3271000   293.80503      0.015531399    6.4564333      728.93838     -29.122186      699.8162     
   3272000   299.03914      0.015531399    8.2233924      741.92436     -28.211824      713.71253    
   3273000   302.76793      0.015531399    12.521581      751.17559     -28.579196      722.59639    
   3274000   308.39455      0.015531399    7.7877586      765.13537     -25.764237      739.37113    
   3275000   297.07832      0.015531399    5.521017       737.05949     -26.043934      711.01556    
   3276000   301.21888      0.015531399    11.909363      747.33234     -24.082904      723.24944    
   3277000   292.94367      0.015531399    8.3705355      726.80132     -25.983192      700.81813    
   3278000   308.63327      0.015531399    3.3894155      765.72766     -19.416631      746.31103    
   3279000   298.60088      0.015531399    7.5945773      740.83701     -26.583977      714.25303    
   3280000   290.78662      0.015531399    10.100105      721.44963     -25.239213      696.21041    
   3281000   305.44145      0.015531399    7.7839492      757.80866     -21.915349      735.89332    
   3282000   299.48731      0.015531399   -0.22880208     743.03626     -23.596443      719.43982    
   3283000   294.07583      0.015531399    5.8175866      729.61025     -24.18092       705.42933    
   3284000   293.4555       0.015531399    15.977614      728.0712      -26.123491      701.9477     
   3285000   304.31586      0.015531399    4.9230729      755.01605     -25.118214      729.89783    
   3286000   306.30937      0.015531399    6.8535824      759.96198     -26.681211      733.28077    
   3287000   299.96287      0.015531399    6.6882494      744.21616     -22.171424      722.04473    
   3288000   288.54599      0.015531399    9.5197423      715.89055     -21.249836      694.64071    
   3289000   289.40689      0.015531399    10.041193      718.02647     -22.117661      695.90881    
   3290000   316.05157      0.015531399    9.596371       784.13265     -25.975806      758.15684    
   3291000   300.89949      0.015531399    2.3328526      746.53993     -21.509043      725.03089    
   3292000   273.55494      0.015531399    5.6817286      678.69734     -23.715882      654.98146    
   3293000   294.22153      0.015531399    8.5907273      729.97173     -23.469048      706.50268    
   3294000   311.92284      0.015531399    8.2493069      773.88917     -22.581563      751.30761    
   3295000   300.24893      0.015531399    7.5165305      744.92586     -22.325834      722.60003    
   3296000   297.99083      0.015531399    7.8152107      739.32346     -24.248379      715.07508    
   3297000   307.71786      0.015531399    6.5776142      763.4565      -22.854391      740.60211    
   3298000   298.43457      0.015531399    10.757342      740.42439     -22.498845      717.92554    
   3299000   298.16118      0.015531399    5.5220569      739.7461      -23.967476      715.77863    
   3300000   302.03905      0.015531399    4.6424645      749.36722     -19.956281      729.41094    
   3301000   299.5698       0.015531399    8.9233862      743.24093     -21.226097      722.01483    
   3302000   292.43069      0.015531399    10.436034      725.52859     -24.625643      700.90295    
   3303000   297.52671      0.015531399    7.9098243      738.17197     -26.170597      712.00137    
   3304000   319.2181       0.015531399    7.6191536      791.98891     -28.273615      763.71529    
   3305000   297.15004      0.015531399    7.7902755      737.23744     -23.426516      713.81092    
   3306000   294.97631      0.015531399    9.3467464      731.84436     -25.972441      705.87192    
   3307000   302.33075      0.015531399    7.3279343      750.09093     -24.783972      725.30696    
   3308000   306.16936      0.015531399    8.1044054      759.61462     -26.233487      733.38113    
   3309000   315.24269      0.015531399    10.110783      782.1258      -24.17868       757.94711    
   3310000   294.93202      0.015531399    8.4090006      731.73448     -29.671387      702.06309    
   3311000   296.08217      0.015531399    9.2630164      734.58802     -27.290829      707.29719    
   3312000   311.53711      0.015531399    7.3596023      772.93215     -27.332036      745.60011    
   3313000   288.74004      0.015531399    7.3921543      716.37201     -29.501787      686.87022    
   3314000   301.37585      0.015531399    7.9313078      747.72178     -27.673479      720.0483     
   3315000   316.70992      0.015531399    8.2639083      785.76604     -23.989043      761.777      
   3316000   295.14176      0.015531399    8.7202273      732.25483     -28.025348      704.22948    
   3317000   299.4844       0.015531399    8.4966289      743.02906     -27.14425       715.88481    
   3318000   321.70859      0.015531399    9.1398086      798.16789     -26.056123      772.11177    
   3319000   306.92213      0.015531399    7.3699348      761.48226     -22.717841      738.76441    
   3320000   289.03829      0.015531399    7.2269553      717.11196     -20.431773      696.68019    
   3321000   294.48917      0.015531399    11.283731      730.63575     -21.228687      709.40707    
   3322000   307.31613      0.015531399    12.323291      762.4598      -19.516349      742.94345    
   3323000   309.61849      0.015531399    9.7751914      768.17201     -23.033121      745.13889    
   3324000   294.75913      0.015531399    6.6828354      731.30553     -17.343977      713.96156    
   3325000   289.25554      0.015531399    8.0772973      717.65097     -21.965545      695.68543    
   3326000   306.46876      0.015531399    8.5254422      760.35744     -15.850164      744.50727    
   3327000   310.27479      0.015531399    9.3690039      769.80032     -18.141816      751.6585     
   3328000   305.79434      0.015531399    9.3116555      758.6842      -18.489794      740.1944     
   3329000   287.51628      0.015531399    6.665529       713.33581     -19.696392      693.63942    
   3330000   300.82612      0.015531399    10.813914      746.3579      -22.115316      724.24258    
   3331000   317.89711      0.015531399    12.605911      788.7115      -24.641955      764.06955    
   3332000   298.47983      0.015531399    1.3637733      740.53668     -21.090053      719.44662    
   3333000   294.19619      0.015531399    5.7534301      729.90886     -30.830425      699.07843    
   3334000   287.65332      0.015531399    8.6121287      713.67581     -25.846422      687.82939    
   3335000   298.16634      0.015531399    8.1202584      739.75891     -31.212937      708.54597    
   3336000   303.09643      0.015531399    9.3465999      751.99059     -26.667537      725.32305    
   3337000   304.40587      0.015531399    5.5445         755.23937     -29.420271      725.8191     
   3338000   301.45112      0.015531399    8.0180506      747.90853     -33.139427      714.7691     
   3339000   305.75617      0.015531399    8.5441054      758.58949     -28.511389      730.0781     
   3340000   299.61593      0.015531399    7.6503004      743.35538     -31.653975      711.7014     
   3341000   283.57276      0.015531399    8.6379085      703.55183     -30.224829      673.327      
   3342000   303.17286      0.015531399    8.694589       752.18023     -26.635837      725.54439    
   3343000   309.4761       0.015531399    6.7836222      767.81874     -26.986124      740.83262    
   3344000   287.8343       0.015531399    2.0460755      714.12483     -29.145913      684.97892    
   3345000   291.3714       0.015531399    9.3744147      722.90047     -27.19051       695.70996    
   3346000   295.75603      0.015531399    8.9889411      733.77886     -31.636424      702.14243    
   3347000   307.69143      0.015531399    8.1310268      763.39092     -28.358179      735.03274    
   3348000   305.75805      0.015531399    6.8907329      758.59414     -27.648405      730.94574    
   3349000   295.12374      0.015531399    7.4448868      732.21012     -27.908378      704.30175    
   3350000   295.50964      0.015531399    4.0437255      733.16756     -32.34312       700.82444    
   3351000   291.01117      0.015531399    8.8957063      722.00674     -35.914771      686.09197    
   3352000   308.99002      0.015531399    8.8292769      766.61275     -35.219575      731.39317    
   3353000   305.29262      0.015531399    7.7219027      757.43941     -32.211364      725.22805    
   3354000   281.76389      0.015531399    1.199736       699.06398     -30.251126      668.81286    
   3355000   291.01877      0.015531399    8.9727422      722.02559     -31.194468      690.83113    
   3356000   322.39815      0.015531399    13.04346       799.87869     -28.294916      771.58377    
   3357000   307.82683      0.015531399    6.2682754      763.72685     -30.541778      733.18507    
   3358000   285.88782      0.015531399    10.6118        709.29555     -23.542612      685.75294    
   3359000   290.89283      0.015531399    10.906046      721.71313     -23.291729      698.4214     
   3360000   304.2064       0.015531399    7.9854694      754.74446     -24.702839      730.04163    
   3361000   303.98744      0.015531399    6.2851868      754.20123     -21.974347      732.22688    
   3362000   295.27097      0.015531399    5.5412688      732.57541     -23.191519      709.38389    
   3363000   307.72811      0.015531399    8.2302041      763.48193     -28.022604      735.45933    
   3364000   292.01628      0.015531399    17.576252      724.50044     -25.811535      698.6889     
   3365000   300.31141      0.015531399    12.697295      745.0809      -29.556631      715.52427    
   3366000   306.72621      0.015531399    9.9610536      760.99619     -29.178316      731.81788    
   3367000   298.66823      0.015531399    4.2704015      741.00412     -31.897288      709.10683    
   3368000   292.29294      0.015531399    11.752154      725.18685     -27.560951      697.6259     
   3369000   307.97724      0.015531399    9.7201823      764.10003     -27.372219      736.72781    
   3370000   304.52212      0.015531399    7.7595368      755.52777     -30.049791      725.47798    
   3371000   298.92412      0.015531399   -0.6330335      741.63897     -31.504375      710.13459    
   3372000   295.20526      0.015531399    9.9735434      732.41239     -27.580423      704.83197    
   3373000   298.46836      0.015531399    9.5800071      740.50823     -29.790001      710.71823    
   3374000   305.91727      0.015531399    9.1273829      758.98917     -27.119805      731.86937    
   3375000   292.22134      0.015531399    7.0416023      725.00919     -27.205659      697.80353    
   3376000   315.56527      0.015531399    12.036574      782.92614     -26.884897      756.04125    
   3377000   304.18334      0.015531399    1.8155849      754.68725     -28.525786      726.16146    
   3378000   291.50385      0.015531399    7.7284385      723.22908     -25.845463      697.38362    
   3379000   307.83787      0.015531399    10.307168      763.75423     -24.846762      738.90747    
   3380000   311.35681      0.015531399    8.8146937      772.48482     -24.847937      747.63688    
   3381000   303.23979      0.015531399    8.183747       752.34628     -25.11409       727.23219    
   3382000   283.95955      0.015531399    7.5340115      704.51147     -23.524558      680.98692    
   3383000   295.78811      0.015531399    8.887978       733.85845     -26.540348      707.3181     
   3384000   323.15221      0.015531399    9.6975189      801.74953     -29.835112      771.91442    
   3385000   291.2052       0.015531399    8.0672975      722.48812     -27.025542      695.46258    
   3386000   290.04154      0.015531399    7.0982096      719.60105     -30.274697      689.32635    
   3387000   291.27395      0.015531399    9.3801844      722.65869     -26.254687      696.404      
   3388000   306.51277      0.015531399    9.5406909      760.46664     -28.643567      731.82307    
   3389000   310.2531       0.015531399    6.2230124      769.74649     -22.810765      746.93572    
   3390000   289.046        0.015531399    7.6571452      717.13108     -28.382442      688.74864    
   3391000   305.39591      0.015531399    11.801839      757.69566     -27.365751      730.32991    
   3392000   310.0701       0.015531399    5.726443       769.29248     -25.028144      744.26433    
   3393000   290.11078      0.015531399    8.5637658      719.77285     -20.998284      698.77457    
   3394000   295.48852      0.015531399    10.835572      733.11515     -26.88713       706.22802    
   3395000   315.91759      0.015531399    9.1035571      783.80024     -24.9143        758.88594    
   3396000   296.99757      0.015531399    8.76106        736.85915     -25.636081      711.22307    
   3397000   292.50134      0.015531399    7.9610441      725.70388     -29.169899      696.53398    
   3398000   302.47234      0.015531399    6.7475837      750.44222     -25.192828      725.24939    
   3399000   303.6308       0.015531399    9.4330932      753.31638     -28.497394      724.81899    
   3400000   286.60919      0.015531399    17.183871      711.08531     -28.136598      682.94871    
   3401000   294.12977      0.015531399    11.924185      729.74406     -32.539763      697.2043     
   3402000   302.37599      0.015531399    8.3594644      750.20316     -30.03697       720.16619    
   3403000   300.4375       0.015531399    6.4234385      745.39373     -35.858387      709.53534    
   3404000   299.50256      0.015531399    8.271287       743.0741      -33.570429      709.50367    
   3405000   299.79496      0.015531399    13.222741      743.79956     -31.124823      712.67474    
   3406000   306.01231      0.015531399    6.9395824      759.22498     -31.668879      727.5561     
   3407000   298.59602      0.015531399   -1.9122163      740.82496     -28.123408      712.70155    
   3408000   313.82421      0.015531399    6.9439583      778.60651     -35.177596      743.42892    
   3409000   293.43481      0.015531399    14.941665      728.01985     -32.1722        695.84765    
   3410000   308.37391      0.015531399    1.1300252      765.08417     -32.235459      732.84871    
   3411000   302.88298      0.015531399    7.8900337      751.46101     -31.20309       720.25792    
   3412000   292.23605      0.015531399    11.964663      725.04569     -34.006618      691.03908    
   3413000   295.27722      0.015531399    3.0995005      732.59091     -31.071642      701.51927    
   3414000   308.45591      0.015531399    2.3867107      765.28761     -29.479615      735.80799    
   3415000   301.04893      0.015531399    7.66939        746.91071     -33.103385      713.80732    
   3416000   304.42103      0.015531399    12.181858      755.27696     -36.77945       718.49751    
   3417000   296.40799      0.015531399    6.9916971      735.39639     -36.023025      699.37336    
   3418000   304.4556       0.015531399    0.85517039     755.36274     -38.12679       717.23595    
   3419000   295.24803      0.015531399    10.136283      732.5185      -40.008649      692.50985    
   3420000   274.72289      0.015531399    2.2398698      681.59507     -40.373322      641.22175    
   3421000   311.68093      0.015531399    3.6034927      773.28897     -40.180558      733.10841    
   3422000   309.94095      0.015531399    9.3671461      768.97205     -43.696684      725.27537    
   3423000   294.96636      0.015531399    13.892474      731.81968     -37.619076      694.2006     
   3424000   277.2573       0.015531399    7.2622651      687.88301     -32.753796      655.12921    
   3425000   305.49168      0.015531399    4.1085298      757.93327     -32.890483      725.04278    
   3426000   306.25504      0.015531399    9.2965699      759.82721     -26.774885      733.05232    
   3427000   290.33947      0.015531399    8.9222553      720.34022     -29.994887      690.34533    
   3428000   293.50365      0.015531399    5.6587374      728.19065     -24.304973      703.88568    
   3429000   305.83315      0.015531399    9.5718281      758.78046     -24.323384      734.45708    
   3430000   296.9114       0.015531399    12.762489      736.64536     -25.148433      711.49693    
   3431000   292.37592      0.015531399    5.9626122      725.39271     -23.069577      702.32313    
   3432000   301.43155      0.015531399    8.0900093      747.85998     -26.685796      721.17418    
   3433000   303.42284      0.015531399    10.83791       752.80042     -30.177585      722.62284    
   3434000   288.70695      0.015531399    7.0291188      716.2899      -30.135755      686.15414    
   3435000   304.04562      0.015531399    7.7965242      754.34557     -33.160696      721.18488    
   3436000   306.73096      0.015531399    8.359173       761.00796     -31.53636       729.4716     
   3437000   294.4336       0.015531399    12.573362      730.49787     -32.036112      698.46176    
   3438000   296.67432      0.015531399    9.4129911      736.05717     -33.048292      703.00888    
   3439000   280.14249      0.015531399    7.7287074      695.04124     -30.496831      664.54441    
   3440000   308.34513      0.015531399    8.9475551      765.01278     -28.360912      736.65187    
   3441000   302.54649      0.015531399    8.7989025      750.62618     -27.814049      722.81214    
   3442000   295.99775      0.015531399    8.3147589      734.37858     -28.265468      706.11312    
   3443000   305.35759      0.015531399    8.7975308      757.60059     -27.672563      729.92802    
   3444000   307.63469      0.015531399    8.3371458      763.25014     -30.799775      732.45037    
   3445000   289.94705      0.015531399    8.3686705      719.36663     -27.850946      691.51568    
   3446000   297.62378      0.015531399    8.2905556      738.41281     -30.823178      707.58963    
   3447000   304.93098      0.015531399    6.8887426      756.54216     -26.493453      730.04871    
   3448000   301.81898      0.015531399    7.0620631      748.8212      -24.637501      724.1837     
   3449000   292.83314      0.015531399    9.828986       726.52709     -26.667151      699.85994    
   3450000   299.68364      0.015531399    9.3277305      743.52338     -26.143563      717.37981    
   3451000   285.65953      0.015531399    10.610753      708.72916     -26.011566      682.7176     
   3452000   303.56218      0.015531399    5.5005717      753.14614     -27.054694      726.09145    
   3453000   311.33227      0.015531399    9.5735313      772.42394     -23.622213      748.80172    
   3454000   285.9207       0.015531399    8.7190215      709.37715     -23.467201      685.90994    
   3455000   292.95469      0.015531399    9.1383288      726.82865     -24.206183      702.62247    
   3456000   291.45601      0.015531399    0.79470028     723.1104      -26.797113      696.31328    
   3457000   315.00922      0.015531399    8.5224365      781.54657     -25.73402       755.81255    
   3458000   289.99916      0.015531399    8.4621974      719.4959      -24.271183      695.22472    
   3459000   290.96698      0.015531399    7.8326116      721.89709     -25.82905       696.06804    
   3460000   303.40899      0.015531399    8.2896907      752.76606     -25.180783      727.58528    
   3461000   297.31353      0.015531399    9.4294256      737.64307     -23.394549      714.24852    
   3462000   286.8203       0.015531399    5.5930064      711.60906     -22.776675      688.83239    
   3463000   302.19188      0.015531399    10.96904       749.74638     -25.757828      723.98855    
   3464000   302.21405      0.015531399    9.5647272      749.8014      -25.111282      724.69012    
   3465000   308.74402      0.015531399    7.8132603      766.00243     -27.974239      738.02819    
   3466000   316.81875      0.015531399    8.1502446      786.03605     -27.667342      758.36871    
   3467000   303.47255      0.015531399    7.3508276      752.92376     -29.313057      723.6107     
   3468000   292.40886      0.015531399    2.5552981      725.47444     -30.550237      694.9242     
   3469000   297.28645      0.015531399    12.850046      737.57587     -28.291619      709.28425    
   3470000   311.70451      0.015531399    9.5482399      773.34748     -31.415684      741.93179    
   3471000   290.98445      0.015531399    5.4435398      721.94045     -32.15737       689.78308    
   3472000   290.41505      0.015531399    10.042639      720.52775     -34.243892      686.28386    
   3473000   306.48515      0.015531399    12.235549      760.39811     -31.328571      729.06953    
   3474000   305.33068      0.015531399    16.518348      757.53384     -27.567955      729.96588    
   3475000   295.90223      0.015531399    8.2391881      734.14158     -31.582082      702.5595     
   3476000   283.55617      0.015531399    2.5448418      703.51068     -31.769567      671.74111    
   3477000   301.74951      0.015531399    12.354165      748.64885     -28.466045      720.1828     
   3478000   319.68933      0.015531399    3.6420075      793.15804     -26.789134      766.36891    
   3479000   300.07562      0.015531399    4.5201777      744.49588     -26.063398      718.43248    
   3480000   290.64414      0.015531399   -0.13704068     721.09612     -27.400545      693.69558    
   3481000   305.50367      0.015531399    14.756303      757.96302     -29.767895      728.19512    
   3482000   315.30314      0.015531399    15.816934      782.27578     -31.455851      750.81993    
   3483000   293.45958      0.015531399   -6.9458131      728.08132     -31.874894      696.20642    
   3484000   307.39472      0.015531399    10.489111      762.65477     -35.751599      726.90317    
   3485000   316.05416      0.015531399    11.524441      784.13909     -31.983017      752.15608    
   3486000   291.48065      0.015531399    3.7251455      723.17152     -29.155858      694.01566    
   3487000   296.88589      0.015531399    21.752905      736.58207     -30.088862      706.4932     
   3488000   321.24457      0.015531399    17.969432      797.01663     -24.598973      772.41766    
   3489000   304.3699       0.015531399    5.9669787      755.15011     -24.576768      730.57334    
   3490000   291.48863      0.015531399    6.7148968      723.19132     -26.360657      696.83067    
   3491000   291.12947      0.015531399    15.979406      722.30024     -22.266739      700.0335     
   3492000   322.18295      0.015531399   -1.8293933      799.34479     -25.788497      773.55629    
   3493000   306.43018      0.015531399    1.8824093      760.26173     -26.972774      733.28896    
   3494000   278.17108      0.015531399    12.372316      690.15012     -23.426689      666.72343    
   3495000   304.44525      0.015531399    14.70032       755.33705     -26.408739      728.92831    
   3496000   324.85125      0.015531399    10.557387      805.96491     -27.491096      778.47382    
   3497000   295.1508       0.015531399    6.5627133      732.27726     -31.886123      700.39114    
   3498000   291.62472      0.015531399    8.0055765      723.52897     -33.982277      689.54669    
   3499000   303.60044      0.015531399    9.0364301      753.24106     -30.459745      722.78132    
   3500000   297.1337       0.015531399    9.1816931      737.19689     -26.928939      710.26795    
   3501000   295.5225       0.015531399    8.6023261      733.19946     -30.533751      702.66571    
   3502000   295.79039      0.015531399    2.0706832      733.86412     -34.079569      699.78455    
   3503000   297.56738      0.015531399    10.566949      738.27287     -30.397641      707.87523    
   3504000   308.48021      0.015531399    9.6351098      765.3479      -31.692282      733.65562    
   3505000   303.96056      0.015531399    8.1580638      754.13452     -31.166501      722.96802    
   3506000   295.80272      0.015531399    8.669029       733.89471     -31.161026      702.73368    
   3507000   307.11847      0.015531399    9.2745926      761.96938     -28.299602      733.66978    
   3508000   300.21577      0.015531399    7.8074963      744.8436      -28.915617      715.92798    
   3509000   291.48255      0.015531399    8.6045658      723.17625     -33.164306      690.01194    
   3510000   314.42019      0.015531399    9.6946892      780.08516     -33.061217      747.02394    
   3511000   286.98043      0.015531399    7.3498837      712.00637     -26.588129      685.41824    
   3512000   292.38559      0.015531399    11.203593      725.41672     -29.324464      696.09225    
   3513000   304.81135      0.015531399    9.4492488      756.24536     -27.304906      728.94046    
   3514000   298.5535       0.015531399    8.0454079      740.71946     -28.452945      712.26651    
   3515000   285.70169      0.015531399    8.0097955      708.83377     -28.100581      680.73319    
   3516000   307.28093      0.015531399    9.8859135      762.37245     -29.388793      732.98366    
   3517000   296.42051      0.015531399    7.3985795      735.42746     -28.355206      707.07225    
   3518000   283.79469      0.015531399    7.746269       704.10245     -28.860882      675.24156    
   3519000   295.81266      0.015531399    7.9351987      733.91937     -32.121816      701.79755    
   3520000   312.63932      0.015531399    10.909307      775.66678     -28.864518      746.80226    
   3521000   298.71186      0.015531399    7.2065381      741.11236     -25.524071      715.58829    
   3522000   294.75874      0.015531399    7.4521271      731.30457     -26.737403      704.56716    
   3523000   300.43333      0.015531399    10.082467      745.38337     -27.261253      718.12212    
   3524000   301.96534      0.015531399    11.451944      749.18432     -27.947315      721.23701    
   3525000   299.95348      0.015531399    7.2436767      744.19286     -25.001205      719.19165    
   3526000   294.97088      0.015531399    9.3334719      731.83087     -25.457689      706.37319    
   3527000   312.71537      0.015531399    9.8017867      775.85546     -26.737173      749.11829    
   3528000   299.09081      0.015531399    10.443546      742.05254     -26.41461       715.63793    
   3529000   319.50116      0.015531399    8.2674424      792.69119     -31.56949       761.1217     
   3530000   305.41432      0.015531399    7.6182998      757.74135     -28.684751      729.0566     
   3531000   287.34857      0.015531399    8.4368687      712.91973     -29.552447      683.36728    
   3532000   298.30085      0.015531399    6.2587037      740.09263     -34.433453      705.65918    
   3533000   309.49671      0.015531399    9.7450892      767.86987     -31.711816      736.15805    
   3534000   304.15811      0.015531399    6.6983818      754.62465     -28.705874      725.91878    
   3535000   300.25776      0.015531399    7.8436022      744.94779     -27.254327      717.69346    
   3536000   297.30415      0.015531399    8.0470948      737.61978     -25.981272      711.63851    
   3537000   300.02002      0.015531399    8.8303274      744.35793     -27.298667      717.05926    
   3538000   301.95982      0.015531399    8.2566114      749.17064     -31.017192      718.15345    
   3539000   306.39039      0.015531399    9.943195       760.163       -27.881387      732.28161    
   3540000   310.85723      0.015531399    8.8755459      771.24535     -31.851602      739.39374    
   3541000   302.55685      0.015531399    7.5874846      750.65189     -27.294134      723.35776    
   3542000   297.2493       0.015531399    7.8994299      737.48372     -27.037388      710.44633    
   3543000   291.16619      0.015531399    7.6523142      722.39133     -26.361273      696.03006    
   3544000   308.83844      0.015531399    7.6792339      766.23667     -26.800562      739.43611    
   3545000   295.64676      0.015531399    8.2558834      733.50777     -32.55606       700.95171    
   3546000   291.55931      0.015531399    10.903044      723.36669     -28.238065      695.12862    
   3547000   302.0688       0.015531399    8.814629       749.44103     -24.664903      724.77612    
   3548000   304.99746      0.015531399    4.5298295      756.70711     -27.374097      729.33301    
   3549000   297.44542      0.015531399    5.7959695      737.97028     -26.385103      711.58518    
   3550000   299.11266      0.015531399    9.6714854      742.10676     -32.986855      709.1199     
   3551000   302.53101      0.015531399    8.5820231      750.58777     -31.875377      718.71239    
   3552000   283.35193      0.015531399    8.1909711      703.00395     -26.0576        676.94635    
   3553000   301.00652      0.015531399    8.1108958      746.80547     -26.210807      720.59466    
   3554000   317.80387      0.015531399    11.626601      788.48017     -27.965109      760.51506    
   3555000   288.54791      0.015531399    7.6591885      715.89531     -27.059448      688.83587    
   3556000   297.18113      0.015531399    6.7890763      737.31457     -27.169351      710.14521    
   3557000   307.98823      0.015531399    5.2670696      764.12728     -29.418059      734.70922    
   3558000   302.45136      0.015531399    19.874881      750.39017     -24.139337      726.25083    
   3559000   291.71891      0.015531399    7.5321335      723.76265     -26.471659      697.29099    
   3560000   295.89407      0.015531399   -0.65705499     734.12133     -26.202864      707.91847    
   3561000   315.5008       0.015531399    7.6971037      782.76617     -22.330727      760.43544    
   3562000   296.27839      0.015531399    13.715549      735.07485     -22.409788      712.66506    
   3563000   302.40912      0.015531399    3.2980618      750.28535     -25.074704      725.21065    
   3564000   312.35949      0.015531399    7.5968959      774.97251     -19.136014      755.83649    
   3565000   291.52422      0.015531399    16.014456      723.27963     -25.882228      697.3974     
   3566000   291.9678       0.015531399    8.4586702      724.38016     -22.234487      702.14567    
   3567000   305.93983      0.015531399    6.2948819      759.04516     -22.150521      736.89464    
   3568000   308.86165      0.015531399    8.1779776      766.29428     -20.346897      745.94738    
   3569000   303.76157      0.015531399    8.7806603      753.64083     -25.029199      728.61163    
   3570000   297.7612       0.015531399    7.657437       738.75375     -24.225822      714.52793    
   3571000   303.97263      0.015531399    8.0173708      754.16448     -25.680638      728.48384    
   3572000   303.20475      0.015531399    8.6500511      752.25934     -34.545485      717.71386    
   3573000   296.94349      0.015531399    13.37043       736.72499     -33.562932      703.16206    
   3574000   296.21591      0.015531399    5.8918792      734.91983     -29.101708      705.81812    
   3575000   310.50392      0.015531399    0.52313785     770.36879     -30.406169      739.96262    
   3576000   315.15841      0.015531399    10.59825       781.91671     -27.593829      754.32288    
   3577000   290.2813       0.015531399    18.264365      720.19591     -30.976968      689.21894    
   3578000   293.26425      0.015531399    1.1553666      727.5967      -30.783924      696.81277    
   3579000   300.74304      0.015531399    8.4158296      746.15176     -27.93805       718.21371    
   3580000   309.14652      0.015531399    11.786183      767.00104     -24.637336      742.3637     
   3581000   293.12097      0.015531399    11.22348       727.2412      -23.875062      703.36613    
   3582000   298.03678      0.015531399    6.7020544      739.43746     -25.433437      714.00403    
   3583000   314.75739      0.015531399    0.84358283     780.92175     -26.43827       754.48348    
   3584000   310.97326      0.015531399    8.3297187      771.53322     -28.921006      742.61221    
   3585000   291.17335      0.015531399    22.637464      722.4091      -31.310905      691.09819    
   3586000   287.74295      0.015531399    8.9671257      713.89818     -31.887244      682.01094    
   3587000   299.95722      0.015531399    5.9297022      744.20214     -27.897267      716.30488    
   3588000   308.64971      0.015531399    7.4122434      765.76843     -30.573199      735.19523    
   3589000   301.47217      0.015531399    8.5656838      747.96075     -27.789643      720.17111    
   3590000   298.42019      0.015531399    8.3456764      740.38872     -28.104709      712.28401    
   3591000   301.71135      0.015531399    8.5094633      748.55417     -25.929765      722.62441    
   3592000   296.54479      0.015531399    10.815258      735.7358      -26.680243      709.05555    
   3593000   301.56833      0.015531399    8.0288364      748.19934     -24.860551      723.33879    
   3594000   306.37091      0.015531399    7.1319665      760.11467     -27.50966       732.60501    
   3595000   303.20959      0.015531399    6.122005       752.27135     -26.058522      726.21282    
   3596000   294.13394      0.015531399    9.3891584      729.75442     -28.978439      700.77599    
   3597000   310.8179       0.015531399    9.6896986      771.14777     -23.53112       747.61665    
   3598000   310.71152      0.015531399    8.9128366      770.88386     -25.094726      745.78913    
   3599000   302.15811      0.015531399    5.8995749      749.6626      -34.360439      715.30216    
   3600000   286.29656      0.015531399    8.3248432      710.30966     -28.634167      681.67549    
   3601000   309.27005      0.015531399    8.9605216      767.30752     -31.202573      736.10495    
   3602000   307.8762       0.015531399    7.9298025      763.84934     -27.291118      736.55822    
   3603000   299.14395      0.015531399    8.8313221      742.1844      -26.997292      715.18711    
   3604000   297.17652      0.015531399    10.954631      737.30315     -29.079548      708.2236     
   3605000   302.62114      0.015531399    7.8536246      750.81139     -28.230718      722.58067    
   3606000   299.19497      0.015531399    5.9898945      742.31096     -30.823605      711.48735    
   3607000   289.73918      0.015531399    8.2975663      718.8509      -31.322769      687.52813    
   3608000   296.5776       0.015531399    9.4145147      735.8172      -31.060619      704.75658    
   3609000   304.51468      0.015531399    8.2034242      755.50931     -33.691828      721.81748    
   3610000   300.30441      0.015531399    7.3658563      745.06352     -34.717696      710.34582    
   3611000   291.90234      0.015531399    8.6751186      724.21774     -30.847609      693.37014    
   3612000   294.46421      0.015531399    8.8380047      730.57382     -37.317727      693.25609    
   3613000   303.91544      0.015531399    8.5287579      754.02259     -30.730102      723.29249    
   3614000   310.04148      0.015531399    7.7160711      769.22146     -31.045932      738.17553    
   3615000   285.00006      0.015531399    8.2840457      707.093       -27.935206      679.15779    
   3616000   286.4295       0.015531399    8.0692566      710.63948     -30.427057      680.21242    
   3617000   303.56877      0.015531399    7.7642587      753.16249     -32.443543      720.71895    
   3618000   303.3805       0.015531399    8.6691393      752.69538     -34.925536      717.76985    
   3619000   300.79047      0.015531399    10.549818      746.26944     -39.141696      707.12775    
   3620000   298.88081      0.015531399    8.3817233      741.53152     -38.135907      703.39561    
   3621000   305.36649      0.015531399    7.8895136      757.62268     -38.890092      718.73259    
   3622000   305.19017      0.015531399    10.232249      757.18522     -41.323179      715.86204    
   3623000   298.48549      0.015531399    6.2268096      740.55073     -37.730976      702.81976    
   3624000   302.27523      0.015531399    4.0664646      749.95318     -33.873392      716.07978    
   3625000   304.70572      0.015531399    11.318613      755.98329     -31.168692      724.8146     
   3626000   293.46815      0.015531399    15.628391      728.10256     -34.232827      693.86973    
   3627000   315.25133      0.015531399    8.4061709      782.14725     -33.60721       748.54004    
   3628000   308.03018      0.015531399    0.15226781     764.23136     -35.952762      728.2786     
   3629000   289.8826       0.015531399    2.5751977      719.20671     -35.569624      683.63709    
   3630000   282.57345      0.015531399    22.08287       701.07253     -34.78857       666.28396    
   3631000   310.48644      0.015531399    16.656071      770.32541     -36.490587      733.83482    
   3632000   306.83869      0.015531399    11.447834      761.27524     -34.466892      726.80835    
   3633000   294.58181      0.015531399    1.2410391      730.86558     -30.203529      700.66205    
   3634000   294.99939      0.015531399    13.008142      731.90163     -29.333408      702.56822    
   3635000   307.16246      0.015531399    10.738399      762.07853     -29.835773      732.24276    
   3636000   303.10972      0.015531399    3.7466515      752.02357     -30.35236       721.67121    
   3637000   295.62897      0.015531399    7.105934       733.46362     -25.7081        707.75552    
   3638000   285.55179      0.015531399    16.427355      708.46185     -29.343829      679.11802    
   3639000   308.23072      0.015531399    7.0323015      764.72892     -31.504258      733.22466    
   3640000   293.35634      0.015531399    10.054989      727.82515     -33.636739      694.18841    
   3641000   298.71244      0.015531399    12.57773       741.11379     -29.004898      712.10889    
   3642000   299.85468      0.015531399    3.6930788      743.94774     -26.997373      716.95036    
   3643000   300.75959      0.015531399    11.331381      746.19282     -31.734497      714.45833    
   3644000   301.48856      0.015531399    10.802179      748.00142     -31.7498        716.25162    
   3645000   306.34958      0.015531399    8.5378087      760.06176     -27.661225      732.40054    
   3646000   287.74181      0.015531399    2.5809046      713.89536     -31.418385      682.47697    
   3647000   301.77862      0.015531399    19.596281      748.72108     -28.420394      720.30068    
   3648000   306.82514      0.015531399   -1.0098694      761.24162     -30.132566      731.10905    
   3649000   287.99488      0.015531399    8.7600047      714.52324     -29.422107      685.10113    
   3650000   293.44871      0.015531399    6.5506149      728.05434     -32.961836      695.0925     
   3651000   299.03167      0.015531399    12.654876      741.90582     -29.786797      712.11902    
   3652000   306.4811       0.015531399   -0.89121141     760.38806     -28.31826       732.0698     
   3653000   296.54329      0.015531399   -2.5857818      735.73208     -27.337406      708.39468    
   3654000   296.87413      0.015531399    12.023744      736.5529      -27.08824       709.46466    
   3655000   301.45413      0.015531399    7.4636812      747.916       -28.539189      719.37681    
   3656000   302.01115      0.015531399    7.9979463      749.29798     -29.257703      720.04028    
   3657000   297.65545      0.015531399    13.005106      738.49138     -31.861927      706.62945    
   3658000   299.71313      0.015531399    10.881669      743.59654     -28.294232      715.3023     
   3659000   309.84932      0.015531399    8.8960765      768.74471     -28.815019      739.9297     
   3660000   308.73393      0.015531399    5.5358871      765.97739     -25.022474      740.95492    
   3661000   302.10963      0.015531399    5.5028626      749.54232     -24.437416      725.10491    
   3662000   298.0183       0.015531399    8.0091543      739.39162     -23.033048      716.35857    
   3663000   304.0028       0.015531399    10.814532      754.23932     -23.984344      730.25498    
   3664000   300.67697      0.015531399    6.0771173      745.98785     -20.979243      725.0086     
   3665000   297.48159      0.015531399    7.6281566      738.06003     -22.975095      715.08494    
   3666000   303.88071      0.015531399    9.4335343      753.93642     -28.444905      725.49151    
   3667000   308.07915      0.015531399    9.3691946      764.35285     -26.169232      738.18362    
   3668000   294.34975      0.015531399    12.550687      730.28986     -29.733772      700.55608    
   3669000   294.83869      0.015531399    6.5189193      731.50293     -24.932698      706.57023    
   3670000   306.53971      0.015531399    8.6873803      760.53348     -23.593186      736.94029    
   3671000   319.89297      0.015531399    9.423343       793.66329     -25.907012      767.75627    
   3672000   292.12693      0.015531399    7.9725691      724.77496     -30.631723      694.14323    
   3673000   295.95969      0.015531399    8.4968738      734.28414     -29.196027      705.08811    
   3674000   319.44647      0.015531399    9.5008865      792.55551     -29.475149      763.08036    
   3675000   298.49257      0.015531399    7.5714093      740.56828     -26.654429      713.91386    
   3676000   293.30234      0.015531399    7.6649072      727.6912      -26.035056      701.65614    
   3677000   292.00305      0.015531399    7.5124774      724.46761     -24.534697      699.93291    
   3678000   309.86966      0.015531399    9.2528335      768.79516     -34.346637      734.44852    
   3679000   296.72095      0.015531399    6.0297532      736.17286     -31.029935      705.14292    
   3680000   299.29549      0.015531399    8.3193183      742.56037     -25.060406      717.49997    
   3681000   306.85073      0.015531399    7.7826661      761.30512     -23.97244       737.33268    
   3682000   308.34877      0.015531399    8.2658945      765.02181     -28.977089      736.04472    
   3683000   302.00421      0.015531399    10.52325       749.28076     -25.306204      723.97456    
   3684000   296.30049      0.015531399    7.8359778      735.12969     -27.509182      707.62051    
   3685000   306.91933      0.015531399    7.9905445      761.47533     -29.596238      731.87909    
   3686000   306.45716      0.015531399    9.5317519      760.32866     -26.553073      733.77559    
   3687000   305.73451      0.015531399    9.0260415      758.53574     -24.234495      734.30125    
   3688000   290.12058      0.015531399    8.600873       719.79715     -24.545274      695.25187    
   3689000   300.83986      0.015531399    10.714135      746.39197     -30.016871      716.3751     
   3690000   305.29718      0.015531399    7.2740133      757.45073     -26.757037      730.69369    
   3691000   301.23357      0.015531399    5.3445735      747.36878     -27.02271       720.34607    
   3692000   296.19856      0.015531399    10.261962      734.87678     -22.926792      711.94999    
   3693000   307.62948      0.015531399    8.3728335      763.23721     -25.123048      738.11416    
   3694000   294.25575      0.015531399    0.73773085     730.05664     -25.01379       705.04285    
   3695000   290.53136      0.015531399    11.618924      720.81632     -24.539765      696.27655    
   3696000   309.36189      0.015531399    10.511814      767.53537     -23.564015      743.97135    
   3697000   304.81079      0.015531399   -0.24634147     756.24397     -27.638349      728.60562    
   3698000   292.67686      0.015531399    10.453361      726.13935     -27.383823      698.75553    
   3699000   300.10244      0.015531399    17.801047      744.56243     -23.959481      720.60295    
   3700000   309.15781      0.015531399    18.418518      767.02904     -25.287354      741.74169    
   3701000   309.42226      0.015531399   -1.2343371      767.68515     -26.672642      741.01251    
   3702000   298.46946      0.015531399   -1.9948269      740.51097     -24.714083      715.79689    
   3703000   298.36549      0.015531399    8.8965854      740.25299     -24.374861      715.87813    
   3704000   307.39511      0.015531399    15.288079      762.65575     -22.145731      740.51002    
   3705000   306.9153       0.015531399    3.2118618      761.46533     -20.576719      740.88861    
   3706000   281.60673      0.015531399   -2.06472        698.67405     -21.557405      677.11664    
   3707000   297.14782      0.015531399    10.534331      737.23194     -25.787218      711.44472    
   3708000   308.38459      0.015531399    9.7582772      765.11066     -24.416147      740.69451    
   3709000   301.52852      0.015531399    10.31046       748.10057     -26.760946      721.33962    
   3710000   310.13411      0.015531399   -6.3872712      769.45127     -27.522938      741.92834    
   3711000   299.91098      0.015531399    4.68439        744.0874      -28.918122      715.16928    
   3712000   289.38865      0.015531399    14.614274      717.98121     -31.509209      686.472      
   3713000   299.22517      0.015531399    9.7778662      742.3859      -32.575686      709.81021    
   3714000   309.60796      0.015531399    10.775813      768.14587     -30.208556      737.93732    
   3715000   301.14604      0.015531399    7.5223907      747.15163     -32.151967      714.99966    
   3716000   293.28644      0.015531399    7.8163211      727.65174     -31.258172      696.39357    
   3717000   305.72028      0.015531399    9.7121146      758.50044     -26.425567      732.07487    
   3718000   294.572        0.015531399    8.2874131      730.84125     -26.661694      704.17956    
   3719000   295.35659      0.015531399    8.4377439      732.78784     -25.614085      707.17376    
   3720000   301.32127      0.015531399    5.7719624      747.58639     -25.756755      721.82963    
   3721000   297.93558      0.015531399    8.0578207      739.18638     -21.35115       717.83523    
   3722000   306.98297      0.015531399    8.5735784      761.63321     -26.400691      735.23252    
   3723000   303.18544      0.015531399    8.5629433      752.21142     -30.875597      721.33582    
   3724000   281.74094      0.015531399    8.7700515      699.00705     -30.139905      668.86715    
   3725000   299.61957      0.015531399    8.7311701      743.36441     -28.59735       714.76706    
   3726000   315.13569      0.015531399    9.2044778      781.86032     -28.484216      753.37611    
   3727000   314.2951       0.015531399    7.3025013      779.77481     -27.91606       751.85875    
   3728000   300.62905      0.015531399    8.1189586      745.86897     -24.113293      721.75567    
   3729000   287.55203      0.015531399    8.4967545      713.42452     -22.356476      691.06804    
   3730000   306.05633      0.015531399    8.7067881      759.33419     -21.92548       737.40871    
   3731000   308.60962      0.015531399    8.9596098      765.66897     -23.077987      742.59098    
   3732000   285.85507      0.015531399    8.705805       709.2143      -25.697959      683.51634    
   3733000   294.20267      0.015531399    9.848313       729.92493     -22.836095      707.08883    
   3734000   307.01577      0.015531399    8.5763243      761.71458     -24.885701      736.82888    
   3735000   308.33534      0.015531399    8.7480211      764.98849     -32.317131      732.67136    
   3736000   290.55713      0.015531399    8.0627037      720.88025     -25.659073      695.22117    
   3737000   284.94898      0.015531399    8.6923554      706.96627     -24.098846      682.86743    
   3738000   309.12335      0.015531399    8.0983131      766.94355     -23.944511      742.99904    
   3739000   311.38956      0.015531399    6.1207075      772.56607     -25.798845      746.76723    
   3740000   305.5349       0.015531399    3.6652028      758.0405      -30.091411      727.94909    
   3741000   286.84199      0.015531399    7.8593503      711.66288     -33.984139      677.67874    
   3742000   293.83123      0.015531399    8.432053       729.00338     -34.825633      694.17775    
   3743000   304.69611      0.015531399    8.4230361      755.95945     -26.666041      729.29341    
   3744000   306.23454      0.015531399    8.0411982      759.77633     -29.311389      730.46494    
   3745000   291.10421      0.015531399    8.2120839      722.23756     -26.310111      695.92745    
   3746000   304.34084      0.015531399    8.37865        755.07801     -24.434066      730.64394    
   3747000   298.54505      0.015531399    12.66507       740.69851     -26.363606      714.3349     
   3748000   282.09082      0.015531399    7.4799252      699.87511     -24.624229      675.25088    
   3749000   294.06471      0.015531399    5.341144       729.58265     -23.909994      705.67265    
   3750000   317.35667      0.015531399    7.9082671      787.37065     -24.388743      762.98191    
   3751000   302.45447      0.015531399    8.366959       750.39788     -23.296503      727.10138    
   3752000   301.42397      0.015531399    10.02993       747.84118     -24.947367      722.89381    
   3753000   309.6024       0.015531399    8.9535492      768.13208     -27.659421      740.47266    
   3754000   287.36279      0.015531399    6.9639142      712.95501     -31.849355      681.10565    
   3755000   302.76828      0.015531399    5.0855813      751.17646     -27.979692      723.19676    
   3756000   314.45187      0.015531399    8.4942715      780.16377     -33.2394        746.92437    
   3757000   295.18354      0.015531399    10.082809      732.35849     -29.457129      702.90136    
   3758000   291.25916      0.015531399    8.8844313      722.62201     -30.260882      692.36113    
   3759000   301.03287      0.015531399    7.618937       746.87085     -30.081762      716.78908    
   3760000   302.82224      0.015531399    7.3403494      751.31032     -30.266966      721.04335    
   3761000   295.43746      0.015531399    7.6709418      732.98849     -33.654667      699.33382    
   3762000   296.60391      0.015531399    13.33638       735.88248     -34.034601      701.84788    
   3763000   289.86167      0.015531399    6.170385       719.1548      -33.091411      686.06339    
   3764000   306.45172      0.015531399    4.3237469      760.31516     -32.644131      727.67103    
   3765000   293.43507      0.015531399    7.159307       728.02049     -33.125109      694.89538    
   3766000   284.89734      0.015531399    18.777936      706.83815     -30.841465      675.99669    
   3767000   310.02851      0.015531399    4.9287357      769.18929     -30.118751      739.07054    
   3768000   295.73254      0.015531399   -2.2617749      733.7206      -30.197871      703.52273    
   3769000   287.7998       0.015531399   -4.3490388      714.03923     -30.229602      683.80963    
   3770000   310.37215      0.015531399    7.0725018      770.04185     -29.449779      740.59207    
   3771000   305.49815      0.015531399    13.80473       757.94933     -28.628022      729.3213     
   3772000   292.32809      0.015531399    9.1804435      725.27404     -24.564901      700.70914    
   3773000   300.76148      0.015531399    1.3698594      746.19753     -27.061998      719.13553    
   3774000   310.95448      0.015531399    13.472029      771.48664     -24.631366      746.85527    
   3775000   293.26399      0.015531399    14.093781      727.59604     -25.368288      702.22775    
   3776000   288.87312      0.015531399    7.153451       716.70216     -25.976712      690.72545    
   3777000   302.17231      0.015531399    4.8382057      749.69783     -27.971825      721.72601    
   3778000   304.14056      0.015531399    14.70669       754.58111     -35.692888      718.88822    
   3779000   289.55497      0.015531399    5.6560135      718.39385     -25.97029       692.42356    
   3780000   283.94095      0.015531399    1.9031544      704.46533     -32.959262      671.50607    
   3781000   305.75552      0.015531399    5.9500818      758.58786     -33.794956      724.79291    
   3782000   312.25572      0.015531399    16.738267      774.71506     -29.258424      745.45663    
   3783000   298.58759      0.015531399    7.5615752      740.80405     -30.259316      710.54473    
   3784000   290.80435      0.015531399    7.861146       721.49362     -27.096905      694.39671    
   3785000   304.13687      0.015531399    8.3119898      754.57196     -31.542909      723.02905    
   3786000   307.47573      0.015531399    9.4755771      762.85577     -33.129002      729.72677    
   3787000   294.70141      0.015531399    8.5478755      731.16232     -35.913015      695.2493     
   3788000   287.29835      0.015531399    5.779732       712.79512     -32.059245      680.73588    
   3789000   309.07572      0.015531399    3.2072667      766.82538     -29.974676      736.85071    
   3790000   313.02536      0.015531399    7.2241088      776.62455     -28.410172      748.21437    
   3791000   298.99204      0.015531399    12.504773      741.8075      -27.545259      714.26225    
   3792000   294.07986      0.015531399    9.5392257      729.62024     -22.786421      706.83382    
   3793000   314.70264      0.015531399    3.6848168      780.78594     -23.900458      756.88548    
   3794000   307.67692      0.015531399    8.0022383      763.35493     -31.295911      732.05902    
   3795000   288.61113      0.015531399    10.055766      716.05218     -27.308053      688.74413    
   3796000   300.72931      0.015531399    1.9674727      746.11771     -30.657074      715.46064    
   3797000   309.35899      0.015531399    9.0408585      767.52819     -30.427916      737.10027    
   3798000   285.69395      0.015531399    8.1630005      708.81456     -29.188213      679.62635    
   3799000   308.50571      0.015531399    6.1715004      765.41117     -26.865381      738.54579    
   3800000   313.42502      0.015531399    10.940049      777.6161      -31.66366       745.95244    
   3801000   293.90701      0.015531399    8.9195758      729.19139     -30.391781      698.7996     
   3802000   286.49418      0.015531399    9.5730156      710.79996     -27.398229      683.40173    
   3803000   290.04032      0.015531399    7.8527792      719.59802     -29.445774      690.15225    
   3804000   312.73889      0.015531399    8.5805618      775.91382     -29.969339      745.94448    
   3805000   308.54298      0.015531399    9.5403701      765.50363     -32.242004      733.26163    
   3806000   289.43714      0.015531399    11.07748       718.10151     -28.165642      689.93587    
   3807000   291.57495      0.015531399    7.7593075      723.40548     -28.954446      694.45104    
   3808000   312.94621      0.015531399    6.7067344      776.42818     -27.509842      748.91833    
   3809000   316.78924      0.015531399    8.6923575      785.96284     -27.049553      758.91329    
   3810000   310.68026      0.015531399    9.529659       770.80629     -31.004473      739.80182    
   3811000   290.22326      0.015531399    7.6333933      720.05191     -31.850189      688.20173    
   3812000   307.64181      0.015531399    5.8556246      763.26782     -29.840191      733.42762    
   3813000   301.61618      0.015531399    9.4871448      748.31806     -30.445698      717.87236    
   3814000   290.1396       0.015531399    8.4704179      719.84436     -27.610371      692.23399    
   3815000   304.9798       0.015531399    5.6773839      756.66329     -30.828495      725.8348     
   3816000   310.20336      0.015531399    9.5112701      769.62309     -26.563028      743.06007    
   3817000   291.63655      0.015531399    7.1745748      723.55832     -30.846238      692.71208    
   3818000   298.8934       0.015531399    7.2008008      741.56277     -28.864803      712.69797    
   3819000   319.91769      0.015531399    8.7579635      793.72462     -28.219421      765.5052     
   3820000   310.61157      0.015531399    12.277418      770.63586     -33.162954      737.47291    
   3821000   297.60681      0.015531399    7.7628453      738.3707      -30.355841      708.01486    
   3822000   295.35933      0.015531399    8.738435       732.79464     -31.816269      700.97837    
   3823000   298.04956      0.015531399    10.918291      739.46918     -32.716692      706.75249    
   3824000   315.20946      0.015531399    8.9340126      782.04335     -31.421496      750.62186    
   3825000   299.97658      0.015531399    7.4036014      744.25016     -21.915708      722.33445    
   3826000   300.98167      0.015531399    7.396986       746.74382     -29.04138       717.70244    
   3827000   287.83157      0.015531399    9.2901123      714.11806     -31.547521      682.57054    
   3828000   294.27792      0.015531399    10.184589      730.11162     -30.820155      699.29147    
   3829000   301.00937      0.015531399    8.3596475      746.81256     -29.142316      717.67024    
   3830000   298.23624      0.015531399    8.4345751      739.93232     -32.726337      707.20599    
   3831000   304.09954      0.015531399    13.764544      754.47933     -30.989979      723.48935    
   3832000   307.84522      0.015531399    8.6185277      763.77247     -26.549927      737.22254    
   3833000   292.00475      0.015531399    6.4416457      724.47183     -26.508109      697.96372    
   3834000   297.63175      0.015531399    11.355622      738.43257     -26.452079      711.98049    
   3835000   306.72728      0.015531399    6.2703352      760.99884     -26.081027      734.91781    
   3836000   300.81309      0.015531399    3.2716566      746.32556     -33.610029      712.71553    
   3837000   302.09552      0.015531399    5.9014119      749.50731     -29.242355      720.26496    
   3838000   295.74882      0.015531399    8.0596139      733.76098     -34.497037      699.26394    
   3839000   299.52894      0.015531399    9.4471189      743.13956     -30.021611      713.11795    
   3840000   305.54009      0.015531399    9.1795788      758.05338     -27.126122      730.92725    
   3841000   309.18622      0.015531399    7.3099646      767.09953     -27.413677      739.68586    
   3842000   287.67356      0.015531399    9.0517361      713.72604     -24.318586      689.40746    
   3843000   299.97305      0.015531399    7.2198203      744.24141     -22.820611      721.4208     
   3844000   306.66877      0.015531399    11.05621       760.85366     -25.253147      735.60051    
   3845000   300.75161      0.015531399    7.9637829      746.17302     -24.733941      721.43908    
   3846000   307.63755      0.015531399    7.6809978      763.25724     -22.677224      740.58002    
   3847000   317.69536      0.015531399    11.807122      788.21094     -21.129169      767.08177    
   3848000   301.29974      0.015531399    8.9546254      747.53295     -22.48683       725.04612    
   3849000   302.94313      0.015531399    8.2724074      751.61026     -25.247969      726.36229    
   3850000   296.14324      0.015531399    5.7291575      734.73953     -26.637501      708.10203    
   3851000   311.16937      0.015531399    10.171539      772.01977     -26.500467      745.51931    
   3852000   294.07728      0.015531399    8.6966731      729.61383     -27.976883      701.63695    
   3853000   297.90899      0.015531399    8.0652326      739.12041     -25.996255      713.12415    
   3854000   298.8912       0.015531399    10.617535      741.5573      -22.709191      718.8481     
   3855000   305.23093      0.015531399    8.5663296      757.28634     -25.829425      731.45691    
   3856000   305.90286      0.015531399    6.8265437      758.95344     -25.510033      733.4434     
   3857000   305.68988      0.015531399    7.9509859      758.42502     -22.606821      735.8182     
   3858000   317.66838      0.015531399    10.645293      788.144       -25.380642      762.76335    
   3859000   292.98943      0.015531399    8.1514207      726.91485     -24.587986      702.32686    
   3860000   288.32744      0.015531399    8.3926236      715.34833     -29.56774       685.78059    
   3861000   305.75795      0.015531399    8.4595373      758.5939      -25.868501      732.7254     
   3862000   310.50632      0.015531399    12.556269      770.37475     -29.455038      740.91971    
   3863000   287.00904      0.015531399    9.385803       712.07734     -31.370037      680.7073     
   3864000   297.33636      0.015531399    7.5874686      737.69971     -28.282724      709.41698    
   3865000   308.45116      0.015531399    7.0740586      765.27583     -28.742137      736.53369    
   3866000   316.37729      0.015531399    10.372523      784.94079     -29.079915      755.86087    
   3867000   292.56919      0.015531399    12.211941      725.87222     -29.668781      696.20344    
   3868000   290.14825      0.015531399    6.7969693      719.8658      -30.631743      689.23405    
   3869000   296.00053      0.015531399    7.4586185      734.38548     -28.695189      705.69029    
   3870000   308.42161      0.015531399    4.9111127      765.20251     -25.54043       739.66208    
   3871000   307.52611      0.015531399    8.6421996      762.98075     -24.195626      738.78512    
   3872000   286.19419      0.015531399    8.0451154      710.05567     -27.76983       682.28584    
   3873000   313.90242      0.015531399    9.1991999      778.80055     -24.23182       754.56873    
   3874000   292.89357      0.015531399    8.4073984      726.67702     -27.984813      698.6922     
   3875000   293.8089       0.015531399    10.172271      728.94798     -25.356135      703.59184    
   3876000   303.73165      0.015531399    8.5920411      753.56659     -27.222393      726.3442     
   3877000   310.82851      0.015531399    7.3323541      771.17409     -24.887337      746.28676    
   3878000   299.10253      0.015531399    5.6288374      742.08163     -27.748963      714.33267    
   3879000   291.98491      0.015531399    10.6482        724.4226      -25.814655      698.60795    
   3880000   307.30936      0.015531399    8.4911217      762.44299     -24.973324      737.46967    
   3881000   295.75873      0.015531399    6.5209972      733.78557     -26.190772      707.5948     
   3882000   295.93288      0.015531399    9.3284678      734.21762     -25.557438      708.66019    
   3883000   298.7647       0.015531399    9.0632737      741.24345     -25.356051      715.8874     
   3884000   299.86356      0.015531399    7.775858       743.96976     -26.338675      717.63109    
   3885000   309.48845      0.015531399    7.7013459      767.84939     -25.525667      742.32372    
   3886000   293.84939      0.015531399    8.1407398      729.04844     -24.723594      704.32485    
   3887000   307.15349      0.015531399    11.779068      762.05628     -23.722654      738.33362    
   3888000   311.82838      0.015531399    10.752384      773.6548      -25.633061      748.02174    
   3889000   297.1185       0.015531399    3.9801998      737.15918     -29.101873      708.05731    
   3890000   295.12709      0.015531399    8.585158       732.21844     -30.730616      701.48782    
   3891000   292.85649      0.015531399    11.264362      726.58503     -27.342056      699.24297    
   3892000   303.3199       0.015531399    3.0483293      752.54503     -27.271874      725.27316    
   3893000   291.92057      0.015531399    4.9541373      724.26297     -23.803123      700.45985    
   3894000   299.72881      0.015531399    11.291604      743.63544     -23.310832      720.32461    
   3895000   298.91803      0.015531399    9.8302761      741.62388     -27.969111      713.65477    
   3896000   303.76213      0.015531399    5.2164919      753.64223     -24.483788      729.15844    
   3897000   294.81278      0.015531399    8.0886122      731.43864     -25.696762      705.74188    
   3898000   309.44907      0.015531399    8.7155252      767.75168     -25.369733      742.38194    
   3899000   303.20559      0.015531399    7.0528841      752.26143     -25.687627      726.57381    
   3900000   287.42709      0.015531399    9.1454057      713.11454     -26.234103      686.88044    
   3901000   306.93381      0.015531399    12.232299      761.51125     -29.533137      731.97811    
   3902000   302.48735      0.015531399    5.7840393      750.47947     -29.092399      721.38707    
   3903000   294.35586      0.015531399    7.7756089      730.305       -29.581434      700.72357    
   3904000   297.37185      0.015531399    8.2680567      737.78776     -30.918621      706.86914    
   3905000   317.84137      0.015531399    8.3977458      788.57321     -30.368146      758.20506    
   3906000   302.3111       0.015531399    8.5463604      750.04218     -32.444296      717.59788    
   3907000   288.87748      0.015531399    7.4314759      716.71299     -32.703661      684.00933    
   3908000   290.36027      0.015531399    8.1360274      720.39184     -27.13278       693.25906    
   3909000   305.57114      0.015531399    7.5458473      758.13043     -32.49346       725.63697    
   3910000   300.78097      0.015531399    8.3129572      746.24587     -33.314246      712.93162    
   3911000   302.47394      0.015531399    10.323993      750.44617     -35.265295      715.18088    
   3912000   291.63643      0.015531399    8.7701234      723.55802     -28.088788      695.46923    
   3913000   299.07423      0.015531399    7.7798892      742.0114      -31.495531      710.51587    
   3914000   300.95271      0.015531399    9.0572343      746.67196     -29.161045      717.51091    
   3915000   302.91572      0.015531399    9.9745646      751.54225     -23.972671      727.56958    
   3916000   299.3719       0.015531399    7.9504073      742.74994     -26.036362      716.71358    
   3917000   304.11033      0.015531399    6.0622123      754.5061      -24.99871       729.50739    
   3918000   299.98758      0.015531399    7.0397817      744.27745     -24.700585      719.57686    
   3919000   303.35925      0.015531399    9.7971734      752.64267     -28.635971      724.0067     
   3920000   291.31623      0.015531399    6.9469806      722.76359     -24.889809      697.87379    
   3921000   317.21254      0.015531399    7.687445       787.01305     -29.585589      757.42746    
   3922000   300.70456      0.015531399    8.3975729      746.05631     -26.417592      719.63871    
   3923000   307.05352      0.015531399    9.2195101      761.80826     -25.782352      736.0259     
   3924000   305.44549      0.015531399    8.8635516      757.81869     -22.279179      735.53951    
   3925000   282.64758      0.015531399    7.6423706      701.25643     -22.509249      678.74718    
   3926000   306.17467      0.015531399    8.6097693      759.62779     -22.863575      736.76421    
   3927000   295.18367      0.015531399    8.7590876      732.35882     -23.670416      708.68841    
   3928000   310.02303      0.015531399    8.4426617      769.17568     -24.547758      744.62793    
   3929000   304.6628       0.015531399    7.957534       755.8768      -22.933138      732.94367    
   3930000   301.22441      0.015531399    1.6910817      747.34608     -27.68896       719.65712    
   3931000   308.39705      0.015531399    10.69795       765.14157     -24.458134      740.68344    
   3932000   298.20325      0.015531399    7.6621975      739.85047     -25.828334      714.02214    
   3933000   280.40975      0.015531399    7.5158234      695.70432     -25.842586      669.86173    
   3934000   305.86507      0.015531399    9.0168297      758.85968     -25.193535      733.66614    
   3935000   297.54568      0.015531399    6.6948718      738.21902     -25.624489      712.59453    
   3936000   289.73829      0.015531399    6.7231062      718.84868     -30.496829      688.35185    
   3937000   297.60041      0.015531399    9.2577854      738.35481     -26.515814      711.83899    
   3938000   299.68917      0.015531399    8.6809173      743.53708     -27.782245      715.75484    
   3939000   294.75539      0.015531399    9.1897323      731.29625     -24.92683       706.36942    
   3940000   303.18502      0.015531399    11.398479      752.21039     -24.32597       727.88442    
   3941000   297.53012      0.015531399    8.9321491      738.18043     -23.33731       714.84312    
   3942000   297.38786      0.015531399    7.1786641      737.82747     -25.970443      711.85703    
   3943000   295.58159      0.015531399    7.5531637      733.34607     -25.381919      707.96415    
   3944000   304.25337      0.015531399    9.1192838      754.86101     -21.65677       733.20424    
   3945000   294.59608      0.015531399    1.8951832      730.90101     -22.309434      708.59157    
   3946000   302.04875      0.015531399    10.140765      749.39128     -19.549081      729.8422     
   3947000   305.01545      0.015531399    9.3819183      756.75174     -18.269436      738.4823     
   3948000   307.96197      0.015531399    9.6470068      764.06213     -19.287426      744.7747     
   3949000   288.24502      0.015531399    5.589922       715.14383     -19.989916      695.15391    
   3950000   297.21744      0.015531399    9.9980777      737.40467     -20.944227      716.46044    
   3951000   313.84184      0.015531399    8.762508       778.65026     -22.920482      755.72978    
   3952000   311.894        0.015531399    6.9306953      773.8176      -25.521712      748.29589    
   3953000   290.62965      0.015531399    7.5642106      721.06018     -21.049255      700.01092    
   3954000   293.71281      0.015531399    10.45439       728.70957     -21.614771      707.0948     
   3955000   312.83429      0.015531399    8.0049764      776.15049     -21.512054      754.63844    
   3956000   300.94507      0.015531399    3.9567211      746.65301     -23.299803      723.35321    
   3957000   292.52749      0.015531399    8.4183778      725.76877     -21.651766      704.117      
   3958000   297.28447      0.015531399    11.305761      737.57096     -19.821486      717.74947    
   3959000   308.14982      0.015531399    8.7255517      764.5282      -18.934148      745.59405    
   3960000   309.18669      0.015531399    8.2300606      767.10069     -22.067974      745.03272    
   3961000   285.11758      0.015531399    8.2668467      707.38458     -21.700049      685.68453    
   3962000   297.16095      0.015531399    8.213271       737.26451     -22.982815      714.28169    
   3963000   308.95979      0.015531399    7.75117        766.53776     -20.021194      746.51657    
   3964000   303.25526      0.015531399    10.966492      752.38467     -22.951084      729.43358    
   3965000   291.45222      0.015531399    8.8991292      723.101       -20.177129      702.92387    
   3966000   295.17177      0.015531399    8.677395       732.32931     -23.601123      708.72819    
   3967000   312.74826      0.015531399    8.7221564      775.93705     -19.175782      756.76127    
   3968000   311.51807      0.015531399    9.7218722      772.88491     -18.4391        754.44581    
   3969000   289.54226      0.015531399    7.3458252      718.36232     -21.345953      697.01637    
   3970000   300.84578      0.015531399    8.4377615      746.40667     -23.737861      722.66881    
   3971000   297.00228      0.015531399    12.011654      736.87085     -25.948925      710.92192    
   3972000   297.39024      0.015531399    8.5370533      737.83339     -20.73271       717.10068    
   3973000   300.25145      0.015531399    4.470815       744.93212     -24.868542      720.06358    
   3974000   310.58036      0.015531399    9.5828378      770.55844     -23.423069      747.13537    
   3975000   286.89258      0.015531399    19.235274      711.7884      -22.719489      689.06891    
   3976000   296.40301      0.015531399    9.3055903      735.38404     -20.830609      714.55343    
   3977000   304.25147      0.015531399    4.4673794      754.85629     -22.704513      732.15178    
   3978000   303.86681      0.015531399    14.146852      753.90194     -23.885527      730.01641    
   3979000   290.37004      0.015531399    6.1385699      720.41609     -24.739074      695.67701    
   3980000   299.06366      0.015531399    5.945141       741.98518     -25.160412      716.82476    
   3981000   313.84314      0.015531399    2.1532035      778.65349     -24.648821      754.00467    
   3982000   310.97632      0.015531399    21.809569      771.54081     -25.499196      746.04162    
   3983000   292.46523      0.015531399    9.9146167      725.61429     -22.227615      703.38668    
   3984000   298.69788      0.015531399   -2.6507473      741.07768     -21.748766      719.32891    
   3985000   302.56349      0.015531399    8.6740521      750.66835     -22.666561      728.00179    
   3986000   290.52268      0.015531399    3.7879207      720.79477     -22.980771      697.814      
   3987000   294.78012      0.015531399   -2.9341316      731.35759     -24.069546      707.28805    
   3988000   313.05034      0.015531399    13.828136      776.68653     -24.442585      752.24394    
   3989000   292.40016      0.015531399    7.2728999      725.45285     -25.186165      700.26668    
   3990000   292.03676      0.015531399    6.0208103      724.55126     -26.231013      698.32025    
   3991000   312.0347       0.015531399    8.0497285      774.16669     -29.213533      744.95316    
   3992000   302.50091      0.015531399    11.091352      750.5131      -26.246592      724.26651    
   3993000   300.83663      0.015531399    15.379642      746.38397     -32.118521      714.26545    
   3994000   295.72893      0.015531399    5.5671503      733.71163     -28.263448      705.44818    
   3995000   299.32097      0.015531399    1.8924024      742.62357     -26.054329      716.56924    
   3996000   298.49311      0.015531399    14.012497      740.56962     -17.461874      723.10775    
   3997000   284.65373      0.015531399    6.2226658      706.23374     -20.916743      685.317      
   3998000   309.56201      0.015531399    5.9882132      768.03187     -20.43974       747.59214    
   3999000   314.13367      0.015531399    15.008448      779.37429     -20.630375      758.74392    
   4000000   288.9995       0.015531399    17.542986      717.01573     -15.990274      701.02545    
Loop time of 10618.6 on 1 procs for 4000000 steps with 1500 atoms

Performance: 8.137 ns/day, 2.950 hours/ns, 376.697 timesteps/s, 565.046 katom-step/s
99.3% CPU use with 1 MPI tasks x 1 OpenMP threads

MPI task timing breakdown:
Section |  min time  |  avg time  |  max time  |%varavg| %total
---------------------------------------------------------------
Pair    | 713.5      | 713.5      | 713.5      |   0.0 |  6.72
Bond    | 182.01     | 182.01     | 182.01     |   0.0 |  1.71
Kspace  | 8874.2     | 8874.2     | 8874.2     |   0.0 | 83.57
Neigh   | 0.040164   | 0.040164   | 0.040164   |   0.0 |  0.00
Comm    | 26.9       | 26.9       | 26.9       |   0.0 |  0.25
Output  | 0.12676    | 0.12676    | 0.12676    |   0.0 |  0.00
Modify  | 803.19     | 803.19     | 803.19     |   0.0 |  7.56
Other   |            | 18.68      |            |       |  0.18

Nlocal:           1500 ave        1500 max        1500 min
Histogram: 1 0 0 0 0 0 0 0 0 0
Nghost:           1099 ave        1099 max        1099 min
Histogram: 1 0 0 0 0 0 0 0 0 0
Neighs:              0 ave           0 max           0 min
Histogram: 1 0 0 0 0 0 0 0 0 0

Total # of neighbors = 0
Ave neighs/atom = 0
Ave special neighs/atom = 2
Neighbor list builds = 16705
Dangerous builds = 0
write_data	last_conf.data pair ij
System init for write_data ...
PPPM initialization ...
  using 12-bit tables for long-range coulomb (src/kspace.cpp:342)
  G vector (1/distance) = 0.16213167
  grid = 27 27 27
  stencil order = 5
  estimated absolute RMS force accuracy = 0.038078778
  estimated relative force accuracy = 0.00011467311
  using double precision FFTW3
  3d grid and FFT values/proc = 32768 19683
Generated 1 of 1 mixed pair_coeff terms from arithmetic mixing rule
Total wall time: 2:56:58
