LAMMPS (29 Aug 2024 - Update 1)
  using 1 OpenMP thread(s) per MPI task
package gpu 1 gpuID 0
# GCMC for CO2 molecular fluid, rigid/small/nvt dynamics
# Rigid CO2 TraPPE model
# [Potoff and J.I. Siepmann, Vapor-liquid equilibria of
# mixtures containing alkanes, carbon dioxide and
# nitrogen AIChE J., 47,1676-1682 (2001)].

# global model settings

units           real
atom_style      full
boundary        p p p
pair_style      lj/cut/coul/long  12
pair_modify     mix arithmetic shift yes
kspace_style    pppm 1.0e-4
bond_style      harmonic
angle_style     harmonic
neigh_modify    one 4000

# box, start molecules on simple cubic lattice
region          mbox block 0 ${lbox} 0 ${lbox} 0 ${lbox} units box
region          mbox block 0 158 0 ${lbox} 0 ${lbox} units box
region          mbox block 0 158 0 158 0 ${lbox} units box
region          mbox block 0 158 0 158 0 158 units box
create_box      2 mbox                                       bond/types 1                                angle/types 1                               extra/bond/per/atom 2                       extra/angle/per/atom 1                      extra/special/per/atom 2
Created orthogonal box = (0 0 0) to (158 158 158)
  1 by 1 by 1 MPI processor grid
molecule        co2mol ../CO2.txt
Read molecule template co2mol:
# CO2 molecule file. TraPPE model.
  1 molecules
  0 fragments
  3 atoms with max type 2
  2 bonds with max type 1
  1 angles with max type 1
  0 dihedrals with max type 0
  0 impropers with max type 0
create_atoms   	0 random ${nmols} 34578 mbox mol co2mol 464563 overlap 1.2
create_atoms   	0 random 500 34578 mbox mol co2mol 464563 overlap 1.2
Created 1500 atoms
  using lattice units in orthogonal box = (0 0 0) to (158 158 158)
  create_atoms CPU = 0.013 seconds

# rigid CO2 TraPPE model

pair_coeff      1   1  0.053649   2.800
pair_coeff      2   2  0.156973   3.050
bond_coeff      1       0       1.16
angle_coeff     1       0       180

# masses

mass 1 12.0107
mass 2 15.9994

write_data init_conf.data  pair ij
System init for write_data ...
PPPM initialization ...
  using 12-bit tables for long-range coulomb (src/kspace.cpp:342)
  G vector (1/distance) = 0.15674324
  grid = 30 30 30
  stencil order = 5
  estimated absolute RMS force accuracy = 0.037664379
  estimated relative force accuracy = 0.00011342516
  using double precision FFTW3
  3d grid and FFT values/proc = 42875 27000
Generated 1 of 1 mixed pair_coeff terms from arithmetic mixing rule

# MD settings

group           co2 type 1 2
1500 atoms in group co2
velocity       	all create 300 54654
timestep        0.25

# rigid constraints with thermostat
fix             myrigidnvt co2 rigid/nvt molecule temp 300 300 $(100*dt)
fix             myrigidnvt co2 rigid/nvt molecule temp 300 300 25
  500 rigid bodies with 1500 atoms

thermo 1000
thermo_style custom step temp density press ke pe etotal


variable    mvol equal vol
variable    mden equal density
variable	mtmp equal temp
variable    mpre equal press

fix mydat all ave/time 1 4000 4000 v_mtmp v_mden v_mpre file statistics.dat ## every 1ps

run 4000000 ## 1ns

CITE-CITE-CITE-CITE-CITE-CITE-CITE-CITE-CITE-CITE-CITE-CITE-CITE

Your simulation uses code contributions which should be cited:

- GPU package (short-range, long-range and three-body potentials): doi:10.1016/j.cpc.2010.12.021, doi:10.1016/j.cpc.2011.10.012, doi:10.1016/j.cpc.2013.08.002, doi:10.1016/j.commatsci.2014.10.068, doi:10.1016/j.cpc.2016.10.020, doi:10.3233/APC200086

@Article{Brown11,
 author = {W. M. Brown and P. Wang and S. J. Plimpton and A. N. Tharrington},
 title = {Implementing Molecular Dynamics on Hybrid High Performance Computers---Short Range Forces},
 journal = {Comput.\ Phys.\ Commun.},
 year =    2011,
 volume =  182,
 pages =   {898--911},
 doi =     {10.1016/j.cpc.2010.12.021}
}

@Article{Brown12,
 author = {W. M. Brown and A. Kohlmeyer and S. J. Plimpton and A. N. Tharrington},
 title = {Implementing Molecular Dynamics on Hybrid High Performance Computers - Particle-Particle Particle-Mesh},
 journal = {Comput.\ Phys.\ Commun.},
 year =    2012,
 volume =  183,
 doi =     {10.1016/j.cpc.2011.10.012},
 pages =   {449--459}
}

@Article{Brown13,
 author = {W. M. Brown and Y. Masako},
 title = {Implementing Molecular Dynamics on Hybrid High Performance Computers---Three-Body Potentials},
 journal = {Comput.\ Phys.\ Commun.},
 year =    2013,
 volume =  184,
 pages =   {2785--2793},
 doi =     {10.1016/j.cpc.2013.08.002},
}

@Article{Trung15,
 author = {T. D. Nguyen and S. J. Plimpton},
 title = {Accelerating Dissipative Particle Dynamics Simulations for Soft Matter Systems},
 journal = {Comput.\ Mater.\ Sci.},
 year =    2015,
 doi =     {10.1016/j.commatsci.2014.10.068},
 volume =  100,
 pages =   {173--180}
}

@Article{Trung17,
 author = {T. D. Nguyen},
 title = {{GPU}-Accelerated {T}ersoff Potentials for Massively Parallel
    Molecular Dynamics Simulations},
 journal = {Comput.\ Phys.\ Commun.},
 year =    2017,
 doi =     {10.1016/j.cpc.2016.10.020},
 volume =  212,
 pages =   {113--122}
}

@inproceedings{Nikolskiy19,
 author = {V. Nikolskiy and V. Stegailov},
 title = {{GPU} Acceleration of Four-Site Water Models in {LAMMPS}},
 booktitle = {Proceedings of the International Conference on Parallel
    Computing (ParCo 2019), Prague, Czech Republic},
 doi =     {10.3233/APC200086},
 year =    2019
}

CITE-CITE-CITE-CITE-CITE-CITE-CITE-CITE-CITE-CITE-CITE-CITE-CITE

PPPM initialization ...
  using 12-bit tables for long-range coulomb (src/kspace.cpp:342)
  G vector (1/distance) = 0.15674324
  grid = 30 30 30
  stencil order = 5
  estimated absolute RMS force accuracy = 0.037664379
  estimated relative force accuracy = 0.00011342516
  using double precision FFTW3
  3d grid and FFT values/proc = 42875 27000
Generated 1 of 1 mixed pair_coeff terms from arithmetic mixing rule
Per MPI rank memory allocation (min/avg/max) = 11.37 | 11.37 | 11.37 Mbytes
   Step          Temp         Density         Press          KinEng         PotEng         TotEng    
         0   307.69091      0.0092639081   67.455476      763.38962      36846.041      37609.43     
      1000   305.32305      0.0092639081   7.5385423      757.51491     -11.46154       746.05337    
      2000   318.60148      0.0092639081   6.0279531      790.45905     -15.835099      774.62395    
      3000   303.95115      0.0092639081   5.0411733      754.11119     -16.607252      737.50394    
      4000   281.88337      0.0092639081   3.895449       699.36042     -18.836005      680.52442    
      5000   295.70186      0.0092639081   5.0363462      733.64446     -22.603064      711.0414     
      6000   317.56072      0.0092639081   6.7707545      787.87689     -24.804461      763.07243    
      7000   300.22279      0.0092639081   3.0180001      744.86101     -27.733914      717.1271     
      8000   285.57663      0.0092639081   7.6367636      708.52349     -32.084289      676.4392     
      9000   301.7763       0.0092639081   10.572836      748.71533     -29.718379      718.99695    
     10000   314.69841      0.0092639081   5.2279087      780.77543     -36.077436      744.698      
     11000   315.13149      0.0092639081   2.2999446      781.8499      -32.993684      748.85622    
     12000   279.51478      0.0092639081   5.8377241      693.48387     -35.456222      658.02765    
     13000   308.16635      0.0092639081   2.3834018      764.5692      -41.763956      722.80524    
     14000   304.77398      0.0092639081   5.440889       756.15264     -40.328656      715.82398    
     15000   274.17397      0.0092639081   5.7651634      680.23317     -41.219081      639.01409    
     16000   309.37         0.0092639081   2.4980022      767.55551     -44.472944      723.08256    
     17000   308.41091      0.0092639081   5.3902061      765.17597     -44.080959      721.09501    
     18000   298.51374      0.0092639081   2.9027825      740.62082     -45.745799      694.87502    
     19000   291.62227      0.0092639081   4.6922555      723.52289     -50.385452      673.13744    
     20000   309.66882      0.0092639081   10.969367      768.29687     -52.6579        715.63897    
     21000   302.70393      0.0092639081   0.5172695      751.0168      -49.953638      701.06317    
     22000   305.68491      0.0092639081   4.8591871      758.4127      -50.171557      708.24114    
     23000   292.11692      0.0092639081   5.2082915      724.75013     -51.276674      673.47346    
     24000   296.70232      0.0092639081   6.595978       736.12663     -50.615366      685.51127    
     25000   308.73051      0.0092639081   3.2025156      765.9689      -53.825601      712.1433     
     26000   303.76631      0.0092639081   6.2113526      753.65259     -55.493493      698.1591     
     27000   311.3992       0.0092639081   6.8426591      772.59        -56.44287       716.14713    
     28000   316.50535      0.0092639081   6.7508451      785.25851     -59.20034       726.05817    
     29000   288.99729      0.0092639081   5.3273857      717.01024     -62.754678      654.25556    
     30000   290.31305      0.0092639081   5.0377801      720.27468     -61.992499      658.28218    
     31000   291.18375      0.0092639081   6.9046826      722.4349      -61.661442      660.77346    
     32000   310.19705      0.0092639081   5.4320233      769.60743     -60.751083      708.85635    
     33000   300.99025      0.0092639081   4.4919886      746.7651      -63.164467      683.60064    
     34000   288.36598      0.0092639081   5.1536736      715.44395     -69.451976      645.99197    
     35000   300.51369      0.0092639081   6.0506349      745.58275     -74.451299      671.13146    
     36000   318.50066      0.0092639081   6.2473145      790.20892     -70.932194      719.27673    
     37000   301.04555      0.0092639081   11.441189      746.90231     -71.522357      675.37995    
     38000   291.06718      0.0092639081   2.5314878      722.1457      -69.319608      652.82609    
     39000   294.70381      0.0092639081   5.3003289      731.16827     -72.973168      658.1951     
     40000   321.67306      0.0092639081   6.0642815      798.07972     -71.718889      726.36084    
     41000   313.09119      0.0092639081   4.2899763      776.78788     -72.063845      704.72404    
     42000   291.61644      0.0092639081   3.6872622      723.50842     -77.145383      646.36304    
     43000   298.60136      0.0092639081   5.0594731      740.83821     -80.014661      660.82355    
     44000   312.29568      0.0092639081   6.4027377      774.81419     -72.67961       702.13458    
     45000   295.59671      0.0092639081  -1.6712204      733.38359     -75.612258      657.77133    
     46000   290.39323      0.0092639081   4.8234383      720.47362     -77.193047      643.28057    
     47000   297.42012      0.0092639081   4.6962957      737.90753     -76.781616      661.12591    
     48000   300.97045      0.0092639081   5.8070257      746.71597     -80.901642      665.81433    
     49000   314.68585      0.0092639081   5.5049117      780.74427     -80.408996      700.33528    
     50000   295.30779      0.0092639081   5.6676138      732.66676     -82.469326      650.19744    
     51000   297.35221      0.0092639081   3.596369       737.73902     -84.858215      652.8808     
     52000   303.02031      0.0092639081   5.2658786      751.80174     -82.880829      668.92091    
     53000   308.33006      0.0092639081   7.5808571      764.97538     -91.437453      673.53792    
     54000   296.30091      0.0092639081   5.5139607      735.13073     -92.863465      642.26726    
     55000   307.71267      0.0092639081   3.6564645      763.44363     -87.425815      676.01781    
     56000   288.29971      0.0092639081   4.180945       715.27953     -85.416666      629.86286    
     57000   286.67255      0.0092639081   2.7537893      711.2425      -86.098779      625.14372    
     58000   300.18715      0.0092639081   5.9308536      744.77259     -83.48876       661.28383    
     59000   299.82166      0.0092639081   0.0076283187   743.86581     -84.280099      659.58571    
     60000   302.25663      0.0092639081   0.82284633     749.90704     -86.38033       663.52671    
     61000   299.48941      0.0092639081   6.103055       743.04149     -89.604192      653.4373     
     62000   319.46162      0.0092639081   4.4045579      792.5931      -88.835426      703.75767    
     63000   297.23204      0.0092639081   5.0252014      737.44089     -89.194455      648.24643    
     64000   289.88397      0.0092639081   8.4317799      719.21012     -82.913453      636.29666    
     65000   294.72381      0.0092639081   1.9273695      731.2179      -87.045956      644.17195    
     66000   306.20989      0.0092639081   5.8884972      759.71518     -81.76078       677.9544     
     67000   289.95931      0.0092639081   7.4555033      719.39704     -83.668557      635.72848    
     68000   304.94919      0.0092639081  -5.3527866      756.58735     -84.618652      671.9687     
     69000   306.49025      0.0092639081   5.4930916      760.41075     -86.75203       673.65872    
     70000   296.08041      0.0092639081   5.0940972      734.58366     -89.904885      644.67877    
     71000   284.22552      0.0092639081   5.5042876      705.17136     -82.877046      622.29431    
     72000   312.57907      0.0092639081   4.9539022      775.5173      -90.724087      684.79321    
     73000   305.61391      0.0092639081   6.9049102      758.23655     -93.285635      664.95091    
     74000   285.18614      0.0092639081   4.6762945      707.55467     -88.259825      619.29485    
     75000   310.43325      0.0092639081   4.6319117      770.19344     -89.908593      680.28485    
     76000   305.27927      0.0092639081   5.1020964      757.40628     -90.465483      666.9408     
     77000   301.07457      0.0092639081   9.7411554      746.97432     -90.602879      656.37144    
     78000   296.62296      0.0092639081   3.5716374      735.92973     -84.699465      651.23027    
     79000   294.85863      0.0092639081   4.9807224      731.55239     -83.072159      648.48023    
     80000   310.12655      0.0092639081   2.9193677      769.43252     -84.865462      684.56706    
     81000   313.43605      0.0092639081   4.1011119      777.64348     -87.452091      690.19139    
     82000   303.40987      0.0092639081   5.2494995      752.76824     -82.47231       670.29593    
     83000   298.60347      0.0092639081   5.0558096      740.84344     -85.377748      655.46569    
     84000   299.1931       0.0092639081   6.2124855      742.30633     -85.616263      656.69007    
     85000   311.84356      0.0092639081   5.9855173      773.69247     -85.956904      687.73557    
     86000   302.82685      0.0092639081   5.4969076      751.32176     -85.849572      665.47219    
     87000   295.45443      0.0092639081   4.1017259      733.03058     -92.439641      640.59094    
     88000   289.85963      0.0092639081   8.4831002      719.14973     -91.676597      627.47314    
     89000   305.28715      0.0092639081   5.4128756      757.42583     -93.17995       664.24588    
     90000   304.79105      0.0092639081   4.8718253      756.195       -87.591119      668.60388    
     91000   301.61383      0.0092639081   7.5696153      748.31222     -86.296262      662.01595    
     92000   308.27948      0.0092639081   6.5275498      764.84989     -88.356706      676.49318    
     93000   298.3901       0.0092639081  -2.3029952      740.31406     -88.540707      651.77335    
     94000   304.83957      0.0092639081   4.6356127      756.31536     -85.698878      670.61649    
     95000   301.67448      0.0092639081   10.82763       748.46269     -83.676265      664.78643    
     96000   299.37839      0.0092639081   2.9364411      742.76604     -82.869445      659.8966     
     97000   297.62206      0.0092639081   0.28640314     738.40853     -84.713268      653.69526    
     98000   301.35938      0.0092639081   5.5984655      747.68092     -86.823957      660.85696    
     99000   307.09601      0.0092639081   6.420461       761.91366     -89.415701      672.49796    
    100000   292.24836      0.0092639081   0.78656056     725.07624     -87.90316       637.17308    
    101000   293.67326      0.0092639081   1.7498074      728.61145     -88.24853       640.36292    
    102000   306.02508      0.0092639081   6.129269       759.25666     -94.943168      664.31349    
    103000   298.75103      0.0092639081   5.3660562      741.20955     -93.845436      647.36412    
    104000   289.41613      0.0092639081   4.2943666      718.04939     -87.589626      630.45976    
    105000   286.44771      0.0092639081   5.2086511      710.68466     -89.774848      620.90981    
    106000   302.84008      0.0092639081   5.5261335      751.35457     -96.306414      655.04816    
    107000   306.7256       0.0092639081   5.745151       760.99466     -98.227987      662.76667    
    108000   302.84211      0.0092639081   4.760439       751.35962     -92.249396      659.11022    
    109000   287.84022      0.0092639081   2.9064531      714.13953     -92.108376      622.03116    
    110000   302.13923      0.0092639081   5.6713421      749.61575     -93.479107      656.13664    
    111000   303.94531      0.0092639081   4.9898352      754.0967      -88.028376      666.06832    
    112000   304.94557      0.0092639081   4.8635872      756.57837     -88.174305      668.40406    
    113000   310.05463      0.0092639081   2.9201641      769.25409     -90.975538      678.27855    
    114000   308.85651      0.0092639081   2.5193307      766.28151     -85.315266      680.96625    
    115000   292.65676      0.0092639081   4.7959998      726.08948     -82.661714      643.42777    
    116000   300.49912      0.0092639081   5.0281776      745.54661     -87.394954      658.15166    
    117000   305.24206      0.0092639081   3.9029796      757.31397     -85.325429      671.98854    
    118000   296.57169      0.0092639081   5.5127708      735.80254     -86.50504       649.2975     
    119000   309.65461      0.0092639081   3.8071626      768.26163     -79.431916      688.82972    
    120000   298.30943      0.0092639081   0.53139463     740.11393     -92.350308      647.76362    
    121000   303.4053       0.0092639081   5.3431815      752.75692     -90.367598      662.38933    
    122000   299.23115      0.0092639081   5.3158719      742.40073     -89.518008      652.88272    
    123000   294.72926      0.0092639081   4.8329172      731.23141     -91.01595       640.21546    
    124000   302.24785      0.0092639081   4.4411023      749.88525     -89.115557      660.76969    
    125000   298.36665      0.0092639081   4.3021152      740.25588     -92.380564      647.87531    
    126000   309.27897      0.0092639081   2.4127877      767.32965     -89.157378      678.17227    
    127000   297.51037      0.0092639081   4.7995857      738.13142     -86.942582      651.18884    
    128000   296.90467      0.0092639081   3.8828398      736.62868     -89.715935      646.91274    
    129000   295.06959      0.0092639081   3.8343553      732.07577     -88.994411      643.08136    
    130000   294.91197      0.0092639081   12.866163      731.68473     -92.178922      639.50581    
    131000   307.6213       0.0092639081   6.1870949      763.21692     -84.554255      678.66267    
    132000   298.36351      0.0092639081   3.6243666      740.2481      -87.155249      653.09286    
    133000   300.91262      0.0092639081   4.5772491      746.5725      -87.38256       659.18994    
    134000   294.61641      0.0092639081   5.0194913      730.95142     -89.921107      641.03032    
    135000   303.33025      0.0092639081   3.6087389      752.57071     -93.524947      659.04577    
    136000   313.70364      0.0092639081   5.1166168      778.30737     -90.413489      687.89388    
    137000   286.42038      0.0092639081   5.052796       710.61686     -87.973569      622.64329    
    138000   292.5144       0.0092639081   3.4626878      725.73629     -90.69657       635.03972    
    139000   315.73181      0.0092639081   2.7882007      783.33932     -91.836399      691.50292    
    140000   316.45701      0.0092639081   7.0752374      785.13855     -95.856477      689.28208    
    141000   296.46142      0.0092639081   5.6837553      735.52896     -95.40635       640.12261    
    142000   294.67728      0.0092639081   4.7930574      731.10246     -95.190531      635.91193    
    143000   304.47283      0.0092639081   4.9988741      755.40548     -93.743177      661.66231    
    144000   306.66103      0.0092639081   4.6038682      760.83447     -88.610704      672.22377    
    145000   282.47163      0.0092639081   3.6926372      700.81991     -94.895702      605.9242     
    146000   297.10381      0.0092639081   4.0225402      737.12275     -97.173762      639.94899    
    147000   307.62177      0.0092639081   4.9870924      763.2181      -97.428682      665.78942    
    148000   299.53434      0.0092639081   3.5609568      743.15296     -90.656388      652.49658    
    149000   295.14531      0.0092639081   5.1080496      732.26364     -91.023876      641.23977    
    150000   306.91575      0.0092639081   3.8583364      761.46643     -96.921596      664.54484    
    151000   291.03491      0.0092639081   4.8438318      722.06564     -96.941519      625.12412    
    152000   302.48117      0.0092639081   4.3633655      750.46413     -96.8428        653.62133    
    153000   306.60824      0.0092639081   5.3099314      760.7035      -91.981748      668.72175    
    154000   297.74816      0.0092639081   4.0515348      738.7214      -96.213038      642.50836    
    155000   296.00715      0.0092639081   4.53527        734.40189     -104.78525      629.61665    
    156000   300.3319       0.0092639081   4.8139269      745.13173     -96.288305      648.84342    
    157000   307.80145      0.0092639081   4.8369982      763.66389     -94.701488      668.9624     
    158000   311.01941      0.0092639081   4.5243035      771.64773     -100.08811      671.55962    
    159000   287.91128      0.0092639081   4.3912504      714.31583     -93.867716      620.44811    
    160000   299.92908      0.0092639081   7.7653034      744.13231     -101.08277      643.04955    
    161000   302.95473      0.0092639081   4.0089536      751.63902     -98.425563      653.21346    
    162000   311.66062      0.0092639081   3.3684444      773.2386      -95.760793      677.4778     
    163000   297.80777      0.0092639081   2.6257856      738.86928     -94.51614       644.35314    
    164000   294.60246      0.0092639081   9.0170851      730.91682     -93.448587      637.46823    
    165000   300.62643      0.0092639081   6.2189583      745.86247     -91.667574      654.1949     
    166000   316.41518      0.0092639081  -1.7292971      785.03478     -90.471688      694.56309    
    167000   282.99135      0.0092639081  -0.02256089     702.10934     -92.065092      610.04425    
    168000   290.28962      0.0092639081   4.0721456      720.21655     -92.094129      628.12242    
    169000   315.31926      0.0092639081   12.807628      782.31578     -96.60078       685.715      
    170000   307.56926      0.0092639081  -0.70772152     763.0878      -100.95738      662.13043    
    171000   291.52866      0.0092639081  -1.4371329      723.29063     -109.24987      614.04076    
    172000   300.54229      0.0092639081   6.0286224      745.65371     -102.99182      642.66189    
    173000   302.45012      0.0092639081   5.9258436      750.38708     -98.404862      651.98222    
    174000   296.22102      0.0092639081   4.4417557      734.93251     -100.84428      634.08823    
    175000   304.43797      0.0092639081   2.7575272      755.31898     -100.20694      655.11204    
    176000   303.96099      0.0092639081   6.2158338      754.1356      -98.14546       655.99014    
    177000   305.13753      0.0092639081   8.4946697      757.05462     -93.860887      663.19373    
    178000   299.32853      0.0092639081   3.8343201      742.64233     -92.342828      650.29951    
    179000   298.44109      0.0092639081   3.4449537      740.44057     -95.279887      645.16068    
    180000   296.6155       0.0092639081   6.4294774      735.91124     -94.26705       641.64419    
    181000   310.11493      0.0092639081   4.2814406      769.4037      -94.481192      674.92251    
    182000   301.74283      0.0092639081   0.46429002     748.63229     -98.940294      649.69199    
    183000   303.86894      0.0092639081   4.4686203      753.90722     -97.295712      656.61151    
    184000   305.7658       0.0092639081   6.5081126      758.61338     -88.227266      670.38612    
    185000   300.13379      0.0092639081   6.4272413      744.6402      -95.842946      648.79726    
    186000   298.31604      0.0092639081  -2.6658912      740.13032     -92.755802      647.37451    
    187000   296.83525      0.0092639081   4.1402194      736.45643     -93.074392      643.38204    
    188000   302.92378      0.0092639081   5.6874273      751.56226     -98.471402      653.09085    
    189000   297.16747      0.0092639081  -1.1505829      737.28069     -92.503785      644.77691    
    190000   296.52961      0.0092639081  -3.3281602      735.69813     -93.384904      642.31323    
    191000   289.70135      0.0092639081   6.2854285      718.75703     -101.97201      616.78502    
    192000   302.96458      0.0092639081   5.5850374      751.66346     -101.60967      650.05379    
    193000   310.10445      0.0092639081   4.1676188      769.37768     -100.81339      668.56429    
    194000   301.22375      0.0092639081   2.4816605      747.34444     -95.059311      652.28513    
    195000   288.41885      0.0092639081   3.7213611      715.57511     -99.256706      616.3184     
    196000   306.77174      0.0092639081   7.8477561      761.10914     -102.12004      658.9891     
    197000   309.70885      0.0092639081  -0.37896017     768.39618     -95.782689      672.61349    
    198000   291.64825      0.0092639081  -0.205893       723.58734     -97.873685      625.71365    
    199000   299.77941      0.0092639081   6.9042534      743.76097     -94.334381      649.42659    
    200000   307.71725      0.0092639081   5.4451297      763.45498     -94.981353      668.47363    
    201000   302.83547      0.0092639081   3.2575863      751.34315     -90.149265      661.19388    
    202000   308.16134      0.0092639081   4.6717472      764.55677     -97.274194      667.28258    
    203000   304.7591       0.0092639081   4.7233469      756.11572     -99.977031      656.13869    
    204000   303.30124      0.0092639081   8.1925631      752.49873     -94.631837      657.8669     
    205000   288.22852      0.0092639081   8.8183546      715.1029      -90.971826      624.13107    
    206000   295.19592      0.0092639081   7.3520261      732.38922     -95.422887      636.96633    
    207000   297.50555      0.0092639081  -0.1782457      738.11947     -98.893935      639.22553    
    208000   302.07919      0.0092639081   0.65778818     749.4668      -99.195253      650.27154    
    209000   295.08441      0.0092639081   4.8800802      732.11255     -94.163929      637.94862    
    210000   304.21853      0.0092639081   10.334085      754.77455     -100.38403      654.39052    
    211000   291.24102      0.0092639081   3.3377002      722.577       -100.7226       621.8544     
    212000   291.72696      0.0092639081   0.09567374     723.78262     -104.61365      619.16897    
    213000   321.28885      0.0092639081   6.8616307      797.1265      -98.228588      698.89791    
    214000   295.17363      0.0092639081   4.561202       732.33392     -94.926511      637.40741    
    215000   302.32864      0.0092639081   3.7212474      750.08568     -94.43261       655.65307    
    216000   306.63527      0.0092639081   1.4685791      760.77055     -100.30648      660.46407    
    217000   305.00742      0.0092639081   7.3452124      756.73181     -94.02841       662.7034     
    218000   295.32296      0.0092639081   4.9912817      732.70441     -94.819497      637.88491    
    219000   298.2154       0.0092639081   1.1233237      739.88062     -88.897777      650.98284    
    220000   310.00826      0.0092639081   4.1875529      769.13905     -91.18567       677.95338    
    221000   315.83649      0.0092639081   7.5801434      783.59903     -91.169118      692.42991    
    222000   295.11646      0.0092639081   8.498204       732.19207     -86.809095      645.38298    
    223000   291.05199      0.0092639081   4.6316388      722.10801     -89.754768      632.35324    
    224000   299.58019      0.0092639081   2.3479233      743.26672     -89.591769      653.67495    
    225000   313.28445      0.0092639081   1.515672       777.26735     -93.133424      684.13392    
    226000   303.10043      0.0092639081   5.0073084      752.00053     -93.618291      658.38224    
    227000   302.1168       0.0092639081   16.161202      749.56011     -90.424209      659.1359     
    228000   289.47533      0.0092639081   4.4207289      718.19627     -98.388019      619.80825    
    229000   287.77597      0.0092639081   5.2310005      713.98012     -86.705714      627.27441    
    230000   297.44301      0.0092639081   3.6297779      737.9643      -88.748555      649.21575    
    231000   313.27474      0.0092639081   5.1775253      777.24326     -92.857399      684.38586    
    232000   294.45771      0.0092639081   4.1781014      730.5577      -93.771171      636.78653    
    233000   286.62962      0.0092639081   6.3447611      711.13599     -95.614736      615.52126    
    234000   313.71222      0.0092639081   5.9335417      778.32866     -99.235308      679.09335    
    235000   310.82034      0.0092639081   2.0492023      771.15384     -97.416339      673.7375     
    236000   283.59126      0.0092639081   6.8225655      703.59774     -92.208847      611.3889     
    237000   299.59972      0.0092639081   7.5473979      743.31516     -92.23766       651.0775     
    238000   305.36664      0.0092639081   3.2625392      757.62304     -93.168543      664.4545     
    239000   309.79471      0.0092639081  -5.3090266      768.60922     -97.987786      670.62144    
    240000   289.19484      0.0092639081   4.474596       717.50036     -94.025727      623.47464    
    241000   297.30327      0.0092639081   5.1815538      737.61762     -91.851737      645.76588    
    242000   321.26604      0.0092639081   3.8724948      797.06991     -98.537015      698.5329     
    243000   297.10502      0.0092639081   4.9656946      737.12574     -98.671786      638.45395    
    244000   292.60476      0.0092639081   5.4134734      725.96048     -98.959703      627.00078    
    245000   317.13214      0.0092639081   4.6919102      786.81359     -99.746469      687.06712    
    246000   302.21768      0.0092639081   3.4096893      749.81039     -98.414368      651.39603    
    247000   299.21157      0.0092639081   1.6138534      742.35215     -99.786344      642.5658     
    248000   289.05577      0.0092639081   7.8380625      717.15534     -102.75836      614.39698    
    249000   297.92952      0.0092639081   4.2744012      739.17134     -101.25349      637.91785    
    250000   296.66247      0.0092639081  -0.098252486    736.02777     -97.567245      638.46052    
    251000   298.35361      0.0092639081   0.21505129     740.22353     -100.04476      640.17877    
    252000   308.80869      0.0092639081   7.3356302      766.16287     -96.764749      669.39812    
    253000   300.2183       0.0092639081   7.1814976      744.84988     -95.446282      649.4036     
    254000   309.01923      0.0092639081  -2.3762831      766.68523     -89.285896      677.39934    
    255000   298.67235      0.0092639081   4.7155732      741.01433     -93.043755      647.97058    
    256000   300.86888      0.0092639081   6.0128332      746.46398     -98.232854      648.23112    
    257000   302.95235      0.0092639081   5.7557194      751.63314     -100.04836      651.58478    
    258000   296.56257      0.0092639081  -0.24047637     735.77991     -100.33883      635.44107    
    259000   291.03472      0.0092639081   14.370401      722.06516     -97.798006      624.26715    
    260000   304.13539      0.0092639081   4.2901061      754.56829     -103.15916      651.40913    
    261000   312.0522       0.0092639081  -1.8102539      774.21011     -97.636069      676.57404    
    262000   289.67948      0.0092639081   6.285068       718.70278     -97.472997      621.22979    
    263000   314.94663      0.0092639081   7.5415914      781.39126     -96.315693      685.07557    
    264000   292.60401      0.0092639081   1.2232764      725.95862     -96.796992      629.16163    
    265000   299.52976      0.0092639081   6.3794166      743.1416      -94.289024      648.85257    
    266000   313.34791      0.0092639081   7.9111278      777.4248      -92.473419      684.95138    
    267000   299.97751      0.0092639081   2.9955565      744.25248     -94.042532      650.20995    
    268000   294.12944      0.0092639081   4.8095766      729.74326     -93.505844      636.23741    
    269000   302.12681      0.0092639081   4.3683725      749.58493     -91.862639      657.72229    
    270000   305.62317      0.0092639081   4.9082507      758.2595      -93.749941      664.50956    
    271000   304.51539      0.0092639081   4.8810149      755.51109     -93.347525      662.16356    
    272000   289.20317      0.0092639081   6.9017812      717.52105     -91.613334      625.90771    
    273000   292.50515      0.0092639081   1.5401582      725.71333     -91.1309        634.58243    
    274000   322.56658      0.0092639081  -1.1239953      800.29658     -92.569974      707.7266     
    275000   315.08963      0.0092639081   7.7932157      781.74605     -89.65354       692.09251    
    276000   301.07241      0.0092639081   8.9062228      746.96895     -95.758639      651.21031    
    277000   286.16941      0.0092639081   5.4534197      709.99419     -92.447388      617.5468     
    278000   302.0885       0.0092639081   4.4196804      749.4899      -93.583397      655.90651    
    279000   303.82339      0.0092639081   9.3624859      753.79421     -89.529302      664.26491    
    280000   290.18159      0.0092639081   2.6626558      719.94853     -89.196579      630.75195    
    281000   295.51432      0.0092639081  -0.86369377     733.17919     -90.901843      642.27734    
    282000   315.83465      0.0092639081   4.0280709      783.59447     -92.932303      690.66217    
    283000   297.22171      0.0092639081   7.54088        737.41526     -87.516957      649.8983     
    284000   297.77025      0.0092639081   3.6941525      738.77619     -83.860499      654.91569    
    285000   295.83666      0.0092639081   2.6824506      733.97892     -81.937068      652.04185    
    286000   305.66278      0.0092639081   5.7138165      758.35778     -84.017412      674.34037    
    287000   295.92412      0.0092639081   5.121635       734.19589     -87.051215      647.14467    
    288000   298.90844      0.0092639081   0.34793854     741.60008     -87.312384      654.2877     
    289000   288.89941      0.0092639081   2.345689       716.76739     -90.685943      626.08145    
    290000   313.94651      0.0092639081   7.9965155      778.90994     -90.61097       688.29897    
    291000   304.96224      0.0092639081   5.2823087      756.61971     -91.197762      665.42195    
    292000   297.68753      0.0092639081  -0.13743197     738.57098     -91.98632       646.58466    
    293000   298.73022      0.0092639081   8.6330772      741.15791     -89.887231      651.27068    
    294000   294.58842      0.0092639081   4.3282887      730.88199     -91.594033      639.28796    
    295000   313.6693       0.0092639081  -0.92835259     778.22218     -93.268603      684.95357    
    296000   301.56877      0.0092639081   5.5122759      748.20042     -94.864692      653.33573    
    297000   291.10698      0.0092639081   5.7284028      722.24445     -87.163079      635.08137    
    298000   312.44595      0.0092639081   2.9710243      775.18702     -92.173898      683.01312    
    299000   300.04832      0.0092639081   4.8866407      744.42815     -92.966959      651.46119    
    300000   312.3538       0.0092639081   5.740022       774.95838     -97.479134      677.47924    
    301000   300.25604      0.0092639081   4.1446565      744.94351     -95.813659      649.12985    
    302000   291.3815       0.0092639081   3.9597029      722.92553     -89.598068      633.32746    
    303000   308.17756      0.0092639081   0.58356042     764.59701     -87.542897      677.05412    
    304000   310.63031      0.0092639081   5.9383073      770.68235     -79.863021      690.81933    
    305000   296.38971      0.0092639081   5.2402592      735.35105     -81.013517      654.33753    
    306000   285.53026      0.0092639081   3.264998       708.40845     -73.128212      635.28024    
    307000   301.0586       0.0092639081   3.8399835      746.93468     -80.011689      666.92299    
    308000   304.91009      0.0092639081   7.7388827      756.49033     -81.844664      674.64567    
    309000   291.7242       0.0092639081   2.9803096      723.77578     -79.607819      644.16796    
    310000   299.02464      0.0092639081   3.1603796      741.88837     -81.582561      660.30581    
    311000   310.877        0.0092639081   0.58945667     771.2944      -83.933803      687.3606     
    312000   313.72599      0.0092639081   5.401871       778.36283     -90.286699      688.07613    
    313000   300.70541      0.0092639081   5.7139521      746.05842     -84.536626      661.52179    
    314000   295.29148      0.0092639081   6.3704728      732.6263      -77.748109      654.87819    
    315000   296.48181      0.0092639081   4.0320367      735.57954     -77.86875       657.71079    
    316000   312.40962      0.0092639081   0.94045887     775.09687     -77.496847      697.60002    
    317000   315.80322      0.0092639081   5.54801        783.51648     -79.99507       703.52141    
    318000   301.45104      0.0092639081   6.8694032      747.90835     -81.190038      666.71831    
    319000   293.91898      0.0092639081   4.9392475      729.22108     -77.871814      651.34927    
    320000   302.8813       0.0092639081   3.4866282      751.45687     -78.804512      672.65235    
    321000   306.45429      0.0092639081   6.6615175      760.32153     -79.023512      681.29802    
    322000   281.94201      0.0092639081   8.1949047      699.50589     -80.3073        619.19859    
    323000   306.18116      0.0092639081   4.3088858      759.64391     -82.363716      677.28019    
    324000   317.90389      0.0092639081   3.6750805      788.72831     -80.278336      708.44998    
    325000   299.78378      0.0092639081   12.625467      743.77183     -79.352639      664.41919    
    326000   288.70327      0.0092639081   3.2472357      716.28076     -80.749005      635.53176    
    327000   301.36765      0.0092639081   3.020475       747.70145     -77.463503      670.23795    
    328000   300.04154      0.0092639081   6.0298346      744.41134     -76.546727      667.86461    
    329000   307.61598      0.0092639081   5.6620428      763.20373     -77.941584      685.26214    
    330000   285.14902      0.0092639081   0.3142121      707.46259     -77.521343      629.94124    
    331000   297.11657      0.0092639081  -7.2281146      737.15441     -78.739107      658.4153     
    332000   312.9421       0.0092639081   1.0513979      776.41797     -74.686536      701.73143    
    333000   302.07892      0.0092639081   9.144916       749.46613     -73.211775      676.25436    
    334000   300.14838      0.0092639081   6.5037684      744.67641     -72.719127      671.95728    
    335000   296.44125      0.0092639081   6.2646376      735.4789      -78.280873      657.19803    
    336000   301.02904      0.0092639081  -1.4784123      746.86134     -76.886719      669.97462    
    337000   314.97549      0.0092639081   0.87316328     781.46287     -77.101423      704.36145    
    338000   312.233        0.0092639081   5.5982407      774.65868     -73.502578      701.15611    
    339000   299.43053      0.0092639081   6.3313547      742.8954      -76.927098      665.9683     
    340000   283.20222      0.0092639081   1.1958857      702.63251     -77.568831      625.06368    
    341000   308.12289      0.0092639081  -5.0607203      764.46139     -79.520603      684.94079    
    342000   315.33643      0.0092639081   4.5427784      782.35838     -77.488605      704.86978    
    343000   291.68129      0.0092639081   5.5680465      723.66933     -76.274774      647.39455    
    344000   280.91455      0.0092639081   1.4332983      696.95673     -75.377606      621.57913    
    345000   305.24673      0.0092639081   0.8594307      757.32555     -74.066224      683.25933    
    346000   309.00161      0.0092639081   6.9109182      766.64152     -78.29008       688.35144    
    347000   299.44684      0.0092639081   6.6840744      742.93587     -79.482048      663.45383    
    348000   286.04076      0.0092639081   4.8988015      709.67502     -79.868307      629.80671    
    349000   291.16069      0.0092639081  -5.2932937      722.37769     -75.356935      647.02075    
    350000   310.94411      0.0092639081   3.0421724      771.46091     -75.235758      696.22515    
    351000   310.50914      0.0092639081   9.7695163      770.38173     -71.878143      698.50358    
    352000   291.71448      0.0092639081   6.4380987      723.75167     -74.08334       649.66833    
    353000   286.77546      0.0092639081   3.1435995      711.49782     -75.850534      635.64729    
    354000   301.13215      0.0092639081   3.8307027      747.11717     -72.799157      674.31802    
    355000   302.38795      0.0092639081   7.5722296      750.23283     -74.150444      676.08239    
    356000   293.44071      0.0092639081   6.9367806      728.0345      -71.488         656.5465     
    357000   296.33004      0.0092639081   5.1823525      735.20301     -77.782261      657.42075    
    358000   310.48786      0.0092639081  -3.3386434      770.32894     -80.986606      689.34233    
    359000   302.49027      0.0092639081   7.2039974      750.48669     -76.297605      674.18909    
    360000   295.46673      0.0092639081   5.3167198      733.06111     -75.213061      657.84805    
    361000   300.65644      0.0092639081   1.4939774      745.93691     -72.616069      673.32084    
    362000   295.00693      0.0092639081   0.47405935     731.92032     -75.22317       656.69715    
    363000   314.33972      0.0092639081   2.4944057      779.88551     -79.295796      700.58972    
    364000   307.95676      0.0092639081   11.768132      764.04921     -75.021512      689.0277     
    365000   291.90507      0.0092639081   3.7571374      724.22451     -78.629166      645.59535    
    366000   306.33889      0.0092639081   3.2963481      760.03522     -81.791792      678.24343    
    367000   302.45688      0.0092639081   6.0269695      750.40384     -72.600664      677.80318    
    368000   303.66421      0.0092639081   4.533307       753.39927     -75.697521      677.70175    
    369000   305.57249      0.0092639081   5.0863019      758.13377     -76.406135      681.72764    
    370000   298.68077      0.0092639081   4.5986017      741.03521     -75.591693      665.44352    
    371000   297.84585      0.0092639081   4.8147784      738.96377     -78.191465      660.77231    
    372000   313.31621      0.0092639081   5.0123918      777.34616     -70.239607      707.10655    
    373000   317.51549      0.0092639081   4.8816174      787.76469     -66.604399      721.16029    
    374000   293.39161      0.0092639081   5.0072848      727.91268     -69.242558      658.67012    
    375000   292.87218      0.0092639081   6.7808723      726.62395     -69.34273       657.28122    
    376000   310.49564      0.0092639081   6.4451272      770.34825     -65.102686      705.24556    
    377000   306.91761      0.0092639081   4.6923491      761.47104     -72.486112      688.98493    
    378000   289.82807      0.0092639081   4.5115651      719.07144     -65.789405      653.28204    
    379000   299.70436      0.0092639081   5.7856519      743.57477     -67.269404      676.30536    
    380000   304.97552      0.0092639081   4.3073662      756.65266     -66.679737      689.97292    
    381000   305.5077       0.0092639081   5.0553478      757.97303     -67.301083      690.67195    
    382000   304.34353      0.0092639081   4.9559534      755.08468     -64.678185      690.40649    
    383000   298.18492      0.0092639081   3.7368837      739.805       -61.542732      678.26227    
    384000   304.6715       0.0092639081   4.7369919      755.89839     -66.051937      689.84646    
    385000   291.57487      0.0092639081   4.129492       723.40529     -62.694357      660.71094    
    386000   289.4221       0.0092639081   5.1941667      718.06421     -61.264514      656.7997     
    387000   308.33647      0.0092639081   5.4078824      764.99127     -67.311064      697.68021    
    388000   309.16008      0.0092639081   3.3121167      767.03469     -67.705112      699.32957    
    389000   286.15697      0.0092639081   3.5321939      709.96334     -62.653237      647.3101     
    390000   307.07206      0.0092639081   7.3161048      761.85425     -62.291545      699.5627     
    391000   318.2398       0.0092639081   7.5874572      789.56172     -62.790112      726.7716     
    392000   289.17447      0.0092639081   4.3033991      717.44983     -65.8049        651.64493    
    393000   294.0074       0.0092639081   6.3614012      729.44047     -68.871634      660.56884    
    394000   304.82711      0.0092639081   5.797424       756.28446     -63.070764      693.21369    
    395000   309.05526      0.0092639081   3.4433486      766.77462     -71.817054      694.95757    
    396000   278.92631      0.0092639081   5.7679948      692.02387     -67.548074      624.47579    
    397000   308.6331       0.0092639081   6.8681086      765.72724     -66.545087      699.18215    
    398000   310.2026       0.0092639081   3.4592752      769.6212      -65.922556      703.69864    
    399000   300.98961      0.0092639081   4.8897082      746.76352     -67.058159      679.70536    
    400000   292.52314      0.0092639081   3.179221       725.75798     -68.290766      657.46722    
    401000   281.07043      0.0092639081   4.7230407      697.34348     -73.645977      623.6975     
    402000   306.89025      0.0092639081   6.6703946      761.40316     -63.589745      697.81342    
    403000   319.07087      0.0092639081   0.63684043     791.62363     -62.692067      728.93156    
    404000   287.79717      0.0092639081   4.8433275      714.03272     -64.612436      649.42028    
    405000   298.81624      0.0092639081   4.7919031      741.37133     -62.222698      679.14863    
    406000   312.32462      0.0092639081   5.9058712      774.88598     -64.772353      710.11363    
    407000   300.24179      0.0092639081   6.4081251      744.90815     -66.752981      678.15516    
    408000   309.90707      0.0092639081   6.2002469      768.88798     -59.92148       708.9665     
    409000   293.03326      0.0092639081   6.0176981      727.0236      -58.688025      668.33557    
    410000   304.96895      0.0092639081   2.5869384      756.63636     -61.631503      695.00486    
    411000   306.01594      0.0092639081   5.1691547      759.23398     -60.08577       699.14821    
    412000   300.7968       0.0092639081   6.4779818      746.28516     -52.345895      693.93927    
    413000   295.01045      0.0092639081   6.9169918      731.92907     -57.904346      674.02472    
    414000   298.91876      0.0092639081   4.5466616      741.62569     -59.073966      682.55173    
    415000   303.12867      0.0092639081   2.2409378      752.07058     -58.948183      693.1224     
    416000   312.85278      0.0092639081   6.2219727      776.19637     -59.467985      716.72838    
    417000   295.83502      0.0092639081   6.5380685      733.97483     -63.587019      670.38781    
    418000   304.18809      0.0092639081   4.8512255      754.69904     -56.972054      697.72699    
    419000   292.17246      0.0092639081   4.5122601      724.88792     -55.507098      669.38082    
    420000   314.86119      0.0092639081   5.9765335      781.17928     -57.078419      724.10086    
    421000   322.4804       0.0092639081   5.2922875      800.08275     -62.701087      737.38167    
    422000   302.17653      0.0092639081   4.2291615      749.7083      -61.091684      688.61661    
    423000   280.98141      0.0092639081   4.1147162      697.12263     -59.073382      638.04924    
    424000   298.10526      0.0092639081   5.3826655      739.60737     -57.170311      682.43705    
    425000   308.95929      0.0092639081   4.9560473      766.53651     -60.985054      705.55146    
    426000   309.72206      0.0092639081   5.0796483      768.42897     -59.508494      708.92047    
    427000   297.42381      0.0092639081   4.4574162      737.91667     -61.800836      676.11583    
    428000   288.95821      0.0092639081   4.8127229      716.91328     -58.044171      658.8691     
    429000   307.36594      0.0092639081   1.6452934      762.58336     -59.595621      702.98774    
    430000   307.91236      0.0092639081   6.9311312      763.93904     -57.844079      706.09496    
    431000   297.41709      0.0092639081   5.6384896      737.89999     -59.601773      678.29821    
    432000   299.85386      0.0092639081   3.7267552      743.9457      -62.638984      681.30671    
    433000   312.5707       0.0092639081   1.7793567      775.49652     -62.43495       713.06157    
    434000   296.6378       0.0092639081   15.471052      735.96656     -57.769452      678.19711    
    435000   291.28239      0.0092639081   9.3853834      722.67964     -58.185103      664.49453    
    436000   305.62972      0.0092639081   2.5932549      758.27575     -60.378434      697.89731    
    437000   302.53919      0.0092639081   1.3841307      750.60807     -60.210306      690.39776    
    438000   300.95064      0.0092639081   6.4554456      746.66684     -55.865141      690.8017     
    439000   310.13604      0.0092639081   8.5435386      769.45607     -53.186859      716.26921    
    440000   305.39912      0.0092639081   11.394954      757.70364     -59.534134      698.16951    
    441000   292.94769      0.0092639081   3.2554271      726.8113      -54.129915      672.68139    
    442000   290.33409      0.0092639081   4.6788877      720.32689     -57.962898      662.36399    
    443000   313.26143      0.0092639081   4.6699733      777.21023     -55.657166      721.55307    
    444000   299.95774      0.0092639081   15.791969      744.20342     -49.050635      695.15279    
    445000   288.95777      0.0092639081   5.0567564      716.91218     -61.418049      655.49413    
    446000   303.24507      0.0092639081  -0.37240307     752.35938     -57.592217      694.76717    
    447000   308.86431      0.0092639081   5.9852771      766.30087     -57.221753      709.07912    
    448000   293.88135      0.0092639081   9.8864574      729.12773     -55.252983      673.87475    
    449000   277.22781      0.0092639081   7.2467729      687.80984     -55.715223      632.09461    
    450000   302.4389       0.0092639081   0.33759099     750.35925     -56.459213      693.90004    
    451000   305.30265      0.0092639081   5.9619202      757.46429     -50.556222      706.90807    
    452000   308.92327      0.0092639081   7.7113036      766.44715     -50.850658      715.59649    
    453000   296.48084      0.0092639081   9.1472093      735.57714     -51.238244      684.33889    
    454000   292.84858      0.0092639081   7.3638338      726.5654      -49.191274      677.37413    
    455000   298.83631      0.0092639081   1.729006       741.42113     -45.964488      695.45664    
    456000   300.95302      0.0092639081   3.8803124      746.67273     -50.792019      695.88071    
    457000   301.71132      0.0092639081   5.1626277      748.55409     -50.910083      697.64401    
    458000   299.00982      0.0092639081   8.5104789      741.8516      -49.920889      691.93071    
    459000   298.50478      0.0092639081   4.4119918      740.59859     -48.85701       691.74158    
    460000   299.39581      0.0092639081   2.8022586      742.80927     -50.686324      692.12294    
    461000   300.91065      0.0092639081   4.727898       746.56761     -45.66004       700.90757    
    462000   304.51551      0.0092639081   4.7102076      755.51136     -49.146201      706.36516    
    463000   297.10213      0.0092639081   5.8888677      737.11858     -45.119804      691.99878    
    464000   283.47961      0.0092639081   4.5829522      703.32073     -43.5565        659.76423    
    465000   302.80784      0.0092639081   4.8905381      751.2746      -41.206433      710.06816    
    466000   308.73139      0.0092639081   4.5221058      765.9711      -43.682948      722.28815    
    467000   290.51619      0.0092639081   3.5878574      720.77868     -44.41217       676.36651    
    468000   300.34715      0.0092639081   5.6765239      745.16956     -42.842997      702.32657    
    469000   305.70108      0.0092639081   5.8531902      758.4528      -49.228764      709.22404    
    470000   311.3909       0.0092639081   4.7871774      772.5694      -44.025145      728.54426    
    471000   300.59313      0.0092639081   3.5724151      745.77985     -45.824391      699.95546    
    472000   285.35907      0.0092639081   4.8312424      707.98372     -43.835901      664.14782    
    473000   296.10139      0.0092639081   3.884787       734.63572     -42.810636      691.82508    
    474000   298.82829      0.0092639081   4.77034        741.40123     -41.416155      699.98507    
    475000   301.74231      0.0092639081   5.0132739      748.63099     -44.522011      704.10898    
    476000   293.69824      0.0092639081   4.8881522      728.67343     -45.678399      682.99503    
    477000   301.20791      0.0092639081   3.8728281      747.30513     -43.4432        703.86193    
    478000   299.95919      0.0092639081   2.045049       744.20701     -43.774005      700.43301    
    479000   303.57958      0.0092639081   3.7905957      753.1893      -43.055116      710.13419    
    480000   297.99713      0.0092639081   12.307739      739.3391      -44.700442      694.63866    
    481000   304.41234      0.0092639081   0.91163527     755.25541     -43.820552      711.43486    
    482000   310.99447      0.0092639081   13.272603      771.58585     -42.08623       729.49962    
    483000   291.74139      0.0092639081   5.7529433      723.81844     -43.646789      680.17165    
    484000   297.56205      0.0092639081   5.4284455      738.25965     -39.916329      698.34332    
    485000   297.26698      0.0092639081   3.7259513      737.52757     -39.265004      698.26256    
    486000   314.45289      0.0092639081  -3.2774126      780.16628     -39.237314      740.92897    
    487000   302.1552       0.0092639081   5.7035196      749.65538     -38.617987      711.03739    
    488000   304.81972      0.0092639081   8.8007904      756.26612     -36.551197      719.71493    
    489000   297.5255       0.0092639081   4.6825032      738.16898     -35.98398       702.185      
    490000   298.90626      0.0092639081  -8.8002093      741.59466     -37.38648       704.20818    
    491000   303.83326      0.0092639081   3.04324        753.81868     -40.878805      712.93988    
    492000   307.1364       0.0092639081   9.0198938      762.01387     -38.383365      723.6305     
    493000   300.58454      0.0092639081   5.2184314      745.75852     -35.178641      710.57988    
    494000   299.90567      0.0092639081   0.20006485     744.07423     -34.112597      709.96164    
    495000   291.35163      0.0092639081   10.035182      722.85142     -35.262756      687.58867    
    496000   293.81895      0.0092639081   5.9579713      728.97291     -37.582893      691.39002    
    497000   299.85138      0.0092639081   4.3343317      743.93954     -44.569394      699.37015    
    498000   309.24989      0.0092639081   1.661527       767.25749     -44.27392       722.98357    
    499000   307.79719      0.0092639081   3.1684935      763.6533      -42.620892      721.03241    
    500000   284.43968      0.0092639081   4.9870052      705.70269     -41.383066      664.31962    
    501000   294.99133      0.0092639081   2.4763288      731.88162     -36.715377      695.16624    
    502000   310.28218      0.0092639081   2.3661914      769.81865     -39.84855       729.9701     
    503000   305.99913      0.0092639081   5.1408903      759.19228     -38.98011       720.21217    
    504000   281.58082      0.0092639081   5.3458527      698.60979     -40.018346      658.59144    
    505000   288.23699      0.0092639081   5.9787511      715.12391     -43.622815      671.5011     
    506000   305.29779      0.0092639081   5.2239644      757.45223     -43.71061       713.74161    
    507000   304.78086      0.0092639081   4.4037173      756.16971     -38.392514      717.77719    
    508000   296.46062      0.0092639081   5.0859379      735.52697     -41.089357      694.43761    
    509000   273.21746      0.0092639081   4.818014       677.86005     -34.763384      643.09667    
    510000   290.08663      0.0092639081   4.9692649      719.71293     -39.892896      679.82003    
    511000   307.63927      0.0092639081   3.7692931      763.26151     -39.008024      724.25349    
    512000   302.56565      0.0092639081   5.0349205      750.67372     -43.744712      706.92901    
    513000   294.67119      0.0092639081   5.1417557      731.08734     -40.926418      690.16092    
    514000   305.09         0.0092639081   5.141761       756.93669     -41.498305      715.43839    
    515000   298.99919      0.0092639081   4.551042       741.82522     -41.23053       700.59469    
    516000   302.8453       0.0092639081   5.2669904      751.36754     -34.716647      716.65089    
    517000   317.77229      0.0092639081   5.6114559      788.40182     -35.529773      752.87205    
    518000   301.07352      0.0092639081   7.0584487      746.9717      -40.276867      706.69483    
    519000   292.61512      0.0092639081   4.8050199      725.98617     -38.486696      687.49948    
    520000   305.94348      0.0092639081   3.5865353      759.0542      -40.979408      718.07479    
    521000   314.28067      0.0092639081   5.1980374      779.73901     -45.943626      733.79539    
    522000   304.40751      0.0092639081   5.0255892      755.24343     -42.444491      712.79894    
    523000   287.13336      0.0092639081   4.9271816      712.38578     -41.923114      670.46266    
    524000   298.88899      0.0092639081   5.8848742      741.55182     -41.266568      700.28526    
    525000   312.38356      0.0092639081   6.7038383      775.03222     -41.084373      733.94785    
    526000   311.32521      0.0092639081   5.0877193      772.40644     -39.253848      733.15259    
    527000   288.73262      0.0092639081   3.3436422      716.35358     -38.271349      678.08223    
    528000   292.16474      0.0092639081   5.0485159      724.86878     -37.156742      687.71204    
    529000   310.99902      0.0092639081   6.6371855      771.59713     -37.716639      733.88049    
    530000   298.13471      0.0092639081   5.1215279      739.68044     -39.689411      699.99103    
    531000   289.73809      0.0092639081   4.7972081      718.84818     -43.121462      675.72671    
    532000   297.66989      0.0092639081   4.7490462      738.52719     -35.404365      703.12283    
    533000   302.46262      0.0092639081   5.4168778      750.41811     -39.36917       711.04894    
    534000   308.67233      0.0092639081   6.2937598      765.82457     -42.763913      723.06066    
    535000   297.82849      0.0092639081   4.9872015      738.92069     -43.655126      695.26557    
    536000   288.46908      0.0092639081   1.8762446      715.69975     -41.462005      674.23774    
    537000   296.79076      0.0092639081   6.9189735      736.34605     -39.710057      696.63599    
    538000   305.66714      0.0092639081   3.8430633      758.36861     -34.513918      723.85469    
    539000   292.39263      0.0092639081   1.4982865      725.43418     -36.756032      688.67815    
    540000   289.55082      0.0092639081   2.4431251      718.38356     -38.203253      680.1803     
    541000   309.7552       0.0092639081   6.6474321      768.51119     -38.204914      730.30628    
    542000   316.66623      0.0092639081   2.4792449      785.65764     -38.249289      747.40835    
    543000   294.06417      0.0092639081   1.8182523      729.58132     -37.526464      692.05486    
    544000   305.80528      0.0092639081   7.9526129      758.71133     -42.659234      716.0521     
    545000   306.3315       0.0092639081   2.8657859      760.01689     -43.370701      716.64619    
    546000   300.99798      0.0092639081  -1.0767356      746.7843      -40.863241      705.92105    
    547000   292.79373      0.0092639081   3.3486688      726.42931     -37.990069      688.43924    
    548000   313.54608      0.0092639081   14.056888      777.91646     -38.391418      739.52504    
    549000   295.75466      0.0092639081   0.41390764     733.77547     -36.6436        697.13187    
    550000   285.95261      0.0092639081   8.8148874      709.4563      -36.712187      672.74411    
    551000   302.01992      0.0092639081   6.0226198      749.31976     -37.268639      712.05112    
    552000   304.93114      0.0092639081   6.3348207      756.54256     -35.548915      720.99365    
    553000   305.03007      0.0092639081  -6.8075989      756.78801     -38.063404      718.7246     
    554000   295.56425      0.0092639081   4.2401408      733.30305     -35.890236      697.41281    
    555000   292.7788       0.0092639081   6.1885469      726.39227     -33.257878      693.1344     
    556000   307.92365      0.0092639081   5.4672435      763.96707     -37.777184      726.18988    
    557000   317.11544      0.0092639081   3.5945595      786.77214     -36.300373      750.47177    
    558000   291.34209      0.0092639081  -1.3133904      722.82776     -36.463787      686.36398    
    559000   286.40718      0.0092639081   7.0541392      710.58411     -37.07418       673.50993    
    560000   300.98339      0.0092639081   9.8646934      746.74809     -36.189008      710.55909    
    561000   313.46125      0.0092639081   2.6517412      777.706       -32.286903      745.41909    
    562000   297.8315       0.0092639081   4.6850865      738.92817     -31.162222      707.76595    
    563000   297.39234      0.0092639081   12.169905      737.8386      -32.390832      705.44776    
    564000   315.91845      0.0092639081   3.7101208      783.80239     -33.288624      750.51377    
    565000   304.67665      0.0092639081   4.5884766      755.91116     -32.444573      723.46658    
    566000   295.75534      0.0092639081   3.8720424      733.77714     -34.720012      699.05713    
    567000   275.37685      0.0092639081   2.7469693      683.21757     -34.943545      648.27402    
    568000   296.20868      0.0092639081   10.925075      734.9019      -33.289872      701.61203    
    569000   314.25337      0.0092639081   3.7584462      779.67128     -32.969438      746.70184    
    570000   293.95578      0.0092639081   0.42950815     729.31239     -35.476945      693.83544    
    571000   293.06441      0.0092639081   4.8248617      727.10089     -34.007866      693.09302    
    572000   301.18057      0.0092639081   9.6459239      747.23729     -39.208663      708.02863    
    573000   302.7388       0.0092639081   3.8924974      751.10332     -36.368151      714.73516    
    574000   290.77904      0.0092639081   4.4054324      721.43082     -30.871732      690.55909    
    575000   309.47806      0.0092639081   5.3810482      767.8236      -34.672362      733.15124    
    576000   309.25469      0.0092639081   5.4805507      767.2694      -33.547513      733.72189    
    577000   293.73455      0.0092639081   4.5386803      728.76353     -34.141581      694.62195    
    578000   287.00117      0.0092639081   4.8206846      712.05781     -33.659158      678.39865    
    579000   308.26263      0.0092639081   6.451141       764.80807     -34.072133      730.73594    
    580000   321.74048      0.0092639081   5.9095911      798.247       -30.04729       768.19971    
    581000   303.79018      0.0092639081   2.2942818      753.7118      -29.291215      724.42059    
    582000   293.8129       0.0092639081   2.4563595      728.95791     -31.654199      697.30371    
    583000   288.91202      0.0092639081   6.4330178      716.79867     -32.182891      684.61578    
    584000   299.79285      0.0092639081   9.7479556      743.79432     -32.654445      711.13987    
    585000   308.89701      0.0092639081   6.5208295      766.382       -32.44413       733.93787    
    586000   299.13997      0.0092639081   2.5773441      742.17451     -29.948692      712.22582    
    587000   294.92111      0.0092639081   0.62863535     731.70739     -34.38749       697.3199     
    588000   298.82837      0.0092639081   3.1826881      741.40142     -31.791839      709.60958    
    589000   296.21003      0.0092639081   5.347067       734.90524     -33.159218      701.74602    
    590000   295.64952      0.0092639081   5.3871232      733.5146      -35.815624      697.69897    
    591000   295.79959      0.0092639081   5.2782559      733.88695     -32.54533       701.34162    
    592000   307.82384      0.0092639081  -0.058305504    763.71942     -33.285765      730.43366    
    593000   292.99554      0.0092639081   6.4179021      726.93001     -33.323272      693.60674    
    594000   291.81644      0.0092639081   10.178631      724.00463     -29.728943      694.27568    
    595000   310.78129      0.0092639081   8.1782736      771.05695     -33.57467       737.48228    
    596000   315.71044      0.0092639081   4.3989616      783.28632     -31.334483      751.95183    
    597000   287.23159      0.0092639081  -0.44089918     712.62948     -33.12274       679.50674    
    598000   283.70355      0.0092639081   2.9069114      703.87632     -28.600781      675.27553    
    599000   300.32783      0.0092639081   6.206776       745.12164     -30.405062      714.71657    
    600000   323.73668      0.0092639081   4.9724885      803.19962     -26.50838       776.69124    
    601000   291.74451      0.0092639081   1.296877       723.82618     -31.057904      692.76827    
    602000   297.53446      0.0092639081   4.9259706      738.19119     -29.593676      708.59751    
    603000   303.94071      0.0092639081   5.3443439      754.08527     -32.038811      722.04646    
    604000   294.7593       0.0092639081   6.468473       731.30595     -32.903079      698.40287    
    605000   310.67452      0.0092639081   5.2440317      770.79204     -31.083314      739.70872    
    606000   310.66888      0.0092639081   5.6383607      770.77806     -32.956221      737.82184    
    607000   283.70997      0.0092639081   4.9502313      703.89226     -29.492924      674.39934    
    608000   296.44631      0.0092639081  -0.0074274842   735.49148     -34.739969      700.75151    
    609000   309.8297       0.0092639081   3.0704573      768.69603     -30.317577      738.37845    
    610000   308.22426      0.0092639081   7.6630911      764.71289     -32.379464      732.33342    
    611000   293.01796      0.0092639081   7.5753538      726.98563     -34.806813      692.17882    
    612000   281.39596      0.0092639081   2.4972828      698.15114     -32.54985       665.60129    
    613000   282.75351      0.0092639081   3.1027657      701.51925     -32.809989      668.70926    
    614000   305.67213      0.0092639081   4.314411       758.38099     -33.348465      725.03252    
    615000   320.13156      0.0092639081   5.4936021      794.25522     -34.162373      760.09285    
    616000   294.57756      0.0092639081   5.2150853      730.85504     -36.498303      694.35673    
    617000   283.04862      0.0092639081   4.8363087      702.25143     -35.526289      666.72514    
    618000   307.20968      0.0092639081   5.2764895      762.19569     -30.927274      731.26842    
    619000   306.97439      0.0092639081   6.1195447      761.61193     -31.851882      729.76004    
    620000   287.36321      0.0092639081   4.8223209      712.95604     -29.583295      683.37275    
    621000   284.00093      0.0092639081   5.0683382      704.61415     -28.839867      675.77428    
    622000   304.76921      0.0092639081   5.0924564      756.14081     -32.030317      724.11049    
    623000   314.84567      0.0092639081   5.2015611      781.14078     -30.952595      750.18818    
    624000   307.53237      0.0092639081   2.7113994      762.99629     -27.814318      735.18197    
    625000   294.8453       0.0092639081   5.1902343      731.51931     -26.029959      705.48936    
    626000   307.01067      0.0092639081   5.8637947      761.70193     -29.741627      731.96031    
    627000   298.22065      0.0092639081   5.2327929      739.89365     -30.966414      708.92724    
    628000   292.79258      0.0092639081   4.7714262      726.42647     -30.441495      695.98498    
    629000   292.72665      0.0092639081   5.4300209      726.26288     -25.98943       700.27345    
    630000   311.4883       0.0092639081   5.5998081      772.81106     -24.97407       747.83699    
    631000   305.03414      0.0092639081   4.3447148      756.79811     -28.671765      728.12635    
    632000   285.22361      0.0092639081   4.3780208      707.64765     -29.616234      678.03141    
    633000   302.17489      0.0092639081   5.796443       749.70424     -29.136013      720.56822    
    634000   314.23625      0.0092639081   7.2585895      779.62879     -27.977093      751.6517     
    635000   314.11677      0.0092639081   4.5879616      779.33237     -27.813786      751.51859    
    636000   292.51515      0.0092639081  -0.26060081     725.73815     -27.242399      698.49575    
    637000   293.23174      0.0092639081   6.3522269      727.51604     -31.567815      695.94823    
    638000   302.31829      0.0092639081   5.3936583      750.06002     -29.811738      720.24828    
    639000   297.55374      0.0092639081   5.4712452      738.23902     -30.445103      707.79392    
    640000   303.1515       0.0092639081   4.5540525      752.12723     -26.283094      725.84413    
    641000   304.10477      0.0092639081   4.2210049      754.49231     -28.907051      725.58526    
    642000   299.64716      0.0092639081   6.6989247      743.43286     -28.276961      715.1559     
    643000   303.39682      0.0092639081   3.2403679      752.73587     -25.843954      726.89192    
    644000   297.58729      0.0092639081   3.5866128      738.32226     -25.563619      712.75864    
    645000   294.17238      0.0092639081   9.9710062      729.84979     -28.916668      700.93312    
    646000   287.90583      0.0092639081   8.8497584      714.30229     -27.535999      686.76629    
    647000   307.04639      0.0092639081   6.2759836      761.79056     -26.584521      735.20604    
    648000   290.29037      0.0092639081   5.0817778      720.2184      -31.956866      688.26153    
    649000   301.24133      0.0092639081   3.4041695      747.38805     -25.349951      722.0381     
    650000   290.50767      0.0092639081   6.5732147      720.75755     -25.095703      695.66185    
    651000   291.49073      0.0092639081   8.992576       723.19654     -23.525541      699.671      
    652000   303.84439      0.0092639081   4.6200446      753.8463      -27.099384      726.74691    
    653000   282.50888      0.0092639081   3.4653166      700.91232     -25.674326      675.23799    
    654000   301.43366      0.0092639081   6.2155202      747.86522     -22.683683      725.18154    
    655000   317.5009       0.0092639081   4.7260489      787.72848     -23.114949      764.61354    
    656000   296.78676      0.0092639081   4.5886025      736.33614     -24.184077      712.15206    
    657000   285.66536      0.0092639081   7.1919724      708.74363     -22.458508      686.28512    
    658000   311.85595      0.0092639081   5.3145547      773.72322     -21.144839      752.57838    
    659000   299.83596      0.0092639081   4.1562409      743.90127     -20.861852      723.03942    
    660000   275.5219       0.0092639081   5.630381       683.57743     -24.11351       659.46392    
    661000   318.12223      0.0092639081   7.6282083      789.27002     -24.221193      765.04883    
    662000   307.52046      0.0092639081   5.8542396      762.96674     -22.092788      740.87395    
    663000   300.71241      0.0092639081   2.9371117      746.07579     -22.921793      723.154      
    664000   295.16489      0.0092639081   4.536911       732.31224     -21.629574      710.68266    
    665000   299.42515      0.0092639081   5.0713207      742.88206     -22.555247      720.32681    
    666000   295.94458      0.0092639081   5.7190001      734.24666     -22.964678      711.28198    
    667000   304.4548       0.0092639081   5.4608413      755.36076     -21.803756      733.557      
    668000   304.52347      0.0092639081   4.4943491      755.53112     -25.569463      729.96166    
    669000   290.1421       0.0092639081   0.68048659     719.85055     -25.237462      694.61309    
    670000   294.05001      0.0092639081   6.7539916      729.54618     -22.467531      707.07865    
    671000   301.1157       0.0092639081   5.6670411      747.07635     -22.57735       724.499      
    672000   304.8006       0.0092639081   4.9138398      756.2187      -20.834226      735.38447    
    673000   304.67422      0.0092639081   4.6075635      755.90513     -19.036305      736.86883    
    674000   300.31109      0.0092639081   5.9350598      745.08009     -21.927612      723.15248    
    675000   306.79092      0.0092639081   4.9334153      761.15672     -20.476395      740.68033    
    676000   296.30609      0.0092639081   2.4966088      735.14357     -18.492379      716.65119    
    677000   301.4001       0.0092639081   5.8299557      747.78196     -18.215387      729.56657    
    678000   306.43551      0.0092639081   5.2566207      760.27495     -16.736288      743.53867    
    679000   299.86477      0.0092639081   4.1695805      743.97277     -18.723926      725.24884    
    680000   301.66894      0.0092639081   5.4662823      748.44896     -20.898614      727.55034    
    681000   290.20986      0.0092639081   4.8876222      720.01867     -19.924124      700.09455    
    682000   295.17945      0.0092639081   3.7289873      732.34836     -20.934313      711.41405    
    683000   288.06889      0.0092639081   5.0335132      714.70686     -18.37946       696.3274     
    684000   299.71813      0.0092639081   6.6708228      743.60895     -20.233021      723.37593    
    685000   299.16827      0.0092639081   5.103217       742.24471     -18.899732      723.34498    
    686000   300.37055      0.0092639081   4.4768602      745.22762     -23.076068      722.15155    
    687000   294.3126       0.0092639081   4.1994135      730.19768     -19.660599      710.53708    
    688000   310.98901      0.0092639081   7.298914       771.5723      -20.031085      751.54121    
    689000   306.17344      0.0092639081   5.2364701      759.62475     -19.695555      739.92919    
    690000   299.94226      0.0092639081   4.8058886      744.16502     -25.674898      718.49012    
    691000   282.94455      0.0092639081   4.9555841      701.99323     -23.679694      678.31353    
    692000   287.51994      0.0092639081   5.9971974      713.34489     -20.89326       692.45163    
    693000   310.67028      0.0092639081   6.3449274      770.78153     -22.768111      748.01341    
    694000   303.0929       0.0092639081   4.4087745      751.98184     -21.758484      730.22336    
    695000   284.20205      0.0092639081   5.7468068      705.11311     -18.982835      686.13028    
    696000   304.56157      0.0092639081   7.025491       755.62565     -22.802175      732.82347    
    697000   306.2539       0.0092639081   4.2124418      759.82437     -25.688957      734.13541    
    698000   302.43516      0.0092639081   1.6538868      750.34997     -25.330463      725.0195     
    699000   300.57807      0.0092639081   5.193314       745.74247     -26.716821      719.02565    
    700000   296.28613      0.0092639081   10.642204      735.09406     -26.679737      708.41432    
    701000   306.88295      0.0092639081   7.4731971      761.38507     -26.4178        734.96727    
    702000   302.84572      0.0092639081   3.7085228      751.36857     -26.995944      724.37263    
    703000   300.00179      0.0092639081   0.41369088     744.31272     -26.606269      717.70645    
    704000   312.8673       0.0092639081   7.0796547      776.2324      -30.625605      745.6068     
    705000   300.48264      0.0092639081   6.0994064      745.50571     -30.270292      715.23541    
    706000   294.27681      0.0092639081   4.8543132      730.10888     -27.439596      702.66929    
    707000   305.52897      0.0092639081   1.3967191      758.02579     -21.950353      736.07544    
    708000   292.29245      0.0092639081   1.781306       725.18562     -24.245083      700.94054    
    709000   292.41064      0.0092639081   6.768515       725.47886     -25.682219      699.79664    
    710000   294.71982      0.0092639081   8.1647936      731.208       -25.360409      705.84759    
    711000   305.66413      0.0092639081   11.553548      758.36113     -24.642299      733.71883    
    712000   315.89138      0.0092639081  -6.4735227      783.73522     -22.763151      760.97207    
    713000   295.65341      0.0092639081   7.9975584      733.52427     -21.134229      712.39004    
    714000   301.91797      0.0092639081   7.5155785      749.0668      -22.142549      726.92425    
    715000   306.34829      0.0092639081   0.59578354     760.05855     -20.362219      739.69634    
    716000   290.54269      0.0092639081   7.8887753      720.84441     -19.962568      700.88184    
    717000   300.01833      0.0092639081   7.5435098      744.35375     -18.084978      726.26877    
    718000   299.49718      0.0092639081   6.4636647      743.06076     -20.209548      722.85121    
    719000   289.61931      0.0092639081  -2.8690103      718.55348     -18.521235      700.03225    
    720000   302.77872      0.0092639081   1.9590647      751.20236     -20.086055      731.1163     
    721000   300.57387      0.0092639081   5.1196388      745.73205     -21.359656      724.37239    
    722000   295.41777      0.0092639081   15.067577      732.93963     -20.968153      711.97148    
    723000   305.05594      0.0092639081   1.8755599      756.8522      -18.478653      738.37355    
    724000   297.12156      0.0092639081   5.7697943      737.16678     -19.029062      718.13771    
    725000   292.54188      0.0092639081   7.9448206      725.80446     -18.491134      707.31332    
    726000   301.02624      0.0092639081   5.5285902      746.8544      -16.869556      729.98484    
    727000   282.33169      0.0092639081   3.6439223      700.4727      -15.41578       685.05692    
    728000   303.19792      0.0092639081   6.6811675      752.24239     -14.739609      737.50278    
    729000   313.94509      0.0092639081   5.9520043      778.90643     -16.37403       762.5324     
    730000   301.94351      0.0092639081   5.7782749      749.13017     -15.915282      733.21489    
    731000   280.98465      0.0092639081   4.7105859      697.13065     -15.068653      682.062      
    732000   293.80254      0.0092639081   4.884203       728.9322      -17.361078      711.57112    
    733000   317.93936      0.0092639081   4.4535526      788.81632     -17.325007      771.49132    
    734000   305.06634      0.0092639081   5.9120707      756.87799     -22.022347      734.85565    
    735000   308.943        0.0092639081   5.2387992      766.4961      -20.156957      746.33914    
    736000   296.82629      0.0092639081   4.7910425      736.4342      -18.128338      718.30586    
    737000   294.80833      0.0092639081   4.6557651      731.42759     -16.789991      714.6376     
    738000   303.47934      0.0092639081   5.2980004      752.9406      -19.341264      733.59934    
    739000   309.65305      0.0092639081   7.3108785      768.25774     -20.728379      747.52936    
    740000   294.18628      0.0092639081   7.250127       729.88427     -19.168225      710.71604    
    741000   295.84672      0.0092639081   3.4889316      734.00386     -17.315401      716.68846    
    742000   301.18999      0.0092639081   2.1993893      747.26068     -16.804836      730.45584    
    743000   304.15488      0.0092639081   7.0386467      754.61664     -21.067733      733.54891    
    744000   301.15566      0.0092639081   4.2369894      747.1755      -17.866991      729.30851    
    745000   298.17232      0.0092639081   2.973862       739.77376     -17.912304      721.86145    
    746000   310.84323      0.0092639081   5.9959415      771.21061     -19.860432      751.35018    
    747000   308.39339      0.0092639081   5.518325       765.1325      -18.719721      746.41277    
    748000   291.1053       0.0092639081   3.7109384      722.24026     -20.742084      701.49818    
    749000   295.19589      0.0092639081   4.1102099      732.38913     -19.793367      712.59577    
    750000   302.39812      0.0092639081   5.0594148      750.25807     -19.432861      730.82521    
    751000   298.13234      0.0092639081   6.0018322      739.67456     -18.746938      720.92762    
    752000   289.39219      0.0092639081   1.7882571      717.99        -22.736615      695.25338    
    753000   305.49989      0.0092639081   4.2328593      757.95366     -18.253818      739.69984    
    754000   309.56229      0.0092639081   6.8582312      768.03257     -17.296765      750.7358     
    755000   290.72073      0.0092639081   5.5411483      721.28615     -19.399426      701.88672    
    756000   301.16348      0.0092639081   1.5106767      747.1949      -27.091047      720.10385    
    757000   298.99929      0.0092639081   1.326014       741.82548     -21.957183      719.86829    
    758000   303.49584      0.0092639081   6.4079384      752.98156     -23.975186      729.00637    
    759000   289.34551      0.0092639081   3.8909479      717.87419     -22.564397      695.30979    
    760000   287.7986       0.0092639081   4.414879       714.03626     -19.277794      694.75847    
    761000   306.06476      0.0092639081   5.1502585      759.3551      -20.649657      738.70544    
    762000   305.3901       0.0092639081   5.7532034      757.68126     -20.765164      736.91609    
    763000   293.97295      0.0092639081   4.8313721      729.355       -18.198989      711.15601    
    764000   295.36105      0.0092639081   5.1303794      732.79892     -19.658037      713.14088    
    765000   303.48018      0.0092639081   5.2327562      752.94269     -17.224428      735.71826    
    766000   295.52154      0.0092639081   4.4791571      733.19708     -16.207688      716.98939    
    767000   302.01576      0.0092639081   6.4441102      749.30942     -16.13491       733.17451    
    768000   305.49859      0.0092639081   4.8691827      757.95043     -14.633028      743.3174     
    769000   302.30578      0.0092639081   2.7354404      750.02897     -17.193921      732.83505    
    770000   298.8002       0.0092639081   5.8718588      741.33152     -16.800055      724.53147    
    771000   283.5009       0.0092639081   8.5176547      703.37355     -17.432231      685.94132    
    772000   294.88964      0.0092639081   5.2471423      731.62932     -14.797961      716.83136    
    773000   314.18664      0.0092639081   5.8991171      779.50571     -16.610271      762.89544    
    774000   296.53855      0.0092639081   4.8694402      735.72032     -20.417338      715.30298    
    775000   291.37526      0.0092639081   5.8365827      722.91006     -21.757156      701.1529     
    776000   323.1541       0.0092639081   5.979774       801.75423     -18.989747      782.76448    
    777000   293.33685      0.0092639081   4.0467327      727.77681     -16.712078      711.06473    
    778000   282.71391      0.0092639081   5.0083412      701.421       -18.012931      683.40807    
    779000   306.73395      0.0092639081   5.5117474      761.01539     -18.403746      742.61164    
    780000   308.23593      0.0092639081   4.9355697      764.74184     -19.01042       745.73142    
    781000   285.98876      0.0092639081   5.0758655      709.54598     -20.25795       689.28803    
    782000   300.85526      0.0092639081   4.0154322      746.43019     -18.155436      728.27476    
    783000   303.53373      0.0092639081   4.4762643      753.07556     -17.450071      735.62549    
    784000   305.3485       0.0092639081   5.1710557      757.57804     -15.538889      742.03915    
    785000   308.09299      0.0092639081   5.0773626      764.38719     -16.129261      748.25793    
    786000   292.38002      0.0092639081   4.916949       725.40288     -16.131652      709.27123    
    787000   302.39001      0.0092639081   5.6482707      750.23795     -17.307514      732.93044    
    788000   306.96856      0.0092639081   8.2133788      761.59746     -16.457401      745.14006    
    789000   288.89964      0.0092639081   7.1371302      716.76796     -15.341272      701.42669    
    790000   280.29149      0.0092639081   7.2222024      695.41092     -16.045375      679.36554    
    791000   310.33296      0.0092639081   5.8304915      769.94462     -13.55841       756.38621    
    792000   292.06031      0.0092639081   2.6806505      724.60969     -14.209233      710.40045    
    793000   295.53383      0.0092639081   1.8284463      733.22757     -14.994217      718.23335    
    794000   294.70359      0.0092639081   9.9907587      731.16774     -14.365509      716.80223    
    795000   300.97828      0.0092639081   2.5967529      746.73542     -16.5165        730.21892    
    796000   298.0018       0.0092639081   2.7682698      739.35067     -16.98105       722.36962    
    797000   300.86327      0.0092639081   7.0613712      746.45006     -19.737189      726.71287    
    798000   298.49539      0.0092639081   5.9852811      740.57529     -17.290079      723.28521    
    799000   297.96753      0.0092639081   1.1991464      739.26565     -17.291954      721.97369    
    800000   299.20398      0.0092639081   3.9485668      742.33333     -16.034105      726.29923    
    801000   288.81119      0.0092639081   10.856729      716.54853     -14.727731      701.8208     
    802000   305.38535      0.0092639081   6.0956178      757.66948     -17.036803      740.63267    
    803000   300.48471      0.0092639081   3.5631339      745.51084     -14.626925      730.88391    
    804000   299.94488      0.0092639081   5.3426957      744.17152     -17.14453       727.02699    
    805000   302.39264      0.0092639081   5.5588191      750.24447     -18.194751      732.04972    
    806000   286.85833      0.0092639081   0.57661731     711.70342     -18.440957      693.26246    
    807000   297.33792      0.0092639081   5.4287356      737.70357     -20.642991      717.06058    
    808000   297.06775      0.0092639081   3.4691444      737.03327     -21.528637      715.50464    
    809000   303.73786      0.0092639081   5.737788       753.58201     -15.938447      737.64356    
    810000   308.30853      0.0092639081   4.097236       764.92195     -18.322348      746.59961    
    811000   295.96573      0.0092639081   4.3521856      734.29914     -16.563905      717.73524    
    812000   293.9781       0.0092639081   4.8289609      729.36777     -17.092117      712.27565    
    813000   300.16657      0.0092639081   5.1958161      744.72153     -17.349954      727.37158    
    814000   313.73135      0.0092639081   5.6485469      778.37612     -16.096347      762.27978    
    815000   304.99699      0.0092639081   5.5982047      756.70594     -16.065062      740.64088    
    816000   292.90099      0.0092639081   5.0712566      726.69543     -19.625678      707.06975    
    817000   293.91767      0.0092639081   4.1517543      729.21785     -20.579958      708.63789    
    818000   303.57196      0.0092639081   6.0115378      753.17041     -20.55633       732.61408    
    819000   315.73389      0.0092639081   6.2148092      783.34448     -20.91242       762.43206    
    820000   297.10311      0.0092639081   6.3501135      737.12101     -18.319913      718.8011     
    821000   292.45455      0.0092639081   1.6263269      725.58781     -18.78091       706.8069     
    822000   304.4462       0.0092639081   0.88572832     755.33942     -20.334209      735.00521    
    823000   299.53524      0.0092639081   15.015996      743.15518     -18.361432      724.79375    
    824000   298.19199      0.0092639081   9.3683281      739.82255     -18.851997      720.97055    
    825000   296.55431      0.0092639081   0.097360471    735.75943     -18.27386       717.48557    
    826000   291.92319      0.0092639081   3.1806838      724.26948     -16.37709       707.89239    
    827000   310.15426      0.0092639081   5.2036283      769.50127     -18.241678      751.25959    
    828000   304.81518      0.0092639081   6.3606475      756.25486     -21.237702      735.01715    
    829000   300.46005      0.0092639081   4.9999802      745.44966     -24.564248      720.88541    
    830000   293.98086      0.0092639081   5.0184891      729.37463     -21.321367      708.05326    
    831000   288.39283      0.0092639081  -0.24392301     715.51056     -23.24051       692.27005    
    832000   312.22025      0.0092639081   7.9007218      774.62706     -25.716801      748.91026    
    833000   301.06774      0.0092639081   10.04585       746.95735     -22.638882      724.31847    
    834000   282.77391      0.0092639081   5.9297637      701.56986     -21.177845      680.39201    
    835000   289.91272      0.0092639081   5.5188801      719.28145     -23.660711      695.62073    
    836000   309.26839      0.0092639081   1.1553407      767.3034      -23.247435      744.05596    
    837000   301.20916      0.0092639081   10.445444      747.30823     -23.457114      723.85111    
    838000   298.54514      0.0092639081   8.0551811      740.69872     -19.296638      721.40208    
    839000   291.92365      0.0092639081  -0.82598936     724.27061     -15.053866      709.21674    
    840000   300.46214      0.0092639081   4.5914398      745.45485     -19.840647      725.6142     
    841000   299.24174      0.0092639081   8.572205       742.42701     -22.253783      720.17323    
    842000   306.3952       0.0092639081   15.531863      760.17494     -21.157038      739.0179     
    843000   299.56833      0.0092639081   9.8374941      743.23729     -21.357062      721.88022    
    844000   288.5969       0.0092639081   1.4633734      716.01686     -17.4119        698.60496    
    845000   300.78601      0.0092639081   4.7696852      746.25838     -22.12373       724.13465    
    846000   306.27367      0.0092639081   8.1341897      759.87342     -21.120137      738.75328    
    847000   293.60584      0.0092639081   11.984387      728.44419     -21.477621      706.96657    
    848000   306.47507      0.0092639081   1.5999022      760.37311     -16.621117      743.75199    
    849000   299.7681       0.0092639081   14.707935      743.73291     -16.088646      727.64427    
    850000   296.32466      0.0092639081   6.4524532      735.18964     -14.200723      720.98892    
    851000   295.27775      0.0092639081   1.9889814      732.59224     -17.370536      715.2217     
    852000   304.6755       0.0092639081   1.7537678      755.90832     -16.367173      739.54114    
    853000   302.40695      0.0092639081   5.7997532      750.27999     -22.881         727.39899    
    854000   287.28652      0.0092639081   10.371726      712.76578     -22.695709      690.07007    
    855000   292.07715      0.0092639081   7.7990507      724.65147     -19.603059      705.04841    
    856000   298.1455       0.0092639081   3.9220823      739.70721     -20.400195      719.30702    
    857000   319.80319      0.0092639081   0.5199492      793.44053     -18.63646       774.80407    
    858000   313.54383      0.0092639081   6.1725688      777.91088     -14.347336      763.56355    
    859000   293.23329      0.0092639081   7.2087536      727.51988     -17.07756       710.44232    
    860000   294.82361      0.0092639081   4.0140254      731.46551     -17.800729      713.66478    
    861000   316.35415      0.0092639081   6.5566968      784.88338     -17.276229      767.60715    
    862000   299.92155      0.0092639081   5.2394786      744.11364     -18.558736      725.5549     
    863000   280.19183      0.0092639081   4.2877158      695.16366     -18.081982      677.08168    
    864000   300.29278      0.0092639081   4.2570551      745.03466     -17.670189      727.36447    
    865000   309.40271      0.0092639081   6.2236943      767.63665     -18.84624       748.79041    
    866000   288.30886      0.0092639081   4.2064638      715.30224     -17.36725       697.93499    
    867000   292.74166      0.0092639081   4.2907319      726.30013     -20.549449      705.75068    
    868000   302.2641       0.0092639081   5.3422677      749.92557     -20.910324      729.01525    
    869000   308.63105      0.0092639081   6.6974181      765.72214     -20.520458      745.20168    
    870000   293.03845      0.0092639081   8.6207211      727.03648     -22.244511      704.79196    
    871000   291.70956      0.0092639081   4.7424561      723.73946     -25.531691      698.20776    
    872000   298.40974      0.0092639081   2.20199        740.36279     -21.205614      719.15717    
    873000   308.22216      0.0092639081   3.6531782      764.70766     -16.966536      747.74113    
    874000   298.71723      0.0092639081   5.9112969      741.12569     -18.500082      722.62561    
    875000   305.52246      0.0092639081   4.4717892      758.00966     -22.914591      735.09507    
    876000   303.40242      0.0092639081   6.6542488      752.74976     -20.699483      732.05027    
    877000   294.76642      0.0092639081   9.6592654      731.32362     -19.909241      711.41438    
    878000   293.19986      0.0092639081   2.0599895      727.43693     -17.867231      709.5697     
    879000   320.30995      0.0092639081   6.6357124      794.69781     -18.214154      776.48366    
    880000   288.31033      0.0092639081   9.3072062      715.30588     -18.363711      696.94217    
    881000   294.40972      0.0092639081   3.7230359      730.43863     -18.728254      711.71038    
    882000   320.61151      0.0092639081   3.8376863      795.446       -17.306169      778.13984    
    883000   301.86675      0.0092639081   7.8401951      748.93973     -18.038076      730.90166    
    884000   282.13272      0.0092639081  -1.200499       699.97906     -19.770957      680.2081     
    885000   301.73705      0.0092639081   3.6544035      748.61795     -16.838441      731.77951    
    886000   307.79986      0.0092639081   9.903369       763.65994     -13.68457       749.97537    
    887000   297.7564       0.0092639081   4.1837154      738.74182     -16.171856      722.56997    
    888000   304.70002      0.0092639081   2.633423       755.96915     -18.385422      737.58373    
    889000   308.98992      0.0092639081   6.9021524      766.6125      -17.460249      749.15225    
    890000   289.60154      0.0092639081   5.028315       718.50939     -16.171344      702.33805    
    891000   314.72332      0.0092639081  -1.0938332      780.83724     -13.75585       767.08139    
    892000   319.78013      0.0092639081   2.6670305      793.38332     -13.085056      780.29826    
    893000   294.66141      0.0092639081   8.0897874      731.06309     -11.524703      719.53838    
    894000   298.08721      0.0092639081   5.7744783      739.56259     -14.634292      724.9283     
    895000   305.81053      0.0092639081   2.6431139      758.72436     -14.986049      743.73832    
    896000   302.52455      0.0092639081   3.9021014      750.57175     -14.80858       735.76317    
    897000   309.4821       0.0092639081   7.444975       767.83362     -16.852         750.98162    
    898000   290.2744       0.0092639081   8.7309349      720.17879     -8.2361847      711.94261    
    899000   296.41991      0.0092639081   5.5131328      735.42596     -10.900874      724.52508    
    900000   298.93107      0.0092639081   5.0628994      741.65622     -10.957141      730.69908    
    901000   305.19         0.0092639081   6.1254855      757.18479     -14.516577      742.66821    
    902000   297.69824      0.0092639081   5.0720152      738.59754     -14.472707      724.12484    
    903000   304.16089      0.0092639081   5.2017733      754.63154     -14.658763      739.97278    
    904000   315.50805      0.0092639081   6.7712285      782.78417     -14.229965      768.5542     
    905000   294.75808      0.0092639081   4.788013       731.30291     -18.265674      713.03724    
    906000   286.74856      0.0092639081   4.6685323      711.43108     -16.564459      694.86662    
    907000   297.26856      0.0092639081   4.9197451      737.5315      -15.873786      721.65771    
    908000   311.2082       0.0092639081   5.1622051      772.11612     -15.755475      756.36064    
    909000   302.01128      0.0092639081   4.5697901      749.29831     -13.058613      736.23969    
    910000   291.16329      0.0092639081   7.1712414      722.38415     -13.484175      708.89998    
    911000   306.57499      0.0092639081   5.1295187      760.621       -17.784765      742.83624    
    912000   307.17466      0.0092639081   2.4886056      762.10879     -17.599507      744.50928    
    913000   309.67386      0.0092639081   0.85016761     768.30939     -19.524508      748.78489    
    914000   295.36868      0.0092639081   3.7393962      732.81784     -18.630099      714.18774    
    915000   293.09268      0.0092639081   5.6577457      727.17102     -17.996583      709.17444    
    916000   317.54816      0.0092639081   6.9292722      787.84573     -16.582159      771.26357    
    917000   298.43545      0.0092639081   3.2163313      740.42657     -14.435911      725.99066    
    918000   292.5821       0.0092639081   2.7313249      725.90425     -15.488011      710.41624    
    919000   287.0867       0.0092639081   6.4210813      712.27001     -16.691022      695.57899    
    920000   311.02087      0.0092639081   6.5998787      771.65136     -12.440469      759.21089    
    921000   306.68693      0.0092639081   4.5150957      760.89872     -13.051623      747.8471     
    922000   298.63279      0.0092639081   3.7313049      740.91618     -17.211747      723.70444    
    923000   280.07959      0.0092639081   5.3534441      694.88517     -18.308055      676.57712    
    924000   302.60068      0.0092639081   5.1856028      750.76062     -20.348544      730.41208    
    925000   297.76896      0.0092639081   6.1205799      738.773       -17.561659      721.21134    
    926000   307.89291      0.0092639081   5.1400555      763.8908      -17.965696      745.9251     
    927000   299.21995      0.0092639081   5.3724837      742.37295     -19.218369      723.15458    
    928000   300.13579      0.0092639081   4.765999       744.64518     -15.742087      728.90309    
    929000   305.05451      0.0092639081   5.0969182      756.84866     -17.580885      739.26777    
    930000   288.48526      0.0092639081   4.3540296      715.73988     -19.530908      696.20898    
    931000   289.27256      0.0092639081   5.3029479      717.69321     -14.959328      702.73388    
    932000   308.36397      0.0092639081   5.5112166      765.05952     -14.428374      750.63114    
    933000   304.68285      0.0092639081   1.0611082      755.92656     -20.615282      735.31127    
    934000   292.40918      0.0092639081   5.6132452      725.47524     -16.885767      708.58947    
    935000   293.72586      0.0092639081   7.5180903      728.74196     -20.209439      708.53252    
    936000   309.13801      0.0092639081   4.8657001      766.97993     -17.942233      749.0377     
    937000   304.31763      0.0092639081   5.0133577      755.02042     -17.726848      737.29357    
    938000   290.17693      0.0092639081   0.96364031     719.93696     -16.059345      703.87761    
    939000   293.16638      0.0092639081   6.1268018      727.35387     -13.117942      714.23592    
    940000   309.54181      0.0092639081   7.7864695      767.98176     -15.583548      752.39821    
    941000   307.10889      0.0092639081   4.3134406      761.94562     -15.141488      746.80413    
    942000   284.74479      0.0092639081   1.6461486      706.45968     -13.168224      693.29145    
    943000   299.30132      0.0092639081   7.9182995      742.57484     -14.151442      728.42339    
    944000   316.41721      0.0092639081   4.9577451      785.03982     -13.883812      771.156      
    945000   302.49622      0.0092639081   2.0845347      750.50147     -17.031037      733.47043    
    946000   287.64999      0.0092639081   7.4305123      713.66755     -12.906889      700.76066    
    947000   301.27549      0.0092639081   6.3540027      747.47279     -14.268607      733.20418    
    948000   318.35309      0.0092639081   5.3310899      789.8428      -15.984547      773.85825    
    949000   294.75409      0.0092639081   0.027299331    731.29301     -19.693589      711.59942    
    950000   289.46414      0.0092639081   10.38579       718.16851     -15.884409      702.2841     
    951000   303.75924      0.0092639081   4.9009625      753.63505     -16.085239      737.54981    
    952000   302.66655      0.0092639081   0.67847706     750.92405     -16.348129      734.57592    
    953000   303.10345      0.0092639081   3.4256304      752.00801     -18.634887      733.37312    
    954000   295.41503      0.0092639081   10.579359      732.93283     -13.952856      718.97998    
    955000   299.81657      0.0092639081   4.9220213      743.85317     -19.788811      724.06436    
    956000   305.36154      0.0092639081   2.0580624      757.6104      -17.037864      740.57254    
    957000   303.09206      0.0092639081   4.5078267      751.97975     -17.126731      734.85302    
    958000   296.8083       0.0092639081   5.9724382      736.38956     -16.466376      719.92319    
    959000   302.36019      0.0092639081   4.7076949      750.16398     -15.497568      734.66641    
    960000   304.65182      0.0092639081   4.6390703      755.84955     -15.848514      740.00104    
    961000   302.93769      0.0092639081   4.3692253      751.59676     -16.36616       735.2306     
    962000   294.87145      0.0092639081   9.020167       731.5842      -16.838966      714.74524    
    963000   300.67004      0.0092639081   3.6871795      745.97067     -20.722666      725.248      
    964000   301.80278      0.0092639081   5.1070905      748.78102     -19.050075      729.73095    
    965000   309.43408      0.0092639081   8.0649006      767.71448     -19.041249      748.67324    
    966000   297.97952      0.0092639081   2.3530474      739.2954      -20.817898      718.4775     
    967000   300.08909      0.0092639081   4.0405517      744.52931     -20.929268      723.60004    
    968000   297.23192      0.0092639081   6.6015742      737.44058     -17.448389      719.99219    
    969000   304.20768      0.0092639081   5.4024616      754.74764     -21.522485      733.22516    
    970000   288.83664      0.0092639081   5.171391       716.61167     -18.908473      697.7032     
    971000   297.42389      0.0092639081   4.760914       737.91688     -19.924051      717.99283    
    972000   301.41094      0.0092639081   5.7206454      747.80886     -21.227894      726.58097    
    973000   296.10982      0.0092639081   5.6397889      734.65662     -21.271663      713.38496    
    974000   296.37385      0.0092639081   2.6793161      735.3117      -20.201956      715.10975    
    975000   303.40597      0.0092639081   5.8118076      752.75857     -18.834844      733.92372    
    976000   303.77992      0.0092639081   5.9372422      753.68635     -20.733354      732.953      
    977000   304.04482      0.0092639081   6.7871822      754.34358     -22.498551      731.84503    
    978000   302.71837      0.0092639081   4.6251354      751.05263     -21.138314      729.91431    
    979000   294.16318      0.0092639081   4.7745555      729.82695     -18.31343       711.51352    
    980000   306.21092      0.0092639081   6.7655739      759.71774     -21.47561       738.24213    
    981000   297.37784      0.0092639081   3.8547081      737.80261     -20.468508      717.3341     
    982000   295.69321      0.0092639081   5.2095572      733.62301     -22.741429      710.88158    
    983000   301.81579      0.0092639081   5.516241       748.81329     -18.337033      730.47626    
    984000   297.2892       0.0092639081   6.2567424      737.58271     -20.587368      716.99534    
    985000   303.03391      0.0092639081   5.2073148      751.83548     -18.456412      733.37906    
    986000   302.11239      0.0092639081   4.503501       749.54917     -21.046529      728.50264    
    987000   292.29536      0.0092639081   4.9431072      725.19283     -21.278328      703.91451    
    988000   300.09974      0.0092639081   5.2706984      744.55572     -20.854721      723.701      
    989000   308.84353      0.0092639081   5.3048665      766.24931     -16.789395      749.45991    
    990000   301.45634      0.0092639081   5.4852541      747.92148     -15.926035      731.99545    
    991000   294.94584      0.0092639081   4.9664763      731.76875     -19.027007      712.74175    
    992000   305.28753      0.0092639081   4.5008007      757.42678     -15.815008      741.61177    
    993000   309.11742      0.0092639081   5.1256623      766.92883     -17.526377      749.40245    
    994000   302.71915      0.0092639081   4.5052621      751.05457     -23.161479      727.89309    
    995000   284.11146      0.0092639081   4.4488496      704.88835     -23.485447      681.40291    
    996000   294.04793      0.0092639081   5.6670632      729.54101     -21.897449      707.64356    
    997000   307.24685      0.0092639081   2.99279        762.28791     -23.189174      739.09874    
    998000   305.01811      0.0092639081   5.0036015      756.75833     -19.752705      737.00562    
    999000   304.57449      0.0092639081   5.1878088      755.6577      -17.712305      737.94539    
   1000000   307.64054      0.0092639081   5.2168867      763.26465     -20.439486      742.82516    
   1001000   301.474        0.0092639081   4.7774413      747.96532     -21.348573      726.61674    
   1002000   299.35468      0.0092639081   5.2956397      742.70722     -20.311746      722.39548    
   1003000   296.40847      0.0092639081   5.2002999      735.39758     -22.040588      713.35699    
   1004000   302.64773      0.0092639081   4.587818       750.87736     -20.569585      730.30778    
   1005000   300.95819      0.0092639081   9.7988695      746.68556     -19.188046      727.49752    
   1006000   298.2327       0.0092639081   4.6472454      739.92355     -17.114026      722.80952    
   1007000   284.44527      0.0092639081   4.1682838      705.71656     -17.259714      688.45685    
   1008000   300.87269      0.0092639081   5.0951237      746.47343     -16.419126      730.05431    
   1009000   313.27128      0.0092639081   6.2077612      777.23469     -15.821469      761.41322    
   1010000   286.96009      0.0092639081   4.8668262      711.9559      -13.812977      698.14293    
   1011000   290.63956      0.0092639081   5.1591812      721.08477     -14.843241      706.24153    
   1012000   310.28071      0.0092639081   5.3495813      769.81499     -16.213002      753.60199    
   1013000   303.89644      0.0092639081   5.5522189      753.97544     -13.619639      740.35581    
   1014000   289.39778      0.0092639081   4.8697037      718.00387     -16.799628      701.20424    
   1015000   290.59796      0.0092639081   5.1066673      720.98154     -13.413284      707.56825    
   1016000   312.85685      0.0092639081   7.2993153      776.20647     -14.8439        761.36257    
   1017000   321.69151      0.0092639081   5.5162521      798.12549     -16.435302      781.69019    
   1018000   295.682        0.0092639081   4.6858693      733.5952      -14.050673      719.54452    
   1019000   286.60862      0.0092639081   5.583827       711.08389     -17.593036      693.49085    
   1020000   298.26646      0.0092639081   5.373714       740.00731     -17.621365      722.38595    
   1021000   298.07958      0.0092639081   5.8676507      739.54366     -14.202822      725.34084    
   1022000   312.46293      0.0092639081   5.3593085      775.22914     -15.857886      759.37125    
   1023000   296.1283       0.0092639081   6.9290956      734.70247     -14.514473      720.188      
   1024000   283.92473      0.0092639081   4.9051262      704.42508     -11.435143      692.98993    
   1025000   306.82522      0.0092639081   4.9553394      761.24182     -14.237099      747.00472    
   1026000   309.71928      0.0092639081   5.4688041      768.42207     -14.767357      753.65471    
   1027000   300.51602      0.0092639081   5.3899273      745.58852     -13.848418      731.7401     
   1028000   293.42158      0.0092639081   5.2264913      727.98702     -12.436378      715.55064    
   1029000   299.16139      0.0092639081   5.6878167      742.22766     -17.080694      725.14696    
   1030000   307.04769      0.0092639081   5.184826       761.79377     -18.607599      743.18617    
   1031000   290.63741      0.0092639081   4.4087678      721.07943     -15.4663        705.61313    
   1032000   304.42675      0.0092639081   4.9702223      755.29116     -15.606935      739.68422    
   1033000   304.38851      0.0092639081   4.6710007      755.19629     -13.177044      742.01925    
   1034000   303.50384      0.0092639081   6.2625025      753.00139     -11.918556      741.08284    
   1035000   293.5706       0.0092639081   4.5644301      728.35674     -14.574107      713.78263    
   1036000   303.30091      0.0092639081   4.4362488      752.49791     -14.087478      738.41043    
   1037000   304.50281      0.0092639081   3.2415703      755.47987     -15.344577      740.1353     
   1038000   301.99237      0.0092639081   6.8761494      749.25139     -12.190465      737.06093    
   1039000   298.62011      0.0092639081   3.0129267      740.88473     -12.139701      728.74503    
   1040000   304.48869      0.0092639081  -0.23356606     755.44483     -14.660947      740.78388    
   1041000   300.48419      0.0092639081   6.2134513      745.50956     -14.865228      730.64433    
   1042000   301.1825       0.0092639081   7.8959746      747.24209     -12.152434      735.08965    
   1043000   306.48374      0.0092639081   2.0158659      760.3946      -14.743214      745.65138    
   1044000   295.75291      0.0092639081   2.8141545      733.77111     -13.083233      720.68788    
   1045000   298.79672      0.0092639081   5.1693973      741.3229      -16.124299      725.1986     
   1046000   304.50716      0.0092639081   5.8193575      755.49065     -17.418581      738.07207    
   1047000   303.72006      0.0092639081   5.7674049      753.53784     -17.661521      735.87632    
   1048000   297.83099      0.0092639081   5.9792961      738.92689     -17.538679      721.38821    
   1049000   287.24221      0.0092639081   4.9954629      712.65585     -15.971621      696.68423    
   1050000   305.91564      0.0092639081   4.8739886      758.98513     -15.655169      743.32997    
   1051000   299.45148      0.0092639081   10.869211      742.94738     -15.706389      727.24099    
   1052000   290.33549      0.0092639081   3.4243315      720.33036     -16.130224      704.20013    
   1053000   298.18634      0.0092639081   6.8642435      739.80853     -13.308632      726.49989    
   1054000   303.33564      0.0092639081   6.425374       752.58408     -13.32743       739.25665    
   1055000   296.34099      0.0092639081   5.5719765      735.23017     -12.891094      722.33908    
   1056000   300.87113      0.0092639081   3.2884468      746.46956     -13.927473      732.54208    
   1057000   294.74259      0.0092639081   4.527517       731.2645      -14.156512      717.10799    
   1058000   291.75601      0.0092639081   5.3200198      723.85471     -12.146909      711.7078     
   1059000   288.19395      0.0092639081   7.6807153      715.01714     -17.865891      697.15125    
   1060000   295.69854      0.0092639081   3.7567916      733.63622     -14.729406      718.90681    
   1061000   296.27891      0.0092639081   1.7945881      735.07615     -10.11109       724.96506    
   1062000   303.54148      0.0092639081   4.4977762      753.09479     -12.774473      740.32031    
   1063000   316.6924       0.0092639081   6.4661512      785.72257     -10.933906      774.78867    
   1064000   293.42989      0.0092639081   7.9812417      728.00763     -12.653742      715.35389    
   1065000   289.01211      0.0092639081   6.1194396      717.04702     -12.157981      704.88904    
   1066000   296.24254      0.0092639081   4.770961       734.98591     -14.219801      720.76611    
   1067000   310.59021      0.0092639081   5.4000584      770.58288     -14.557998      756.02488    
   1068000   296.38097      0.0092639081   5.4115791      735.32935     -15.826761      719.50259    
   1069000   280.78377      0.0092639081   5.3659084      696.63228     -18.687154      677.94513    
   1070000   312.95044      0.0092639081   4.9971097      776.43867     -18.71788       757.72079    
   1071000   318.0575       0.0092639081   4.9229557      789.10942     -16.833987      772.27544    
   1072000   297.79225      0.0092639081   4.6607144      738.83077     -16.124681      722.70609    
   1073000   292.57449      0.0092639081   5.2531991      725.88538     -15.486965      710.39842    
   1074000   321.5818       0.0092639081   7.0986676      797.85331     -16.664345      781.18896    
   1075000   310.30039      0.0092639081   5.2737807      769.86383     -18.783036      751.08079    
   1076000   295.52953      0.0092639081   5.3317775      733.21692     -13.596151      719.62077    
   1077000   286.75847      0.0092639081   5.8073723      711.45568     -14.469651      696.98603    
   1078000   302.61131      0.0092639081   4.0880701      750.787       -16.264593      734.5224     
   1079000   318.77909      0.0092639081   5.9097868      790.8997      -14.235377      776.66432    
   1080000   291.33692      0.0092639081   5.1992741      722.81492     -15.841296      706.97363    
   1081000   303.62023      0.0092639081   5.0120919      753.29017     -15.530755      737.75941    
   1082000   305.37295      0.0092639081   5.5131916      757.63871     -16.86205       740.77666    
   1083000   299.65473      0.0092639081   4.4014487      743.45164     -15.129653      728.32199    
   1084000   299.38642      0.0092639081   4.2377609      742.78596     -17.340549      725.44541    
   1085000   307.57908      0.0092639081   6.5961686      763.11217     -12.52191       750.59026    
   1086000   315.44053      0.0092639081   5.6189261      782.61664     -14.907176      767.70947    
   1087000   309.94898      0.0092639081   4.3753043      768.99197     -14.791692      754.20028    
   1088000   290.19572      0.0092639081   3.3517136      719.98358     -15.517141      704.46643    
   1089000   299.83757      0.0092639081   6.4101074      743.90528     -16.522639      727.38264    
   1090000   302.45963      0.0092639081   5.0608401      750.41068     -17.76128       732.6494     
   1091000   304.94677      0.0092639081   4.4701393      756.58135     -15.092869      741.48848    
   1092000   289.10059      0.0092639081   6.5563715      717.26653     -17.092379      700.17415    
   1093000   288.68662      0.0092639081   5.7975804      716.23946     -17.447019      698.79244    
   1094000   309.70058      0.0092639081   3.1117199      768.37568     -18.16734       750.20834    
   1095000   303.8778       0.0092639081   5.7908145      753.92919     -16.891702      737.03749    
   1096000   294.23208      0.0092639081   5.183533       729.99791     -14.462018      715.53589    
   1097000   285.62155      0.0092639081   4.8840795      708.63493     -15.047897      693.58704    
   1098000   307.73558      0.0092639081   5.4595525      763.50044     -13.429058      750.07139    
   1099000   311.01427      0.0092639081   2.9910709      771.63499     -16.406737      755.22825    
   1100000   290.44211      0.0092639081   4.8518411      720.59488     -16.902063      703.69282    
   1101000   292.76813      0.0092639081   5.8709082      726.36579     -14.219053      712.14674    
   1102000   303.93526      0.0092639081   6.6178111      754.07177     -13.662747      740.40902    
   1103000   311.9956       0.0092639081   5.3977599      774.06968     -15.097051      758.97263    
   1104000   291.26528      0.0092639081   4.4585854      722.63718     -15.163001      707.47418    
   1105000   285.78768      0.0092639081   4.6629137      709.04711     -15.327527      693.71958    
   1106000   300.09223      0.0092639081   4.9581394      744.53711     -15.363108      729.174      
   1107000   311.94391      0.0092639081   6.2695286      773.94144     -15.272999      758.66844    
   1108000   303.78114      0.0092639081   6.5862319      753.68937     -16.335423      737.35395    
   1109000   295.4131       0.0092639081   4.9200412      732.92806     -19.047742      713.88031    
   1110000   295.75898      0.0092639081   5.3301964      733.78619     -17.062669      716.72352    
   1111000   305.56939      0.0092639081   4.5249107      758.12609     -20.150345      737.97574    
   1112000   291.71176      0.0092639081   5.7394059      723.74492     -16.238782      707.50613    
   1113000   300.27424      0.0092639081   5.5245474      744.98867     -13.683641      731.30503    
   1114000   305.20342      0.0092639081   2.9823001      757.21809     -15.829825      741.38827    
   1115000   307.29548      0.0092639081   4.5089146      762.40857     -14.323914      748.08465    
   1116000   303.78429      0.0092639081   5.0320849      753.6972      -10.735075      742.96212    
   1117000   287.02823      0.0092639081   6.9784293      712.12495     -15.617878      696.50707    
   1118000   295.57553      0.0092639081   6.5178043      733.33103     -14.713312      718.61772    
   1119000   313.31342      0.0092639081   4.8848566      777.33924     -17.076318      760.26292    
   1120000   302.97388      0.0092639081   4.4065397      751.68654     -15.559969      736.12657    
   1121000   290.82453      0.0092639081   2.5638316      721.54369     -16.274751      705.26893    
   1122000   290.59915      0.0092639081   4.6914872      720.98451     -15.173803      705.81071    
   1123000   305.66332      0.0092639081   12.753584      758.35912     -14.958756      743.40036    
   1124000   306.57502      0.0092639081   4.0513986      760.62107     -15.810997      744.81007    
   1125000   300.55664      0.0092639081   2.4021982      745.68931     -14.318777      731.37054    
   1126000   294.44359      0.0092639081   5.0348624      730.52266     -13.532633      716.99002    
   1127000   295.60565      0.0092639081   7.9373979      733.40577     -12.596504      720.80927    
   1128000   304.07138      0.0092639081   6.0011415      754.40948     -9.2359833      745.1735     
   1129000   312.73384      0.0092639081   2.1718903      775.90127     -8.1754719      767.72579    
   1130000   308.99994      0.0092639081   1.4544766      766.63736     -10.621724      756.01564    
   1131000   294.50681      0.0092639081   2.8180906      730.67952     -10.13103       720.54849    
   1132000   297.78929      0.0092639081   6.7457633      738.82343     -10.852529      727.97091    
   1133000   313.869        0.0092639081   8.1468675      778.71763     -10.457053      768.26058    
   1134000   309.00085      0.0092639081   4.5435303      766.63961     -10.231859      756.40776    
   1135000   292.23966      0.0092639081   0.66253054     725.05465     -11.69466       713.35999    
   1136000   294.14521      0.0092639081   1.8941596      729.78238     -10.61576       719.16662    
   1137000   311.45648      0.0092639081   9.1991355      772.73212     -10.87493       761.85719    
   1138000   307.04958      0.0092639081   7.6387795      761.79846     -9.7879817      752.01048    
   1139000   291.63923      0.0092639081   3.0993237      723.56497     -14.032404      709.53257    
   1140000   308.13098      0.0092639081   3.3609559      764.48147     -11.10837       753.3731     
   1141000   291.62536      0.0092639081   10.59089       723.53056     -11.021872      712.50868    
   1142000   302.18674      0.0092639081   4.2850877      749.73363     -12.804398      736.92923    
   1143000   301.91672      0.0092639081   3.2390339      749.06371     -12.951636      736.11207    
   1144000   299.9453       0.0092639081   3.5189138      744.17256     -16.81339       727.35917    
   1145000   282.73436      0.0092639081   6.4676793      701.47175     -14.03923       687.43252    
   1146000   294.40942      0.0092639081   14.08443       730.4379      -13.776189      716.66171    
   1147000   316.06377      0.0092639081   4.116012       784.16292     -11.873416      772.2895     
   1148000   288.10663      0.0092639081   5.1086752      714.8005      -11.681337      703.11916    
   1149000   291.51012      0.0092639081   6.863881       723.24465     -13.985496      709.25915    
   1150000   301.57015      0.0092639081   0.73330413     748.20385     -12.91884       735.28501    
   1151000   295.51289      0.0092639081   2.3917205      733.17562     -10.463073      722.71254    
   1152000   287.4392       0.0092639081   8.0184161      713.14458     -11.182406      701.96218    
   1153000   303.54469      0.0092639081   5.5214492      753.10275     -12.18819       740.91456    
   1154000   309.1215       0.0092639081   5.238206       766.93896     -14.264881      752.67407    
   1155000   294.86546      0.0092639081   3.6972033      731.56934     -13.343824      718.22552    
   1156000   293.6299       0.0092639081   4.9586891      728.50388     -13.223986      715.2799     
   1157000   298.93711      0.0092639081   5.4639333      741.67121     -12.271965      729.39924    
   1158000   306.97942      0.0092639081   5.3694642      761.6244      -13.094462      748.52994    
   1159000   311.27912      0.0092639081   2.4026684      772.29207     -10.66474       761.62733    
   1160000   294.75935      0.0092639081   4.5420819      731.30608     -12.034776      719.2713     
   1161000   300.64677      0.0092639081   4.9681416      745.91292     -10.271021      735.6419     
   1162000   325.51942      0.0092639081   3.6503304      807.62265     -7.6678588      799.95479    
   1163000   306.96314      0.0092639081   5.4643979      761.58402     -8.6192897      752.96473    
   1164000   291.44797      0.0092639081   4.7499448      723.09044     -12.736854      710.35359    
   1165000   286.59499      0.0092639081   4.8517465      711.05007     -11.203808      699.84626    
   1166000   293.34324      0.0092639081   3.2435342      727.79265     -8.5706109      719.22204    
   1167000   306.98196      0.0092639081   4.5066471      761.63071     -9.7574117      751.8733     
   1168000   309.99941      0.0092639081   5.2100919      769.11709     -7.2222329      761.89486    
   1169000   303.95877      0.0092639081   5.6060599      754.13009     -9.1968206      744.93327    
   1170000   288.95583      0.0092639081   4.036432       716.90738     -9.3234689      707.58391    
   1171000   288.58849      0.0092639081   4.366882       715.996       -10.632555      705.36344    
   1172000   308.50174      0.0092639081   5.5916543      765.40133     -9.3352989      756.06603    
   1173000   310.00021      0.0092639081   6.4874102      769.11907     -10.157797      758.96127    
   1174000   289.99036      0.0092639081   4.8815332      719.47409     -8.5851843      710.8889     
   1175000   305.11018      0.0092639081   5.14997        756.98677     -8.2344936      748.75227    
   1176000   299.41867      0.0092639081   6.2104245      742.86598     -9.4968896      733.36909    
   1177000   304.57159      0.0092639081   4.8345717      755.65052     -13.963716      741.6868     
   1178000   309.21609      0.0092639081   5.1763283      767.17363     -12.821976      754.35166    
   1179000   297.20592      0.0092639081   7.3444107      737.37608     -13.397149      723.97894    
   1180000   294.91453      0.0092639081   4.5008377      731.69108     -14.103581      717.5875     
   1181000   287.38906      0.0092639081   3.0168484      713.02017     -14.337266      698.68291    
   1182000   298.79973      0.0092639081   4.7931846      741.33036     -13.758142      727.57222    
   1183000   306.30858      0.0092639081   4.7905062      759.96003     -14.574536      745.3855     
   1184000   303.4145       0.0092639081   6.8745919      752.77974     -15.617582      737.16216    
   1185000   300.42102      0.0092639081   3.9025978      745.35282     -18.234959      727.11786    
   1186000   301.85261      0.0092639081   4.8841873      748.90466     -17.638745      731.26591    
   1187000   300.53967      0.0092639081   8.320962       745.64721     -17.666771      727.98044    
   1188000   309.95472      0.0092639081   2.7904766      769.00621     -18.860741      750.14547    
   1189000   304.97296      0.0092639081   4.0999677      756.64633     -17.579507      739.06682    
   1190000   308.10223      0.0092639081   5.7725508      764.41011     -15.682098      748.72802    
   1191000   294.05176      0.0092639081   8.0008716      729.55051     -14.833779      714.71674    
   1192000   301.09481      0.0092639081   5.6353573      747.02453     -16.551446      730.47309    
   1193000   291.48321      0.0092639081   2.7130264      723.17787     -12.010473      711.1674     
   1194000   302.99703      0.0092639081   3.8334475      751.74398     -14.201515      737.54246    
   1195000   309.2178       0.0092639081   8.8722678      767.17788     -11.995135      755.18275    
   1196000   301.08585      0.0092639081   6.4475065      747.00229     -13.666492      733.3358     
   1197000   290.05441      0.0092639081   5.0279525      719.63299     -14.549588      705.0834     
   1198000   288.76288      0.0092639081   2.9722819      716.42866     -14.50384       701.92482    
   1199000   307.56994      0.0092639081   5.1406037      763.08949     -15.020523      748.06897    
   1200000   288.28588      0.0092639081   12.647241      715.24522     -10.344014      704.90121    
   1201000   298.88067      0.0092639081  -0.24089053     741.53119     -16.328016      725.20317    
   1202000   317.4257       0.0092639081   5.3944151      787.5419      -14.724854      772.81705    
   1203000   289.14234      0.0092639081   5.3560376      717.37011     -13.952082      703.41803    
   1204000   289.57294      0.0092639081   1.9463611      718.43844     -15.736584      702.70186    
   1205000   310.55793      0.0092639081   5.2970393      770.50279     -16.370983      754.1318     
   1206000   301.03864      0.0092639081   9.8796265      746.88515     -17.223437      729.66172    
   1207000   294.26632      0.0092639081   9.0110023      730.08285     -13.03392       717.04893    
   1208000   290.0859       0.0092639081   3.6960732      719.71111     -18.343508      701.3676     
   1209000   309.22542      0.0092639081   2.9662575      767.1968      -16.57971       750.61709    
   1210000   296.41476      0.0092639081   8.4563046      735.41319     -12.603052      722.81014    
   1211000   297.07303      0.0092639081   4.2167313      737.04638     -16.004554      721.04182    
   1212000   307.69016      0.0092639081   5.9300405      763.38778     -10.3344        753.05338    
   1213000   290.90588      0.0092639081   5.9075199      721.7455      -16.321093      705.4244     
   1214000   282.62177      0.0092639081   4.4465851      701.19239     -15.252825      685.93957    
   1215000   307.77689      0.0092639081   3.9190275      763.60294     -16.074484      747.52845    
   1216000   304.691        0.0092639081   5.1766198      755.94676     -16.347339      739.59942    
   1217000   300.40616      0.0092639081   9.1490636      745.31597     -15.11659       730.19938    
   1218000   310.83074      0.0092639081   5.5211864      771.17964     -17.978731      753.20091    
   1219000   294.00077      0.0092639081   2.2577658      729.42402     -14.358555      715.06547    
   1220000   298.47921      0.0092639081   5.2638552      740.53514     -15.666772      724.86837    
   1221000   301.24406      0.0092639081   5.2925289      747.39481     -17.591886      729.80292    
   1222000   292.12401      0.0092639081   4.5880352      724.76773     -19.830214      704.93751    
   1223000   303.20817      0.0092639081   5.4833828      752.26784     -21.044057      731.22378    
   1224000   308.19008      0.0092639081   5.2473255      764.62808     -18.558048      746.07003    
   1225000   289.82494      0.0092639081   4.4188355      719.06367     -19.130137      699.93353    
   1226000   294.72602      0.0092639081   6.1957632      731.22337     -18.704404      712.51897    
   1227000   309.49251      0.0092639081   6.6363137      767.85944     -19.681706      748.17774    
   1228000   301.2107       0.0092639081   2.1124806      747.31204     -11.57245       735.73959    
   1229000   289.03331      0.0092639081   4.727409       717.0996      -13.892201      703.2074     
   1230000   303.45405      0.0092639081   5.5552107      752.87786     -15.190129      737.68773    
   1231000   307.33828      0.0092639081   4.0917116      762.51475     -13.001543      749.51321    
   1232000   301.1223       0.0092639081   3.7318096      747.09274     -15.662927      731.42981    
   1233000   285.07818      0.0092639081   3.5219014      707.28682     -13.181219      694.10561    
   1234000   296.06108      0.0092639081   5.7814475      734.5357      -15.065974      719.46972    
   1235000   306.5468       0.0092639081   5.2011071      760.55106     -17.252811      743.29825    
   1236000   313.89258      0.0092639081   4.6294405      778.77614     -13.297247      765.4789     
   1237000   288.12592      0.0092639081   5.3991512      714.84835     -11.853989      702.99436    
   1238000   299.64175      0.0092639081   5.6064524      743.41944     -16.487871      726.93157    
   1239000   308.36563      0.0092639081   5.6217951      765.06362     -17.365779      747.69784    
   1240000   306.36787      0.0092639081   4.0696107      760.10712     -14.350306      745.75682    
   1241000   300.76405      0.0092639081   3.8622659      746.20389     -11.652113      734.55178    
   1242000   292.69847      0.0092639081   5.8768983      726.19298     -11.33641       714.85657    
   1243000   307.07074      0.0092639081   7.2387142      761.85096     -10.402453      751.44851    
   1244000   296.80905      0.0092639081   0.91040966     736.39142     -10.855467      725.53596    
   1245000   290.56885      0.0092639081   7.608802       720.90933     -12.883646      708.02569    
   1246000   306.95238      0.0092639081   8.120805       761.55732     -10.977656      750.57966    
   1247000   306.65448      0.0092639081   5.1446254      760.81822     -12.061784      748.75643    
   1248000   288.0617       0.0092639081  -3.4214471      714.68901     -12.164951      702.52406    
   1249000   302.33265      0.0092639081   9.8172636      750.09564     -11.207579      738.88806    
   1250000   311.65074      0.0092639081   7.4114294      773.21407     -11.018242      762.19583    
   1251000   291.77616      0.0092639081  -0.61232054     723.90469     -12.324939      711.57975    
   1252000   286.36053      0.0092639081   6.9607869      710.46837     -9.5061075      700.96226    
   1253000   300.36736      0.0092639081   6.1699893      745.21971     -9.0099707      736.20974    
   1254000   305.33809      0.0092639081   5.6580285      757.55222     -10.644684      746.90754    
   1255000   301.01242      0.0092639081   3.5139678      746.82011     -11.972423      734.84769    
   1256000   287.38788      0.0092639081   4.1798901      713.01724     -11.326527      701.69072    
   1257000   294.59664      0.0092639081   9.3224561      730.90237     -15.8336        715.06877    
   1258000   301.03837      0.0092639081   7.4035296      746.88448     -11.543347      735.34114    
   1259000   316.24086      0.0092639081   1.3897967      784.6023      -15.144604      769.4577     
   1260000   300.55698      0.0092639081   1.8882713      745.69014     -11.269635      734.42051    
   1261000   290.78988      0.0092639081   1.1889077      721.45771     -12.072576      709.38514    
   1262000   299.33245      0.0092639081   6.8464072      742.65205     -14.516421      728.13563    
   1263000   321.37579      0.0092639081   10.223308      797.34219     -15.35932       781.98287    
   1264000   299.19664      0.0092639081   3.3889486      742.31511     -16.627553      725.68756    
   1265000   307.15287      0.0092639081   4.5950461      762.05474     -16.507577      745.54716    
   1266000   314.61194      0.0092639081  -0.89607994     780.56089     -15.160504      765.40038    
   1267000   283.93773      0.0092639081   4.4670006      704.45734     -18.062764      686.39457    
   1268000   302.09796      0.0092639081   5.6639889      749.51337     -14.519741      734.99363    
   1269000   326.43126      0.0092639081   1.3242965      809.88496     -14.783029      795.10193    
   1270000   294.88936      0.0092639081   4.6106868      731.62862     -16.271031      715.35759    
   1271000   287.11279      0.0092639081   5.4548306      712.33474     -13.32598       699.00876    
   1272000   318.9667       0.0092639081   6.1533934      791.36516     -15.801456      775.56371    
   1273000   303.65222      0.0092639081   4.4933273      753.36953     -15.464892      737.90464    
   1274000   293.36436      0.0092639081   2.819871       727.84505     -15.830196      712.01486    
   1275000   297.13752      0.0092639081   5.0039188      737.20637     -13.180493      724.02588    
   1276000   306.16077      0.0092639081   6.1933062      759.59332     -14.436076      745.15724    
   1277000   310.56099      0.0092639081   5.9717675      770.51037     -12.123543      758.38683    
   1278000   310.21177      0.0092639081   4.2355165      769.64396     -13.581336      756.06262    
   1279000   295.34946      0.0092639081   4.9416583      732.77014     -13.791973      718.97817    
   1280000   301.59622      0.0092639081   7.1782279      748.26853     -11.764029      736.5045     
   1281000   310.72187      0.0092639081   4.5452591      770.90954     -14.786185      756.12335    
   1282000   302.6207       0.0092639081   2.9326198      750.81031     -16.558176      734.25213    
   1283000   304.36422      0.0092639081  -1.1126665      755.13602     -17.031131      738.10489    
   1284000   299.62811      0.0092639081   5.7098555      743.38559     -12.269948      731.11564    
   1285000   300.83408      0.0092639081   6.9235388      746.37763     -13.309649      733.06798    
   1286000   290.30297      0.0092639081   5.5156496      720.24967     -12.062455      708.18722    
   1287000   304.43487      0.0092639081   5.5041337      755.31131     -14.657078      740.65424    
   1288000   304.47479      0.0092639081   5.1102806      755.41035     -12.812491      742.59786    
   1289000   301.13173      0.0092639081   5.0206554      747.11612     -11.450362      735.66575    
   1290000   289.2285       0.0092639081   5.2034302      717.58388     -12.353671      705.23021    
   1291000   292.12506      0.0092639081   5.1046995      724.77032     -10.37591       714.39441    
   1292000   310.39212      0.0092639081   5.8016491      770.09142     -14.125295      755.96612    
   1293000   298.83872      0.0092639081   6.3922149      741.4271      -14.199535      727.22757    
   1294000   288.50139      0.0092639081   4.6630345      715.77991     -16.070895      699.70901    
   1295000   302.69085      0.0092639081   5.1308223      750.98434     -11.428599      739.55574    
   1296000   309.7159       0.0092639081   6.2132807      768.41368     -13.443684      754.97       
   1297000   281.16892      0.0092639081   3.3990578      697.58785     -11.780186      685.80767    
   1298000   306.59756      0.0092639081   3.5028382      760.67701     -13.686237      746.99077    
   1299000   307.07097      0.0092639081   6.0149466      761.85154     -15.793358      746.05818    
   1300000   296.82803      0.0092639081   4.2720964      736.43852     -16.01034       720.42818    
   1301000   294.8511       0.0092639081   2.6318105      731.53372     -14.863792      716.66993    
   1302000   309.73638      0.0092639081   5.6403411      768.4645      -15.282631      753.18187    
   1303000   296.62676      0.0092639081   6.6598556      735.93918     -17.451697      718.48748    
   1304000   301.79864      0.0092639081   4.6937866      748.77074     -16.911973      731.85877    
   1305000   298.58284      0.0092639081   4.4982334      740.79226     -17.572273      723.21999    
   1306000   295.94918      0.0092639081   5.4923742      734.25807     -14.353779      719.90429    
   1307000   284.86496      0.0092639081   5.0183071      706.75783     -15.609322      691.14851    
   1308000   307.17342      0.0092639081   1.1966667      762.10573     -17.879106      744.22662    
   1309000   311.83198      0.0092639081   6.4004379      773.66373     -15.995351      757.66838    
   1310000   296.39886      0.0092639081   6.3988548      735.37374     -17.40674       717.967      
   1311000   295.41075      0.0092639081  -7.5957934      732.92221     -16.914787      716.00743    
   1312000   302.05484      0.0092639081   10.652407      749.40638     -13.379991      736.02638    
   1313000   294.2243       0.0092639081   4.0012774      729.97859     -14.81202       715.16657    
   1314000   301.99724      0.0092639081  -4.0780535      749.26348     -16.204383      733.0591     
   1315000   305.13955      0.0092639081   1.4368443      757.05962     -16.238509      740.82111    
   1316000   311.09375      0.0092639081   14.424529      771.83216     -14.583581      757.24858    
   1317000   304.9535       0.0092639081   4.6118103      756.59804     -14.43362       742.16442    
   1318000   305.02076      0.0092639081   2.2509523      756.76491     -15.272761      741.49215    
   1319000   300.62488      0.0092639081   7.1028407      745.85862     -11.46099       734.39763    
   1320000   302.72615      0.0092639081   5.452492       751.07192     -9.5047107      741.56721    
   1321000   297.0285       0.0092639081   5.0595668      736.9359      -10.714373      726.22153    
   1322000   294.74059      0.0092639081   1.1230071      731.25952     -13.152951      718.10657    
   1323000   319.88851      0.0092639081   8.9468831      793.65222     -12.631522      781.02069    
   1324000   293.31003      0.0092639081   9.5430217      727.71027     -15.278805      712.43146    
   1325000   292.21336      0.0092639081   4.3956252      724.98939     -13.710836      711.27855    
   1326000   311.31708      0.0092639081  -0.62014658     772.38625     -15.096972      757.28928    
   1327000   302.75876      0.0092639081   9.9449138      751.15283     -16.267221      734.88561    
   1328000   301.3876       0.0092639081   7.5720221      747.75094     -14.02775       733.72318    
   1329000   302.89279      0.0092639081   4.9039754      751.48537     -15.726138      735.75923    
   1330000   300.23482      0.0092639081  -0.79693166     744.89087     -19.183916      725.70695    
   1331000   309.0175       0.0092639081   7.5826952      766.68093     -17.225289      749.45564    
   1332000   311.58917      0.0092639081   10.256848      773.06133     -18.331846      754.72948    
   1333000   300.67984      0.0092639081   4.7373972      745.99496     -19.367554      726.62741    
   1334000   312.53195      0.0092639081   0.026593752    775.40039     -18.748799      756.65159    
   1335000   297.36427      0.0092639081   16.30724       737.76896     -13.627188      724.14177    
   1336000   287.63635      0.0092639081   3.3871503      713.63372     -12.086746      701.54697    
   1337000   311.262        0.0092639081   2.5289645      772.24961     -11.056273      761.19334    
   1338000   306.94883      0.0092639081   7.0361334      761.5485      -12.969608      748.5789     
   1339000   288.38593      0.0092639081   5.0397648      715.49344     -15.447117      700.04632    
   1340000   286.06606      0.0092639081  -1.0747538      709.73779     -12.753993      696.98379    
   1341000   303.4851       0.0092639081   3.4665077      752.95489     -15.369634      737.58526    
   1342000   317.42138      0.0092639081   13.287833      787.53118     -14.245585      773.2856     
   1343000   292.56814      0.0092639081   15.788739      725.86963     -13.360169      712.50946    
   1344000   293.31889      0.0092639081   3.1006227      727.73226     -17.228147      710.50411    
   1345000   318.92279      0.0092639081  -0.1831151      791.25622     -16.799576      774.45665    
   1346000   300.01763      0.0092639081   9.0557815      744.35201     -14.622516      729.72949    
   1347000   285.96371      0.0092639081   2.5992039      709.48385     -14.475585      695.00827    
   1348000   313.61376      0.0092639081  -2.5181509      778.08439     -13.626507      764.45788    
   1349000   307.29303      0.0092639081   3.6248314      762.40247     -14.050304      748.35217    
   1350000   313.65317      0.0092639081   8.658794       778.18215     -17.123155      761.059      
   1351000   293.43399      0.0092639081   5.7378666      728.01781     -16.068906      711.9489     
   1352000   295.38836      0.0092639081   4.1516439      732.86668     -11.977792      720.88888    
   1353000   314.5787       0.0092639081   6.3036202      780.47843     -15.951956      764.52647    
   1354000   300.4214       0.0092639081   7.207057       745.35378     -14.546975      730.80681    
   1355000   293.35158      0.0092639081   2.7271995      727.81336     -14.360944      713.45242    
   1356000   310.65578      0.0092639081   3.8071048      770.74555     -16.311356      754.4342     
   1357000   301.96002      0.0092639081   7.6884489      749.17114     -11.439488      737.73165    
   1358000   280.61878      0.0092639081   6.253212       696.22292     -13.221623      683.0013     
   1359000   292.15907      0.0092639081   2.2571913      724.85471     -13.84899       711.00572    
   1360000   304.84789      0.0092639081   5.8844874      756.33602     -14.309591      742.02643    
   1361000   312.32206      0.0092639081   6.4244742      774.87963     -14.717782      760.16185    
   1362000   287.44524      0.0092639081   3.1968849      713.15955     -10.08572       703.07383    
   1363000   298.55672      0.0092639081   3.5776382      740.72745     -9.821043       730.9064     
   1364000   305.78919      0.0092639081   8.1881131      758.67142     -11.726715      746.9447     
   1365000   306.7471       0.0092639081   5.8650459      761.04801     -10.065353      750.98266    
   1366000   281.77774      0.0092639081   4.6761624      699.09835     -13.029769      686.06858    
   1367000   293.84177      0.0092639081   4.1867461      729.02954     -12.975421      716.05412    
   1368000   308.09375      0.0092639081   5.1391893      764.38909     -13.683537      750.70555    
   1369000   302.42063      0.0092639081   4.7659185      750.31392     -15.552837      734.76108    
   1370000   288.36718      0.0092639081   5.2914994      715.44691     -14.606764      700.84015    
   1371000   284.67097      0.0092639081   6.3203801      706.27652     -14.75281       691.52371    
   1372000   314.83207      0.0092639081   3.7027882      781.10704     -17.704306      763.40274    
   1373000   293.27685      0.0092639081  -1.2450187      727.62794     -17.037669      710.59027    
   1374000   300.05936      0.0092639081   5.4451426      744.45554     -18.771463      725.68408    
   1375000   300.78411      0.0092639081   5.5663736      746.25367     -16.268552      729.98512    
   1376000   297.70605      0.0092639081   5.1908156      738.61692     -19.781085      718.83584    
   1377000   302.39055      0.0092639081   3.9829256      750.23929     -15.216101      735.02319    
   1378000   300.80072      0.0092639081  -1.2893871      746.29487     -15.242628      731.05225    
   1379000   299.84311      0.0092639081   5.7388275      743.91901     -14.777784      729.14123    
   1380000   295.99011      0.0092639081   8.5904065      734.35962     -13.853085      720.50653    
   1381000   306.77317      0.0092639081   5.8185628      761.11268     -16.565203      744.54748    
   1382000   302.20577      0.0092639081  -2.1281673      749.78085     -15.886257      733.8946     
   1383000   289.50895      0.0092639081   4.477392       718.27969     -13.949846      704.32984    
   1384000   299.65609      0.0092639081   15.17259       743.45501     -12.784465      730.67054    
   1385000   306.452        0.0092639081   3.3539068      760.31586     -14.219141      746.09672    
   1386000   297.52731      0.0092639081   4.7626522      738.17346     -14.317752      723.85571    
   1387000   293.08094      0.0092639081   8.7183929      727.14189     -16.652188      710.4897     
   1388000   311.88421      0.0092639081   3.8839001      773.79332     -14.220722      759.57259    
   1389000   317.79131      0.0092639081   1.1006008      788.44899     -12.382012      776.06698    
   1390000   287.17031      0.0092639081   4.8083238      712.47745     -14.481823      697.99563    
   1391000   297.68361      0.0092639081   7.8605897      738.56124     -17.714105      720.84714    
   1392000   306.83608      0.0092639081   2.4453535      761.26878     -20.367797      740.90098    
   1393000   300.97111      0.0092639081  -0.56040553     746.71761     -18.289811      728.4278     
   1394000   286.75533      0.0092639081   4.9850993      711.44787     -20.400341      691.04753    
   1395000   285.14488      0.0092639081   14.665841      707.4523      -18.487278      688.96503    
   1396000   316.97633      0.0092639081   2.9911877      786.42701     -18.06573       768.36128    
   1397000   298.71668      0.0092639081  -3.7392434      741.12432     -15.874266      725.25005    
   1398000   285.91662      0.0092639081   3.6754109      709.36701     -15.040239      694.32677    
   1399000   298.33451      0.0092639081   15.725955      740.17614     -18.327551      721.84859    
   1400000   311.87555      0.0092639081   0.57281739     773.77184     -14.937704      758.83414    
   1401000   293.88988      0.0092639081   3.6925112      729.14888     -18.289721      710.85916    
   1402000   276.87119      0.0092639081   6.2400258      686.92504     -19.205093      667.71995    
   1403000   298.29234      0.0092639081   8.1571271      740.07151     -18.462609      721.6089     
   1404000   301.27653      0.0092639081   7.6996807      747.47537     -16.773917      730.70146    
   1405000   301.86055      0.0092639081   4.3535458      748.92433     -17.386904      731.53743    
   1406000   300.18461      0.0092639081  -3.3075781      744.76629     -17.227176      727.53912    
   1407000   301.6484       0.0092639081   4.1380526      748.398       -21.469707      726.92829    
   1408000   298.7975       0.0092639081   8.1120123      741.32484     -19.065699      722.25914    
   1409000   293.88637      0.0092639081   7.8726307      729.14019     -15.391514      713.74868    
   1410000   304.12543      0.0092639081  -1.1516306      754.54359     -13.143537      741.40005    
   1411000   299.01831      0.0092639081   3.2831615      741.87267     -13.358463      728.5142     
   1412000   295.85817      0.0092639081   5.5447847      734.03228     -14.96793       719.06435    
   1413000   305.57346      0.0092639081   8.8383065      758.13619     -12.636445      745.49974    
   1414000   317.80271      0.0092639081   5.8959071      788.47729     -11.631803      776.84548    
   1415000   296.17809      0.0092639081   1.5747993      734.82602     -13.108253      721.71776    
   1416000   282.04333      0.0092639081   6.7609051      699.75729     -13.239712      686.51758    
   1417000   316.19896      0.0092639081   12.102119      784.49833     -12.146881      772.35144    
   1418000   305.98919      0.0092639081   2.1737819      759.16761     -8.7900884      750.37752    
   1419000   285.33004      0.0092639081   4.2483958      707.9117      -11.026379      696.88532    
   1420000   290.02505      0.0092639081   4.9726844      719.56016     -14.264094      705.29606    
   1421000   306.08028      0.0092639081   5.8867703      759.39361     -13.618454      745.77516    
   1422000   318.29371      0.0092639081   5.79088        789.69546     -15.181724      774.51373    
   1423000   310.85562      0.0092639081   3.5969149      771.24135     -13.328312      757.91304    
   1424000   286.87403      0.0092639081   4.9998577      711.74238     -12.604267      699.13811    
   1425000   297.82788      0.0092639081   4.4948209      738.91917     -10.575008      728.34416    
   1426000   325.90991      0.0092639081   6.9929699      808.59147     -12.092566      796.4989     
   1427000   302.01067      0.0092639081   5.3460042      749.2968      -12.464644      736.83215    
   1428000   284.67448      0.0092639081   5.6993811      706.28523     -8.9110644      697.37417    
   1429000   285.97764      0.0092639081   3.861322       709.51841     -10.146116      699.37229    
   1430000   303.22505      0.0092639081   4.8372948      752.3097      -14.681956      737.62775    
   1431000   299.63703      0.0092639081   4.5710447      743.40774     -13.392419      730.01532    
   1432000   297.53385      0.0092639081   5.1874298      738.18969     -15.561547      722.62814    
   1433000   304.11372      0.0092639081   5.1303819      754.51452     -16.659367      737.85515    
   1434000   284.99543      0.0092639081   9.2556517      707.08153     -15.033557      692.04797    
   1435000   297.74328      0.0092639081   2.4041229      738.70929     -13.2005        725.50879    
   1436000   313.49283      0.0092639081   3.4829382      777.78436     -14.694758      763.0896     
   1437000   306.93256      0.0092639081   11.597206      761.50814     -12.696436      748.81171    
   1438000   286.40189      0.0092639081   4.806012       710.57098     -13.273667      697.29731    
   1439000   287.37025      0.0092639081   1.4951278      712.9735      -13.43884       699.53466    
   1440000   310.02476      0.0092639081   3.3525532      769.17997     -13.70749       755.47248    
   1441000   311.74703      0.0092639081   7.4884036      773.45296     -14.0842        759.36876    
   1442000   296.47955      0.0092639081   6.9552475      735.57393     -16.003581      719.57035    
   1443000   295.32041      0.0092639081   3.5616092      732.69809     -18.423776      714.27431    
   1444000   297.79558      0.0092639081   4.309421       738.83904     -15.267438      723.57161    
   1445000   315.7218       0.0092639081   5.118254       783.31449     -15.952037      767.36245    
   1446000   298.82226      0.0092639081   6.1745625      741.38626     -16.102468      725.28379    
   1447000   293.09042      0.0092639081   4.6153069      727.16542     -17.815749      709.34967    
   1448000   296.85842      0.0092639081   4.2533156      736.51393     -16.64876       719.86517    
   1449000   304.20875      0.0092639081   4.9799887      754.75029     -16.062908      738.68738    
   1450000   304.20416      0.0092639081   5.5879746      754.73891     -14.383049      740.35586    
   1451000   299.66331      0.0092639081   5.4189258      743.47294     -14.722165      728.75077    
   1452000   287.15388      0.0092639081   5.0630554      712.43669     -16.38187       696.05482    
   1453000   309.84384      0.0092639081   5.6093192      768.73111     -13.859678      754.87143    
   1454000   295.07016      0.0092639081   3.6868731      732.07721     -14.425467      717.65174    
   1455000   291.66924      0.0092639081   3.2811065      723.63943     -10.238318      713.40111    
   1456000   304.70663      0.0092639081   5.543258       755.98554     -11.780848      744.2047     
   1457000   304.90442      0.0092639081   5.6014114      756.47628     -11.870497      744.60578    
   1458000   300.02704      0.0092639081   4.8516297      744.37537     -15.793443      728.58192    
   1459000   282.82108      0.0092639081   4.5264486      701.68688     -14.828444      686.85844    
   1460000   296.36954      0.0092639081   4.790018       735.301       -12.583671      722.71733    
   1461000   309.63783      0.0092639081   5.2461498      768.22        -14.824773      753.39523    
   1462000   296.04514      0.0092639081   5.2337551      734.49615     -10.205331      724.29082    
   1463000   298.06962      0.0092639081   4.6763335      739.51893     -14.176349      725.34258    
   1464000   296.11035      0.0092639081   5.7924671      734.65794     -13.675009      720.98293    
   1465000   306.02782      0.0092639081   8.6737326      759.26345     -13.301525      745.96192    
   1466000   299.08246      0.0092639081   6.5636815      742.03184     -14.856347      727.17549    
   1467000   294.30614      0.0092639081   0.89779775     730.18163     -14.264339      715.91729    
   1468000   292.93369      0.0092639081   1.8930231      726.77656     -10.915681      715.86088    
   1469000   300.42171      0.0092639081   6.34296        745.35454     -11.03711       734.31743    
   1470000   299.92637      0.0092639081   6.6696291      744.1256      -11.872991      732.25261    
   1471000   309.671        0.0092639081   3.1934871      768.30229     -13.667995      754.63429    
   1472000   303.32606      0.0092639081   0.18409662     752.56032     -13.083534      739.47678    
   1473000   279.39781      0.0092639081   3.7443336      693.19366     -12.815622      680.37804    
   1474000   309.05412      0.0092639081   6.2040233      766.77179     -14.414154      752.35764    
   1475000   303.30938      0.0092639081   1.5033814      752.51893     -16.4221        736.09683    
   1476000   291.08592      0.0092639081   0.067194308    722.19219     -13.09847       709.09372    
   1477000   294.85439      0.0092639081   2.3970643      731.54187     -13.197271      718.3446     
   1478000   299.97331      0.0092639081   10.579978      744.24205     -13.180132      731.06192    
   1479000   296.80727      0.0092639081   7.0033107      736.38701     -12.973194      723.41382    
   1480000   299.37377      0.0092639081   4.5295559      742.75458     -17.275326      725.47925    
   1481000   291.77652      0.0092639081   3.6198586      723.90559     -13.979333      709.92626    
   1482000   288.76258      0.0092639081   7.6113494      716.42792     -9.8084389      706.61949    
   1483000   307.54293      0.0092639081   4.4040262      763.0225      -15.047186      747.97531    
   1484000   302.61676      0.0092639081   5.3825895      750.80053     -12.042655      738.75787    
   1485000   296.29217      0.0092639081   3.2685485      735.10903     -12.798681      722.31035    
   1486000   302.46311      0.0092639081   4.1301274      750.41931     -15.761567      734.65774    
   1487000   304.59604      0.0092639081   5.965195       755.71117     -14.294389      741.41678    
   1488000   299.66115      0.0092639081   5.4381477      743.46756     -15.94526       727.5223     
   1489000   295.28022      0.0092639081   4.3906093      732.59836     -15.213672      717.38469    
   1490000   309.95566      0.0092639081   4.8831183      769.00854     -14.759154      754.24938    
   1491000   323.98998      0.0092639081   3.1514877      803.82808     -14.477173      789.3509     
   1492000   304.76531      0.0092639081   5.4194443      756.13113     -17.109988      739.02114    
   1493000   294.23806      0.0092639081   4.7501467      730.01273     -15.681854      714.33088    
   1494000   297.31558      0.0092639081  -0.045938368    737.64815     -12.249196      725.39895    
   1495000   296.85851      0.0092639081   5.9191144      736.51415     -9.712679       726.80147    
   1496000   300.70506      0.0092639081   6.1830276      746.05753     -12.009518      734.04802    
   1497000   300.79563      0.0092639081   4.9154294      746.28226     -12.524501      733.75775    
   1498000   311.20473      0.0092639081   2.1930712      772.10752     -12.070288      760.03723    
   1499000   295.97375      0.0092639081   8.8956163      734.31903     -13.319653      720.99937    
   1500000   290.63855      0.0092639081   4.8247928      721.08225     -15.581984      705.50026    
   1501000   302.48889      0.0092639081   1.3441951      750.48328     -13.851143      736.63213    
   1502000   312.99992      0.0092639081  -0.48896115     776.56144     -15.801142      760.7603     
   1503000   300.89924      0.0092639081   4.7149646      746.53932     -19.121861      727.41746    
   1504000   299.75524      0.0092639081   6.7744686      743.70102     -16.914754      726.78626    
   1505000   305.06122      0.0092639081   8.9068094      756.8653      -16.423154      740.44215    
   1506000   297.47984      0.0092639081   1.6829804      738.05569     -15.052297      723.00339    
   1507000   293.40397      0.0092639081   3.308417       727.94333     -16.304613      711.63872    
   1508000   307.26683      0.0092639081   4.5195007      762.33746     -14.567398      747.77007    
   1509000   302.76828      0.0092639081   10.906092      751.17645     -13.990453      737.18599    
   1510000   293.78349      0.0092639081   4.2108246      728.88494     -15.014303      713.87064    
   1511000   298.41131      0.0092639081  -0.28446653     740.36669     -14.580468      725.78622    
   1512000   301.08923      0.0092639081   4.4146573      747.01069     -13.969476      733.04121    
   1513000   305.40322      0.0092639081   9.2033695      757.7138      -16.123198      741.5906     
   1514000   289.72076      0.0092639081   2.688658       718.8052      -15.678033      703.12717    
   1515000   290.88356      0.0092639081  -0.59555162     721.69014     -14.186557      707.50358    
   1516000   313.79772      0.0092639081  -0.17630574     778.5408      -21.536703      757.0041     
   1517000   299.82458      0.0092639081   10.680811      743.87306     -18.822725      725.05033    
   1518000   300.97272      0.0092639081   5.3365957      746.72162     -13.374951      733.34667    
   1519000   306.8806       0.0092639081   4.7980161      761.37923     -16.379421      744.99981    
   1520000   295.14667      0.0092639081   6.9234266      732.26703     -16.477511      715.78952    
   1521000   279.8568       0.0092639081   4.0367039      694.33243     -17.117564      677.21487    
   1522000   310.55528      0.0092639081   4.0741247      770.49621     -18.65485       751.84136    
   1523000   312.16948      0.0092639081   5.2133306      774.50107     -20.449964      754.05111    
   1524000   289.41614      0.0092639081   5.1691335      718.04942     -20.227615      697.8218     
   1525000   284.96669      0.0092639081   4.661177       707.01022     -14.737985      692.27223    
   1526000   311.46894      0.0092639081   5.1437077      772.76302     -16.166879      756.59614    
   1527000   307.33334      0.0092639081   6.84585        762.50249     -17.24457       745.25792    
   1528000   293.75638      0.0092639081   4.8039066      728.81768     -20.064877      708.7528     
   1529000   289.17972      0.0092639081   4.9202         717.46286     -22.357946      695.10492    
   1530000   314.62757      0.0092639081   6.3756571      780.59967     -18.316904      762.28277    
   1531000   310.55711      0.0092639081   5.6690953      770.50074     -18.222207      752.27853    
   1532000   291.25         0.0092639081   5.7377903      722.59927     -18.976071      703.6232     
   1533000   287.98011      0.0092639081   4.7134633      714.4866      -17.344789      697.14181    
   1534000   308.03084      0.0092639081   4.7648933      764.23301     -14.753803      749.47921    
   1535000   304.37471      0.0092639081   5.1238085      755.16206     -20.333792      734.82827    
   1536000   299.27934      0.0092639081   7.2242171      742.52029     -16.272084      726.2482     
   1537000   292.45232      0.0092639081   5.0574745      725.58226     -17.002052      708.58021    
   1538000   290.46959      0.0092639081   5.2522189      720.66306     -16.300772      704.36229    
   1539000   310.55214      0.0092639081   3.8944547      770.48841     -18.631284      751.85713    
   1540000   302.86196      0.0092639081   5.1371844      751.40886     -15.890175      735.51869    
   1541000   292.25365      0.0092639081   5.1817833      725.08937     -16.992952      708.09642    
   1542000   291.24077      0.0092639081   5.2426317      722.57638     -16.691576      705.88481    
   1543000   301.13593      0.0092639081   4.9897225      747.12655     -14.877477      732.24907    
   1544000   305.36975      0.0092639081   4.6371971      757.63077     -20.284823      737.34595    
   1545000   292.64326      0.0092639081   3.6691508      726.056       -17.03358       709.02242    
   1546000   295.77941      0.0092639081   4.590671       733.83687     -20.455468      713.3814     
   1547000   304.00189      0.0092639081   5.6517813      754.23708     -15.045531      739.19155    
   1548000   307.05529      0.0092639081   5.9376955      761.81265     -14.690365      747.12228    
   1549000   297.53402      0.0092639081   3.4419137      738.19011     -16.06085       722.12926    
   1550000   291.71858      0.0092639081   4.796928       723.76184     -18.538856      705.22299    
   1551000   316.57267      0.0092639081   6.523182       785.42553     -16.823019      768.60251    
   1552000   305.66152      0.0092639081   4.7049999      758.35467     -12.444603      745.91006    
   1553000   301.94659      0.0092639081   3.1152389      749.13781     -13.826053      735.31175    
   1554000   286.81977      0.0092639081   5.2838198      711.60775     -16.584608      695.02315    
   1555000   300.61215      0.0092639081   5.9647305      745.82702     -14.830954      730.99606    
   1556000   324.6878       0.0092639081   2.3773452      805.55939     -18.560204      786.99919    
   1557000   298.14205      0.0092639081   3.9786455      739.69866     -17.195914      722.50274    
   1558000   280.98086      0.0092639081   0.75561034     697.12125     -17.507495      679.61375    
   1559000   296.09159      0.0092639081   7.6301372      734.61139     -15.953249      718.65814    
   1560000   300.41624      0.0092639081   8.9469522      745.34098     -16.656664      728.68431    
   1561000   304.74668      0.0092639081   1.7309846      756.08492     -15.751661      740.33326    
   1562000   293.70748      0.0092639081   1.0410693      728.69636     -15.32512       713.37124    
   1563000   300.63251      0.0092639081   8.0324177      745.87753     -13.929013      731.94852    
   1564000   314.53337      0.0092639081   4.1956963      780.36597     -13.615344      766.75063    
   1565000   287.05854      0.0092639081   0.59253708     712.20014     -13.476245      698.7239     
   1566000   292.6092       0.0092639081   6.6268833      725.9715      -15.684466      710.28704    
   1567000   320.50364      0.0092639081   6.4682125      795.17835     -14.583913      780.59444    
   1568000   298.71601      0.0092639081   4.650708       741.12266     -17.654313      723.46834    
   1569000   287.88243      0.0092639081   4.0004257      714.24424     -17.558373      696.68587    
   1570000   298.74508      0.0092639081   5.4845098      741.19478     -16.000819      725.19396    
   1571000   298.06537      0.0092639081   4.9733994      739.50841     -17.279901      722.22851    
   1572000   299.87205      0.0092639081   4.6050094      743.99082     -16.847803      727.14302    
   1573000   292.40593      0.0092639081   5.5278941      725.46717     -17.295551      708.17162    
   1574000   296.98652      0.0092639081   5.4275185      736.83175     -16.497428      720.33432    
   1575000   305.57012      0.0092639081   5.027601       758.1279      -13.37642       744.75148    
   1576000   310.52155      0.0092639081   4.5149152      770.41252     -10.642072      759.77044    
   1577000   288.88527      0.0092639081   6.0269307      716.73233     -17.567074      699.16525    
   1578000   310.38323      0.0092639081   6.4844919      770.06934     -16.722827      753.34651    
   1579000   304.67029      0.0092639081   2.1450074      755.89539     -14.458136      741.43726    
   1580000   286.56694      0.0092639081   3.3245368      710.98048     -13.752669      697.22782    
   1581000   295.93972      0.0092639081   6.1820893      734.2346      -14.266159      719.96844    
   1582000   310.64236      0.0092639081   7.2083005      770.71226     -16.370219      754.34204    
   1583000   300.82672      0.0092639081   3.1808496      746.35939     -16.782159      729.57723    
   1584000   291.29218      0.0092639081   6.6864168      722.70392     -15.878346      706.82558    
   1585000   294.51826      0.0092639081   4.9202246      730.70791     -14.691838      716.01607    
   1586000   297.08791      0.0092639081   2.4504572      737.08331     -10.77443       726.30888    
   1587000   301.97843      0.0092639081   6.7059495      749.21681     -14.699631      734.51718    
   1588000   311.0941       0.0092639081   10.146791      771.83304     -17.021996      754.81104    
   1589000   297.46549      0.0092639081   3.6244299      738.02008     -15.746834      722.27324    
   1590000   282.84244      0.0092639081   5.471838       701.73988     -11.911069      689.82882    
   1591000   310.65598      0.0092639081   7.0746853      770.74606     -13.388832      757.35723    
   1592000   302.00392      0.0092639081   3.5323678      749.28004     -12.36563       736.91441    
   1593000   295.35491      0.0092639081   2.3132444      732.78368     -14.680973      718.10271    
   1594000   307.68366      0.0092639081   5.9286977      763.37164     -14.330537      749.0411     
   1595000   298.87659      0.0092639081   8.6567288      741.52106     -15.026651      726.49441    
   1596000   309.24022      0.0092639081   2.7856746      767.23352     -14.94965       752.28387    
   1597000   301.53459      0.0092639081   0.45704974     748.11562     -13.202753      734.91287    
   1598000   290.42861      0.0092639081   7.9478362      720.56138     -16.647775      703.91361    
   1599000   302.71581      0.0092639081   6.6951133      751.04627     -15.761749      735.28452    
   1600000   302.43611      0.0092639081   2.4464008      750.35232     -17.260503      733.09182    
   1601000   293.45522      0.0092639081   2.0160685      728.0705      -13.999465      714.07104    
   1602000   296.33627      0.0092639081   5.2932328      735.21845     -12.837792      722.38066    
   1603000   314.70485      0.0092639081   12.02509       780.7914      -11.948951      768.84245    
   1604000   309.89425      0.0092639081   2.9081331      768.85617     -16.053444      752.80273    
   1605000   298.09761      0.0092639081   3.1061455      739.5884      -16.104756      723.48364    
   1606000   292.14207      0.0092639081   7.9714636      724.81252     -14.759131      710.05339    
   1607000   296.88284      0.0092639081   4.6678383      736.5745      -14.525485      722.04902    
   1608000   294.50119      0.0092639081   2.1474769      730.66558     -15.241582      715.424      
   1609000   297.5925       0.0092639081   4.4682739      738.33519     -16.384988      721.9502     
   1610000   302.31869      0.0092639081   6.2845159      750.06101     -15.065775      734.99524    
   1611000   301.6083       0.0092639081   1.9613968      748.2985      -14.395806      733.9027     
   1612000   300.33604      0.0092639081   3.7071823      745.142       -13.119834      732.02216    
   1613000   300.76679      0.0092639081   8.5235477      746.2107      -16.369335      729.84136    
   1614000   297.15452      0.0092639081   5.796099       737.24854     -14.980725      722.26782    
   1615000   314.7959       0.0092639081   8.4792864      781.01729     -13.082379      767.93492    
   1616000   295.42896      0.0092639081   4.8684691      732.96738     -17.676902      715.29048    
   1617000   302.08574      0.0092639081   4.5391514      749.48306     -15.198424      734.28463    
   1618000   304.75755      0.0092639081   6.305598       756.11189     -17.046126      739.06577    
   1619000   311.10899      0.0092639081   8.4971637      771.86998     -16.413687      755.45629    
   1620000   300.53171      0.0092639081   6.0431833      745.62745     -20.252605      725.37485    
   1621000   286.38754      0.0092639081   4.5978851      710.53539     -21.105122      689.43027    
   1622000   293.03204      0.0092639081   4.7285615      727.02058     -21.554751      705.46582    
   1623000   301.31708      0.0092639081   5.0235962      747.57599     -17.422085      730.1539     
   1624000   317.39316      0.0092639081   5.5935662      787.46117     -19.038968      768.4222     
   1625000   297.00675      0.0092639081   4.7844929      736.88193     -21.050674      715.83126    
   1626000   289.28291      0.0092639081   4.4556797      717.71887     -20.215327      697.50354    
   1627000   306.48088      0.0092639081   4.4591054      760.38751     -20.218117      740.16939    
   1628000   311.26491      0.0092639081   5.252079       772.25682     -19.93213       752.32469    
   1629000   299.25349      0.0092639081   5.6886874      742.45615     -17.427177      725.02898    
   1630000   280.77759      0.0092639081   4.055923       696.61695     -17.480934      679.13601    
   1631000   300.41604      0.0092639081   2.4092782      745.34049     -19.073181      726.26731    
   1632000   306.47294      0.0092639081   3.3068605      760.36782     -16.746888      743.62093    
   1633000   302.00096      0.0092639081   4.9496463      749.27271     -16.085562      733.18715    
   1634000   283.61927      0.0092639081   5.1484534      703.66722     -18.65717       685.01005    
   1635000   304.09075      0.0092639081   4.820849       754.45753     -17.366179      737.09135    
   1636000   318.44384      0.0092639081   3.6715259      790.06795     -18.315645      771.7523     
   1637000   290.50248      0.0092639081   6.6199129      720.74465     -23.584505      697.16015    
   1638000   301.46051      0.0092639081  -0.14015674     747.93183     -19.401344      728.53049    
   1639000   317.38257      0.0092639081   0.67434918     787.43492     -19.472316      767.9626     
   1640000   293.12947      0.0092639081   6.7926516      727.26229     -19.673604      707.58868    
   1641000   290.84349      0.0092639081   3.628108       721.5907      -22.299724      699.29098    
   1642000   315.61042      0.0092639081   3.4934992      783.03815     -16.442863      766.59529    
   1643000   306.67183      0.0092639081   5.5792912      760.86126     -16.994344      743.86692    
   1644000   292.34114      0.0092639081   6.4569588      725.30643     -19.864981      705.44145    
   1645000   286.97985      0.0092639081   4.2468223      712.00493     -21.720652      690.28428    
   1646000   305.09917      0.0092639081   1.1699509      756.95944     -20.011428      736.94801    
   1647000   316.8227       0.0092639081   5.6903354      786.04586     -19.4096        766.63626    
   1648000   291.49319      0.0092639081   7.4856172      723.20264     -19.961426      703.24121    
   1649000   280.48879      0.0092639081   3.8044182      695.90041     -19.41786       676.48255    
   1650000   317.25442      0.0092639081   2.8103756      787.11697     -22.271057      764.84591    
   1651000   302.5315       0.0092639081   4.3885915      750.58898     -20.913538      729.67544    
   1652000   301.16048      0.0092639081   5.5693271      747.18746     -19.342976      727.84448    
   1653000   295.95432      0.0092639081   5.707376       734.27082     -17.092433      717.17838    
   1654000   294.14054      0.0092639081   4.6872856      729.77079     -17.232095      712.5387     
   1655000   307.45367      0.0092639081   3.9496536      762.80104     -16.719164      746.08188    
   1656000   315.00513      0.0092639081   5.3595844      781.53641     -18.50156       763.03486    
   1657000   305.09126      0.0092639081   5.5968915      756.93981     -17.079636      739.86018    
   1658000   295.97557      0.0092639081   4.9837099      734.32355     -17.664805      716.65875    
   1659000   300.57086      0.0092639081   5.2109071      745.72459     -17.74211       727.98248    
   1660000   313.79056      0.0092639081   4.9447381      778.52303     -16.926712      761.59632    
   1661000   303.3899       0.0092639081   5.12421        752.71871     -19.869795      732.84891    
   1662000   297.64877      0.0092639081   5.9462126      738.4748      -18.203015      720.27179    
   1663000   295.1203       0.0092639081   4.7052109      732.2016      -15.383256      716.81835    
   1664000   311.38968      0.0092639081   2.856072       772.56637     -16.535777      756.03059    
   1665000   291.22611      0.0092639081   6.1563536      722.54001     -18.30931       704.2307     
   1666000   284.84358      0.0092639081   3.8126144      706.70478     -16.779673      689.92511    
   1667000   313.07131      0.0092639081   5.4473931      776.73854     -13.549421      763.18912    
   1668000   305.51437      0.0092639081   5.6041458      757.98958     -14.833591      743.15598    
   1669000   288.66233      0.0092639081   4.7779971      716.17919     -17.783813      698.39538    
   1670000   305.81         0.0092639081   5.0658426      758.72303     -20.706308      738.01672    
   1671000   315.03322      0.0092639081   5.0139532      781.6061      -20.86692       760.73918    
   1672000   298.62446      0.0092639081   5.9833558      740.89552     -21.716949      719.17857    
   1673000   293.25019      0.0092639081   5.2139657      727.5618      -14.817621      712.74417    
   1674000   317.37096      0.0092639081   4.5910507      787.4061      -16.480067      770.92603    
   1675000   308.85479      0.0092639081   5.8282748      766.27725     -14.92593       751.35132    
   1676000   298.51546      0.0092639081   4.9404266      740.62509     -12.907947      727.71715    
   1677000   292.80027      0.0092639081   4.9551566      726.44553     -11.925449      714.52008    
   1678000   300.49766      0.0092639081   5.3659852      745.54299     -11.278993      734.264      
   1679000   307.86688      0.0092639081   6.4745955      763.8262      -12.842343      750.98386    
   1680000   301.48081      0.0092639081   5.4698821      747.98219     -11.952432      736.02976    
   1681000   301.42149      0.0092639081   4.1788019      747.83502     -13.326202      734.50882    
   1682000   307.31023      0.0092639081   5.0132637      762.44516     -14.238838      748.20632    
   1683000   294.80475      0.0092639081   4.7921673      731.41872     -15.289918      716.1288     
   1684000   286.2966       0.0092639081   2.8206718      710.30975     -11.49574       698.81401    
   1685000   322.92529      0.0092639081   5.5320522      801.18654     -15.37305       785.81349    
   1686000   305.15467      0.0092639081   4.9025886      757.09715     -13.407342      743.6898     
   1687000   290.62421      0.0092639081   4.373775       721.04667     -12.704032      708.34264    
   1688000   290.44667      0.0092639081   5.5875405      720.6062      -13.30632       707.29988    
   1689000   318.00313      0.0092639081   5.794065       788.97453     -13.54361       775.43092    
   1690000   302.37934      0.0092639081   3.5953892      750.21147     -17.186465      733.025      
   1691000   280.35357      0.0092639081   4.9455804      695.56495     -14.721385      680.84356    
   1692000   304.56387      0.0092639081   6.3552435      755.63137     -14.065767      741.5656     
   1693000   314.25839      0.0092639081   3.5558474      779.68372     -14.092471      765.59125    
   1694000   290.08177      0.0092639081   2.4881709      719.70087     -14.360463      705.34041    
   1695000   296.9216       0.0092639081   5.4938973      736.67068     -16.032901      720.63777    
   1696000   310.10219      0.0092639081   8.3930609      769.37208     -15.119233      754.25285    
   1697000   298.04141      0.0092639081   2.3311948      739.44895     -16.799293      722.64966    
   1698000   283.4295       0.0092639081   9.537341       703.1964      -14.264058      688.93234    
   1699000   290.10353      0.0092639081   7.9554816      719.75485     -13.241942      706.51291    
   1700000   308.42305      0.0092639081   10.97414       765.2061      -15.338754      749.86735    
   1701000   298.75624      0.0092639081   4.3759631      741.22248     -18.159367      723.06311    
   1702000   292.10928      0.0092639081   2.9151697      724.73117     -17.749397      706.98177    
   1703000   288.70089      0.0092639081   1.615183       716.27486     -18.031982      698.24288    
   1704000   310.41141      0.0092639081   9.5917493      770.13926     -17.323932      752.81533    
   1705000   308.20692      0.0092639081   6.3737301      764.66985     -15.581478      749.08837    
   1706000   296.09652      0.0092639081   2.8310433      734.62364     -15.110957      719.51268    
   1707000   291.25315      0.0092639081   3.9680514      722.60708     -18.103715      704.50337    
   1708000   313.15063      0.0092639081   7.3418243      776.93535     -15.975029      760.96032    
   1709000   303.0437       0.0092639081   5.2771397      751.85978     -13.728179      738.1316     
   1710000   297.15271      0.0092639081   4.6368637      737.24406     -15.417386      721.82667    
   1711000   299.49777      0.0092639081   4.3554952      743.06222     -14.289862      728.77236    
   1712000   300.37308      0.0092639081   4.7483772      745.23389     -12.528149      732.70574    
   1713000   296.30921      0.0092639081   4.8530868      735.15132     -13.892263      721.25905    
   1714000   299.80177      0.0092639081   4.4029002      743.81646     -11.84195       731.97451    
   1715000   301.88971      0.0092639081   6.2013072      748.99669     -11.759544      737.23715    
   1716000   295.70104      0.0092639081   5.5085913      733.64243     -14.690249      718.95218    
   1717000   302.60479      0.0092639081   3.521123       750.77083     -12.341191      738.42963    
   1718000   301.52784      0.0092639081   4.5673964      748.09887     -13.312843      734.78603    
   1719000   306.09228      0.0092639081   5.9979285      759.42338     -12.928055      746.49533    
   1720000   298.62204      0.0092639081   5.6069052      740.88951     -16.760696      724.12882    
   1721000   307.69094      0.0092639081   4.8932106      763.38971     -12.950124      750.43959    
   1722000   290.04557      0.0092639081   5.7972693      719.61106     -13.922836      705.68822    
   1723000   298.16081      0.0092639081   5.4791128      739.74518     -14.985381      724.7598     
   1724000   301.29414      0.0092639081   5.2715335      747.51906     -17.093376      730.42568    
   1725000   298.45044      0.0092639081   7.1399765      740.46377     -15.95678       724.50699    
   1726000   290.98361      0.0092639081   4.768656       721.93835     -15.726517      706.21184    
   1727000   291.4846       0.0092639081   5.4277484      723.18134     -13.229265      709.95207    
   1728000   318.40791      0.0092639081   5.0968186      789.97881     -14.075178      775.90363    
   1729000   305.69281      0.0092639081   4.1295534      758.43229     -15.432794      742.9995     
   1730000   296.31384      0.0092639081   6.7435392      735.16281     -14.07243       721.09038    
   1731000   303.16432      0.0092639081   4.9049305      752.15902     -18.280773      733.87825    
   1732000   297.76716      0.0092639081   4.3491591      738.76853     -17.704136      721.0644     
   1733000   300.23046      0.0092639081   6.366816       744.88004     -17.205541      727.6745     
   1734000   310.32359      0.0092639081   3.4596752      769.92139     -19.72993       750.19146    
   1735000   286.90967      0.0092639081   4.9760856      711.8308      -16.342782      695.48802    
   1736000   285.14372      0.0092639081   3.861119       707.44942     -12.270166      695.17926    
   1737000   303.59926      0.0092639081   4.7970883      753.23813     -13.171182      740.06695    
   1738000   307.19787      0.0092639081   7.511821       762.16637     -15.87498       746.29139    
   1739000   301.31711      0.0092639081   5.2337911      747.57607     -16.94068       730.63539    
   1740000   287.30062      0.0092639081   2.9552         712.80077     -15.333713      697.46705    
   1741000   307.75544      0.0092639081   5.8938316      763.54973     -17.605638      745.9441     
   1742000   296.26697      0.0092639081   5.4519819      735.04653     -17.501712      717.54482    
   1743000   303.00738      0.0092639081   6.0373743      751.76967     -13.763152      738.00652    
   1744000   303.58206      0.0092639081   6.5267815      753.19546     -14.269692      738.92577    
   1745000   298.66312      0.0092639081   4.0934919      740.99143     -13.010866      727.98056    
   1746000   294.8842       0.0092639081   1.4898348      731.61582     -15.513874      716.10195    
   1747000   299.75641      0.0092639081   6.5231987      743.70392     -16.203073      727.50085    
   1748000   291.11624      0.0092639081   9.1739584      722.26741     -14.984438      707.28297    
   1749000   306.41231      0.0092639081   4.0159338      760.21739     -15.370133      744.84726    
   1750000   304.49548      0.0092639081  -3.624237       755.46169     -16.972929      738.48876    
   1751000   292.14872      0.0092639081   5.3317348      724.82903     -17.573152      707.25588    
   1752000   300.72176      0.0092639081   8.7901512      746.09897     -15.217481      730.88149    
   1753000   315.32324      0.0092639081   4.8152244      782.32564     -13.541114      768.78453    
   1754000   298.22944      0.0092639081   2.6620643      739.91547     -13.00778       726.90769    
   1755000   280.77885      0.0092639081   4.2862653      696.62006     -13.877753      682.74231    
   1756000   310.31135      0.0092639081   6.0090695      769.89101     -14.054774      755.83624    
   1757000   307.7966       0.0092639081   3.0397207      763.65186     -15.754623      747.89723    
   1758000   288.97046      0.0092639081   4.9003158      716.94368     -16.579499      700.36418    
   1759000   305.16656      0.0092639081   6.2396105      757.12665     -13.117308      744.00934    
   1760000   306.85457      0.0092639081   1.7488966      761.31464     -17.895623      743.41902    
   1761000   298.74504      0.0092639081   5.3285496      741.19467     -14.425959      726.76872    
   1762000   313.28738      0.0092639081   5.2539587      777.27462     -15.026982      762.24764    
   1763000   300.42734      0.0092639081   5.1661287      745.3685      -12.823252      732.54525    
   1764000   291.2504       0.0092639081   4.363065       722.60027     -12.88848       709.71179    
   1765000   289.85409      0.0092639081   5.0110311      719.13599     -14.432557      704.70344    
   1766000   309.89684      0.0092639081   6.1433391      768.86261     -12.866857      755.99575    
   1767000   302.1317       0.0092639081   5.1324091      749.59707     -14.513833      735.08323    
   1768000   295.07285      0.0092639081   4.0355343      732.08388     -13.49347       718.59041    
   1769000   307.3308       0.0092639081   5.6124831      762.49618     -11.934992      750.56119    
   1770000   307.20741      0.0092639081   5.5068136      762.19006     -12.3378        749.85226    
   1771000   294.33246      0.0092639081   3.5271659      730.24696     -15.000939      715.24602    
   1772000   297.79847      0.0092639081   5.9591729      738.84621     -15.170677      723.67553    
   1773000   308.81632      0.0092639081   5.1919583      766.1818      -12.988661      753.19314    
   1774000   309.03415      0.0092639081   3.7568808      766.72225     -13.472368      753.24988    
   1775000   300.71562      0.0092639081   2.4533552      746.08373     -11.247488      734.83625    
   1776000   286.37208      0.0092639081   4.2828626      710.49702     -13.922955      696.57406    
   1777000   303.73371      0.0092639081   5.1709823      753.5717      -17.100569      736.47113    
   1778000   309.67597      0.0092639081   6.1495375      768.31461     -13.62984       754.68477    
   1779000   295.83414      0.0092639081   4.7210068      733.97266     -15.847531      718.12513    
   1780000   283.37403      0.0092639081   5.2463972      703.05878     -14.442355      688.61642    
   1781000   295.26454      0.0092639081   4.5863999      732.55946     -15.529851      717.02961    
   1782000   313.36082      0.0092639081   5.4248125      777.45684     -15.306624      762.15021    
   1783000   306.69212      0.0092639081   5.4659537      760.91161     -18.776532      742.13508    
   1784000   292.81591      0.0092639081   5.0685997      726.48434     -21.047272      705.43707    
   1785000   283.36914      0.0092639081   4.7042376      703.04666     -17.789402      685.25726    
   1786000   310.56906      0.0092639081   4.7863188      770.5304      -17.569046      752.96135    
   1787000   298.91147      0.0092639081   5.6172431      741.60759     -18.187833      723.41976    
   1788000   289.57875      0.0092639081   4.9242293      718.45286     -19.112322      699.34053    
   1789000   293.58626      0.0092639081   3.9236796      728.39561     -19.226271      709.16934    
   1790000   310.91101      0.0092639081   1.3084585      771.37879     -11.422288      759.95651    
   1791000   313.94857      0.0092639081   0.040606096    778.91507     -15.588712      763.32635    
   1792000   294.59737      0.0092639081   7.0338426      730.90419     -14.447622      716.45657    
   1793000   297.11726      0.0092639081   4.212606       737.15612     -13.584423      723.5717     
   1794000   301.8092       0.0092639081  -0.097941254    748.79696     -14.016629      734.78033    
   1795000   296.71093      0.0092639081   5.2558206      736.148       -14.214305      721.93369    
   1796000   307.94669      0.0092639081   2.4081817      764.02422     -11.927808      752.09642    
   1797000   305.99076      0.0092639081   15.950035      759.17151     -11.924707      747.2468     
   1798000   292.28922      0.0092639081   4.910185       725.1776      -16.251778      708.92582    
   1799000   296.05266      0.0092639081   2.8065635      734.51482     -16.672661      717.84216    
   1800000   302.72078      0.0092639081   19.59186       751.05859     -17.635421      733.42317    
   1801000   300.29922      0.0092639081   3.677909       745.05064     -16.808623      728.24202    
   1802000   300.96757      0.0092639081   0.90123157     746.70884     -16.62686       730.08198    
   1803000   297.43163      0.0092639081   5.742705       737.93608     -17.385496      720.55058    
   1804000   305.53232      0.0092639081   8.9866699      758.0341      -19.612909      738.42119    
   1805000   303.55167      0.0092639081   6.2647934      753.12006     -15.468092      737.65196    
   1806000   294.63358      0.0092639081  -3.3734863      730.99403     -15.41178       715.58225    
   1807000   296.85587      0.0092639081   5.7188695      736.50759     -15.597872      720.90972    
   1808000   311.82779      0.0092639081   10.622417      773.65333     -13.237096      760.41624    
   1809000   296.75273      0.0092639081   14.948898      736.25171     -15.668884      720.58283    
   1810000   288.06008      0.0092639081   4.5015595      714.685       -21.091206      693.59379    
   1811000   305.26539      0.0092639081  -2.0589921      757.37184     -19.179971      738.19187    
   1812000   303.07113      0.0092639081   7.0655896      751.92783     -18.101858      733.82597    
   1813000   297.52829      0.0092639081   9.5787726      738.17589     -16.882552      721.29334    
   1814000   290.49786      0.0092639081   3.7809263      720.73319     -15.822158      704.91103    
   1815000   305.22351      0.0092639081   1.2012223      757.26794     -13.634788      743.63315    
   1816000   314.95614      0.0092639081   4.8373361      781.41487     -13.583548      767.83132    
   1817000   308.72985      0.0092639081   6.0240042      765.96728     -15.468281      750.499      
   1818000   288.10496      0.0092639081   5.1816983      714.79635     -18.482657      696.31369    
   1819000   296.307        0.0092639081   4.5787354      735.14585     -15.056381      720.08946    
   1820000   314.88931      0.0092639081   4.175653       781.24907     -14.201932      767.04714    
   1821000   295.56854      0.0092639081   5.1729982      733.3137      -13.070969      720.24273    
   1822000   294.05673      0.0092639081   5.1109594      729.56287     -12.249417      717.31345    
   1823000   294.94918      0.0092639081   4.7332047      731.77706     -13.907732      717.86932    
   1824000   304.13309      0.0092639081   5.808817       754.56258     -10.243921      744.31866    
   1825000   302.06294      0.0092639081   5.2828782      749.42647     -13.842922      735.58355    
   1826000   290.33071      0.0092639081   4.9772442      720.3185      -11.616472      708.70203    
   1827000   314.2228       0.0092639081   5.6055194      779.59544     -11.343693      768.25175    
   1828000   298.35421      0.0092639081   5.1073354      740.22503     -12.894134      727.3309     
   1829000   297.10185      0.0092639081   5.518663       737.11787     -11.782549      725.33532    
   1830000   290.57539      0.0092639081   4.08204        720.92554     -10.642001      710.28354    
   1831000   288.32945      0.0092639081   7.0506951      715.35331     -9.0983029      706.25501    
   1832000   303.40882      0.0092639081   6.1875574      752.76565     -12.142379      740.62327    
   1833000   297.91516      0.0092639081   2.158944       739.13572     -12.552739      726.58298    
   1834000   290.14237      0.0092639081   4.7156385      719.85123     -12.517085      707.33414    
   1835000   307.18894      0.0092639081   5.7210968      762.14422     -11.583776      750.56045    
   1836000   308.16853      0.0092639081   6.4664465      764.57462     -13.5618        751.01281    
   1837000   289.66165      0.0092639081   3.1423927      718.65854     -13.616684      705.04185    
   1838000   293.56927      0.0092639081   5.2239963      728.35346     -17.13974       711.21372    
   1839000   305.15321      0.0092639081   4.1470231      757.09353     -17.226523      739.86701    
   1840000   307.47186      0.0092639081   4.8916887      762.84616     -16.793716      746.05244    
   1841000   296.15065      0.0092639081   4.4326982      734.75792     -22.319814      712.4381     
   1842000   292.43073      0.0092639081   4.6051081      725.52871     -21.904469      703.62424    
   1843000   302.68311      0.0092639081   5.13611        750.96514     -17.882297      733.08284    
   1844000   306.04387      0.0092639081   5.8429133      759.30327     -20.675009      738.62826    
   1845000   291.63336      0.0092639081   4.1276558      723.5504      -17.740097      705.81031    
   1846000   296.02452      0.0092639081   1.3061039      734.44498     -19.917703      714.52728    
   1847000   308.09725      0.0092639081   4.7939184      764.39777     -17.935119      746.46265    
   1848000   314.8147       0.0092639081   8.6671122      781.06396     -17.351568      763.71239    
   1849000   296.35899      0.0092639081   7.707836       735.27483     -14.829346      720.44548    
   1850000   290.92658      0.0092639081   2.5489505      721.79686     -15.126264      706.67059    
   1851000   313.99521      0.0092639081   4.097586       779.03078     -16.885777      762.145      
   1852000   307.71369      0.0092639081   6.5197732      763.44615     -14.983363      748.46278    
   1853000   292.33179      0.0092639081   6.9727534      725.28322     -17.2692        708.01402    
   1854000   291.04541      0.0092639081   2.6296102      722.09169     -14.211888      707.8798     
   1855000   301.98683      0.0092639081   2.830775       749.23766     -16.067426      733.17023    
   1856000   306.62355      0.0092639081   4.6918335      760.74147     -16.485699      744.25578    
   1857000   288.85962      0.0092639081   6.7352345      716.66867     -14.67717       701.9915     
   1858000   291.32049      0.0092639081   5.2868918      722.77417     -13.220781      709.55339    
   1859000   296.48328      0.0092639081   3.0980931      735.58319     -20.777494      714.80569    
   1860000   308.83986      0.0092639081   4.3455065      766.24019     -23.717036      742.52316    
   1861000   307.89315      0.0092639081   6.2048267      763.8914      -19.073593      744.81781    
   1862000   289.42783      0.0092639081   5.5810514      718.07842     -14.87889       703.19953    
   1863000   303.24315      0.0092639081   5.2421591      752.3546      -16.88071       735.47389    
   1864000   309.46625      0.0092639081   9.3986679      767.79431     -18.92503       748.86928    
   1865000   290.18416      0.0092639081   5.514367       719.9549      -17.610213      702.34469    
   1866000   286.2904       0.0092639081   4.9001153      710.29436     -17.751913      692.54245    
   1867000   297.62132      0.0092639081   3.4446512      738.40671     -15.480074      722.92663    
   1868000   315.00941      0.0092639081   5.3241728      781.54703     -14.562482      766.98455    
   1869000   301.7589       0.0092639081   6.2957726      748.67215     -15.258625      733.41352    
   1870000   288.40191      0.0092639081   5.3147749      715.53308     -13.656272      701.87681    
   1871000   296.01057      0.0092639081   5.7115465      734.41038     -12.952417      721.45796    
   1872000   313.05018      0.0092639081   4.9327168      776.68612     -15.258328      761.42779    
   1873000   306.45589      0.0092639081   5.5406268      760.32551     -15.337665      744.98785    
   1874000   296.68356      0.0092639081   5.1363981      736.08009     -15.172381      720.90771    
   1875000   279.51854      0.0092639081   4.6539577      693.4932      -13.52391       679.96929    
   1876000   303.53898      0.0092639081   6.8100896      753.08857     -18.388017      734.70056    
   1877000   309.98589      0.0092639081   4.8912991      769.08353     -17.817988      751.26554    
   1878000   286.0983       0.0092639081   4.4468393      709.81777     -18.521872      691.29589    
   1879000   281.30587      0.0092639081   4.1822542      697.92761     -20.781248      677.14636    
   1880000   293.39859      0.0092639081   4.7576443      727.93        -19.186895      708.7431     
   1881000   312.45081      0.0092639081   4.8840557      775.19908     -21.697455      753.50163    
   1882000   309.77294      0.0092639081   5.2523892      768.5552      -17.516904      751.0383     
   1883000   286.18193      0.0092639081   6.5683362      710.02525     -14.522607      695.50264    
   1884000   291.29743      0.0092639081   4.6895915      722.71696     -16.612562      706.1044     
   1885000   307.92523      0.0092639081   5.9005902      763.97099     -14.713908      749.25708    
   1886000   302.82278      0.0092639081   4.5566104      751.31167     -16.11135       735.20032    
   1887000   292.12371      0.0092639081   4.8726888      724.76698     -18.792884      705.9741     
   1888000   298.88718      0.0092639081   5.0342208      741.54734     -18.17365       723.37369    
   1889000   323.68939      0.0092639081   6.291434       803.0823      -14.496086      788.58622    
   1890000   303.35689      0.0092639081   5.3202056      752.6368      -18.288919      734.34788    
   1891000   275.8334       0.0092639081   4.5294804      684.35027     -21.550814      662.79946    
   1892000   287.79059      0.0092639081   6.3735797      714.01638     -23.721328      690.29505    
   1893000   307.75902      0.0092639081   4.7372578      763.55862     -21.055702      742.50292    
   1894000   306.21871      0.0092639081   5.2356922      759.73707     -20.533899      739.20317    
   1895000   283.19973      0.0092639081   12.820836      702.62634     -17.231529      685.39481    
   1896000   296.27926      0.0092639081   5.7671814      735.07701     -16.909697      718.16731    
   1897000   290.28239      0.0092639081   2.3203298      720.19861     -16.58965       703.60896    
   1898000   305.12016      0.0092639081   0.0099304739   757.01153     -18.150431      738.8611     
   1899000   312.3182       0.0092639081   7.1434402      774.87006     -17.805089      757.06497    
   1900000   299.07293      0.0092639081   6.9551669      742.00818     -19.485613      722.52257    
   1901000   303.25061      0.0092639081   1.8032897      752.37311     -20.110724      732.26239    
   1902000   302.09861      0.0092639081   1.2621826      749.51499     -15.912425      733.60256    
   1903000   313.93729      0.0092639081   4.790696       778.88707     -19.66476       759.22231    
   1904000   299.20863      0.0092639081   6.864029       742.34486     -18.956313      723.38855    
   1905000   288.95051      0.0092639081   4.5908622      716.89417     -16.091245      700.80292    
   1906000   302.03978      0.0092639081   5.2335457      749.36903     -15.547307      733.82172    
   1907000   304.39127      0.0092639081   4.8055774      755.20312     -16.994141      738.20898    
   1908000   297.81363      0.0092639081   5.042944       738.88383     -19.250446      719.63339    
   1909000   298.37338      0.0092639081   5.8322946      740.27259     -16.434976      723.83762    
   1910000   301.58843      0.0092639081   5.3648279      748.24921     -14.233932      734.01528    
   1911000   299.98058      0.0092639081   5.1287274      744.26009     -16.803756      727.45634    
   1912000   299.83429      0.0092639081   4.3487222      743.89714     -16.007584      727.88956    
   1913000   302.15909      0.0092639081   7.6784493      749.66503     -16.29444       733.37059    
   1914000   294.08301      0.0092639081   5.1172144      729.62805     -15.333181      714.29487    
   1915000   308.79844      0.0092639081   4.0839327      766.13744     -15.637394      750.50005    
   1916000   312.96249      0.0092639081   7.6473275      776.46857     -14.087887      762.38069    
   1917000   287.93955      0.0092639081   6.5799332      714.38596     -16.905241      697.48072    
   1918000   299.01121      0.0092639081  -0.47495075     741.85506     -12.940891      728.91416    
   1919000   314.99772      0.0092639081   5.2624839      781.51804     -16.02575       765.49229    
   1920000   299.72733      0.0092639081   5.8267801      743.63177     -15.241008      728.39077    
   1921000   299.06237      0.0092639081   5.2915288      741.98197     -15.311346      726.67063    
   1922000   294.50953      0.0092639081   2.99086        730.68627     -16.573692      714.11257    
   1923000   310.0044       0.0092639081   9.5090184      769.12945     -17.599454      751.53       
   1924000   306.75725      0.0092639081   8.7789341      761.07319     -18.139672      742.93352    
   1925000   297.7271       0.0092639081   4.1341732      738.66913     -16.19712       722.47201    
   1926000   308.25313      0.0092639081   5.4750772      764.78452     -14.37096       750.41356    
   1927000   296.90472      0.0092639081   3.7686027      736.62879     -16.161221      720.46757    
   1928000   306.61456      0.0092639081   4.5587258      760.71917     -14.872516      745.84666    
   1929000   297.41081      0.0092639081   5.250268       737.88442     -17.702933      720.18149    
   1930000   313.1818       0.0092639081   6.3463616      777.01267     -18.38595       758.62672    
   1931000   308.8587       0.0092639081   5.2995415      766.28694     -17.223634      749.06331    
   1932000   299.36349      0.0092639081   4.664695       742.72908     -16.274568      726.45451    
   1933000   300.00552      0.0092639081   6.3864833      744.32197     -20.995009      723.32696    
   1934000   306.63666      0.0092639081   5.8724189      760.774       -17.999441      742.77456    
   1935000   295.6455       0.0092639081   3.994063       733.50463     -18.450784      715.05384    
   1936000   294.78507      0.0092639081   5.8212642      731.36989     -19.464281      711.90561    
   1937000   310.48136      0.0092639081   7.7850039      770.31281     -20.783012      749.5298     
   1938000   294.45108      0.0092639081   3.3987177      730.54126     -20.049951      710.49131    
   1939000   287.26026      0.0092639081   8.4316587      712.70062     -20.259333      692.44128    
   1940000   313.38381      0.0092639081   9.7246839      777.51386     -20.817876      756.69599    
   1941000   299.14986      0.0092639081   3.758667       742.19904     -21.895428      720.30362    
   1942000   278.68107      0.0092639081   4.2583816      691.41542     -21.493281      669.92214    
   1943000   293.06713      0.0092639081   5.2091346      727.10763     -19.289358      707.81827    
   1944000   311.84265      0.0092639081   5.5186503      773.6902      -21.352431      752.33777    
   1945000   304.02054      0.0092639081   4.9536253      754.28333     -17.947917      736.33541    
   1946000   287.5516       0.0092639081   5.2334584      713.42345     -17.126022      696.29743    
   1947000   307.0598       0.0092639081   9.3965698      761.82382     -24.304033      737.51979    
   1948000   308.04686      0.0092639081   3.7840341      764.27275     -17.425979      746.84677    
   1949000   295.64129      0.0092639081  -1.0328132      733.49418     -19.627541      713.86664    
   1950000   300.9253       0.0092639081   6.8603273      746.60397     -17.366927      729.23704    
   1951000   302.06861      0.0092639081   11.784255      749.44055     -13.820143      735.62041    
   1952000   292.1785       0.0092639081   0.67629513     724.90291     -13.380912      711.522      
   1953000   294.35556      0.0092639081   7.7277169      730.30426     -16.696296      713.60796    
   1954000   302.30362      0.0092639081   7.7545645      750.02361     -14.687507      735.3361     
   1955000   295.63229      0.0092639081   5.3046794      733.47186     -15.379338      718.09253    
   1956000   308.434        0.0092639081   5.8184289      765.23326     -18.492676      746.74058    
   1957000   307.93948      0.0092639081   3.1246334      764.00634     -16.648532      747.35781    
   1958000   287.71933      0.0092639081   3.2537014      713.83958     -18.74241       695.09717    
   1959000   295.75901      0.0092639081   6.4656012      733.78626     -17.914559      715.87171    
   1960000   306.75283      0.0092639081   8.8335274      761.06222     -19.854524      741.2077     
   1961000   312.57527      0.0092639081   4.2096346      775.50786     -19.196413      756.31145    
   1962000   301.31245      0.0092639081   0.20238271     747.5645      -19.617378      727.94713    
   1963000   302.29369      0.0092639081   10.412268      749.99897     -20.935685      729.06329    
   1964000   306.51862      0.0092639081   4.2282944      760.48115     -20.828279      739.65287    
   1965000   290.20926      0.0092639081  -2.0149259      720.01716     -18.14529       701.87187    
   1966000   303.06937      0.0092639081   7.328225       751.92346     -19.115377      732.80808    
   1967000   307.02324      0.0092639081   15.976135      761.73312     -21.634588      740.09853    
   1968000   295.42108      0.0092639081  -13.002457      732.94785     -23.134636      709.81322    
   1969000   304.45529      0.0092639081   6.2835381      755.36196     -21.152176      734.20979    
   1970000   302.30835      0.0092639081   19.410542      750.03534     -19.975984      730.05936    
   1971000   303.32074      0.0092639081   3.1495088      752.54712     -17.805231      734.74189    
   1972000   287.16371      0.0092639081  -4.1041047      712.46107     -15.516221      696.94485    
   1973000   305.08738      0.0092639081   11.574546      756.9302      -18.039754      738.89045    
   1974000   310.79349      0.0092639081  -1.9145239      771.08722     -20.000738      751.08649    
   1975000   298.32329      0.0092639081  -7.6185817      740.14831     -15.49366       724.65465    
   1976000   299.76264      0.0092639081  -0.1221766      743.71937     -20.679355      723.04002    
   1977000   296.56387      0.0092639081   12.061062      735.78314     -22.208976      713.57416    
   1978000   307.41515      0.0092639081   18.133592      762.70546     -24.576406      738.12906    
   1979000   307.54432      0.0092639081   11.424252      763.02594     -24.960525      738.06542    
   1980000   301.3454       0.0092639081   0.44436265     747.64625     -27.801966      719.84429    
   1981000   292.82284      0.0092639081   5.5385158      726.50154     -21.155035      705.3465     
   1982000   292.8938       0.0092639081   8.0027127      726.67759     -18.482384      708.1952     
   1983000   309.44446      0.0092639081   2.5537858      767.74024     -20.254891      747.48535    
   1984000   300.06338      0.0092639081   1.5188302      744.46552     -21.300883      723.16464    
   1985000   288.19742      0.0092639081   4.3169188      715.02575     -19.920816      695.10493    
   1986000   294.21041      0.0092639081   6.9793852      729.94413     -22.764039      707.1801     
   1987000   325.92525      0.0092639081   4.6948531      808.62952     -20.013157      788.61636    
   1988000   295.96967      0.0092639081   1.4007924      734.30892     -17.333027      716.97589    
   1989000   295.84408      0.0092639081   5.9629757      733.99731     -17.692155      716.30515    
   1990000   297.1734       0.0092639081   7.346455       737.29541     -16.075707      721.2197     
   1991000   317.87425      0.0092639081   5.376374       788.65478     -15.299214      773.35556    
   1992000   306.94148      0.0092639081   4.8711708      761.53028     -14.141803      747.38847    
   1993000   280.05452      0.0092639081   4.1016601      694.82297     -18.704381      676.11859    
   1994000   301.05179      0.0092639081   5.9371985      746.91779     -17.057025      729.86077    
   1995000   300.22757      0.0092639081   2.0817054      744.87287     -21.324452      723.54841    
   1996000   306.52609      0.0092639081   6.6843428      760.49967     -18.814629      741.68504    
   1997000   300.39318      0.0092639081   4.732332       745.28376     -18.047889      727.23587    
   1998000   297.27348      0.0092639081   3.1843391      737.54369     -15.452604      722.09108    
   1999000   293.06038      0.0092639081   5.4688302      727.09088     -15.737092      711.35379    
   2000000   306.49958      0.0092639081   7.4855806      760.4339      -14.033786      746.40011    
   2001000   306.56164      0.0092639081   2.7188776      760.58787     -14.330278      746.25759    
   2002000   294.50709      0.0092639081   3.9221616      730.68021     -17.758801      712.92141    
   2003000   288.30251      0.0092639081   2.6968023      715.28647     -14.049316      701.23715    
   2004000   303.85358      0.0092639081   6.879459       753.86911     -15.239976      738.62913    
   2005000   309.20866      0.0092639081   7.3136599      767.15521     -14.171782      752.98343    
   2006000   302.78597      0.0092639081   4.0053286      751.22033     -15.084127      736.13621    
   2007000   295.28659      0.0092639081   3.8513265      732.61417     -13.556812      719.05736    
   2008000   293.89451      0.0092639081   5.1231842      729.16037     -12.881361      716.27901    
   2009000   309.51196      0.0092639081   16.81572       767.9077      -13.562037      754.34566    
   2010000   307.80671      0.0092639081   1.6814134      763.67693     -13.193501      750.48343    
   2011000   296.09704      0.0092639081  -5.0498127      734.62491     -13.007429      721.61748    
   2012000   306.56517      0.0092639081   4.9452775      760.59664     -14.672318      745.92432    
   2013000   295.75181      0.0092639081   6.0612001      733.7684      -14.425029      719.34337    
   2014000   302.8524       0.0092639081   5.8671146      751.38514     -12.700276      738.68487    
   2015000   307.97649      0.0092639081   0.76441344     764.09817     -14.640488      749.45768    
   2016000   297.96108      0.0092639081   1.718507       739.24966     -17.46678       721.78288    
   2017000   293.93257      0.0092639081   5.8339601      729.25482     -14.234662      715.02016    
   2018000   301.49073      0.0092639081   8.0792734      748.00681     -15.233097      732.77371    
   2019000   307.96591      0.0092639081   4.7230396      764.07192     -15.463547      748.60837    
   2020000   320.44093      0.0092639081   3.0928283      795.02278     -11.595201      783.42758    
   2021000   290.05821      0.0092639081   2.8563431      719.64242     -15.013133      704.62929    
   2022000   290.61726      0.0092639081   9.6736548      721.02943     -14.31586       706.71357    
   2023000   314.35433      0.0092639081   7.0681534      779.92177     -19.151178      760.77059    
   2024000   305.23595      0.0092639081   4.3787256      757.29881     -18.236423      739.06239    
   2025000   304.75341      0.0092639081   2.3789854      756.10162     -17.224309      738.87731    
   2026000   290.86931      0.0092639081   5.8075176      721.65478     -15.151872      706.50291    
   2027000   292.42996      0.0092639081   8.6372227      725.52678     -15.952386      709.5744     
   2028000   305.70754      0.0092639081   7.3146011      758.46884     -17.754333      740.71451    
   2029000   305.6578       0.0092639081   5.0474763      758.34543     -14.429352      743.91608    
   2030000   300.80184      0.0092639081   4.9105296      746.29765     -19.419701      726.87795    
   2031000   301.06257      0.0092639081   7.3099015      746.94454     -19.690509      727.25403    
   2032000   296.57256      0.0092639081   3.9742687      735.8047      -16.580339      719.22436    
   2033000   293.23723      0.0092639081   4.5596822      727.52964     -19.084435      708.44521    
   2034000   301.72083      0.0092639081   7.1413003      748.57769     -16.114578      732.46311    
   2035000   303.86051      0.0092639081   0.78165573     753.8863      -20.706914      733.17939    
   2036000   284.10134      0.0092639081   4.0430393      704.86326     -20.954675      683.90859    
   2037000   300.47279      0.0092639081   8.1553069      745.48127     -17.783573      727.69769    
   2038000   309.39467      0.0092639081   5.2724762      767.6167      -18.257929      749.35877    
   2039000   298.32412      0.0092639081   5.2072597      740.15036     -18.342711      721.80765    
   2040000   300.63679      0.0092639081   3.6708266      745.88817     -13.971415      731.91676    
   2041000   297.87745      0.0092639081   4.9092855      739.04216     -14.608393      724.43376    
   2042000   291.25714      0.0092639081   5.6597992      722.61698     -15.071692      707.54529    
   2043000   312.75735      0.0092639081   4.1215727      775.95962     -16.232972      759.72665    
   2044000   295.32849      0.0092639081   4.9474213      732.71812     -16.708335      716.00979    
   2045000   295.61433      0.0092639081   6.3995269      733.42731     -14.894586      718.53273    
   2046000   307.46446      0.0092639081   2.8345863      762.8278      -17.699165      745.12863    
   2047000   288.13026      0.0092639081   3.287282       714.85912     -16.819988      698.03914    
   2048000   298.15979      0.0092639081   5.3292208      739.74267     -13.282041      726.46063    
   2049000   301.33081      0.0092639081   6.7971677      747.61006     -15.983073      731.62698    
   2050000   313.19991      0.0092639081   4.9045896      777.05762     -16.071285      760.98633    
   2051000   301.59617      0.0092639081  -0.10497446     748.26841     -18.061916      730.20649    
   2052000   306.72264      0.0092639081   5.4005304      760.98734     -14.816321      746.17102    
   2053000   298.28396      0.0092639081   6.9861535      740.05073     -16.195919      723.85481    
   2054000   312.31397      0.0092639081   2.9257776      774.85957     -16.387856      758.47171    
   2055000   299.22128      0.0092639081   4.728288       742.37624     -12.902908      729.47333    
   2056000   307.44679      0.0092639081   6.805443       762.78397     -16.076568      746.7074     
   2057000   299.80387      0.0092639081   7.6359439      743.82167     -15.62858       728.19309    
   2058000   309.06539      0.0092639081   5.9279041      766.79976     -13.757922      753.04184    
   2059000   303.93997      0.0092639081   4.6665567      754.08345     -16.148171      737.93528    
   2060000   298.35196      0.0092639081   3.9676102      740.21944     -18.099038      722.1204     
   2061000   286.41304      0.0092639081   4.5814928      710.59865     -14.554723      696.04393    
   2062000   289.38046      0.0092639081   8.6269934      717.96089     -16.619297      701.3416     
   2063000   308.48898      0.0092639081   6.0503529      765.36967     -16.892194      748.47748    
   2064000   305.80524      0.0092639081   2.9787891      758.71123     -18.490911      740.22032    
   2065000   280.51766      0.0092639081   3.6069051      695.97206     -17.074225      678.89783    
   2066000   300.69539      0.0092639081   5.8340698      746.03355     -16.040636      729.99291    
   2067000   294.75559      0.0092639081   4.9342952      731.29673     -18.20241       713.09432    
   2068000   301.22061      0.0092639081   5.101787       747.33664     -21.668296      725.66834    
   2069000   300.65591      0.0092639081   4.1879693      745.93559     -19.061368      726.87422    
   2070000   284.444        0.0092639081   5.8476757      705.71342     -16.801806      688.91161    
   2071000   302.4173       0.0092639081   5.7973659      750.30565     -14.859157      735.44649    
   2072000   316.19507      0.0092639081   4.4980442      784.48869     -17.24569       767.243      
   2073000   299.54471      0.0092639081   4.856784       743.17869     -16.059956      727.11874    
   2074000   299.41752      0.0092639081   5.0710524      742.86312     -19.668349      723.19477    
   2075000   299.90704      0.0092639081   5.8299991      744.07763     -15.19343       728.8842     
   2076000   298.29908      0.0092639081   4.9309702      740.08824     -15.689642      724.3986     
   2077000   302.27591      0.0092639081   3.9553614      749.95485     -14.043595      735.91126    
   2078000   295.87869      0.0092639081   5.1475222      734.08319     -15.494704      718.58848    
   2079000   308.77757      0.0092639081   6.1948203      766.08567     -12.6842        753.40147    
   2080000   292.08903      0.0092639081   5.1634253      724.68094     -18.097838      706.5831     
   2081000   286.27347      0.0092639081   4.6563722      710.25236     -16.509698      693.74266    
   2082000   304.58711      0.0092639081   4.3116521      755.68902     -18.400139      737.28888    
   2083000   306.09448      0.0092639081   4.8936162      759.42883     -23.572526      735.85631    
   2084000   300.42362      0.0092639081   4.8472909      745.35928     -14.971693      730.38758    
   2085000   295.91804      0.0092639081   4.1854039      734.18082     -19.60463       714.57619    
   2086000   302.59818      0.0092639081   4.7655801      750.75442     -17.412933      733.34149    
   2087000   301.07857      0.0092639081   4.1117032      746.98423     -17.036051      729.94818    
   2088000   305.32233      0.0092639081   5.4141105      757.51313     -16.953732      740.5594     
   2089000   288.71349      0.0092639081   4.8707425      716.30613     -16.952807      699.35332    
   2090000   295.78852      0.0092639081   4.9212259      733.85946     -16.720598      717.13886    
   2091000   304.68046      0.0092639081   0.94456736     755.92061     -22.933099      732.98751    
   2092000   302.05605      0.0092639081   5.2426867      749.40939     -23.989796      725.41959    
   2093000   309.18959      0.0092639081   5.9195392      767.1079      -22.830533      744.27736    
   2094000   297.31424      0.0092639081   7.4626274      737.64483     -17.445848      720.19898    
   2095000   290.52385      0.0092639081   4.3994727      720.79769     -20.285301      700.51238    
   2096000   301.49172      0.0092639081   3.9673605      748.00926     -21.785494      726.22376    
   2097000   308.82462      0.0092639081   4.6681274      766.2024      -19.833493      746.36891    
   2098000   302.49337      0.0092639081   6.7723495      750.49438     -20.801877      729.69251    
   2099000   284.34712      0.0092639081   7.1342837      705.47303     -19.72598       685.74705    
   2100000   305.69538      0.0092639081   4.3371445      758.43867     -19.461677      738.97699    
   2101000   309.61534      0.0092639081   4.1389016      768.1642      -14.512491      753.65171    
   2102000   306.08015      0.0092639081   5.8944073      759.39328     -15.939236      743.45405    
   2103000   301.29659      0.0092639081   11.399973      747.52515     -17.417834      730.10731    
   2104000   284.99689      0.0092639081   5.1071882      707.08515     -18.357377      688.72777    
   2105000   302.2225       0.0092639081   2.2701351      749.82235     -19.329932      730.49242    
   2106000   311.56635      0.0092639081   3.694046       773.00471     -20.344763      752.65995    
   2107000   309.21537      0.0092639081   5.8397118      767.17185     -17.423939      749.74791    
   2108000   298.92569      0.0092639081   8.7843568      741.64287     -18.620461      723.02241    
   2109000   293.60356      0.0092639081   6.6258585      728.43854     -14.306799      714.13174    
   2110000   297.08879      0.0092639081   4.4621438      737.08549     -13.631521      723.45397    
   2111000   311.90772      0.0092639081   4.1640533      773.85166     -14.892622      758.95904    
   2112000   298.8392       0.0092639081   8.9502177      741.42829     -11.734061      729.69423    
   2113000   293.25901      0.0092639081   1.8746182      727.58369     -11.60788       715.97581    
   2114000   316.5123       0.0092639081   4.939613       785.27575     -15.51258       769.76317    
   2115000   304.00623      0.0092639081   5.9264026      754.24784     -11.269719      742.97812    
   2116000   289.53933      0.0092639081   6.2360471      718.35505     -11.428271      706.92678    
   2117000   308.09535      0.0092639081   2.6337728      764.39307     -17.404452      746.98862    
   2118000   301.50013      0.0092639081   6.4677362      748.03012     -14.605682      733.42444    
   2119000   295.08863      0.0092639081   5.1439847      732.12303     -17.588565      714.53446    
   2120000   295.82938      0.0092639081   4.1746132      733.96085     -19.379821      714.58103    
   2121000   309.02618      0.0092639081   4.3710365      766.70246     -15.672942      751.02952    
   2122000   290.42477      0.0092639081   5.228165       720.55186     -16.271954      704.2799     
   2123000   290.13637      0.0092639081   4.2518055      719.83633     -20.238577      699.59775    
   2124000   297.37624      0.0092639081   4.0640959      737.79864     -15.837772      721.96087    
   2125000   299.36733      0.0092639081   4.1286466      742.73859     -19.507366      723.23123    
   2126000   313.88638      0.0092639081   5.1145217      778.76075     -19.957909      758.80284    
   2127000   310.0623       0.0092639081   7.0062357      769.27311     -21.005507      748.2676     
   2128000   278.26286      0.0092639081   7.3081662      690.37782     -17.636019      672.7418     
   2129000   304.95986      0.0092639081   2.7994123      756.61382     -18.227103      738.38672    
   2130000   305.4439       0.0092639081   7.3558241      757.81473     -17.053333      740.7614     
   2131000   293.54014      0.0092639081   7.0393527      728.28118     -16.373964      711.90721    
   2132000   294.12225      0.0092639081   4.6928759      729.72542     -14.136798      715.58862    
   2133000   304.30607      0.0092639081   4.003758       754.99174     -14.044991      740.94675    
   2134000   307.09268      0.0092639081   4.3168063      761.9054      -17.438115      744.46729    
   2135000   306.53253      0.0092639081   4.7329226      760.51567     -17.287524      743.22814    
   2136000   299.44076      0.0092639081   6.4310362      742.92077     -20.74702       722.17375    
   2137000   295.81969      0.0092639081   5.3217724      733.93681     -20.389588      713.54722    
   2138000   306.57154      0.0092639081   3.8271735      760.61245     -21.493445      739.119      
   2139000   312.48127      0.0092639081   3.1612059      775.27465     -19.333975      755.94068    
   2140000   289.84264      0.0092639081   15.503373      719.10758     -16.920338      702.18725    
   2141000   293.15355      0.0092639081   4.1794439      727.32203     -16.826016      710.49601    
   2142000   311.37579      0.0092639081   3.1897754      772.53191     -13.643107      758.8888     
   2143000   307.92524      0.0092639081   7.7225782      763.971       -13.943017      750.02798    
   2144000   308.69637      0.0092639081   6.2890231      765.8842      -16.095807      749.78839    
   2145000   303.50024      0.0092639081   4.8750398      752.99245     -17.528311      735.46414    
   2146000   302.88806      0.0092639081   3.2875129      751.47363     -13.926627      737.547      
   2147000   299.48745      0.0092639081   5.2309233      743.03661     -15.248157      727.78846    
   2148000   305.40864      0.0092639081   8.5514736      757.72725     -12.174151      745.55309    
   2149000   299.49226      0.0092639081   6.7657851      743.04856     -15.530901      727.51766    
   2150000   287.01213      0.0092639081  -0.84342271     712.085       -14.492099      697.5929     
   2151000   301.51446      0.0092639081   2.4566386      748.0657      -12.121648      735.94405    
   2152000   316.70532      0.0092639081   8.7929541      785.75463     -16.355048      769.39958    
   2153000   295.34387      0.0092639081   5.5878675      732.75628     -14.768228      717.98805    
   2154000   290.5332       0.0092639081   0.83892648     720.82087     -14.618212      706.20265    
   2155000   306.25809      0.0092639081   3.1546359      759.83478     -17.794838      742.03994    
   2156000   306.73904      0.0092639081   10.014763      761.02802     -14.862245      746.16578    
   2157000   306.8931       0.0092639081   7.2296054      761.41024     -15.380898      746.02934    
   2158000   290.37135      0.0092639081   4.6680813      720.41932     -12.943988      707.47533    
   2159000   320.26367      0.0092639081   5.777671       794.583       -9.5630044      785.02       
   2160000   306.23749      0.0092639081   6.0103483      759.78366     -15.496179      744.28748    
   2161000   301.63341      0.0092639081   5.6165746      748.3608      -15.785659      732.57514    
   2162000   294.02492      0.0092639081   3.066909       729.48393     -15.95586       713.52807    
   2163000   303.36858      0.0092639081   4.2159101      752.6658      -17.177163      735.48864    
   2164000   320.2201       0.0092639081   5.7236555      794.4749      -17.120248      777.35465    
   2165000   300.70582      0.0092639081   10.100414      746.05942     -15.767043      730.29238    
   2166000   288.60007      0.0092639081   5.630408       716.02474     -17.614596      698.41014    
   2167000   310.71206      0.0092639081   3.5626829      770.88519     -13.945802      756.93939    
   2168000   316.35735      0.0092639081   6.0223642      784.89131     -17.215884      767.67543    
   2169000   298.67616      0.0092639081   6.2784957      741.02377     -17.670735      723.35304    
   2170000   287.97869      0.0092639081   7.4499626      714.48307     -16.725771      697.7573     
   2171000   297.25939      0.0092639081   2.2287285      737.50874     -16.198941      721.3098     
   2172000   309.90141      0.0092639081   6.9525699      768.87395     -15.256229      753.61772    
   2173000   288.32265      0.0092639081   3.578395       715.33645     -16.326747      699.00971    
   2174000   292.88542      0.0092639081   2.1780703      726.65679     -14.502777      712.15402    
   2175000   321.10388      0.0092639081   5.8879021      796.66759     -14.844341      781.82325    
   2176000   309.01593      0.0092639081   6.7202316      766.67704     -15.099968      751.57707    
   2177000   288.99088      0.0092639081   5.8052271      716.99433     -12.90339       704.09094    
   2178000   299.38616      0.0092639081   4.7718465      742.78533     -11.321654      731.46367    
   2179000   315.4194       0.0092639081   6.7838921      782.56422     -11.316003      771.24822    
   2180000   292.33599      0.0092639081   6.7824116      725.29365     -12.648236      712.64541    
   2181000   284.0947       0.0092639081   4.3181596      704.84678     -12.299234      692.54755    
   2182000   295.87285      0.0092639081   2.7947184      734.06869     -12.993864      721.07483    
   2183000   304.096        0.0092639081   5.2646404      754.47057     -12.781701      741.68887    
   2184000   283.44787      0.0092639081   5.6374718      703.24197     -12.271282      690.97069    
   2185000   290.98804      0.0092639081   6.224494       721.94935     -11.853227      710.09613    
   2186000   294.91415      0.0092639081   4.3175579      731.69013     -14.755638      716.93449    
   2187000   311.43243      0.0092639081   4.9819142      772.67245     -15.912         756.76045    
   2188000   307.57697      0.0092639081   6.5746101      763.10695     -14.791902      748.31505    
   2189000   293.7879       0.0092639081   5.9710553      728.89588     -12.455437      716.44045    
   2190000   302.78183      0.0092639081   5.1283503      751.21006     -12.114567      739.09549    
   2191000   307.57494      0.0092639081   4.0311891      763.1019      -15.017892      748.084      
   2192000   300.53975      0.0092639081   3.8784316      745.64741     -16.378264      729.26915    
   2193000   300.53663      0.0092639081   5.6671189      745.63966     -17.317104      728.32255    
   2194000   295.4514       0.0092639081   6.8515015      733.02306     -17.824743      715.19832    
   2195000   289.31979      0.0092639081   5.5253547      717.81037     -14.966491      702.84387    
   2196000   292.06535      0.0092639081   4.4252347      724.62219     -15.173615      709.44857    
   2197000   305.47997      0.0092639081   3.6876309      757.90424     -18.570501      739.33374    
   2198000   318.88192      0.0092639081   7.2632389      791.15484     -18.196531      772.9583     
   2199000   284.96893      0.0092639081   7.2717509      707.01577     -17.258513      689.75725    
   2200000   294.80099      0.0092639081   5.5562563      731.40937     -18.659228      712.75015    
   2201000   304.90337      0.0092639081   4.5846562      756.47366     -21.528731      734.94493    
   2202000   305.86414      0.0092639081   4.6560291      758.85736     -15.865879      742.99149    
   2203000   301.82144      0.0092639081   4.8729384      748.82731     -17.428466      731.39884    
   2204000   302.24598      0.0092639081   5.188179       749.88062     -18.71238       731.16824    
   2205000   290.85102      0.0092639081   5.3968117      721.60941     -18.448729      703.16068    
   2206000   302.67571      0.0092639081   4.9707165      750.94678     -18.367874      732.57891    
   2207000   288.35293      0.0092639081   4.9304381      715.41157     -16.736296      698.67527    
   2208000   301.93257      0.0092639081   5.0019848      749.10302     -15.456945      733.64608    
   2209000   315.48404      0.0092639081   5.2501816      782.7246      -18.115646      764.60895    
   2210000   302.88571      0.0092639081   5.4904871      751.46779     -19.1561        732.31169    
   2211000   288.51064      0.0092639081   4.4820702      715.80286     -21.157218      694.64564    
   2212000   297.14865      0.0092639081   4.965055       737.234       -20.470979      716.76302    
   2213000   304.35964      0.0092639081   5.1469242      755.12465     -20.336455      734.7882     
   2214000   296.61105      0.0092639081   3.2464779      735.9002      -21.864262      714.03594    
   2215000   280.44065      0.0092639081   6.7217743      695.78099     -19.47634       676.30465    
   2216000   313.0189       0.0092639081   11.225482      776.60852     -18.550653      758.05786    
   2217000   303.42086      0.0092639081   2.6599251      752.79553     -18.606952      734.18858    
   2218000   279.14714      0.0092639081   5.2561335      692.57175     -18.26421       674.30754    
   2219000   293.21024      0.0092639081   6.131471       727.46269     -18.289449      709.17324    
   2220000   313.19994      0.0092639081   5.4791104      777.05767     -15.026708      762.03096    
   2221000   313.94669      0.0092639081   3.809183       778.9104      -15.788305      763.12209    
   2222000   294.96201      0.0092639081   1.6271651      731.80888     -18.316664      713.49221    
   2223000   289.748        0.0092639081   3.8271802      718.87277     -15.897453      702.97532    
   2224000   307.88323      0.0092639081   10.722261      763.86679     -19.636718      744.23007    
   2225000   313.90775      0.0092639081   6.0190933      778.81378     -17.129216      761.68456    
   2226000   306.30148      0.0092639081   3.6486847      759.94242     -14.977448      744.96497    
   2227000   296.89765      0.0092639081   4.1267064      736.61127     -17.15114       719.46012    
   2228000   293.07436      0.0092639081   5.1778512      727.12557     -14.250461      712.87511    
   2229000   298.45248      0.0092639081   4.6261592      740.46882     -16.573483      723.89534    
   2230000   304.03199      0.0092639081   4.4249293      754.31175     -15.555575      738.75618    
   2231000   305.03241      0.0092639081   5.1629199      756.79381     -19.409978      737.38384    
   2232000   300.63138      0.0092639081   5.1535279      745.87473     -14.293689      731.58104    
   2233000   287.98736      0.0092639081   5.0522985      714.50457     -17.966091      696.53848    
   2234000   302.68915      0.0092639081   5.8491446      750.98011     -19.942553      731.03756    
   2235000   301.21017      0.0092639081   8.4543921      747.31074     -20.379176      726.93156    
   2236000   300.86389      0.0092639081   3.8544803      746.4516      -17.669966      728.78163    
   2237000   280.9758       0.0092639081   7.8166513      697.10869     -16.262752      680.84594    
   2238000   305.40896      0.0092639081   7.1813872      757.72804     -16.177765      741.55028    
   2239000   309.39195      0.0092639081   6.1765556      767.60996     -15.100391      752.50957    
   2240000   302.82762      0.0092639081   1.6920557      751.32368     -16.791096      734.53258    
   2241000   293.16368      0.0092639081   4.0499077      727.34717     -19.143437      708.20373    
   2242000   298.96035      0.0092639081   4.7591018      741.72886     -17.78025       723.94861    
   2243000   312.39122      0.0092639081   6.1530461      775.05122     -18.512614      756.5386     
   2244000   292.48916      0.0092639081   0.59638183     725.67367     -20.621149      705.05252    
   2245000   298.32721      0.0092639081   5.6102023      740.15802     -17.80736       722.35066    
   2246000   314.58049      0.0092639081   11.953865      780.48288     -20.775559      759.70732    
   2247000   306.13051      0.0092639081   2.4358853      759.51822     -19.555         739.96322    
   2248000   295.33285      0.0092639081  -1.7036858      732.72895     -19.405775      713.32318    
   2249000   291.73951      0.0092639081   6.3109812      723.81375     -18.800867      705.01289    
   2250000   313.18655      0.0092639081   7.7300579      777.02446     -17.103863      759.9206     
   2251000   303.55023      0.0092639081   2.047143       753.11649     -14.876219      738.24027    
   2252000   285.58833      0.0092639081   2.8913175      708.55252     -15.407696      693.14482    
   2253000   297.64909      0.0092639081   6.9533612      738.4756      -14.404486      724.07111    
   2254000   289.34749      0.0092639081   14.472557      717.87909     -14.560224      703.31887    
   2255000   311.06263      0.0092639081   3.1101645      771.75497     -19.614418      752.14055    
   2256000   297.84122      0.0092639081  -0.2412003      738.95228     -18.764707      720.18757    
   2257000   287.47929      0.0092639081   10.613543      713.24404     -20.764643      692.47939    
   2258000   300.63569      0.0092639081   5.7085267      745.88543     -19.453327      726.43211    
   2259000   306.36261      0.0092639081   1.6317068      760.09407     -19.133972      740.9601     
   2260000   304.1032       0.0092639081   4.8211164      754.48841     -19.637941      734.85047    
   2261000   298.74195      0.0092639081   6.9351832      741.18702     -17.928043      723.25897    
   2262000   303.35782      0.0092639081   4.9168643      752.63912     -17.893186      734.74593    
   2263000   297.64305      0.0092639081   1.5524365      738.46062     -17.739951      720.72067    
   2264000   297.41997      0.0092639081   5.5679849      737.90714     -15.595839      722.3113     
   2265000   305.72885      0.0092639081   8.3029916      758.5217      -13.230823      745.29088    
   2266000   306.71264      0.0092639081   3.9399505      760.9625      -15.572776      745.38973    
   2267000   301.70329      0.0092639081   3.6407936      748.53417     -15.224168      733.31001    
   2268000   298.49648      0.0092639081   4.806427       740.57799     -17.538185      723.03981    
   2269000   302.13081      0.0092639081   5.3418026      749.59486     -16.510755      733.08411    
   2270000   305.44396      0.0092639081   3.7443625      757.81489     -15.143925      742.67096    
   2271000   307.01965      0.0092639081   4.8474933      761.72422     -14.604991      747.11923    
   2272000   298.79659      0.0092639081   5.0359374      741.32258     -13.53036       727.79222    
   2273000   302.81041      0.0092639081   3.1699155      751.28097     -18.483241      732.79773    
   2274000   302.04863      0.0092639081   4.8224573      749.39097     -19.522272      729.8687     
   2275000   296.59692      0.0092639081   5.4901235      735.86513     -15.642952      720.22218    
   2276000   291.52517      0.0092639081   4.0536007      723.28199     -14.074687      709.20731    
   2277000   304.32621      0.0092639081   5.5543481      755.04172     -16.572724      738.46899    
   2278000   296.14059      0.0092639081   4.4969951      734.73297     -12.388963      722.344      
   2279000   299.71314      0.0092639081   4.6478723      743.59657     -15.788779      727.80779    
   2280000   303.60412      0.0092639081   5.4928053      753.25018     -12.126134      741.12405    
   2281000   294.45766      0.0092639081   5.5251059      730.55758     -13.006925      717.55066    
   2282000   286.0279       0.0092639081   1.1392396      709.64311     -13.406014      696.23709    
   2283000   308.98656      0.0092639081   5.2115275      766.60418     -15.020256      751.58392    
   2284000   295.09306      0.0092639081   7.5468727      732.13401     -15.020066      717.11394    
   2285000   294.01266      0.0092639081   4.4888647      729.45351     -17.429651      712.02386    
   2286000   299.21379      0.0092639081   5.0456401      742.35766     -11.983028      730.37463    
   2287000   308.01895      0.0092639081   6.0842984      764.2035      -10.730566      753.47294    
   2288000   305.79934      0.0092639081   5.2435693      758.69659     -13.201566      745.49503    
   2289000   302.71226      0.0092639081   4.2262219      751.03747     -16.379802      734.65766    
   2290000   293.15578      0.0092639081   3.2957903      727.32758     -15.46012       711.86746    
   2291000   308.47896      0.0092639081   7.4821235      765.34481     -17.605793      747.73902    
   2292000   302.81132      0.0092639081   5.4173748      751.28324     -19.360607      731.92263    
   2293000   304.62158      0.0092639081   5.4912662      755.77455     -17.609832      738.16472    
   2294000   305.03248      0.0092639081   2.3718846      756.79398     -18.732429      738.06155    
   2295000   308.96844      0.0092639081   4.9801721      766.55923     -16.783717      749.77551    
   2296000   295.67569      0.0092639081   5.5741957      733.57955     -16.919031      716.66051    
   2297000   293.43935      0.0092639081   4.4598635      728.03113     -15.238307      712.79282    
   2298000   311.32653      0.0092639081   3.6959127      772.40971     -13.886895      758.52281    
   2299000   294.33602      0.0092639081   7.5604601      730.25577     -12.866028      717.38974    
   2300000   290.24149      0.0092639081   7.8126952      720.09714     -13.631035      706.46611    
   2301000   306.89585      0.0092639081   3.2723803      761.41706     -11.030457      750.38661    
   2302000   302.30099      0.0092639081   6.171924       750.01708     -14.069044      735.94803    
   2303000   297.17381      0.0092639081   7.0968672      737.29641     -16.376883      720.91953    
   2304000   298.43316      0.0092639081   5.4044631      740.4209      -17.289903      723.131      
   2305000   312.54289      0.0092639081   3.4727336      775.42752     -12.1255        763.30202    
   2306000   304.54978      0.0092639081   4.0626164      755.59639     -11.174206      744.42218    
   2307000   304.22984      0.0092639081   6.7683721      754.80262     -11.736231      743.06639    
   2308000   293.64171      0.0092639081   6.3428909      728.53317     -12.288158      716.24501    
   2309000   306.99733      0.0092639081   5.1078319      761.66884     -13.582622      748.08621    
   2310000   303.41119      0.0092639081   3.7488252      752.77153     -16.778829      735.9927     
   2311000   298.27406      0.0092639081   6.297921       740.02617     -18.570021      721.45615    
   2312000   289.04938      0.0092639081   7.4752126      717.13949     -17.003649      700.13584    
   2313000   304.42855      0.0092639081   1.7840725      755.29563     -14.306491      740.98914    
   2314000   307.91236      0.0092639081   5.3276008      763.93905     -18.348057      745.59099    
   2315000   310.07254      0.0092639081   6.1392582      769.29852     -14.6211        754.67742    
   2316000   290.19015      0.0092639081   6.2950158      719.96975     -16.699484      703.27027    
   2317000   291.48759      0.0092639081   6.4837597      723.18874     -18.1226        705.06614    
   2318000   300.50664      0.0092639081   3.5321317      745.56526     -18.548189      727.01707    
   2319000   306.03348      0.0092639081   5.8264928      759.2775      -16.752803      742.52469    
   2320000   283.34032      0.0092639081   8.8834619      702.97514     -15.893004      687.08214    
   2321000   293.11206      0.0092639081   4.4214193      727.21909     -17.141732      710.07736    
   2322000   311.75761      0.0092639081   1.0806711      773.47921     -16.743333      756.73588    
   2323000   312.5612       0.0092639081   3.8654573      775.47296     -16.365027      759.10793    
   2324000   299.13215      0.0092639081   5.5707348      742.15511     -17.570852      724.58426    
   2325000   290.73558      0.0092639081   4.8567117      721.32299     -15.765615      705.55737    
   2326000   297.88823      0.0092639081   3.1314001      739.06892     -18.264696      720.80422    
   2327000   313.41005      0.0092639081   2.8307877      777.57896     -17.620345      759.95862    
   2328000   315.10454      0.0092639081   1.3042516      781.78305     -12.060462      769.72259    
   2329000   296.92548      0.0092639081   6.5493601      736.6803      -10.959714      725.72058    
   2330000   292.37391      0.0092639081   6.4619618      725.38774     -12.811822      712.57592    
   2331000   295.65007      0.0092639081   6.8319732      733.51597     -10.384817      723.13115    
   2332000   309.2538       0.0092639081   1.4672074      767.26719     -14.050381      753.21681    
   2333000   307.46892      0.0092639081   8.6680969      762.83885     -17.089512      745.74934    
   2334000   290.89957      0.0092639081   5.7708344      721.72985     -14.699461      707.03039    
   2335000   290.58352      0.0092639081   4.7723898      720.94573     -15.258512      705.68722    
   2336000   307.14988      0.0092639081   4.6600525      762.04732     -16.343028      745.7043     
   2337000   305.75704      0.0092639081   3.5114809      758.59164     -15.223439      743.3682     
   2338000   303.30895      0.0092639081   6.5645802      752.51785     -17.38537       735.13248    
   2339000   291.73796      0.0092639081   3.7661397      723.80993     -16.772381      707.03755    
   2340000   303.98462      0.0092639081   4.6045924      754.19422     -16.940869      737.25335    
   2341000   311.3098       0.0092639081   5.4365018      772.36819     -15.640124      756.72806    
   2342000   303.24516      0.0092639081   5.5253451      752.35959     -15.238829      737.12077    
   2343000   298.06909      0.0092639081   5.5813149      739.51762     -14.401108      725.11651    
   2344000   310.05584      0.0092639081   5.8005613      769.25708     -16.558714      752.69836    
   2345000   295.94434      0.0092639081   4.4013246      734.24608     -15.997796      718.24828    
   2346000   302.9396       0.0092639081   5.5723836      751.6015      -18.458302      733.1432     
   2347000   314.51348      0.0092639081   9.5035652      780.31662     -16.451621      763.865      
   2348000   301.36616      0.0092639081   2.893245       747.69774     -17.456279      730.24146    
   2349000   296.15088      0.0092639081   3.2414018      734.7585      -11.645342      723.11315    
   2350000   290.58615      0.0092639081   4.5198808      720.95226     -14.99783       705.95443    
   2351000   312.04841      0.0092639081   6.4612818      774.2007      -14.681495      759.5192     
   2352000   317.02313      0.0092639081   5.6576292      786.54313     -15.80885       770.73428    
   2353000   296.45482      0.0092639081   2.5302351      735.51257     -17.668452      717.84412    
   2354000   297.3592       0.0092639081   5.6388965      737.75638     -16.423428      721.33295    
   2355000   306.8069       0.0092639081   7.4516705      761.19637     -18.200606      742.99577    
   2356000   296.20676      0.0092639081   0.52196442     734.89715     -19.997796      714.89935    
   2357000   299.34449      0.0092639081   1.7805475      742.68193     -19.805996      722.87593    
   2358000   301.80413      0.0092639081   8.7050633      748.78435     -20.83405       727.9503     
   2359000   301.42116      0.0092639081   3.0387712      747.83421     -17.989888      729.84432    
   2360000   288.09616      0.0092639081   3.5963751      714.77452     -21.146846      693.62768    
   2361000   300.40173      0.0092639081   9.3579282      745.30497     -21.359947      723.94503    
   2362000   309.01417      0.0092639081   5.3494847      766.67268     -20.369778      746.3029     
   2363000   299.75896      0.0092639081   4.6235931      743.71023     -22.703568      721.00666    
   2364000   307.48681      0.0092639081   5.1725609      762.88324     -18.403036      744.4802     
   2365000   291.81416      0.0092639081   3.8376057      723.99898     -16.85578       707.1432     
   2366000   303.04903      0.0092639081   6.4829899      751.873       -14.993078      736.87993    
   2367000   304.98491      0.0092639081   6.8711362      756.67597     -18.931823      737.74415    
   2368000   313.74517      0.0092639081   5.5423722      778.41041     -18.150346      760.26006    
   2369000   293.37861      0.0092639081   2.8252458      727.88042     -13.845328      714.03509    
   2370000   303.32363      0.0092639081   8.1298874      752.55428     -18.05084       734.50344    
   2371000   309.52639      0.0092639081   3.2981321      767.9435      -14.605535      753.33796    
   2372000   292.84848      0.0092639081   3.9792501      726.56516     -12.786641      713.77852    
   2373000   292.19811      0.0092639081   10.12638       724.95157     -11.810166      713.14141    
   2374000   301.22935      0.0092639081   8.5990143      747.35831     -12.874018      734.4843     
   2375000   318.82959      0.0092639081   2.2632868      791.02499     -10.642476      780.38252    
   2376000   295.89118      0.0092639081   1.5671209      734.11418     -12.59542       721.51876    
   2377000   289.71493      0.0092639081   7.8966076      718.79072     -14.537285      704.25344    
   2378000   308.20869      0.0092639081   5.4976779      764.67425     -15.498203      749.17605    
   2379000   310.36023      0.0092639081  -5.3498659      770.0123      -15.094618      754.91768    
   2380000   290.15839      0.0092639081   2.0398746      719.89097     -16.097081      703.79389    
   2381000   297.36003      0.0092639081   4.0675527      737.75843     -19.300432      718.458      
   2382000   310.89264      0.0092639081   10.059501      771.3332      -18.059394      753.27381    
   2383000   304.16028      0.0092639081   2.018554       754.63003     -16.687159      737.94288    
   2384000   287.84911      0.0092639081   4.6945002      714.16157     -19.178607      694.98296    
   2385000   292.25687      0.0092639081   8.3668771      725.09734     -17.698741      707.3986     
   2386000   309.91419      0.0092639081   10.521067      768.90564     -16.381826      752.52381    
   2387000   298.40184      0.0092639081   5.0283654      740.3432      -16.599925      723.74327    
   2388000   299.98646      0.0092639081   4.0112599      744.27467     -15.011118      729.26356    
   2389000   312.28959      0.0092639081   2.5860239      774.79908     -13.582882      761.2162     
   2390000   293.0308       0.0092639081   10.652562      727.0175      -16.496463      710.52104    
   2391000   287.68247      0.0092639081   4.2245753      713.74815     -16.235799      697.51235    
   2392000   294.71945      0.0092639081   0.68329142     731.20709     -15.79609       715.411      
   2393000   302.75163      0.0092639081   6.9390266      751.13514     -14.095641      737.0395     
   2394000   318.88817      0.0092639081   6.9743362      791.17033     -13.374194      777.79613    
   2395000   302.69779      0.0092639081   3.7863495      751.00157     -13.121995      737.87958    
   2396000   290.81978      0.0092639081  -2.8351062      721.53189     -14.862417      706.66948    
   2397000   295.20261      0.0092639081   7.4418301      732.40582     -17.299825      715.10599    
   2398000   314.05034      0.0092639081   4.4125093      779.16756     -13.619995      765.54756    
   2399000   316.93059      0.0092639081   7.7749133      786.31352     -15.08629       771.22723    
   2400000   312.26632      0.0092639081   5.0644862      774.74135     -15.399294      759.34205    
   2401000   296.66568      0.0092639081   3.6014908      736.03573     -14.971851      721.06388    
   2402000   290.63391      0.0092639081   5.3012518      721.07074     -16.928306      704.14243    
   2403000   308.00573      0.0092639081   7.0657183      764.1707      -16.095911      748.07479    
   2404000   308.10023      0.0092639081   4.9056         764.40516     -20.87747       743.52769    
   2405000   307.10687      0.0092639081   2.8724343      761.94061     -19.806027      742.13458    
   2406000   296.0075       0.0092639081   3.1839825      734.40278     -18.275847      716.12693    
   2407000   293.83715      0.0092639081   4.4609821      729.01807     -18.605628      710.41244    
   2408000   295.86724      0.0092639081   4.8886645      734.05478     -22.797445      711.25734    
   2409000   309.28252      0.0092639081   6.2984627      767.33846     -20.473558      746.8649     
   2410000   295.69802      0.0092639081   5.2425042      733.63494     -18.68875       714.94619    
   2411000   295.96933      0.0092639081  -0.66484133     734.30805     -20.535727      713.77233    
   2412000   288.32272      0.0092639081   2.4867441      715.33663     -19.159328      696.1773     
   2413000   301.91009      0.0092639081   11.989414      749.04726     -21.454986      727.59228    
   2414000   314.56936      0.0092639081   3.593407       780.45524     -20.204542      760.2507     
   2415000   284.77552      0.0092639081   4.9898676      706.53591     -19.388992      687.14692    
   2416000   288.34664      0.0092639081   7.3268813      715.39596     -19.767411      695.62855    
   2417000   285.59942      0.0092639081   10.878064      708.58003     -16.1052        692.47483    
   2418000   323.18532      0.0092639081   9.0317047      801.8317      -17.925917      783.90578    
   2419000   299.02499      0.0092639081   4.4284164      741.88924     -16.667851      725.22138    
   2420000   294.21185      0.0092639081   4.1302067      729.94771     -16.9351        713.01261    
   2421000   286.6898       0.0092639081   8.2108384      711.2853      -17.975269      693.31003    
   2422000   316.00785      0.0092639081   4.7896564      784.02418     -15.381872      768.64231    
   2423000   300.16371      0.0092639081   4.6742937      744.71445     -17.39337       727.32108    
   2424000   284.09219      0.0092639081   4.8444016      704.84054     -17.324083      687.51646    
   2425000   298.27468      0.0092639081   7.1204479      740.02769     -17.698698      722.329      
   2426000   317.44454      0.0092639081   6.0234895      787.58865     -17.408314      770.18033    
   2427000   297.37785      0.0092639081   3.8644496      737.80263     -16.180318      721.62231    
   2428000   293.38284      0.0092639081   8.4642249      727.89091     -16.970826      710.92008    
   2429000   305.47643      0.0092639081   4.5253099      757.89544     -17.787724      740.10772    
   2430000   307.7838       0.0092639081   4.1564672      763.6201      -17.575547      746.04456    
   2431000   289.11464      0.0092639081   5.3059375      717.30138     -15.317025      701.98436    
   2432000   291.88027      0.0092639081   6.0274127      724.163       -15.751232      708.41177    
   2433000   304.53764      0.0092639081   4.8662389      755.56629     -16.698281      738.86801    
   2434000   305.65139      0.0092639081   4.6983941      758.32953     -14.495149      743.83438    
   2435000   293.43156      0.0092639081   4.3334448      728.01178     -13.985811      714.02597    
   2436000   288.26758      0.0092639081   4.6462646      715.1998      -14.148258      701.05155    
   2437000   297.24921      0.0092639081   5.0258895      737.48348     -13.78989       723.69359    
   2438000   306.39402      0.0092639081   5.7389011      760.17202     -14.775718      745.3963     
   2439000   300.48398      0.0092639081   5.1460931      745.50903     -17.822609      727.68642    
   2440000   310.64672      0.0092639081   5.6844198      770.72308     -13.362894      757.36019    
   2441000   304.07182      0.0092639081   4.061191       754.41056     -15.240755      739.16981    
   2442000   281.92333      0.0092639081   3.7513748      699.45956     -17.1666        682.29296    
   2443000   296.66443      0.0092639081   5.7138901      736.03262     -14.071415      721.9612     
   2444000   317.80949      0.0092639081   4.9947379      788.4941      -15.121519      773.37259    
   2445000   299.4521       0.0092639081   6.4409717      742.94892     -14.266117      728.6828     
   2446000   295.92975      0.0092639081   8.4914005      734.20986     -14.396725      719.81313    
   2447000   296.14564      0.0092639081   3.5868282      734.74549     -15.807223      718.93826    
   2448000   314.91922      0.0092639081   3.2368469      781.32326     -15.195098      766.12816    
   2449000   291.44378      0.0092639081   6.0328234      723.08004     -14.294667      708.78538    
   2450000   297.54565      0.0092639081   6.632682       738.21896     -14.332143      723.88681    
   2451000   285.62521      0.0092639081   1.6640151      708.64403     -17.33029       691.31374    
   2452000   304.33762      0.0092639081   2.6476441      755.07001     -18.270233      736.79978    
   2453000   309.9966       0.0092639081   2.3049639      769.1101      -18.83772       750.27238    
   2454000   301.98456      0.0092639081   5.3118502      749.23203     -18.636716      730.59531    
   2455000   299.36203      0.0092639081   7.1047889      742.72545     -19.252853      723.4726     
   2456000   296.07663      0.0092639081   6.4780171      734.57427     -17.348649      717.22562    
   2457000   305.21256      0.0092639081  -0.90831313     757.24079     -16.42962       740.81117    
   2458000   306.60366      0.0092639081   4.7379634      760.69214     -15.977312      744.71483    
   2459000   302.82486      0.0092639081   5.7807921      751.31682     -16.349745      734.96708    
   2460000   289.14365      0.0092639081   13.150447      717.37338     -16.907682      700.46569    
   2461000   298.08114      0.0092639081   11.052531      739.54753     -17.765573      721.78195    
   2462000   288.08592      0.0092639081   6.4245612      714.74911     -18.942154      695.80696    
   2463000   298.66836      0.0092639081   2.3440561      741.00444     -21.584281      719.42016    
   2464000   317.66537      0.0092639081   6.8999432      788.13655     -22.17134       765.96521    
   2465000   319.04173      0.0092639081   14.322107      791.55132     -18.773317      772.77801    
   2466000   289.28669      0.0092639081   6.3718321      717.72826     -19.040214      698.68804    
   2467000   293.80974      0.0092639081   1.1499325      728.95007     -19.654373      709.2957     
   2468000   312.03771      0.0092639081   6.7838791      774.17415     -18.348784      755.82537    
   2469000   295.68761      0.0092639081   4.7663718      733.60912     -17.220272      716.38885    
   2470000   296.54097      0.0092639081  -0.23378739     735.72632     -15.992114      719.73421    
   2471000   311.3605       0.0092639081   4.9032838      772.49399     -17.680836      754.81315    
   2472000   299.5909       0.0092639081   8.5025296      743.29329     -19.184043      724.10925    
   2473000   287.95156      0.0092639081   5.3824194      714.41577     -17.595528      696.82024    
   2474000   300.47019      0.0092639081  -2.2266557      745.47484     -21.542274      723.93256    
   2475000   309.027        0.0092639081   3.2058974      766.70449     -18.700878      748.00362    
   2476000   302.94404      0.0092639081   11.266498      751.61252     -25.17939       726.43313    
   2477000   297.49024      0.0092639081   4.2149096      738.0815      -20.117318      717.96418    
   2478000   299.47362      0.0092639081  -0.13828569     743.0023      -20.368692      722.63361    
   2479000   297.19314      0.0092639081   3.6272844      737.34437     -19.17359       718.17078    
   2480000   293.4182       0.0092639081   8.1221449      727.97864     -14.922577      713.05606    
   2481000   294.10644      0.0092639081   3.8409222      729.68617     -17.891742      711.79443    
   2482000   292.52741      0.0092639081   3.1072976      725.76857     -18.222661      707.54591    
   2483000   297.95307      0.0092639081  -1.6437179      739.22978     -13.927525      725.30225    
   2484000   305.74404      0.0092639081   3.2045202      758.55939     -17.699759      740.85963    
   2485000   304.8875       0.0092639081   8.5607266      756.4343      -12.806345      743.62796    
   2486000   309.49388      0.0092639081   9.016909       767.86284     -16.475409      751.38743    
   2487000   309.00149      0.0092639081   5.2541565      766.64123     -10.992567      755.64866    
   2488000   306.24603      0.0092639081   4.0691392      759.80484     -10.383036      749.42181    
   2489000   290.3467       0.0092639081   6.5212619      720.35816     -14.488613      705.86955    
   2490000   303.61426      0.0092639081   5.731525       753.27535     -13.425245      739.8501     
   2491000   300.19141      0.0092639081   4.8342331      744.78317     -13.800344      730.98283    
   2492000   308.84015      0.0092639081   2.8930121      766.24092     -15.875285      750.36564    
   2493000   301.87192      0.0092639081   5.8923483      748.95255     -18.107619      730.84493    
   2494000   296.59612      0.0092639081   3.486834       735.86316     -14.859649      721.00351    
   2495000   300.46417      0.0092639081   5.2880455      745.45989     -11.717795      733.7421     
   2496000   310.19167      0.0092639081   6.7987954      769.59409     -12.345895      757.2482     
   2497000   300.01466      0.0092639081   5.0257019      744.34464     -12.309739      732.03491    
   2498000   299.13961      0.0092639081   4.8659907      742.17361     -13.420307      728.75331    
   2499000   312.10051      0.0092639081   5.62146        774.32998     -15.312935      759.01704    
   2500000   300.88023      0.0092639081   4.6246013      746.49214     -15.301249      731.19089    
   2501000   298.88182      0.0092639081   5.2017513      741.53403     -14.650863      726.88317    
   2502000   295.16962      0.0092639081   4.9990387      732.32397     -15.923545      716.40042    
   2503000   309.36277      0.0092639081   4.6223886      767.53756     -16.171425      751.36613    
   2504000   306.62444      0.0092639081   4.0503221      760.74368     -14.604881      746.1388     
   2505000   291.1527       0.0092639081   3.8440454      722.35787     -13.756797      708.60108    
   2506000   285.19707      0.0092639081   4.3771097      707.58179     -15.723235      691.85856    
   2507000   313.45537      0.0092639081   4.0955869      777.69141     -15.801062      761.89035    
   2508000   304.15812      0.0092639081   5.2102815      754.62469     -15.942726      738.68196    
   2509000   305.60637      0.0092639081   6.730597       758.21782     -16.866685      741.35114    
   2510000   296.09958      0.0092639081   7.1965222      734.63122     -15.120119      719.5111     
   2511000   292.62083      0.0092639081   5.3874897      726.00034     -16.361125      709.63922    
   2512000   297.68223      0.0092639081   2.696153       738.55782     -15.051923      723.5059     
   2513000   301.52413      0.0092639081   5.5693936      748.08969     -13.015442      735.07425    
   2514000   308.81727      0.0092639081   7.6980683      766.18417     -13.430703      752.75347    
   2515000   302.97626      0.0092639081   7.059863       751.69246     -16.417556      735.2749     
   2516000   296.86736      0.0092639081   2.9016673      736.53609     -12.589977      723.94612    
   2517000   308.87357      0.0092639081   4.7394777      766.32385     -19.212044      747.11181    
   2518000   297.97855      0.0092639081   11.108583      739.293       -16.744777      722.54823    
   2519000   306.28513      0.0092639081   4.1577803      759.90186     -14.933473      744.96839    
   2520000   306.32298      0.0092639081   1.590838       759.99576     -14.702723      745.29304    
   2521000   295.87617      0.0092639081   6.3478397      734.07694     -10.373691      723.70325    
   2522000   289.52564      0.0092639081   4.7348741      718.32109     -11.963145      706.35794    
   2523000   291.93652      0.0092639081   6.4706419      724.30256     -8.8711841      715.43138    
   2524000   290.03489      0.0092639081  -0.47979349     719.58457     -12.102985      707.48158    
   2525000   295.33585      0.0092639081   4.4260055      732.73637     -15.533491      717.20288    
   2526000   317.2417       0.0092639081   5.5808289      787.0854      -15.579824      771.50557    
   2527000   303.01429      0.0092639081   6.4692533      751.7868      -15.401495      736.38531    
   2528000   295.10476      0.0092639081   1.35495        732.16303     -15.192821      716.97021    
   2529000   302.4828       0.0092639081   5.4575092      750.46816     -12.800976      737.66719    
   2530000   302.20471      0.0092639081   7.0056447      749.77822     -16.536405      733.24181    
   2531000   295.55322      0.0092639081   5.0577557      733.27569     -13.435113      719.84058    
   2532000   303.29246      0.0092639081   3.7631666      752.47695     -14.867813      737.60913    
   2533000   319.19821      0.0092639081   8.0650037      791.93955     -14.969669      776.96988    
   2534000   298.1486       0.0092639081   5.8784188      739.71489     -16.043771      723.67112    
   2535000   289.78306      0.0092639081   4.6141732      718.95976     -16.194605      702.76515    
   2536000   304.43965      0.0092639081   2.4718485      755.32317     -19.893898      735.42928    
   2537000   304.53613      0.0092639081   7.2295837      755.56253     -18.189089      737.37344    
   2538000   292.43225      0.0092639081   5.1145788      725.53247     -23.26753       702.26494    
   2539000   296.67735      0.0092639081   3.8519302      736.06468     -22.722923      713.34176    
   2540000   317.03842      0.0092639081   4.704698       786.58105     -25.82103       760.76002    
   2541000   289.46986      0.0092639081   6.1055535      718.18269     -19.993303      698.18939    
   2542000   294.10303      0.0092639081   4.3801356      729.67772     -19.94098       709.73674    
   2543000   300.24595      0.0092639081   4.5723388      744.91847     -18.069878      726.84859    
   2544000   305.47602      0.0092639081   4.9888866      757.89443     -17.384222      740.51021    
   2545000   299.76102      0.0092639081   4.974046       743.71535     -16.728749      726.9866     
   2546000   290.85051      0.0092639081   5.1368647      721.60813     -17.496859      704.11127    
   2547000   304.94658      0.0092639081   5.4393307      756.58087     -21.010552      735.57031    
   2548000   309.48954      0.0092639081   5.2857783      767.85209     -22.172454      745.67964    
   2549000   317.12897      0.0092639081   4.9098999      786.80571     -23.364316      763.44139    
   2550000   294.96645      0.0092639081   5.0490011      731.81988     -18.31383       713.50605    
   2551000   295.99599      0.0092639081   5.1123043      734.3742      -17.136584      717.23762    
   2552000   301.11009      0.0092639081   4.7024317      747.06242     -17.612493      729.44993    
   2553000   304.35983      0.0092639081   3.1788327      755.12514     -16.351147      738.77399    
   2554000   303.0514       0.0092639081   8.6819058      751.87887     -16.180646      735.69822    
   2555000   301.54606      0.0092639081   5.2396787      748.14408     -15.736606      732.40748    
   2556000   306.79575      0.0092639081   4.4982635      761.16871     -17.122232      744.04648    
   2557000   314.18323      0.0092639081   5.1005416      779.49725     -14.79136       764.70589    
   2558000   301.77819      0.0092639081   4.6524564      748.72002     -11.222913      737.49711    
   2559000   284.45814      0.0092639081   5.5251836      705.74849     -15.856331      689.89216    
   2560000   297.68115      0.0092639081   8.3512729      738.55515     -12.835114      725.72004    
   2561000   315.12617      0.0092639081   5.1110825      781.8367      -15.341902      766.4948     
   2562000   293.2992       0.0092639081   3.7014086      727.6834      -15.916977      711.76642    
   2563000   296.0255       0.0092639081   6.3633819      734.44741     -19.304239      715.14318    
   2564000   306.50155      0.0092639081   4.5643516      760.43878     -19.369814      741.06897    
   2565000   294.17438      0.0092639081   3.8689106      729.85473     -18.488978      711.36576    
   2566000   289.89775      0.0092639081   4.9026231      719.24432     -15.651507      703.59281    
   2567000   298.44024      0.0092639081   7.3943024      740.43846     -15.678298      724.76016    
   2568000   309.41174      0.0092639081   5.1669512      767.65905     -13.790917      753.86813    
   2569000   289.01354      0.0092639081   5.6983369      717.05056     -13.45928       703.59128    
   2570000   297.61193      0.0092639081   2.0626961      738.38341     -13.754775      724.62863    
   2571000   311.59951      0.0092639081   6.7447742      773.08697     -15.211948      757.87503    
   2572000   287.82687      0.0092639081   6.3427696      714.10641     -12.665252      701.44115    
   2573000   291.35825      0.0092639081   2.3068639      722.86785     -12.8848        709.98305    
   2574000   293.3615       0.0092639081   3.5333788      727.83798     -14.23658       713.6014     
   2575000   296.76862      0.0092639081   5.1883669      736.29113     -19.12704       717.16409    
   2576000   310.92412      0.0092639081   8.5778174      771.41131     -17.361595      754.04971    
   2577000   295.12482      0.0092639081   0.27267394     732.21282     -16.057384      716.15543    
   2578000   287.93539      0.0092639081   2.5262757      714.37563     -15.231493      699.14413    
   2579000   311.67855      0.0092639081   5.7117704      773.28306     -14.796151      758.48691    
   2580000   313.29448      0.0092639081   7.2303982      777.29225     -13.373195      763.91905    
   2581000   291.4681       0.0092639081   5.3327756      723.1404      -13.895274      709.24513    
   2582000   297.48744      0.0092639081   2.8228467      738.07454     -13.791396      724.28315    
   2583000   312.7495       0.0092639081   5.4899118      775.94013     -16.269999      759.67013    
   2584000   293.72652      0.0092639081   6.7449012      728.7436      -16.786455      711.95715    
   2585000   288.86736      0.0092639081   3.8793453      716.68788     -16.081456      700.60642    
   2586000   313.38021      0.0092639081   3.9348008      777.50494     -15.963348      761.54159    
   2587000   303.18233      0.0092639081   9.7794005      752.20371     -15.272633      736.93108    
   2588000   293.20258      0.0092639081   5.4036179      727.44368     -13.704312      713.73937    
   2589000   301.35897      0.0092639081   4.8773266      747.67991     -16.533764      731.14614    
   2590000   309.0374       0.0092639081   5.2563689      766.7303      -21.716275      745.01403    
   2591000   297.00043      0.0092639081   4.5184521      736.86626     -19.958071      716.90818    
   2592000   303.67479      0.0092639081   6.0837603      753.42554     -20.981786      732.44375    
   2593000   301.31569      0.0092639081   6.5933597      747.57254     -20.648973      726.92356    
   2594000   300.30031      0.0092639081   6.3086314      745.05335     -19.801431      725.25192    
   2595000   294.10281      0.0092639081   2.5300013      729.67719     -21.346503      708.33068    
   2596000   302.36786      0.0092639081   4.5002453      750.18299     -21.78391       728.39908    
   2597000   284.60315      0.0092639081   6.9720483      706.10825     -16.025774      690.08248    
   2598000   295.77236      0.0092639081   5.9357796      733.81938     -14.513823      719.30556    
   2599000   294.4913       0.0092639081   4.5882883      730.64104     -11.259199      719.38184    
   2600000   305.15621      0.0092639081   4.0481023      757.10097     -12.170967      744.93001    
   2601000   291.49297      0.0092639081   6.7283259      723.20208     -16.092269      707.10981    
   2602000   299.38774      0.0092639081   6.1331734      742.78923     -19.917974      722.87126    
   2603000   300.91542      0.0092639081   3.5236042      746.57945     -19.336502      727.24295    
   2604000   299.27217      0.0092639081   4.3322872      742.50251     -20.441113      722.0614     
   2605000   288.58026      0.0092639081   6.2767562      715.97557     -21.317614      694.65795    
   2606000   302.90694      0.0092639081   7.5913558      751.52048     -20.962089      730.55839    
   2607000   316.7092       0.0092639081   5.5878612      785.76426     -21.361025      764.40324    
   2608000   298.72495      0.0092639081   3.0845561      741.14483     -16.296688      724.84814    
   2609000   289.9186       0.0092639081   6.2115491      719.29605     -19.884288      699.41176    
   2610000   294.03779      0.0092639081   6.4218147      729.51587     -17.285742      712.23013    
   2611000   297.24551      0.0092639081   7.1045289      737.47431     -16.90781       720.5665     
   2612000   313.3938       0.0092639081   1.9120792      777.53867     -18.876207      758.66246    
   2613000   298.81545      0.0092639081   1.013775       741.36938     -18.163869      723.20551    
   2614000   298.89802      0.0092639081   5.7550625      741.57422     -21.838348      719.73587    
   2615000   309.64168      0.0092639081   8.6849119      768.22954     -18.863691      749.36585    
   2616000   305.94443      0.0092639081   4.1322865      759.05656     -15.66446       743.3921     
   2617000   312.70086      0.0092639081  -1.5998097      775.81946     -16.065225      759.75424    
   2618000   294.90937      0.0092639081   1.9784011      731.67827     -18.442385      713.23588    
   2619000   293.62892      0.0092639081   5.8511177      728.50144     -19.686394      708.81504    
   2620000   306.74716      0.0092639081   5.5513832      761.04817     -19.7726        741.27557    
   2621000   303.90253      0.0092639081   2.7388707      753.99054     -16.89711       737.09343    
   2622000   295.38152      0.0092639081   5.3492374      732.84969     -17.336132      715.51356    
   2623000   298.09563      0.0092639081   7.8178802      739.58347     -12.034988      727.54848    
   2624000   298.06179      0.0092639081   3.7316481      739.49952     -15.114741      724.38478    
   2625000   309.02032      0.0092639081  -0.33704407     766.68794     -17.627538      749.0604     
   2626000   295.46596      0.0092639081   6.3621377      733.0592      -13.603009      719.45619    
   2627000   309.70715      0.0092639081   7.8629141      768.39197     -14.453326      753.93864    
   2628000   302.72226      0.0092639081   4.1270153      751.06228     -13.277737      737.78455    
   2629000   288.39267      0.0092639081   3.911612       715.51017     -13.2701        702.24007    
   2630000   313.99249      0.0092639081   6.4912294      779.02401     -13.497455      765.52656    
   2631000   295.23217      0.0092639081   3.3275232      732.47916     -13.88222       718.59693    
   2632000   293.34804      0.0092639081   3.9571602      727.80458     -16.743499      711.06108    
   2633000   305.88651      0.0092639081   5.2999231      758.91286     -10.49914       748.41372    
   2634000   305.31676      0.0092639081   5.6317919      757.49931     -16.304101      741.19521    
   2635000   298.16055      0.0092639081   5.8709859      739.74455     -17.86803       721.87652    
   2636000   311.18188      0.0092639081   2.9332097      772.05083     -16.917956      755.13287    
   2637000   311.45282      0.0092639081   4.6642687      772.72304     -15.410549      757.31249    
   2638000   289.96075      0.0092639081   8.3153714      719.40061     -17.376881      702.02373    
   2639000   302.82894      0.0092639081   5.5160556      751.32696     -15.032192      736.29476    
   2640000   302.15666      0.0092639081   3.3231726      749.65901     -18.771781      730.88723    
   2641000   301.15576      0.0092639081   4.8196279      747.17575     -15.011288      732.16447    
   2642000   303.33935      0.0092639081   4.5389052      752.59328     -13.8101        738.78318    
   2643000   303.94061      0.0092639081   4.9550545      754.08503     -15.150151      738.93488    
   2644000   301.04868      0.0092639081   5.2772948      746.91006     -16.747522      730.16254    
   2645000   300.48692      0.0092639081   5.0210328      745.51633     -17.994655      727.52167    
   2646000   287.15184      0.0092639081   3.7292948      712.43163     -18.453903      693.97772    
   2647000   315.66441      0.0092639081   5.6181557      783.17211     -17.368314      765.8038     
   2648000   302.47459      0.0092639081   5.5981861      750.44781     -12.050604      738.3972     
   2649000   300.74808      0.0092639081   4.4983537      746.16427     -15.008208      731.15606    
   2650000   302.91516      0.0092639081   5.0086683      751.54086     -16.014367      735.52649    
   2651000   290.88387      0.0092639081   6.7893414      721.6909      -13.029334      708.66156    
   2652000   303.72328      0.0092639081   3.9813184      753.54583     -14.917756      738.62808    
   2653000   315.59794      0.0092639081   5.3031055      783.00718     -16.372744      766.63444    
   2654000   297.63212      0.0092639081   3.8671735      738.43348     -16.603159      721.83033    
   2655000   285.79197      0.0092639081   4.585816       709.05775     -14.1437        694.91405    
   2656000   304.79418      0.0092639081   5.5182395      756.20276     -11.596795      744.60597    
   2657000   305.85916      0.0092639081   4.8232079      758.84501     -14.435513      744.4095     
   2658000   301.06888      0.0092639081   4.9677073      746.96019     -11.890162      735.07003    
   2659000   301.33253      0.0092639081   5.1569842      747.61432     -14.276044      733.33827    
   2660000   296.06182      0.0092639081   4.6905366      734.53754     -15.963965      718.57357    
   2661000   296.41638      0.0092639081   2.1851188      735.4172      -13.728956      721.68824    
   2662000   299.37061      0.0092639081   8.0866422      742.74673     -15.519362      727.22737    
   2663000   304.20345      0.0092639081   7.0160271      754.73715     -10.319997      744.41715    
   2664000   319.27325      0.0092639081  -3.7594857      792.12573     -13.085409      779.04032    
   2665000   293.24909      0.0092639081   4.2322816      727.55908     -12.552007      715.00708    
   2666000   303.22476      0.0092639081   6.8403753      752.30899     -13.200687      739.1083     
   2667000   280.11735      0.0092639081   11.242927      694.97886     -14.336903      680.64196    
   2668000   278.66433      0.0092639081   4.0635653      691.37389     -13.673055      677.70083    
   2669000   305.28704      0.0092639081   5.6122232      757.42556     -10.262158      747.1634     
   2670000   305.71124      0.0092639081   5.4972122      758.478       -10.556058      747.92195    
   2671000   289.64453      0.0092639081   3.9692051      718.61605     -10.718967      707.89709    
   2672000   296.38301      0.0092639081   2.7208918      735.33443     -11.045347      724.28908    
   2673000   301.07225      0.0092639081   4.714459       746.96855     -9.6695491      737.299      
   2674000   304.62944      0.0092639081   5.0570803      755.79404     -9.2424966      746.55154    
   2675000   292.14604      0.0092639081   6.1754404      724.82239     -10.763878      714.05851    
   2676000   288.60394      0.0092639081   5.2528344      716.03434     -13.771864      702.26247    
   2677000   298.16804      0.0092639081   3.251837       739.76314     -16.644951      723.11818    
   2678000   294.96999      0.0092639081   4.7324325      731.82867     -14.382158      717.44651    
   2679000   308.10823      0.0092639081   5.0107372      764.42502     -14.22039       750.20463    
   2680000   293.30005      0.0092639081   5.3688468      727.68551     -13.906432      713.77908    
   2681000   301.82919      0.0092639081   3.3767736      748.84654     -16.428031      732.41851    
   2682000   314.0626       0.0092639081   5.4975235      779.19798     -16.613893      762.58409    
   2683000   302.45959      0.0092639081   5.5922052      750.41058     -15.698562      734.71201    
   2684000   293.83744      0.0092639081   5.2136755      729.01878     -17.022896      711.99588    
   2685000   296.57036      0.0092639081   1.8511282      735.79924     -17.957335      717.84191    
   2686000   311.55673      0.0092639081   3.67986        772.98085     -21.478927      751.50192    
   2687000   303.57278      0.0092639081   8.1215724      753.17245     -15.598723      737.57372    
   2688000   284.01576      0.0092639081   6.1658617      704.65092     -18.496498      686.15443    
   2689000   305.84706      0.0092639081   3.9389238      758.81499     -16.895008      741.91998    
   2690000   306.14402      0.0092639081   5.5060305      759.55175     -17.121556      742.4302     
   2691000   293.45666      0.0092639081   6.6616621      728.07406     -20.3398        707.73426    
   2692000   303.79088      0.0092639081   4.9353773      753.71356     -14.97516       738.7384     
   2693000   310.72766      0.0092639081   4.4990312      770.9239      -15.66997       755.25393    
   2694000   312.16874      0.0092639081   6.2564936      774.49925     -17.15056       757.34869    
   2695000   308.44773      0.0092639081   6.5403544      765.26733     -16.14725       749.12008    
   2696000   300.03728      0.0092639081   6.0844877      744.40075     -17.518861      726.88189    
   2697000   302.64266      0.0092639081   4.8921619      750.86478     -17.240428      733.62435    
   2698000   296.1519       0.0092639081   4.5949437      734.76103     -17.397068      717.36396    
   2699000   309.77088      0.0092639081   5.7280425      768.55009     -14.001544      754.54855    
   2700000   306.32297      0.0092639081   5.9494053      759.99573     -15.676263      744.31947    
   2701000   290.65911      0.0092639081   4.4243192      721.13326     -12.122708      709.01055    
   2702000   297.61495      0.0092639081   4.973068       738.3909      -14.14002       724.25088    
   2703000   288.56587      0.0092639081   4.4348716      715.93988     -13.560805      702.37908    
   2704000   301.29582      0.0092639081   4.4732983      747.52323     -14.510668      733.01256    
   2705000   295.20356      0.0092639081   5.5865135      732.40816     -17.02815       715.38001    
   2706000   297.08552      0.0092639081   5.6229014      737.07737     -17.054442      720.02293    
   2707000   307.5156       0.0092639081   5.1063157      762.95468     -11.894465      751.06021    
   2708000   290.51967      0.0092639081   4.4000572      720.78731     -11.781895      709.00542    
   2709000   296.45005      0.0092639081   4.5646503      735.50074     -14.2232        721.27754    
   2710000   296.67751      0.0092639081   5.8487503      736.06507     -13.54588       722.51919    
   2711000   300.73526      0.0092639081   6.3278048      746.13246     -13.064224      733.06824    
   2712000   303.98269      0.0092639081   2.9085581      754.18944     -14.697627      739.49181    
   2713000   296.70426      0.0092639081   4.4347444      736.13144     -14.910969      721.22047    
   2714000   298.50559      0.0092639081   5.3849701      740.60059     -13.354015      727.24657    
   2715000   306.90975      0.0092639081   5.8156976      761.45156     -14.444384      747.00717    
   2716000   311.6969       0.0092639081   6.5271407      773.3286      -18.061456      755.26715    
   2717000   302.29308      0.0092639081   3.7472299      749.99746     -18.326492      731.67097    
   2718000   288.75216      0.0092639081   8.1341101      716.40208     -16.500888      699.90119    
   2719000   304.84947      0.0092639081   5.3063665      756.33993     -19.503719      736.83621    
   2720000   307.25753      0.0092639081   2.5610287      762.3144      -18.516268      743.79813    
   2721000   285.2338       0.0092639081   6.2478645      707.67292     -17.340357      690.33256    
   2722000   296.56304      0.0092639081   5.4457758      735.78108     -17.393812      718.38727    
   2723000   300.42075      0.0092639081   4.6368026      745.35216     -16.719048      728.63311    
   2724000   290.28373      0.0092639081   7.2691258      720.20195     -14.761934      705.44001    
   2725000   301.21079      0.0092639081   4.8857539      747.31228     -13.710153      733.60212    
   2726000   298.30401      0.0092639081   4.1807276      740.10046     -15.846127      724.25433    
   2727000   313.53167      0.0092639081   4.7401302      777.88071     -11.927915      765.95279    
   2728000   299.34873      0.0092639081   5.3222584      742.69245     -14.416389      728.27606    
   2729000   299.85653      0.0092639081   3.5218467      743.95232     -13.197716      730.7546     
   2730000   310.56525      0.0092639081   5.5527112      770.52094     -14.904216      755.61672    
   2731000   295.23546      0.0092639081   5.3454304      732.48731     -13.072046      719.41527    
   2732000   301.0108       0.0092639081   5.2595264      746.81609     -14.950328      731.86576    
   2733000   302.42941      0.0092639081   4.2720749      750.33571     -15.52313       734.81258    
   2734000   300.67137      0.0092639081   4.3119907      745.97397     -19.731078      726.24289    
   2735000   303.8245       0.0092639081   4.52085        753.79697     -20.817104      732.97986    
   2736000   293.45436      0.0092639081   4.2894716      728.06836     -19.488676      708.57969    
   2737000   305.20261      0.0092639081   6.6036432      757.21609     -18.082308      739.13379    
   2738000   297.43129      0.0092639081   4.9502094      737.93523     -19.407462      718.52776    
   2739000   288.48965      0.0092639081   4.2141681      715.75077     -16.721768      699.029      
   2740000   293.1236       0.0092639081   6.3852311      727.24773     -16.478491      710.76924    
   2741000   310.46167      0.0092639081   5.3659675      770.26397     -15.86019       754.40378    
   2742000   305.36951      0.0092639081   5.7003828      757.63017     -13.459582      744.17059    
   2743000   290.734        0.0092639081   4.5421199      721.31906     -15.440855      705.87821    
   2744000   299.75513      0.0092639081   5.5145898      743.70073     -14.009334      729.6914     
   2745000   301.6439       0.0092639081   4.9520567      748.38683     -12.159334      736.2275     
   2746000   298.06664      0.0092639081   5.3875835      739.51155     -11.775215      727.73633    
   2747000   301.72733      0.0092639081   6.0678943      748.59383     -15.310764      733.28307    
   2748000   294.55905      0.0092639081   3.6860125      730.80912     -16.473909      714.33521    
   2749000   289.89732      0.0092639081   4.9768952      719.24324     -15.379612      703.86363    
   2750000   290.20218      0.0092639081   4.1165055      719.9996      -15.268799      704.7308     
   2751000   305.30198      0.0092639081   5.0913216      757.46264     -17.940592      739.52205    
   2752000   304.12925      0.0092639081   4.3325674      754.55305     -17.08349       737.46956    
   2753000   307.96001      0.0092639081   4.8628758      764.05728     -18.152352      745.90492    
   2754000   305.88574      0.0092639081   5.0072084      758.91096     -17.082155      741.8288     
   2755000   311.44546      0.0092639081   5.4465383      772.70478     -17.958075      754.74671    
   2756000   291.7985       0.0092639081   4.1082641      723.96011     -16.665658      707.29445    
   2757000   310.24483      0.0092639081   4.8560624      769.72597     -18.172428      751.55354    
   2758000   296.55088      0.0092639081   6.0565174      735.75091     -18.437929      717.31298    
   2759000   287.0435       0.0092639081   7.8694713      712.16284     -18.115167      694.04767    
   2760000   305.28915      0.0092639081   4.6649736      757.43079     -18.071624      739.35917    
   2761000   295.53415      0.0092639081   4.1749455      733.22837     -14.360281      718.86809    
   2762000   285.87186      0.0092639081   6.9128023      709.25596     -17.770124      691.48583    
   2763000   300.1798       0.0092639081   5.4485108      744.75437     -18.798799      725.95557    
   2764000   294.73818      0.0092639081   1.128376       731.25354     -18.873069      712.38047    
   2765000   298.30727      0.0092639081   6.7289943      740.10857     -19.44476       720.66381    
   2766000   313.08828      0.0092639081   8.6410491      776.78064     -17.819295      758.96135    
   2767000   290.03582      0.0092639081   1.1072119      719.58686     -23.023671      696.56319    
   2768000   292.93521      0.0092639081   5.1056788      726.78034     -21.786518      704.99382    
   2769000   303.80008      0.0092639081   7.7529134      753.73636     -22.175717      731.56064    
   2770000   314.37701      0.0092639081   5.3782167      779.97804     -23.037458      756.94058    
   2771000   294.37032      0.0092639081   2.0299924      730.34088     -21.878453      708.46242    
   2772000   299.20135      0.0092639081   2.23342        742.3268      -18.110045      724.21675    
   2773000   285.86749      0.0092639081   3.4248214      709.24513     -17.253973      691.99115    
   2774000   298.32086      0.0092639081   7.1107372      740.14229     -22.212402      717.92988    
   2775000   303.09978      0.0092639081   4.7298065      751.9989      -23.240378      728.75853    
   2776000   306.28524      0.0092639081   3.7088143      759.90213     -21.448369      738.45376    
   2777000   282.78869      0.0092639081   2.9747859      701.60652     -25.331847      676.27468    
   2778000   287.47789      0.0092639081   0.87825834     713.24057     -21.565207      691.67536    
   2779000   307.45216      0.0092639081   8.3388962      762.79729     -22.414046      740.38324    
   2780000   301.14791      0.0092639081   6.5226119      747.15627     -19.692511      727.46376    
   2781000   303.75204      0.0092639081   2.353842       753.61717     -20.109992      733.50718    
   2782000   300.75585      0.0092639081   3.4279384      746.18356     -19.173353      727.01021    
   2783000   300.9598       0.0092639081   3.1117398      746.68956     -20.750477      725.93908    
   2784000   299.72288      0.0092639081   6.2774679      743.62074     -20.999191      722.62154    
   2785000   309.87282      0.0092639081   4.6546111      768.80302     -21.773632      747.02938    
   2786000   285.66207      0.0092639081   5.3000284      708.73546     -20.371623      688.36384    
   2787000   301.37446      0.0092639081   4.647367       747.71834     -20.97436       726.74398    
   2788000   307.10829      0.0092639081   5.6263387      761.94414     -18.681714      743.26243    
   2789000   301.08319      0.0092639081   5.1058361      746.99569     -19.29054       727.70515    
   2790000   303.46566      0.0092639081   5.1057723      752.90666     -17.938841      734.96782    
   2791000   297.18653      0.0092639081   5.198736       737.32798     -13.691143      723.63684    
   2792000   296.31539      0.0092639081   5.2650852      735.16666     -15.953237      719.21342    
   2793000   302.48698      0.0092639081   5.5769884      750.47854     -17.620014      732.85853    
   2794000   301.34859      0.0092639081   4.9634805      747.65416     -16.350526      731.30363    
   2795000   308.65118      0.0092639081   4.8010605      765.77209     -18.45329       747.3188     
   2796000   295.1897       0.0092639081   4.9437362      732.37379     -18.234533      714.13925    
   2797000   297.01237      0.0092639081   5.1813805      736.89588     -18.942904      717.95297    
   2798000   306.80642      0.0092639081   4.4916494      761.1952      -20.830974      740.36422    
   2799000   312.19765      0.0092639081   4.7234978      774.57097     -14.865664      759.7053     
   2800000   289.72576      0.0092639081   4.6180681      718.8176      -14.052653      704.76495    
   2801000   303.92914      0.0092639081   4.7496249      754.05658     -17.241806      736.81478    
   2802000   303.552        0.0092639081   5.4229072      753.12088     -18.563691      734.55718    
   2803000   298.78642      0.0092639081   4.936683       741.29734     -20.103057      721.19428    
   2804000   297.66464      0.0092639081   5.2966297      738.51418     -20.585224      717.92896    
   2805000   305.07456      0.0092639081   5.41589        756.89839     -19.517988      737.3804     
   2806000   303.03586      0.0092639081   5.6799317      751.84032     -15.575361      736.26496    
   2807000   298.8109       0.0092639081   4.8222204      741.35807     -14.27593       727.08215    
   2808000   294.70803      0.0092639081   4.7533777      731.17874     -14.078594      717.10015    
   2809000   299.59625      0.0092639081   6.8744432      743.30655     -13.70738       729.59917    
   2810000   306.06989      0.0092639081   4.177387       759.36784     -17.325436      742.0424     
   2811000   298.44709      0.0092639081   4.3532139      740.45547     -19.562689      720.89278    
   2812000   301.65385      0.0092639081   6.1715504      748.41151     -20.965236      727.44627    
   2813000   278.22066      0.0092639081   3.3984442      690.27312     -22.202513      668.0706     
   2814000   303.59815      0.0092639081   4.0428237      753.23539     -20.246893      732.9885     
   2815000   305.19993      0.0092639081   8.0737501      757.20943     -17.46249       739.74694    
   2816000   297.57659      0.0092639081   5.3848033      738.29572     -18.176274      720.11944    
   2817000   300.52004      0.0092639081   3.033002       745.59849     -21.21074       724.38775    
   2818000   306.18485      0.0092639081   4.1720303      759.65305     -18.636204      741.01685    
   2819000   305.85057      0.0092639081   6.6541447      758.8237      -15.33052       743.49318    
   2820000   293.00924      0.0092639081   3.9473832      726.96399     -16.132085      710.83191    
   2821000   297.40142      0.0092639081   4.5985681      737.86112     -16.351995      721.50913    
   2822000   313.75889      0.0092639081   4.5833114      778.44445     -16.846974      761.59748    
   2823000   305.54813      0.0092639081   5.3520401      758.07334     -15.209957      742.86338    
   2824000   295.67122      0.0092639081   4.856414       733.56846     -14.782807      718.78565    
   2825000   293.75714      0.0092639081   3.6922454      728.81956     -15.989529      712.83003    
   2826000   305.77912      0.0092639081   5.8414012      758.64642     -13.48742       745.159      
   2827000   306.76472      0.0092639081   6.1953432      761.09173     -10.962555      750.12918    
   2828000   301.20011      0.0092639081   5.7231295      747.28577     -14.921101      732.36467    
   2829000   298.99406      0.0092639081   3.8949165      741.8125      -16.745519      725.06698    
   2830000   302.72076      0.0092639081   5.9558148      751.05855     -12.319534      738.73901    
   2831000   297.46642      0.0092639081   6.4722921      738.02238     -13.632433      724.38995    
   2832000   309.48272      0.0092639081   4.5859973      767.83515     -11.394425      756.44073    
   2833000   298.42048      0.0092639081   4.7304474      740.38943     -13.71804       726.67139    
   2834000   316.25404      0.0092639081   5.6346159      784.63499     -13.661399      770.97359    
   2835000   300.56718      0.0092639081   5.520058       745.71546     -15.741086      729.97437    
   2836000   299.47242      0.0092639081   4.9830577      742.99934     -17.509501      725.48984    
   2837000   290.82502      0.0092639081   4.8252735      721.5449      -17.341225      704.20367    
   2838000   308.14425      0.0092639081   6.2194277      764.51437     -13.457696      751.05668    
   2839000   301.86601      0.0092639081   4.1858028      748.9379      -14.427762      734.51013    
   2840000   300.85236      0.0092639081   4.7162059      746.42299     -13.455886      732.9671     
   2841000   286.14473      0.0092639081   5.3224717      709.93296     -15.974143      693.95882    
   2842000   304.39637      0.0092639081   6.1440618      755.21579     -19.630476      735.58531    
   2843000   310.98151      0.0092639081   5.2541931      771.5537      -21.318239      750.23546    
   2844000   300.34265      0.0092639081   4.1494417      745.15838     -20.325629      724.83275    
   2845000   284.67524      0.0092639081   6.0460964      706.28712     -17.005207      689.28192    
   2846000   311.11102      0.0092639081   5.9077792      771.87503     -14.886007      756.98902    
   2847000   320.54121      0.0092639081   5.5909087      795.27159     -21.908778      773.36281    
   2848000   300.23071      0.0092639081   4.7101037      744.88066     -18.30159       726.57907    
   2849000   293.41311      0.0092639081   4.865392       727.96601     -18.335922      709.63009    
   2850000   300.99836      0.0092639081   5.5413555      746.78522     -14.296025      732.48919    
   2851000   296.13697      0.0092639081   6.544204       734.72398     -17.050451      717.67353    
   2852000   311.85092      0.0092639081   4.0904078      773.71073     -17.601909      756.10882    
   2853000   299.17055      0.0092639081   3.2942512      742.25037     -13.547452      728.70292    
   2854000   297.00846      0.0092639081   8.1333226      736.88618     -13.358286      723.52789    
   2855000   304.73633      0.0092639081   4.3175185      756.05924     -14.910253      741.14899    
   2856000   309.26282      0.0092639081  -2.4123134      767.28959     -11.339182      755.95041    
   2857000   305.75294      0.0092639081   5.1311309      758.58146     -13.100429      745.48103    
   2858000   295.93534      0.0092639081   5.6419922      734.22372     -16.832658      717.39107    
   2859000   288.93296      0.0092639081   5.2308741      716.85064     -20.049419      696.80122    
   2860000   295.0889       0.0092639081   5.4383298      732.12369     -14.914037      717.20965    
   2861000   308.47167      0.0092639081   5.3172649      765.32671     -14.591887      750.73482    
   2862000   304.54796      0.0092639081   3.8831676      755.59189     -12.826551      742.76534    
   2863000   296.38685      0.0092639081   4.7915304      735.34395     -11.142431      724.20152    
   2864000   297.44216      0.0092639081   6.0679969      737.9622      -15.062748      722.89945    
   2865000   308.37206      0.0092639081   5.1137538      765.07959     -12.572376      752.50721    
   2866000   297.47073      0.0092639081  -0.41509981     738.03308     -15.49925       722.53383    
   2867000   294.63957      0.0092639081   6.5712774      731.00889     -16.469252      714.53964    
   2868000   305.90742      0.0092639081   8.2998418      758.96474     -18.741944      740.22279    
   2869000   302.13319      0.0092639081   6.1183963      749.60078     -15.592809      734.00797    
   2870000   308.26786      0.0092639081  -5.7925928      764.82105     -16.811141      748.00991    
   2871000   291.22853      0.0092639081   4.9199375      722.54601     -15.382207      707.16381    
   2872000   293.36573      0.0092639081   13.24326       727.84845     -15.82168       712.02677    
   2873000   314.82555      0.0092639081   4.4607011      781.09086     -18.436204      762.65466    
   2874000   301.20835      0.0092639081   1.5860661      747.30623     -16.998156      730.30807    
   2875000   295.39304      0.0092639081   2.6922295      732.87827     -16.793106      716.08516    
   2876000   307.42364      0.0092639081   7.5959187      762.72654     -14.411226      748.31531    
   2877000   316.3017       0.0092639081   1.8262088      784.75324     -17.463539      767.28971    
   2878000   301.61891      0.0092639081  -0.49207069     748.32482     -21.80952       726.5153     
   2879000   296.8413       0.0092639081   7.7384389      736.47144     -20.715315      715.75612    
   2880000   298.8811       0.0092639081   8.8442394      741.53224     -16.837718      724.69452    
   2881000   304.87451      0.0092639081   5.5877266      756.40205     -14.712349      741.6897     
   2882000   312.00301      0.0092639081   0.42451058     774.08806     -12.969547      761.11851    
   2883000   295.86715      0.0092639081  -3.6764313      734.05457     -9.1032462      724.95132    
   2884000   305.43331      0.0092639081   5.5256016      757.78847     -13.644899      744.14357    
   2885000   299.62966      0.0092639081   10.245955      743.38946     -13.750341      729.63912    
   2886000   298.64355      0.0092639081   7.9580244      740.94288     -16.124181      724.8187     
   2887000   302.47269      0.0092639081  -0.12456114     750.44308     -13.736644      736.70643    
   2888000   291.26744      0.0092639081   3.0345807      722.64254     -13.695477      708.94706    
   2889000   302.00957      0.0092639081   6.6895418      749.29406     -12.838107      736.45595    
   2890000   299.16087      0.0092639081   12.609548      742.22638     -14.540789      727.68559    
   2891000   309.6493       0.0092639081   7.9626733      768.24845     -15.300405      752.94804    
   2892000   301.11765      0.0092639081   4.2827043      747.08119     -12.875233      734.20595    
   2893000   297.68353      0.0092639081  -3.1783671      738.56105     -14.446091      724.11496    
   2894000   303.01926      0.0092639081   3.6470498      751.79914     -16.273061      735.52608    
   2895000   285.07196      0.0092639081   5.2498431      707.27138     -15.870517      691.40086    
   2896000   288.37032      0.0092639081   6.2544958      715.45472     -14.279178      701.17555    
   2897000   313.9415       0.0092639081   5.5455453      778.89752     -14.693407      764.20411    
   2898000   308.08786      0.0092639081   5.3364566      764.37446     -15.421731      748.95273    
   2899000   284.74332      0.0092639081   4.8529666      706.45602     -12.93459       693.52143    
   2900000   299.28453      0.0092639081   3.6173211      742.53318     -17.128684      725.40449    
   2901000   309.30265      0.0092639081   5.7086265      767.38839     -14.755631      752.63276    
   2902000   295.04758      0.0092639081   6.5296         732.02117     -15.299333      716.72184    
   2903000   290.11778      0.0092639081   6.1696927      719.79022     -13.272962      706.51726    
   2904000   308.48665      0.0092639081   4.014644       765.36389     -15.331491      750.0324     
   2905000   313.56935      0.0092639081   4.6258444      777.97421     -16.985652      760.98856    
   2906000   298.61615      0.0092639081   8.9563044      740.87489     -16.804017      724.07088    
   2907000   288.4262       0.0092639081   1.3314665      715.59336     -19.74306       695.8503     
   2908000   302.26147      0.0092639081   2.4842572      749.91904     -19.522525      730.39652    
   2909000   309.95011      0.0092639081   12.452596      768.99477     -19.084661      749.91011    
   2910000   283.20751      0.0092639081   4.7381133      702.64565     -15.971907      686.67374    
   2911000   296.64593      0.0092639081   3.076255       735.98673     -15.50806       720.47867    
   2912000   322.43371      0.0092639081   5.2616358      799.96691     -17.557022      782.40989    
   2913000   302.06783      0.0092639081   5.8599892      749.4386      -19.43066       730.00794    
   2914000   275.68506      0.0092639081   7.5444583      683.98224     -16.072237      667.91       
   2915000   296.61685      0.0092639081   1.5846306      735.91459     -18.300791      717.6138     
   2916000   320.81724      0.0092639081   9.3147698      795.95642     -15.764651      780.19177    
   2917000   299.88806      0.0092639081   6.8074676      744.03055     -15.701277      728.32927    
   2918000   286.49018      0.0092639081   1.7778976      710.79003     -17.222664      693.56737    
   2919000   304.66548      0.0092639081   4.7535235      755.88345     -16.072838      739.81061    
   2920000   323.47399      0.0092639081   9.019634       802.54789     -20.613006      781.93489    
   2921000   296.19367      0.0092639081   5.5839981      734.86465     -20.827616      714.03703    
   2922000   298.13287      0.0092639081   3.417424       739.67587     -17.793222      721.88265    
   2923000   299.53056      0.0092639081   7.4386235      743.14357     -21.965741      721.17783    
   2924000   292.96262      0.0092639081   4.4053395      726.84832     -17.409692      709.43863    
   2925000   297.89552      0.0092639081   2.3113808      739.08699     -14.925821      724.16117    
   2926000   296.98272      0.0092639081   2.5855244      736.82231     -14.121011      722.7013     
   2927000   315.6873       0.0092639081   6.1619089      783.22888     -15.149275      768.07961    
   2928000   299.45933      0.0092639081   10.944217      742.96685     -17.232128      725.73473    
   2929000   297.22846      0.0092639081   7.8507164      737.432       -22.028266      715.40373    
   2930000   293.68071      0.0092639081  -1.2998946      728.62994     -22.148348      706.48159    
   2931000   301.40881      0.0092639081   0.8517474      747.80357     -21.727872      726.0757     
   2932000   306.32238      0.0092639081   7.1061159      759.99426     -16.552832      743.44143    
   2933000   304.04765      0.0092639081   5.4136824      754.35061     -15.66076       738.68985    
   2934000   286.37415      0.0092639081   7.9418757      710.50215     -17.610717      692.89144    
   2935000   301.01161      0.0092639081   3.5634435      746.81809     -16.722343      730.09575    
   2936000   322.98978      0.0092639081   4.4838417      801.34654     -18.252011      783.09452    
   2937000   291.07104      0.0092639081   10.809801      722.15528     -16.401001      705.75428    
   2938000   280.41158      0.0092639081   7.184423       695.70886     -20.957277      674.75159    
   2939000   302.53326      0.0092639081   1.9632915      750.59337     -17.579721      733.01365    
   2940000   306.30582      0.0092639081   5.6958162      759.95318     -14.663034      745.29014    
   2941000   293.48312      0.0092639081   8.3089023      728.13971     -21.012302      707.1274     
   2942000   292.09968      0.0092639081   2.2068494      724.70737     -21.027161      703.68021    
   2943000   306.48458      0.0092639081   5.2180406      760.3967      -19.313358      741.08334    
   2944000   298.21054      0.0092639081   7.3643836      739.86858     -19.720727      720.14785    
   2945000   296.16525      0.0092639081   3.4441009      734.79414     -18.174968      716.61917    
   2946000   302.71812      0.0092639081   2.1028679      751.05201     -18.112482      732.93953    
   2947000   305.73103      0.0092639081   4.9371975      758.52712     -17.724761      740.80236    
   2948000   300.39244      0.0092639081   10.212169      745.28193     -13.793942      731.48799    
   2949000   289.84489      0.0092639081   3.6060355      719.11317     -17.448036      701.66513    
   2950000   294.20585      0.0092639081   0.83444674     729.93281     -19.128869      710.80394    
   2951000   313.60586      0.0092639081   6.5889807      778.06479     -19.327469      758.73732    
   2952000   322.99149      0.0092639081   6.5746723      801.3508      -19.550941      781.79986    
   2953000   289.07385      0.0092639081   5.5088295      717.20018     -18.757201      698.44298    
   2954000   290.58085      0.0092639081   1.6061677      720.9391      -18.711531      702.22757    
   2955000   303.3531       0.0092639081   4.1972455      752.62741     -21.673906      730.9535     
   2956000   300.63691      0.0092639081   5.1785021      745.88846     -17.578185      728.31028    
   2957000   300.79149      0.0092639081   5.7257908      746.27199     -15.543571      730.72842    
   2958000   304.20304      0.0092639081   5.0811283      754.73613     -14.161425      740.57471    
   2959000   295.98111      0.0092639081   2.6203584      734.33729     -11.580133      722.75716    
   2960000   305.96563      0.0092639081   5.1831321      759.10916     -12.671398      746.43777    
   2961000   291.65338      0.0092639081   3.8552994      723.60008     -13.721633      709.87845    
   2962000   299.91886      0.0092639081   5.5378176      744.10696     -14.561899      729.54506    
   2963000   295.32509      0.0092639081   5.6840602      732.70969     -14.307841      718.40185    
   2964000   312.91156      0.0092639081   3.4502289      776.34221     -13.735571      762.60663    
   2965000   294.58417      0.0092639081   3.7881274      730.87145     -14.580632      716.29082    
   2966000   305.32189      0.0092639081   5.7354975      757.51203     -17.472383      740.03965    
   2967000   304.73167      0.0092639081   4.863743       756.04766     -16.800254      739.24741    
   2968000   289.28115      0.0092639081   0.11764849     717.7145      -15.439543      702.27495    
   2969000   290.7203       0.0092639081   3.4870903      721.28508     -18.052863      703.23221    
   2970000   305.58766      0.0092639081   3.6492434      758.17142     -21.55642       736.615      
   2971000   305.64168      0.0092639081   5.7602341      758.30542     -13.57203       744.73339    
   2972000   292.32935      0.0092639081   6.5112438      725.27717     -16.186448      709.09073    
   2973000   301.98815      0.0092639081   4.9751371      749.24092     -18.285153      730.95577    
   2974000   298.51789      0.0092639081   4.594221       740.63112     -17.617491      723.01363    
   2975000   287.20333      0.0092639081  -0.60971614     712.55938     -16.43809       696.12129    
   2976000   305.75169      0.0092639081   6.7567694      758.57837     -15.915829      742.66254    
   2977000   291.58008      0.0092639081   4.9601717      723.41821     -13.592619      709.82559    
   2978000   299.507        0.0092639081   1.8252797      743.08513     -16.210011      726.87512    
   2979000   319.23553      0.0092639081   4.118879       792.03214     -15.159189      776.87295    
   2980000   298.31283      0.0092639081   5.4802201      740.12235     -14.581729      725.54062    
   2981000   297.79426      0.0092639081   5.8719913      738.83576     -17.183442      721.65231    
   2982000   290.92434      0.0092639081   5.3529017      721.79131     -18.557069      703.23424    
   2983000   305.00713      0.0092639081   3.6665638      756.73109     -16.917138      739.81395    
   2984000   314.91997      0.0092639081   5.5796201      781.32513     -16.201398      765.12373    
   2985000   296.4914       0.0092639081   6.1941425      735.60334     -18.973417      716.62992    
   2986000   296.90212      0.0092639081   5.2176106      736.62235     -18.016099      718.60625    
   2987000   296.9685       0.0092639081   4.872525       736.78702     -17.200127      719.5869     
   2988000   322.90267      0.0092639081   5.3389161      801.13043     -13.273038      787.85739    
   2989000   290.94848      0.0092639081   5.7645356      721.85119     -16.038894      705.81229    
   2990000   298.34542      0.0092639081   4.5666358      740.20322     -16.488907      723.71431    
   2991000   309.61182      0.0092639081   4.8862545      768.15545     -15.723781      752.43167    
   2992000   312.25397      0.0092639081   5.3738774      774.71071     -14.686336      760.02438    
   2993000   286.19503      0.0092639081   4.6040625      710.05775     -19.815378      690.24237    
   2994000   294.08162      0.0092639081   4.9994009      729.62461     -19.333374      710.29123    
   2995000   318.68817      0.0092639081   7.573528       790.67412     -17.668553      773.00557    
   2996000   307.96517      0.0092639081   6.3484166      764.07009     -14.924042      749.14605    
   2997000   288.71943      0.0092639081   3.0302911      716.32086     -12.920957      703.39991    
   2998000   302.78894      0.0092639081   4.8139549      751.2277      -13.021771      738.20593    
   2999000   314.51566      0.0092639081   8.6146364      780.32202     -13.557668      766.76435    
   3000000   306.65651      0.0092639081   1.1074738      760.82326     -14.145402      746.67786    
   3001000   290.9822       0.0092639081  -4.6367206      721.93486     -17.621461      704.3134     
   3002000   296.01803      0.0092639081   5.7722983      734.4289      -19.041992      715.38691    
   3003000   306.97571      0.0092639081   9.3593625      761.6152      -20.892102      740.7231     
   3004000   298.62449      0.0092639081   3.9107781      740.89559     -24.514559      716.38103    
   3005000   295.6037       0.0092639081   3.7217996      733.40093     -20.004796      713.39614    
   3006000   302.4565       0.0092639081   4.2422403      750.40292     -15.087324      735.3156     
   3007000   300.11445      0.0092639081   5.7963151      744.59223     -16.662144      727.93009    
   3008000   293.21396      0.0092639081   4.9540561      727.47193     -20.90089       706.57104    
   3009000   294.24863      0.0092639081   5.2976068      730.03897     -16.042241      713.99673    
   3010000   302.20129      0.0092639081   5.0135328      749.76973     -14.896207      734.87352    
   3011000   315.04603      0.0092639081   7.5928257      781.63788     -16.309071      765.32881    
   3012000   306.95221      0.0092639081   4.6715029      761.55689     -13.973513      747.58338    
   3013000   300.78336      0.0092639081   4.2781267      746.25181     -14.665435      731.58637    
   3014000   294.42946      0.0092639081   4.0480089      730.48759     -21.186298      709.3013     
   3015000   297.47912      0.0092639081   6.6232609      738.05389     -20.907395      717.1465     
   3016000   305.75063      0.0092639081   5.0090893      758.57573     -17.529523      741.04621    
   3017000   298.11479      0.0092639081   4.2064366      739.63101     -18.405976      721.22503    
   3018000   290.16359      0.0092639081   6.1094401      719.90386     -20.904054      698.99981    
   3019000   308.31749      0.0092639081   6.215362       764.9442      -22.042207      742.90199    
   3020000   307.11961      0.0092639081   5.2966936      761.97222     -23.698669      738.27355    
   3021000   300.96982      0.0092639081   2.4515051      746.71442     -22.390202      724.32422    
   3022000   290.21787      0.0092639081   5.4736461      720.03854     -25.055538      694.983      
   3023000   321.48586      0.0092639081   7.4214494      797.61529     -20.480978      777.13431    
   3024000   299.97566      0.0092639081   2.5979577      744.24789     -21.325107      722.92278    
   3025000   290.52322      0.0092639081   8.1529681      720.79611     -18.136694      702.65942    
   3026000   301.49843      0.0092639081   6.8872575      748.02592     -15.821164      732.20476    
   3027000   304.19779      0.0092639081   5.8312327      754.72309     -21.777015      732.94608    
   3028000   304.02203      0.0092639081   6.3070283      754.28704     -21.187502      733.09954    
   3029000   307.03171      0.0092639081   4.7571836      761.75413     -22.441951      739.31218    
   3030000   291.74445      0.0092639081   2.5721021      723.82601     -21.688975      702.13704    
   3031000   297.59662      0.0092639081   1.3394898      738.34543     -23.314589      715.03084    
   3032000   303.20164      0.0092639081   5.9121452      752.25164     -21.342471      730.90917    
   3033000   313.43029      0.0092639081   13.233955      777.62918     -23.757704      753.87148    
   3034000   299.49919      0.0092639081   3.5776868      743.06575     -21.688372      721.37737    
   3035000   299.07462      0.0092639081   4.9014148      742.01238     -21.475717      720.53666    
   3036000   297.12493      0.0092639081   4.977165       737.17513     -19.640545      717.53459    
   3037000   299.99587      0.0092639081   8.2178095      744.29802     -22.925845      721.37218    
   3038000   292.63189      0.0092639081   3.4275537      726.02778     -21.49314       704.53464    
   3039000   306.73219      0.0092639081   5.3624413      761.01101     -23.866533      737.14447    
   3040000   296.91728      0.0092639081   8.4125684      736.65997     -26.457099      710.20287    
   3041000   296.97416      0.0092639081   3.8416636      736.80108     -28.092676      708.7084     
   3042000   309.18743      0.0092639081   3.7493592      767.10255     -24.833003      742.26955    
   3043000   299.81943      0.0092639081   5.5480365      743.86026     -23.336232      720.52403    
   3044000   282.78266      0.0092639081   4.0796729      701.59159     -21.676367      679.91522    
   3045000   299.48853      0.0092639081   4.9242109      743.03929     -17.837058      725.20224    
   3046000   299.06135      0.0092639081   4.181483       741.97945     -15.889588      726.08986    
   3047000   297.96141      0.0092639081   5.1035304      739.25048     -19.102367      720.14812    
   3048000   307.27472      0.0092639081   7.2779175      762.35706     -20.775749      741.58131    
   3049000   288.46928      0.0092639081   4.39696        715.70024     -21.423496      694.27674    
   3050000   286.26063      0.0092639081   4.3436245      710.22051     -20.715787      689.50472    
   3051000   302.25255      0.0092639081   5.2022788      749.8969      -23.064564      726.83234    
   3052000   305.48106      0.0092639081   4.4197173      757.90693     -19.204707      738.70222    
   3053000   298.06738      0.0092639081   4.7750804      739.5134      -20.696916      718.81648    
   3054000   296.1141       0.0092639081   5.2844312      734.66724     -18.716611      715.95063    
   3055000   306.6073       0.0092639081   5.0429031      760.70118     -22.693925      738.00725    
   3056000   297.70658      0.0092639081   5.7979719      738.61822     -22.310177      716.30805    
   3057000   289.74719      0.0092639081   4.2311252      718.87077     -18.65853       700.21224    
   3058000   308.80085      0.0092639081   4.3891966      766.14342     -18.155283      747.98814    
   3059000   308.26747      0.0092639081   5.6631006      764.8201      -19.379684      745.44042    
   3060000   293.79008      0.0092639081   5.1623116      728.90128     -17.863849      711.03744    
   3061000   299.39199      0.0092639081   4.8724138      742.79978     -19.429012      723.37077    
   3062000   314.14376      0.0092639081   5.5568595      779.39934     -16.098353      763.30098    
   3063000   300.42451      0.0092639081   3.06627        745.36149     -16.286272      729.07522    
   3064000   306.50286      0.0092639081   5.8377016      760.44204     -14.319428      746.12261    
   3065000   311.51068      0.0092639081   6.5768419      772.86658     -18.969512      753.89706    
   3066000   299.86584      0.0092639081   4.1585372      743.97541     -17.844196      726.13121    
   3067000   302.02584      0.0092639081   7.4745119      749.33443     -20.587725      728.74671    
   3068000   304.99104      0.0092639081   5.5407225      756.69117     -17.411028      739.28014    
   3069000   305.56275      0.0092639081   2.4990497      758.1096      -18.916257      739.19335    
   3070000   301.58429      0.0092639081   0.30290226     748.23893     -19.695394      728.54354    
   3071000   289.34353      0.0092639081   7.4359686      717.86928     -17.129538      700.73974    
   3072000   310.68595      0.0092639081   3.9587652      770.82041     -18.194369      752.62604    
   3073000   304.44224      0.0092639081   1.5764191      755.32958     -18.406348      736.92323    
   3074000   294.72094      0.0092639081   9.3609821      731.21077     -16.395138      714.81564    
   3075000   295.11183      0.0092639081   13.447032      732.1806      -15.966545      716.21405    
   3076000   307.10428      0.0092639081   6.2133592      761.93418     -16.561322      745.37285    
   3077000   321.32508      0.0092639081   4.7909543      797.21638     -16.363369      780.85301    
   3078000   286.12088      0.0092639081   4.4420797      709.8738      -15.250312      694.62349    
   3079000   296.27516      0.0092639081   5.4335567      735.06685     -13.944357      721.12249    
   3080000   314.52726      0.0092639081   5.5153247      780.35081     -15.264036      765.08677    
   3081000   300.52556      0.0092639081   5.3064798      745.61221     -15.551547      730.06066    
   3082000   298.01835      0.0092639081   4.527354       739.39173     -16.867958      722.52377    
   3083000   298.18655      0.0092639081   3.9418046      739.80905     -15.010096      724.79896    
   3084000   300.67645      0.0092639081   10.128842      745.98657     -15.489813      730.49676    
   3085000   306.63762      0.0092639081   5.4029515      760.7764      -19.273555      741.50284    
   3086000   312.40766      0.0092639081   5.0497064      775.09201     -18.271364      756.82065    
   3087000   289.92063      0.0092639081   5.5946212      719.30108     -17.215283      702.08579    
   3088000   297.77053      0.0092639081   5.3547457      738.7769      -13.075165      725.70174    
   3089000   309.47444      0.0092639081   5.8738847      767.81461     -12.956752      754.85786    
   3090000   301.18028      0.0092639081   4.6220837      747.23658     -10.895183      736.34139    
   3091000   295.08522      0.0092639081   5.9424048      732.11456     -14.594715      717.51985    
   3092000   308.50546      0.0092639081   5.522727       765.41056     -14.755525      750.65503    
   3093000   298.27555      0.0092639081   5.2348824      740.02985     -16.241341      723.78851    
   3094000   304.49224      0.0092639081   4.6855164      755.45364     -18.620147      736.83349    
   3095000   303.70261      0.0092639081   6.9717979      753.49454     -18.912494      734.58204    
   3096000   299.85932      0.0092639081   4.9628666      743.95925     -21.932484      722.02676    
   3097000   300.90274      0.0092639081   5.7460224      746.54798     -20.283063      726.26492    
   3098000   298.50763      0.0092639081   4.9992997      740.60566     -22.296159      718.3095     
   3099000   305.71233      0.0092639081   4.7759061      758.48072     -21.792488      736.68823    
   3100000   297.27542      0.0092639081   3.2949905      737.54852     -20.200874      717.34764    
   3101000   292.19806      0.0092639081   4.9105211      724.95145     -19.75806       705.19339    
   3102000   314.95273      0.0092639081   5.2951736      781.4064      -17.595195      763.8112     
   3103000   313.13619      0.0092639081   6.2077624      776.89952     -18.4539        758.44562    
   3104000   288.52116      0.0092639081   5.5683997      715.82894     -20.331708      695.49723    
   3105000   289.59315      0.0092639081   4.7049469      718.48858     -18.118162      700.37042    
   3106000   306.13667      0.0092639081   5.3575055      759.53353     -16.745843      742.78769    
   3107000   300.91836      0.0092639081   5.3336298      746.58676     -16.584905      730.00185    
   3108000   296.02882      0.0092639081   4.9409367      734.45566     -16.847184      717.60847    
   3109000   298.1073       0.0092639081   5.0448303      739.61243     -13.960208      725.65222    
   3110000   305.19711      0.0092639081   4.848489       757.20243     -12.219958      744.98248    
   3111000   302.36563      0.0092639081   5.7208136      750.17745     -14.671937      735.50551    
   3112000   293.02463      0.0092639081   4.8645201      727.00217     -15.954304      711.04787    
   3113000   304.0341       0.0092639081   5.2942871      754.31697     -15.747662      738.56931    
   3114000   319.83174      0.0092639081   4.9791332      793.51136     -16.534284      776.97708    
   3115000   298.85458      0.0092639081   3.7034348      741.46645     -13.177446      728.289      
   3116000   286.4465       0.0092639081   6.1760842      710.68166     -16.72083       693.96084    
   3117000   298.39422      0.0092639081   6.229668       740.3243      -15.315509      725.00879    
   3118000   306.98194      0.0092639081   4.9541707      761.63067     -18.665056      742.96561    
   3119000   297.96473      0.0092639081   3.9800555      739.2587      -19.702695      719.556      
   3120000   305.03209      0.0092639081   4.4191558      756.79302     -16.115192      740.67783    
   3121000   295.72481      0.0092639081   7.9965334      733.70141     -11.497225      722.20419    
   3122000   290.92161      0.0092639081   4.945903       721.78454     -13.848067      707.93647    
   3123000   295.44075      0.0092639081   3.5853793      732.99665     -18.215331      714.78132    
   3124000   307.75353      0.0092639081   5.73767        763.54499     -17.783754      745.76124    
   3125000   316.29965      0.0092639081   5.5877097      784.74814     -18.499061      766.24908    
   3126000   299.78794      0.0092639081   5.5585236      743.78214     -17.871581      725.91056    
   3127000   288.51204      0.0092639081   3.4540163      715.80633     -18.926075      696.88026    
   3128000   299.7883       0.0092639081   4.5376396      743.78303     -16.305632      727.4774     
   3129000   316.58759      0.0092639081   5.4562574      785.46254     -17.455883      768.00665    
   3130000   310.07426      0.0092639081   5.4861637      769.30278     -17.903745      751.39904    
   3131000   296.09518      0.0092639081   4.9588091      734.6203      -17.385744      717.23455    
   3132000   284.32246      0.0092639081   2.6378082      705.41186     -16.901998      688.50987    
   3133000   299.57111      0.0092639081   4.407345       743.24418     -17.388712      725.85547    
   3134000   310.42817      0.0092639081   5.1499732      770.18085     -13.474279      756.70657    
   3135000   300.93484      0.0092639081   7.1195138      746.62764     -13.804508      732.82313    
   3136000   292.17868      0.0092639081   3.9268167      724.90336     -12.93032       711.97304    
   3137000   298.01391      0.0092639081   1.2168045      739.38073     -14.889037      724.49169    
   3138000   308.67632      0.0092639081   5.6829672      765.83446     -20.334688      745.49977    
   3139000   303.01081      0.0092639081   5.1784852      751.77818     -18.670661      733.10752    
   3140000   312.73232      0.0092639081   3.9868849      775.8975      -17.070196      758.82731    
   3141000   302.08685      0.0092639081   5.0312068      749.48579     -14.541521      734.94427    
   3142000   296.99521      0.0092639081   4.7871709      736.85331     -17.684574      719.16874    
   3143000   299.84118      0.0092639081   4.8428119      743.91423     -17.515464      726.39877    
   3144000   289.57349      0.0092639081   4.4333423      718.43981     -14.372396      704.06742    
   3145000   299.18152      0.0092639081   6.0562361      742.27761     -18.743389      723.53422    
   3146000   311.36397      0.0092639081   4.3704364      772.5026      -19.000413      753.50218    
   3147000   296.7038       0.0092639081   4.8964341      736.13029     -21.178625      714.95167    
   3148000   302.85934      0.0092639081   7.034026       751.40237     -19.569857      731.83251    
   3149000   301.49059      0.0092639081   4.3222615      748.00646     -23.101387      724.90507    
   3150000   294.23134      0.0092639081   5.5922621      729.99607     -21.102472      708.8936     
   3151000   330.22729      0.0092639081   7.3459589      819.303       -20.34178       798.96122    
   3152000   305.0083       0.0092639081   4.6521092      756.734       -16.546446      740.18755    
   3153000   290.51532      0.0092639081   3.5021304      720.77651     -16.39409       704.38242    
   3154000   300.04429      0.0092639081   4.8074422      744.41814     -17.767456      726.65069    
   3155000   307.42497      0.0092639081   5.2300151      762.72982     -23.094626      739.6352     
   3156000   290.43016      0.0092639081   5.2137461      720.56524     -20.733219      699.83202    
   3157000   293.93865      0.0092639081   4.6374622      729.26989     -19.361326      709.90856    
   3158000   301.61566      0.0092639081   5.7816187      748.31676     -20.970935      727.34582    
   3159000   308.94015      0.0092639081   5.208355       766.48902     -20.489555      745.99946    
   3160000   301.20178      0.0092639081   6.2895895      747.28992     -13.428758      733.86116    
   3161000   311.31922      0.0092639081   4.9008667      772.39156     -17.809231      754.58233    
   3162000   293.6667       0.0092639081   4.075905       728.59519     -16.984723      711.61046    
   3163000   303.44484      0.0092639081   5.2037867      752.85501     -16.361511      736.4935     
   3164000   304.89909      0.0092639081   5.2090263      756.46304     -18.594387      737.86865    
   3165000   292.1887       0.0092639081   5.0233353      724.92821     -18.714403      706.21381    
   3166000   291.09373      0.0092639081   3.715933       722.21157     -16.979554      705.23201    
   3167000   304.0822       0.0092639081   2.8305517      754.43632     -18.010488      736.42584    
   3168000   304.66699      0.0092639081   5.1384403      755.8872      -17.841801      738.0454     
   3169000   304.34951      0.0092639081   5.4710827      755.09953     -17.550926      737.54861    
   3170000   300.82425      0.0092639081   5.8856231      746.35327     -22.52326       723.83001    
   3171000   291.51465      0.0092639081   5.7999667      723.25588     -19.263234      703.99264    
   3172000   302.19587      0.0092639081   0.019183931    749.75629     -23.084608      726.67168    
   3173000   311.61425      0.0092639081   2.7003165      773.12354     -21.916775      751.20676    
   3174000   286.36208      0.0092639081   9.1551275      710.47222     -20.304382      690.16784    
   3175000   297.99219      0.0092639081   3.243555       739.32684     -15.364903      723.96194    
   3176000   310.3307       0.0092639081   4.9194125      769.93902     -18.655612      751.28341    
   3177000   296.44246      0.0092639081   5.981169       735.48192     -20.568312      714.9136     
   3178000   284.21149      0.0092639081   4.8116985      705.13653     -17.861211      687.27532    
   3179000   313.15914      0.0092639081   5.5443199      776.95645     -14.984805      761.97165    
   3180000   302.90978      0.0092639081   5.1550786      751.5275      -16.970393      734.55711    
   3181000   286.49357      0.0092639081   1.2214482      710.79843     -13.229118      697.56932    
   3182000   287.34973      0.0092639081   6.3970387      712.92261     -15.248964      697.67364    
   3183000   323.75097      0.0092639081   4.7065061      803.23508     -11.717021      791.51806    
   3184000   298.3777       0.0092639081   4.9624465      740.2833      -16.704676      723.57862    
   3185000   283.75927      0.0092639081   6.7189006      704.01457     -14.198237      689.81633    
   3186000   301.15097      0.0092639081   7.8433161      747.16386     -13.360469      733.80339    
   3187000   311.42721      0.0092639081   2.5254851      772.6595      -16.403449      756.25605    
   3188000   299.08183      0.0092639081   4.6075961      742.03026     -11.482444      730.54781    
   3189000   294.29133      0.0092639081   7.1667816      730.1449      -13.775573      716.36933    
   3190000   311.66078      0.0092639081   5.7168626      773.23898     -12.575174      760.66381    
   3191000   315.68304      0.0092639081   4.6398474      783.21834     -10.845945      772.37239    
   3192000   294.50197      0.0092639081   3.9370868      730.66751     -12.654276      718.01324    
   3193000   295.13718      0.0092639081   8.1672438      732.24348     -17.088462      715.15502    
   3194000   309.08567      0.0092639081   6.4635298      766.85006     -18.274547      748.57551    
   3195000   304.05316      0.0092639081   5.0553014      754.36427     -19.473762      734.89051    
   3196000   297.17936      0.0092639081   4.4949038      737.31018     -15.827366      721.48282    
   3197000   297.68541      0.0092639081   4.2390093      738.5657      -17.931316      720.63438    
   3198000   310.11694      0.0092639081   5.4450853      769.40867     -15.045001      754.36367    
   3199000   305.46665      0.0092639081   5.1355626      757.87117     -14.568969      743.3022     
   3200000   304.94396      0.0092639081   5.4367303      756.57437     -16.657213      739.91716    
   3201000   292.32812      0.0092639081   6.9808796      725.27413     -16.215642      709.05849    
   3202000   302.22087      0.0092639081   4.9706515      749.81831     -16.860868      732.95744    
   3203000   299.33669      0.0092639081   4.8136471      742.66259     -16.723218      725.93937    
   3204000   293.83158      0.0092639081   4.9721878      729.00426     -16.424722      712.57953    
   3205000   324.35929      0.0092639081   5.6593792      804.74434     -14.915172      789.82917    
   3206000   301.94832      0.0092639081   5.2873144      749.14211     -12.489717      736.65239    
   3207000   305.66553      0.0092639081   4.5520022      758.3646      -14.783437      743.58116    
   3208000   303.1952       0.0092639081   5.0739124      752.23566     -14.996222      737.23944    
   3209000   300.89026      0.0092639081   5.2140733      746.51703     -15.758139      730.7589     
   3210000   294.27544      0.0092639081   4.8438297      730.10549     -20.210081      709.89541    
   3211000   295.7647       0.0092639081   4.6838314      733.80038     -17.181267      716.61911    
   3212000   302.32683      0.0092639081   7.0263164      750.08121     -21.670646      728.41056    
   3213000   304.05912      0.0092639081   4.7810918      754.37907     -16.712887      737.66618    
   3214000   290.58729      0.0092639081   5.0699882      720.95508     -14.809966      706.14512    
   3215000   298.42483      0.0092639081   4.7569878      740.40024     -12.875254      727.52498    
   3216000   296.7577       0.0092639081   6.1819974      736.26405     -11.41423       724.84982    
   3217000   301.87982      0.0092639081   6.4253378      748.97216     -13.96773       735.00443    
   3218000   308.22414      0.0092639081   1.6573042      764.71258     -16.513387      748.19919    
   3219000   304.44484      0.0092639081   5.685353       755.33604     -18.455041      736.881      
   3220000   301.39775      0.0092639081   5.8717951      747.77614     -12.71645       735.05969    
   3221000   297.95973      0.0092639081   5.1485878      739.2463      -13.560683      725.68562    
   3222000   294.41718      0.0092639081   5.0203282      730.45713     -14.410693      716.04644    
   3223000   306.10148      0.0092639081   4.5994059      759.4462      -14.794759      744.65144    
   3224000   301.1149       0.0092639081   5.3063495      747.07436     -14.616854      732.45751    
   3225000   300.74504      0.0092639081   5.2404785      746.15675     -16.049064      730.10768    
   3226000   298.99711      0.0092639081   4.6564045      741.82006     -14.48263       727.33743    
   3227000   304.32837      0.0092639081   5.0345574      755.04708     -13.417033      741.63005    
   3228000   297.54072      0.0092639081   7.1819681      738.20673     -14.295443      723.91128    
   3229000   293.35041      0.0092639081   4.8760847      727.81046     -16.058306      711.75216    
   3230000   310.49356      0.0092639081   4.0616963      770.34309     -16.147563      754.19553    
   3231000   300.68163      0.0092639081   5.2584145      745.9994      -19.708428      726.29098    
   3232000   288.22803      0.0092639081   4.1919444      715.10168     -17.939316      697.16237    
   3233000   319.52041      0.0092639081   6.216634       792.73894     -16.555752      776.18319    
   3234000   311.12232      0.0092639081   6.3902219      771.90306     -14.849084      757.05398    
   3235000   301.82354      0.0092639081   4.8773006      748.83253     -13.613185      735.21934    
   3236000   277.6881       0.0092639081   5.2638481      688.95183     -14.302338      674.64949    
   3237000   317.71876      0.0092639081   6.1600909      788.26901     -15.102148      773.16686    
   3238000   305.03831      0.0092639081   5.9486079      756.80847     -12.799392      744.00908    
   3239000   302.88395      0.0092639081   4.4885562      751.46343     -14.963138      736.50029    
   3240000   298.38564      0.0092639081   3.9407193      740.303       -14.584772      725.71822    
   3241000   304.77312      0.0092639081   5.6750486      756.15051     -16.539857      739.61065    
   3242000   305.73948      0.0092639081   9.960555       758.54807     -13.103778      745.44429    
   3243000   296.55706      0.0092639081   3.6340197      735.76623     -14.538926      721.2273     
   3244000   287.27641      0.0092639081   3.7702766      712.7407      -12.966889      699.77381    
   3245000   307.49347      0.0092639081   6.9013409      762.89978     -10.38267       752.51711    
   3246000   292.89448      0.0092639081   4.9859468      726.67928     -11.30297       715.37631    
   3247000   291.85192      0.0092639081   5.1680886      724.09266     -11.327782      712.76488    
   3248000   302.35453      0.0092639081   5.0792292      750.14993     -11.735788      738.41414    
   3249000   305.1257       0.0092639081   5.1287541      757.02528     -12.55615       744.46913    
   3250000   299.80085      0.0092639081   5.1698181      743.81417     -10.653227      733.16094    
   3251000   290.3733       0.0092639081   3.8211536      720.42416     -17.046633      703.37753    
   3252000   300.0285       0.0092639081   7.1674026      744.37898     -16.578056      727.80093    
   3253000   310.82579      0.0092639081   6.0785354      771.16735     -17.557891      753.60945    
   3254000   296.29241      0.0092639081   2.9341807      735.10963     -16.79264       718.31699    
   3255000   287.7799       0.0092639081   5.0674921      713.98987     -15.664256      698.32562    
   3256000   300.54445      0.0092639081   6.6829563      745.65907     -14.844009      730.81507    
   3257000   304.12427      0.0092639081   6.7093287      754.5407      -14.799371      739.74133    
   3258000   301.19628      0.0092639081   0.30344821     747.27626     -15.953647      731.32261    
   3259000   293.55154      0.0092639081   2.3183519      728.30946     -15.442352      712.86711    
   3260000   306.84984      0.0092639081   8.0062369      761.30291     -11.24343       750.05948    
   3261000   295.62121      0.0092639081   13.14928       733.44437     -13.328558      720.11582    
   3262000   308.65636      0.0092639081   13.025557      765.78493     -13.990551      751.79438    
   3263000   303.1565       0.0092639081   3.0645681      752.13963     -14.945755      737.19387    
   3264000   290.81113      0.0092639081  -0.98879836     721.51043     -12.724574      708.78585    
   3265000   301.02815      0.0092639081   8.5335015      746.85913     -12.82797       734.03116    
   3266000   318.53508      0.0092639081   12.868631      790.29432     -11.560138      778.73418    
   3267000   289.52217      0.0092639081   3.2260979      718.31249     -12.52122       705.79127    
   3268000   301.78319      0.0092639081   4.8441183      748.7324      -12.736634      735.99577    
   3269000   303.95525      0.0092639081   5.1228871      754.12136     -14.968857      739.15251    
   3270000   312.27071      0.0092639081   6.7009356      774.75224     -16.720123      758.03212    
   3271000   298.75916      0.0092639081   4.8025997      741.22972     -16.974223      724.2555     
   3272000   291.48142      0.0092639081   5.1298085      723.17345     -15.212524      707.96092    
   3273000   300.96986      0.0092639081   3.8892234      746.71451     -12.084327      734.63018    
   3274000   308.46021      0.0092639081   5.7098517      765.29828     -13.940504      751.35777    
   3275000   297.16256      0.0092639081   5.9687915      737.26851     -13.213611      724.0549     
   3276000   286.96449      0.0092639081   5.1836012      711.9668      -13.845082      698.12172    
   3277000   297.57464      0.0092639081   5.4403817      738.29087     -16.076813      722.21406    
   3278000   304.16447      0.0092639081   4.7949714      754.64044     -16.36956       738.27088    
   3279000   309.22076      0.0092639081   5.5898419      767.18522     -16.610017      750.57521    
   3280000   301.94455      0.0092639081   5.2610368      749.13276     -15.924274      733.20848    
   3281000   295.47387      0.0092639081   4.842826       733.07882     -13.535548      719.54327    
   3282000   298.86284      0.0092639081   3.3659524      741.48696     -11.993902      729.49305    
   3283000   307.11166      0.0092639081   5.1192953      761.9525      -13.735355      748.21715    
   3284000   308.42241      0.0092639081   5.5307642      765.20449     -12.155679      753.04881    
   3285000   293.46646      0.0092639081   3.3614142      728.09838     -10.669116      717.42926    
   3286000   284.55626      0.0092639081   3.3765627      705.99193     -13.175832      692.8161     
   3287000   306.27924      0.0092639081   5.2980918      759.88723     -14.08825       745.79898    
   3288000   317.19211      0.0092639081   5.595789       786.96236     -13.842231      773.12013    
   3289000   298.34622      0.0092639081   5.0135007      740.20519     -15.540735      724.66445    
   3290000   287.53295      0.0092639081   4.9618438      713.37718     -12.539766      700.83742    
   3291000   304.43383      0.0092639081   5.4054743      755.30871     -15.673973      739.63474    
   3292000   310.5473       0.0092639081   5.2369975      770.47641     -13.526326      756.95008    
   3293000   295.26682      0.0092639081   3.7682898      732.56512     -14.56363       718.00149    
   3294000   300.66288      0.0092639081   4.8410495      745.95289     -13.181921      732.77097    
   3295000   308.06557      0.0092639081   5.8683712      764.31917     -14.772652      749.54652    
   3296000   307.43529      0.0092639081   6.3221839      762.75543     -16.471528      746.28391    
   3297000   292.68883      0.0092639081   4.9969769      726.16906     -12.421735      713.74733    
   3298000   305.58231      0.0092639081   3.6268297      758.15814     -13.756093      744.40205    
   3299000   326.77598      0.0092639081   3.543699       810.74022     -14.195808      796.54441    
   3300000   296.51749      0.0092639081   5.8855567      735.66806     -17.841382      717.82668    
   3301000   290.45506      0.0092639081   5.031846       720.627       -20.419285      700.20772    
   3302000   307.43768      0.0092639081   3.695452       762.76135     -18.894194      743.86715    
   3303000   312.09824      0.0092639081   6.1717417      774.32434     -17.416014      756.90833    
   3304000   285.42008      0.0092639081   5.4130684      708.13507     -12.562707      695.57237    
   3305000   303.87032      0.0092639081   2.9063753      753.91063     -14.147032      739.7636     
   3306000   311.60604      0.0092639081   5.7834041      773.10316     -16.401203      756.70196    
   3307000   290.37521      0.0092639081   6.1583127      720.42891     -17.303684      703.12523    
   3308000   292.37979      0.0092639081   3.9484641      725.40233     -20.945462      704.45686    
   3309000   304.43418      0.0092639081   4.7020698      755.3096      -20.052368      735.25723    
   3310000   311.7039       0.0092639081   8.8015913      773.34598     -21.545245      751.80073    
   3311000   294.16388      0.0092639081   4.6238957      729.8287      -24.997356      704.83135    
   3312000   302.40587      0.0092639081   4.5536006      750.2773      -23.802596      726.47471    
   3313000   301.67012      0.0092639081   5.9478577      748.45187     -20.447914      728.00396    
   3314000   295.48066      0.0092639081   4.9472197      733.09567     -18.060725      715.03494    
   3315000   297.69041      0.0092639081   4.5760206      738.57811     -19.24529       719.33282    
   3316000   290.00222      0.0092639081   4.2204455      719.5035      -17.482194      702.02131    
   3317000   284.7223       0.0092639081   4.6411263      706.40386     -18.46972       687.93414    
   3318000   295.08698      0.0092639081   4.841255       732.11892     -17.0611        715.05782    
   3319000   310.59864      0.0092639081   5.1428117      770.6038      -18.527633      752.07617    
   3320000   282.34711      0.0092639081   4.4115903      700.51097     -16.115184      684.39579    
   3321000   298.934        0.0092639081   5.470072       741.6635      -16.228159      725.43534    
   3322000   315.6067       0.0092639081   5.3333017      783.02893     -20.240651      762.78827    
   3323000   302.52866      0.0092639081   6.1136381      750.58194     -20.423606      730.15833    
   3324000   288.94567      0.0092639081   4.5355918      716.88217     -16.008598      700.87357    
   3325000   304.20113      0.0092639081   5.2147003      754.73139     -15.305691      739.4257     
   3326000   296.53296      0.0092639081   4.8986414      735.70645     -15.497695      720.20876    
   3327000   295.29586      0.0092639081   5.2895123      732.63716     -13.361408      719.27575    
   3328000   294.71856      0.0092639081   5.0863687      731.20486     -16.055435      715.14942    
   3329000   296.51633      0.0092639081   4.9548809      735.6652      -17.979962      717.68524    
   3330000   305.86695      0.0092639081   5.3708468      758.86433     -16.560494      742.30384    
   3331000   295.7835       0.0092639081   4.6487444      733.84702     -16.085948      717.76107    
   3332000   300.22745      0.0092639081   5.3986954      744.87257     -13.970778      730.90179    
   3333000   296.71508      0.0092639081   5.2708662      736.15829     -18.651339      717.50695    
   3334000   302.54769      0.0092639081   3.604399       750.62917     -16.323025      734.30614    
   3335000   294.1812       0.0092639081   5.253147       729.87167     -17.298524      712.57314    
   3336000   300.40565      0.0092639081   4.9995375      745.3147      -17.588832      727.72587    
   3337000   316.46748      0.0092639081   5.512577       785.16455     -16.013854      769.1507     
   3338000   297.03364      0.0092639081   7.2417686      736.94864     -16.596376      720.35227    
   3339000   293.37928      0.0092639081   4.9509022      727.88209     -15.8068        712.07529    
   3340000   304.6817       0.0092639081   5.4004413      755.92369     -15.537681      740.38601    
   3341000   295.40662      0.0092639081   5.1370054      732.91197     -17.69599       715.21598    
   3342000   302.32258      0.0092639081   5.1225553      750.07065     -17.738164      732.33249    
   3343000   316.88357      0.0092639081   5.2705082      786.19688     -17.820278      768.3766     
   3344000   308.12905      0.0092639081   5.6443128      764.47666     -17.652361      746.8243     
   3345000   296.5042       0.0092639081   5.1700529      735.6351      -14.792621      720.84248    
   3346000   294.29091      0.0092639081   3.8127321      730.14386     -18.385288      711.75858    
   3347000   304.07379      0.0092639081   5.5303016      754.41545     -16.444723      737.97072    
   3348000   301.77908      0.0092639081   4.8018439      748.72222     -19.443845      729.27838    
   3349000   290.72387      0.0092639081   4.1406185      721.29394     -22.327012      698.96692    
   3350000   293.26817      0.0092639081   8.4552947      727.60642     -20.973511      706.63291    
   3351000   328.41662      0.0092639081   9.7941051      814.81068     -22.141432      792.66925    
   3352000   308.06307      0.0092639081   3.7807201      764.31298     -17.976055      746.33692    
   3353000   288.52234      0.0092639081   6.8691361      715.83189     -17.269014      698.56288    
   3354000   303.70461      0.0092639081   8.5361464      753.49952     -17.729305      735.77021    
   3355000   300.2409       0.0092639081   1.0329377      744.90594     -19.608478      725.29747    
   3356000   293.24837      0.0092639081   6.4762621      727.55728     -18.793914      708.76337    
   3357000   307.66419      0.0092639081   5.5360189      763.32333     -21.139308      742.18402    
   3358000   305.72311      0.0092639081   4.3959143      758.50747     -20.51806       737.98941    
   3359000   289.94341      0.0092639081   0.94486209     719.3576      -17.106594      702.25101    
   3360000   299.43927      0.0092639081   3.1255047      742.91708     -17.958667      724.95841    
   3361000   299.79561      0.0092639081   5.0052205      743.80118     -20.644062      723.15712    
   3362000   293.87382      0.0092639081   5.6360842      729.10905     -20.543404      708.56564    
   3363000   304.10637      0.0092639081   5.2206323      754.49628     -15.319042      739.17724    
   3364000   303.44889      0.0092639081   3.1990664      752.86507     -15.663937      737.20113    
   3365000   291.35383      0.0092639081   3.242506       722.85689     -16.757006      706.09989    
   3366000   295.25375      0.0092639081   5.3557511      732.5327      -20.099075      712.43362    
   3367000   310.89         0.0092639081   5.7188619      771.32666     -11.264625      760.06204    
   3368000   287.17905      0.0092639081   4.9874485      712.49914     -16.008135      696.491      
   3369000   291.24576      0.0092639081   5.5289447      722.58875     -16.791143      705.79761    
   3370000   288.06364      0.0092639081   5.6928861      714.69384     -17.021223      697.67262    
   3371000   299.68896      0.0092639081   4.6633946      743.53656     -19.722528      723.81404    
   3372000   306.13845      0.0092639081   2.9839287      759.53793     -15.587795      743.95014    
   3373000   302.51357      0.0092639081   5.6299658      750.54451     -15.162148      735.38237    
   3374000   293.61291      0.0092639081   5.2781424      728.46173     -18.802829      709.6589     
   3375000   293.9919       0.0092639081   4.4113182      729.402       -19.71727       709.68473    
   3376000   306.73674      0.0092639081   4.1792041      761.02231     -16.545905      744.4764     
   3377000   289.07996      0.0092639081   9.0615104      717.21534     -17.621074      699.59427    
   3378000   296.12539      0.0092639081   2.5776719      734.69525     -14.431794      720.26346    
   3379000   306.1771       0.0092639081   3.4555589      759.63382     -15.832479      743.80134    
   3380000   294.57421      0.0092639081   5.0147753      730.84674     -19.580734      711.26601    
   3381000   297.68518      0.0092639081   6.3429259      738.56513     -18.798287      719.76685    
   3382000   293.60853      0.0092639081   1.7864278      728.45085     -18.04878       710.40207    
   3383000   305.75815      0.0092639081   0.53326135     758.59441     -16.559332      742.03508    
   3384000   301.08084      0.0092639081   5.9498579      746.98986     -17.485846      729.50401    
   3385000   298.33118      0.0092639081   6.4357921      740.16789     -20.26423       719.90366    
   3386000   289.07994      0.0092639081   2.7805247      717.2153      -19.77614       697.43916    
   3387000   316.8632       0.0092639081   3.2007485      786.14634     -19.723036      766.4233     
   3388000   300.0348       0.0092639081   6.3559777      744.39462     -16.421188      727.97343    
   3389000   292.08981      0.0092639081   5.1861949      724.68288     -21.835221      702.84766    
   3390000   301.76932      0.0092639081   2.590353       748.698       -17.570199      731.1278     
   3391000   321.15397      0.0092639081   4.3427089      796.79184     -16.954235      779.83761    
   3392000   306.74588      0.0092639081   7.1324076      761.04499     -18.487795      742.55719    
   3393000   290.43382      0.0092639081   5.3556648      720.5743      -17.220228      703.35407    
   3394000   301.14463      0.0092639081   4.7039301      747.14813     -19.71735       727.43078    
   3395000   309.56105      0.0092639081   5.1183935      768.02949     -20.728356      747.30113    
   3396000   284.93973      0.0092639081   4.7936751      706.94333     -22.201277      684.74206    
   3397000   303.17622      0.0092639081   5.9959133      752.18856     -22.798163      729.3904     
   3398000   315.44353      0.0092639081   4.6595238      782.6241      -23.399996      759.2241     
   3399000   304.0378       0.0092639081   1.9293045      754.32616     -16.874706      737.45145    
   3400000   293.21499      0.0092639081   5.2613744      727.47448     -19.744658      707.72982    
   3401000   299.36012      0.0092639081   5.1607691      742.7207      -18.091996      724.62871    
   3402000   303.20556      0.0092639081   8.1334504      752.26134     -20.606776      731.65457    
   3403000   310.77333      0.0092639081   6.2789412      771.03719     -20.763499      750.27369    
   3404000   293.79594      0.0092639081   4.269874       728.91582     -21.574346      707.34147    
   3405000   291.75574      0.0092639081   3.7292749      723.85405     -21.820681      702.03336    
   3406000   300.90782      0.0092639081   5.5550995      746.56059     -17.845624      728.71497    
   3407000   304.41139      0.0092639081   5.8235458      755.25304     -18.662594      736.59045    
   3408000   287.32749      0.0092639081   6.3599387      712.86743     -16.837418      696.03001    
   3409000   293.58812      0.0092639081   5.0595535      728.40023     -17.007396      711.39283    
   3410000   308.77952      0.0092639081   7.9141777      766.09049     -20.521855      745.56863    
   3411000   294.14811      0.0092639081   4.2212145      729.78957     -15.745104      714.04447    
   3412000   296.43983      0.0092639081  -0.47446966     735.47538     -16.890719      718.58466    
   3413000   302.70468      0.0092639081   5.8643362      751.01865     -17.464758      733.5539     
   3414000   313.99451      0.0092639081   6.9242033      779.02903     -12.420888      766.60815    
   3415000   290.33698      0.0092639081   3.5872942      720.33404     -12.657181      707.67686    
   3416000   296.0016       0.0092639081   6.5138088      734.38812     -10.188662      724.19946    
   3417000   321.77838      0.0092639081   4.7024089      798.34103     -12.838109      785.50292    
   3418000   307.61435      0.0092639081   3.8414096      763.19968     -13.757354      749.44233    
   3419000   298.45558      0.0092639081   4.4279633      740.47652     -12.923649      727.55287    
   3420000   284.92587      0.0092639081   5.6918553      706.90894     -13.548246      693.36069    
   3421000   303.85694      0.0092639081   7.638946       753.87745     -14.288415      739.58903    
   3422000   308.33611      0.0092639081   5.1370996      764.99038     -14.22339       750.76699    
   3423000   285.28843      0.0092639081   3.6844754      707.80846     -15.85973       691.94873    
   3424000   297.38408      0.0092639081   5.549733       737.8181      -17.059372      720.75873    
   3425000   302.46059      0.0092639081   4.8277965      750.41306     -17.502528      732.91053    
   3426000   307.06159      0.0092639081   6.4410496      761.82828     -13.097039      748.73124    
   3427000   290.10933      0.0092639081   5.722573       719.76924     -16.011357      703.75788    
   3428000   286.49967      0.0092639081   4.6931494      710.81357     -13.049174      697.7644     
   3429000   314.46197      0.0092639081   4.2120174      780.18881     -13.266286      766.92253    
   3430000   299.04406      0.0092639081   5.5333209      741.93656     -11.81664       730.11992    
   3431000   295.98694      0.0092639081   5.1204594      734.35175     -11.624905      722.72685    
   3432000   295.39715      0.0092639081   6.4964339      732.88848     -13.066466      719.82201    
   3433000   315.85014      0.0092639081   4.5833369      783.6329      -13.811209      769.82169    
   3434000   294.13088      0.0092639081   4.7152303      729.74683     -14.358585      715.38825    
   3435000   299.79262      0.0092639081   5.7128193      743.79375     -11.688161      732.10559    
   3436000   309.0948       0.0092639081   5.9264657      766.87271     -12.183063      754.68965    
   3437000   299.58923      0.0092639081   5.5544329      743.28914     -18.553646      724.7355     
   3438000   309.35784      0.0092639081   5.5147971      767.52532     -15.595759      751.92956    
   3439000   290.16176      0.0092639081   4.891762       719.89933     -18.809609      701.08972    
   3440000   299.42674      0.0092639081   5.7905544      742.88599     -19.512521      723.37347    
   3441000   317.73805      0.0092639081   3.5719304      788.31687     -21.811383      766.50548    
   3442000   296.29554      0.0092639081   5.1668368      735.1174      -20.09637       715.02103    
   3443000   292.73002      0.0092639081   4.6131808      726.27124     -18.943225      707.32801    
   3444000   306.07931      0.0092639081   4.8331647      759.3912      -17.675396      741.71581    
   3445000   311.77768      0.0092639081   5.5739369      773.52903     -19.635821      753.8932     
   3446000   301.24267      0.0092639081   5.3247301      747.39138     -16.174985      731.21639    
   3447000   292.59663      0.0092639081   7.7926916      725.9403      -14.002215      711.93809    
   3448000   298.40329      0.0092639081   3.7383472      740.34679     -15.011238      725.33555    
   3449000   301.17745      0.0092639081  -0.309637       747.22957     -16.774904      730.45466    
   3450000   300.68395      0.0092639081   4.4830624      746.00518     -15.950421      730.05476    
   3451000   300.91457      0.0092639081   6.8551708      746.57733     -17.435956      729.14137    
   3452000   293.13838      0.0092639081   4.8572401      727.28441     -19.798693      707.48572    
   3453000   300.21972      0.0092639081   1.9546756      744.85341     -18.777573      726.07584    
   3454000   318.85477      0.0092639081   7.8902224      791.08748     -18.54257       772.54491    
   3455000   289.28803      0.0092639081   12.872149      717.73157     -18.157457      699.57411    
   3456000   286.95908      0.0092639081   3.7840297      711.95339     -14.097217      697.85617    
   3457000   305.32135      0.0092639081   1.2556199      757.51068     -21.496828      736.01386    
   3458000   304.83917      0.0092639081   11.467348      756.31437     -13.378074      742.9363     
   3459000   293.30193      0.0092639081   8.5748244      727.69016     -12.59303       715.09713    
   3460000   282.72646      0.0092639081   1.9100547      701.45214     -14.925699      686.52644    
   3461000   310.09896      0.0092639081   0.89841877     769.36406     -12.091529      757.27254    
   3462000   303.60384      0.0092639081   4.6742556      753.24949     -11.742851      741.50664    
   3463000   303.38579      0.0092639081   4.7986609      752.70852     -13.490837      739.21768    
   3464000   298.00583      0.0092639081   5.8982625      739.36068     -13.311734      726.04895    
   3465000   287.62648      0.0092639081   5.1953408      713.60923     -11.863375      701.74586    
   3466000   299.0158       0.0092639081   3.5334506      741.86645     -17.605506      724.26094    
   3467000   304.93455      0.0092639081   5.8264262      756.55103     -12.695475      743.85555    
   3468000   294.21245      0.0092639081   6.9968327      729.9492      -12.302054      717.64714    
   3469000   296.20601      0.0092639081   4.6905576      734.89527     -16.921378      717.9739     
   3470000   297.81927      0.0092639081   5.2302818      738.89782     -13.443835      725.45399    
   3471000   315.52522      0.0092639081   5.1301496      782.82677     -16.767168      766.0596     
   3472000   296.30345      0.0092639081   4.161005       735.13702     -13.708612      721.42841    
   3473000   292.3812       0.0092639081   3.9047466      725.40582     -15.485073      709.92074    
   3474000   306.91717      0.0092639081   5.6829533      761.46996     -13.371544      748.09842    
   3475000   296.08635      0.0092639081   5.9338239      734.59839     -9.0169129      725.58147    
   3476000   311.08901      0.0092639081   5.7575486      771.82042     -12.125052      759.69536    
   3477000   299.69826      0.0092639081   5.3482908      743.55964     -10.275046      733.2846     
   3478000   306.12828      0.0092639081   4.7076308      759.51271     -11.221249      748.29146    
   3479000   303.61863      0.0092639081   3.2811339      753.2862      -10.565344      742.72085    
   3480000   302.90287      0.0092639081   7.6002525      751.51037     -14.330391      737.17998    
   3481000   287.77805      0.0092639081   3.5025475      713.98527     -16.616999      697.36827    
   3482000   302.90349      0.0092639081   4.3448738      751.51192     -19.666628      731.84529    
   3483000   289.02361      0.0092639081   11.535556      717.07554     -19.276729      697.79882    
   3484000   303.13688      0.0092639081   2.4127018      752.09096     -19.159423      732.93154    
   3485000   311.97617      0.0092639081   0.69247329     774.02147     -17.319763      756.70171    
   3486000   289.10669      0.0092639081   8.0817876      717.28168     -17.463583      699.81809    
   3487000   290.58357      0.0092639081   0.34544051     720.94584     -19.819384      701.12646    
   3488000   317.0489       0.0092639081   5.4308401      786.60706     -16.832195      769.77486    
   3489000   295.47937      0.0092639081   8.2708286      733.09246     -17.205588      715.88687    
   3490000   288.85084      0.0092639081   1.332677       716.6469      -19.265577      697.38132    
   3491000   306.71815      0.0092639081   6.2695652      760.97618     -19.691049      741.28513    
   3492000   300.21015      0.0092639081   6.2948898      744.82966     -21.702321      723.12734    
   3493000   289.28783      0.0092639081   3.9022139      717.73108     -20.456722      697.27436    
   3494000   294.53288      0.0092639081   4.3919929      730.7442      -22.123146      708.62105    
   3495000   302.42633      0.0092639081   4.7985105      750.32806     -23.828234      726.49983    
   3496000   306.19498      0.0092639081   6.0175818      759.67818     -20.756525      738.92165    
   3497000   299.0665       0.0092639081   6.3159194      741.99223     -22.856099      719.13613    
   3498000   289.89108      0.0092639081   4.820194       719.22776     -23.184086      696.04367    
   3499000   313.37447      0.0092639081   4.2828756      777.49069     -25.782042      751.70865    
   3500000   308.1694       0.0092639081   7.0738755      764.57677     -19.432105      745.14467    
   3501000   290.94356      0.0092639081   6.8997643      721.839       -20.385428      701.45358    
   3502000   290.35213      0.0092639081   3.8535789      720.37163     -18.638548      701.73308    
   3503000   299.59168      0.0092639081   3.513579       743.29521     -16.980589      726.31463    
   3504000   305.64453      0.0092639081   5.3215908      758.31251     -16.512143      741.80036    
   3505000   305.33016      0.0092639081   6.0324236      757.53255     -15.41985       742.1127     
   3506000   287.36628      0.0092639081   6.5394847      712.96367     -14.864255      698.09941    
   3507000   298.0109       0.0092639081   2.7801947      739.37326     -15.195601      724.17766    
   3508000   299.87041      0.0092639081   0.66070329     743.98674     -13.323113      730.66363    
   3509000   300.21175      0.0092639081   4.2795375      744.83364     -17.831529      727.00211    
   3510000   317.89266      0.0092639081   8.8810923      788.70046     -17.040136      771.66032    
   3511000   302.08415      0.0092639081   5.9142235      749.47911     -16.675292      732.80382    
   3512000   291.51527      0.0092639081   3.5286127      723.25741     -16.574217      706.68319    
   3513000   304.63052      0.0092639081   3.494957       755.79672     -13.600088      742.19663    
   3514000   303.60297      0.0092639081   7.3724075      753.24733     -13.760979      739.48635    
   3515000   302.31689      0.0092639081   4.7703582      750.05654     -12.509961      737.54657    
   3516000   297.99394      0.0092639081   4.6991467      739.33117     -13.667603      725.66357    
   3517000   293.32881      0.0092639081   5.468241       727.75685     -10.666546      717.09031    
   3518000   288.5833       0.0092639081   4.6091079      715.98312     -11.328263      704.65486    
   3519000   311.94439      0.0092639081   5.3165629      773.94263     -10.284251      763.65838    
   3520000   318.07273      0.0092639081   5.5482214      789.14722     -14.631749      774.51547    
   3521000   292.10492      0.0092639081   5.4582809      724.72036     -13.57229       711.14807    
   3522000   308.34781      0.0092639081   3.3892252      765.01942     -11.998855      753.02057    
   3523000   321.05185      0.0092639081   4.1234667      796.5385      -13.186573      783.35193    
   3524000   300.76883      0.0092639081   5.4429635      746.21575     -13.446313      732.76943    
   3525000   284.62006      0.0092639081   4.5647951      706.15021     -13.953591      692.19662    
   3526000   300.98972      0.0092639081   7.0026997      746.76379     -14.844521      731.91927    
   3527000   312.48807      0.0092639081   5.0636567      775.2915      -15.709944      759.58156    
   3528000   288.35853      0.0092639081   2.8031634      715.42547     -13.26621       702.15926    
   3529000   303.82347      0.0092639081   5.5120946      753.79441     -14.488259      739.30615    
   3530000   298.71687      0.0092639081   6.5689911      741.12479     -18.953486      722.1713     
   3531000   302.55594      0.0092639081   4.4249993      750.64963     -21.891779      728.75785    
   3532000   303.0092       0.0092639081   1.7646131      751.77417     -18.817675      732.95649    
   3533000   297.44796      0.0092639081   4.3961173      737.97658     -15.610852      722.36573    
   3534000   297.9709       0.0092639081   7.6778498      739.27403     -12.852146      726.42188    
   3535000   301.85428      0.0092639081   1.8122154      748.90878     -12.729519      736.17926    
   3536000   294.42626      0.0092639081   5.2579914      730.47966     -14.595084      715.88458    
   3537000   301.43538      0.0092639081   8.6830626      747.86949     -11.533567      736.33592    
   3538000   299.57856      0.0092639081   5.3921215      743.26266     -16.301955      726.9607     
   3539000   306.98198      0.0092639081   0.32246089     761.63076     -21.092887      740.53787    
   3540000   287.96387      0.0092639081   5.1450602      714.44629     -21.970261      692.47603    
   3541000   297.76711      0.0092639081   8.6867962      738.76842     -23.615881      715.15254    
   3542000   300.20052      0.0092639081   4.4749293      744.80577     -22.949937      721.85583    
   3543000   310.86194      0.0092639081   1.5747275      771.25703     -18.334086      752.92295    
   3544000   292.26899      0.0092639081   3.7265214      725.12741     -18.409455      706.71795    
   3545000   296.32033      0.0092639081   15.705701      735.17891     -19.515844      715.66307    
   3546000   294.12502      0.0092639081   7.4230129      729.73228     -20.50007       709.23221    
   3547000   307.18324      0.0092639081  -1.3355308      762.1301      -20.569801      741.5603     
   3548000   293.80712      0.0092639081   6.6017265      728.94357     -21.107913      707.83566    
   3549000   308.69902      0.0092639081   7.207668       765.89078     -15.282249      750.60853    
   3550000   295.75748      0.0092639081   3.0205724      733.78245     -19.362232      714.42022    
   3551000   299.11226      0.0092639081   5.4825349      742.10577     -16.94872       725.15705    
   3552000   304.78442      0.0092639081   7.5481363      756.17854     -17.9104        738.26814    
   3553000   310.14175      0.0092639081   6.2530214      769.47023     -15.522899      753.94733    
   3554000   297.88378      0.0092639081   1.2328156      739.05786     -14.892946      724.16491    
   3555000   290.52328      0.0092639081   7.4622035      720.79626     -15.523441      705.27282    
   3556000   305.51037      0.0092639081   11.2451        757.97965     -17.040625      740.93902    
   3557000   302.89416      0.0092639081   5.2372985      751.48876     -17.330118      734.15864    
   3558000   295.85247      0.0092639081   0.76917308     734.01813     -19.593286      714.42484    
   3559000   296.59507      0.0092639081   5.2626086      735.86054     -20.220815      715.63972    
   3560000   295.93368      0.0092639081   10.337221      734.21962     -17.17676       717.04286    
   3561000   302.22209      0.0092639081   4.4503205      749.82133     -17.032044      732.78929    
   3562000   292.05814      0.0092639081   0.72039794     724.60431     -16.163277      708.44103    
   3563000   303.47268      0.0092639081   8.2062284      752.92407     -15.214766      737.70931    
   3564000   311.66107      0.0092639081   0.9703075      773.23971     -14.694874      758.54483    
   3565000   290.76166      0.0092639081   5.727129       721.38769     -13.694882      707.6928     
   3566000   316.03353      0.0092639081   10.24457       784.08789     -14.714099      769.37379    
   3567000   303.70994      0.0092639081   1.410014       753.51274     -12.057576      741.45516    
   3568000   289.07629      0.0092639081   3.2868573      717.20625     -12.776851      704.4294     
   3569000   295.58717      0.0092639081   6.9550865      733.35992     -14.079358      719.28056    
   3570000   308.33577      0.0092639081   8.3466711      764.98955     -15.379098      749.61045    
   3571000   305.48015      0.0092639081   2.727476       757.90468     -14.28575       743.61893    
   3572000   293.31479      0.0092639081   4.8607279      727.72209     -13.29211       714.42998    
   3573000   291.41737      0.0092639081   9.1482866      723.01453     -14.253784      708.76075    
   3574000   308.80531      0.0092639081   9.7608472      766.15449     -14.658365      751.49613    
   3575000   306.88863      0.0092639081   4.8361789      761.39916     -16.606962      744.7922     
   3576000   305.39763      0.0092639081  -0.096454247    757.69993     -16.993721      740.70621    
   3577000   286.41835      0.0092639081   1.527837       710.61181     -16.102808      694.509      
   3578000   296.43742      0.0092639081   6.8978027      735.46941     -17.098846      718.37056    
   3579000   313.92879      0.0092639081   2.0795159      778.86598     -19.101404      759.76458    
   3580000   301.51033      0.0092639081   4.7612633      748.05544     -15.56139       732.49405    
   3581000   278.67148      0.0092639081   5.035726       691.39162     -15.910578      675.48104    
   3582000   320.61783      0.0092639081   4.5682728      795.46167     -15.743477      779.71819    
   3583000   309.2229       0.0092639081   6.2467862      767.19055     -16.809316      750.38123    
   3584000   291.0671       0.0092639081   4.8650352      722.14549     -16.73155       705.41394    
   3585000   313.65236      0.0092639081   5.9948081      778.18015     -15.668592      762.51156    
   3586000   311.70527      0.0092639081   4.8038847      773.34936     -16.63447       756.71489    
   3587000   296.17196      0.0092639081   4.5538064      734.8108      -15.826469      718.98433    
   3588000   288.90772      0.0092639081   4.574351       716.78801     -14.200601      702.58741    
   3589000   296.60347      0.0092639081   4.9680052      735.88138     -13.917188      721.96419    
   3590000   313.1305       0.0092639081   4.3212991      776.88539     -13.60574       763.27965    
   3591000   298.48131      0.0092639081   4.5217259      740.54035     -18.119779      722.42057    
   3592000   288.2541       0.0092639081   5.6339161      715.16637     -16.202975      698.9634     
   3593000   302.96206      0.0092639081   5.0021889      751.65722     -17.754243      733.90298    
   3594000   312.66795      0.0092639081   5.9022601      775.73779     -13.297254      762.44054    
   3595000   300.86811      0.0092639081   5.4901941      746.46207     -18.35263       728.10944    
   3596000   300.03537      0.0092639081   6.1416343      744.39601     -16.662557      727.73345    
   3597000   289.25566      0.0092639081   3.0735822      717.65125     -14.973911      702.67734    
   3598000   303.69506      0.0092639081   4.7121224      753.47582     -14.990122      738.4857     
   3599000   303.64849      0.0092639081   7.1614936      753.36027     -13.756384      739.60389    
   3600000   293.54689      0.0092639081   4.4228401      728.29793     -12.129572      716.16836    
   3601000   304.7108       0.0092639081   4.6405866      755.99589     -15.401511      740.59438    
   3602000   316.98545      0.0092639081   5.4803943      786.44964     -13.230968      773.21867    
   3603000   284.19038      0.0092639081   4.1917569      705.08417     -11.741476      693.34269    
   3604000   290.48144      0.0092639081   4.1585045      720.69246     -10.944156      709.7483     
   3605000   296.02075      0.0092639081   4.9368632      734.43564     -14.426485      720.00916    
   3606000   307.52031      0.0092639081   5.8116495      762.96636     -14.558244      748.40811    
   3607000   311.86184      0.0092639081   3.7856277      773.73783     -14.801101      758.93673    
   3608000   299.14169      0.0092639081   4.985832       742.17878     -11.832377      730.3464     
   3609000   294.94457      0.0092639081   5.748573       731.7656      -12.818655      718.94694    
   3610000   302.10742      0.0092639081   5.7122557      749.53683     -14.068252      735.46858    
   3611000   307.17247      0.0092639081   5.0854331      762.10336     -14.57168       747.53168    
   3612000   300.9482       0.0092639081   7.37777        746.66078     -17.709044      728.95173    
   3613000   287.29902      0.0092639081   3.7746394      712.7968      -17.675337      695.12146    
   3614000   300.21129      0.0092639081   1.1090999      744.83248     -20.854304      723.97818    
   3615000   310.63168      0.0092639081   6.6142147      770.68576     -12.288464      758.3973     
   3616000   294.08086      0.0092639081   5.0503548      729.62271     -14.467245      715.15547    
   3617000   290.15519      0.0092639081   1.3557495      719.88303     -16.178855      703.70417    
   3618000   309.0842       0.0092639081   11.226153      766.84641     -15.762166      751.08425    
   3619000   299.31475      0.0092639081   8.6746525      742.60814     -17.679089      724.92906    
   3620000   299.2435       0.0092639081   4.4371418      742.43136     -15.788576      726.64279    
   3621000   299.14439      0.0092639081  -0.21983991     742.18547     -17.323772      724.8617     
   3622000   306.15784      0.0092639081   6.5030191      759.58603     -13.694018      745.89201    
   3623000   296.94722      0.0092639081   11.396751      736.73425     -16.662821      720.07143    
   3624000   295.24906      0.0092639081   2.0174574      732.52107     -13.866064      718.655      
   3625000   306.61796      0.0092639081   3.7383527      760.7276      -12.699053      748.02855    
   3626000   295.86812      0.0092639081   9.2564322      734.05697     -14.490225      719.56675    
   3627000   294.21222      0.0092639081   5.3846144      729.94864     -15.343165      714.60547    
   3628000   300.87413      0.0092639081   4.327085       746.47702     -14.641752      731.83526    
   3629000   297.95835      0.0092639081   4.9831533      739.24289     -19.250965      719.99192    
   3630000   293.14507      0.0092639081   5.0851219      727.30101     -19.21284       708.08817    
   3631000   299.7961       0.0092639081   5.6690058      743.80239     -15.651966      728.15042    
   3632000   301.94549      0.0092639081   4.7739138      749.13508     -18.718191      730.41689    
   3633000   305.98178      0.0092639081   4.6814413      759.14922     -18.894326      740.2549     
   3634000   301.72402      0.0092639081   4.5706059      748.58562     -16.580755      732.00486    
   3635000   300.66385      0.0092639081   10.666142      745.95531     -17.850803      728.10451    
   3636000   299.15962      0.0092639081   2.6735259      742.22327     -14.459159      727.76411    
   3637000   299.34396      0.0092639081   3.3432234      742.68063     -12.398265      730.28236    
   3638000   306.32207      0.0092639081   4.8384915      759.99351     -15.395143      744.59837    
   3639000   304.72159      0.0092639081   2.9013185      756.02267     -16.647013      739.37566    
   3640000   285.32885      0.0092639081   2.1943663      707.90875     -20.59343       687.31532    
   3641000   298.54094      0.0092639081   6.2029431      740.6883      -23.524067      717.16423    
   3642000   294.78761      0.0092639081   7.6908345      731.3762      -22.310444      709.06575    
   3643000   308.77332      0.0092639081  -1.4876219      766.07511     -23.250764      742.82435    
   3644000   303.22099      0.0092639081   3.6295148      752.29963     -25.441657      726.85797    
   3645000   286.14603      0.0092639081   8.4551877      709.93618     -25.807279      684.1289     
   3646000   306.68909      0.0092639081   8.6904096      760.90408     -20.566095      740.33798    
   3647000   309.78757      0.0092639081   4.6519039      768.59151     -18.839833      749.75168    
   3648000   300.54979      0.0092639081   4.8004927      745.67231     -17.768434      727.90388    
   3649000   298.91396      0.0092639081   3.0787042      741.61378     -17.576706      724.03708    
   3650000   286.22475      0.0092639081   6.5647711      710.13149     -17.850632      692.28086    
   3651000   311.79909      0.0092639081   5.2514893      773.58215     -16.281665      757.30048    
   3652000   311.03978      0.0092639081   5.9146448      771.69826     -17.604008      754.09425    
   3653000   304.19166      0.0092639081   6.4098091      754.70789     -14.836749      739.87115    
   3654000   289.18198      0.0092639081   4.4423581      717.46847     -16.759126      700.70934    
   3655000   318.45333      0.0092639081   4.327672       790.09148     -18.923016      771.16847    
   3656000   310.38725      0.0092639081   5.6778343      770.07933     -20.004881      750.07444    
   3657000   289.66778      0.0092639081   5.7638643      718.67375     -18.531956      700.1418     
   3658000   291.13071      0.0092639081   4.6311755      722.30332     -17.578185      704.72513    
   3659000   310.71449      0.0092639081   4.7418678      770.89121     -15.453495      755.43771    
   3660000   300.40889      0.0092639081   5.214545       745.32274     -16.730855      728.59188    
   3661000   299.16075      0.0092639081   6.0219031      742.22608     -15.354528      726.87155    
   3662000   303.29584      0.0092639081   6.177223       752.48535     -17.174989      735.31036    
   3663000   297.03472      0.0092639081   4.8118834      736.95133     -15.214107      721.73722    
   3664000   297.10352      0.0092639081   6.2915531      737.12202     -13.034622      724.0874     
   3665000   303.76168      0.0092639081   4.9302888      753.64111     -15.767472      737.87364    
   3666000   295.87983      0.0092639081   4.4158714      734.08602     -16.181126      717.90489    
   3667000   300.33107      0.0092639081   5.0141452      745.12966     -16.727139      728.40252    
   3668000   309.20076      0.0092639081   5.561505       767.13561     -18.485444      748.65016    
   3669000   301.63067      0.0092639081   5.7000109      748.35402     -13.848295      734.50572    
   3670000   301.07108      0.0092639081   5.4054172      746.96564     -14.32503       732.64061    
   3671000   295.50106      0.0092639081   5.5459011      733.14628     -17.207675      715.9386     
   3672000   299.69003      0.0092639081   4.7006522      743.53924     -20.60562       722.93362    
   3673000   308.20817      0.0092639081   6.947164       764.67296     -16.241876      748.43109    
   3674000   301.89203      0.0092639081   7.4279849      749.00244     -12.338666      736.66377    
   3675000   304.8228       0.0092639081   8.6116223      756.27377     -13.841837      742.43193    
   3676000   299.32649      0.0092639081   0.18789105     742.63727     -13.400608      729.23666    
   3677000   309.79641      0.0092639081   3.8766838      768.61342     -13.079591      755.53383    
   3678000   294.41685      0.0092639081   8.6861577      730.45632     -14.848527      715.6078     
   3679000   297.89261      0.0092639081   3.7424456      739.07978     -18.017378      721.06241    
   3680000   308.52125      0.0092639081  -0.32866507     765.44972     -15.868316      749.5814     
   3681000   307.89184      0.0092639081   2.444227       763.88815     -18.637373      745.25077    
   3682000   291.97641      0.0092639081   9.5594484      724.40153     -14.873669      709.52786    
   3683000   297.95832      0.0092639081   4.6096036      739.24281     -17.507456      721.73535    
   3684000   293.19004      0.0092639081   1.3192699      727.41258     -13.450415      713.96216    
   3685000   312.60717      0.0092639081   4.039559       775.58702     -12.96844       762.61858    
   3686000   303.57843      0.0092639081   7.0370995      753.18645     -13.764044      739.42241    
   3687000   294.71316      0.0092639081   4.4913171      731.19148     -13.739393      717.45209    
   3688000   296.02332      0.0092639081  -1.1952166      734.44202     -15.303788      719.13823    
   3689000   314.9178       0.0092639081   4.8764405      781.31973     -13.889743      767.42999    
   3690000   301.33288      0.0092639081   6.5346182      747.61519     -16.558863      731.05633    
   3691000   294.18116      0.0092639081   4.2247199      729.87157     -17.482014      712.38956    
   3692000   307.77671      0.0092639081   7.2132659      763.60249     -13.05745       750.54504    
   3693000   299.0243       0.0092639081   8.2383283      741.88753     -15.444398      726.44313    
   3694000   295.49427      0.0092639081   1.5020692      733.12944     -15.316602      717.81284    
   3695000   298.49791      0.0092639081  -0.35202844     740.58155     -12.352782      728.22877    
   3696000   303.93967      0.0092639081   5.4529466      754.08271     -9.8799539      744.20275    
   3697000   293.86379      0.0092639081   8.6658235      729.08417     -13.005469      716.0787     
   3698000   303.68093      0.0092639081   6.34774        753.44075     -12.949868      740.49088    
   3699000   290.62597      0.0092639081   0.7606046      721.05104     -12.442959      708.60808    
   3700000   306.18549      0.0092639081   6.8018409      759.65464     -11.439906      748.21473    
   3701000   302.30249      0.0092639081   11.41344       750.02082     -14.164676      735.85614    
   3702000   300.92255      0.0092639081   1.466373       746.59715     -14.566986      732.03016    
   3703000   303.31154      0.0092639081   6.6766323      752.5243      -18.30615       734.21815    
   3704000   289.51672      0.0092639081   7.0496713      718.29896     -20.744215      697.55475    
   3705000   296.16369      0.0092639081   0.47729032     734.79029     -18.866183      715.9241     
   3706000   310.54547      0.0092639081   5.8251688      770.47187     -17.226826      753.24504    
   3707000   287.34651      0.0092639081   6.065894       712.9146      -17.761027      695.15358    
   3708000   286.35884      0.0092639081   4.8632544      710.46418     -17.442839      693.02134    
   3709000   294.89422      0.0092639081   4.5258988      731.64068     -13.024463      718.61621    
   3710000   309.18481      0.0092639081   5.09655        767.09605     -14.199272      752.89677    
   3711000   291.55921      0.0092639081   4.9481024      723.36643     -14.598339      708.7681     
   3712000   303.61044      0.0092639081   5.4781726      753.26587     -17.853177      735.41269    
   3713000   309.21398      0.0092639081   4.5876532      767.1684      -18.341122      748.82728    
   3714000   296.55376      0.0092639081   5.263158       735.75805     -14.385322      721.37273    
   3715000   294.34597      0.0092639081   5.7520147      730.28046     -15.043945      715.23652    
   3716000   307.68447      0.0092639081   5.1350797      763.37364     -13.865142      749.5085     
   3717000   298.36043      0.0092639081   2.413214       740.24046     -14.394625      725.84583    
   3718000   292.19263      0.0092639081   4.7008279      724.93796     -12.020557      712.91741    
   3719000   300.36935      0.0092639081   6.4219803      745.22464     -13.960488      731.26415    
   3720000   309.12109      0.0092639081   10.06461       766.93795     -12.969428      753.96853    
   3721000   302.6801       0.0092639081   3.9212394      750.95766     -10.955814      740.00185    
   3722000   288.85217      0.0092639081  -0.097136282    716.6502      -11.476831      705.17337    
   3723000   301.1625       0.0092639081   5.895687       747.19246     -11.419161      735.77329    
   3724000   302.08241      0.0092639081   8.4710978      749.47478     -12.644516      736.83026    
   3725000   302.33187      0.0092639081   3.2611284      750.0937      -11.19605       738.89765    
   3726000   292.5982       0.0092639081   4.949983       725.94421     -13.66838       712.27583    
   3727000   303.40622      0.0092639081   8.0782332      752.75919     -14.815895      737.94329    
   3728000   298.31802      0.0092639081   7.8082827      740.13523     -15.653729      724.48151    
   3729000   308.93973      0.0092639081  -0.67509324     766.48799     -16.157672      750.33032    
   3730000   303.45839      0.0092639081   3.8330361      752.88862     -13.796813      739.09181    
   3731000   290.64309      0.0092639081   6.6550157      721.09351     -14.725447      706.36806    
   3732000   291.925        0.0092639081   5.9671687      724.27398     -14.113825      710.16015    
   3733000   310.47452      0.0092639081   5.0875585      770.29583     -12.170865      758.12497    
   3734000   305.86259      0.0092639081   4.7986282      758.85352     -12.281712      746.57181    
   3735000   291.99019      0.0092639081   4.5104512      724.4357      -16.212643      708.22306    
   3736000   309.28166      0.0092639081   8.4431775      767.33633     -10.899398      756.43693    
   3737000   308.25662      0.0092639081   5.539193       764.79318     -12.289557      752.50362    
   3738000   276.08042      0.0092639081   5.0454152      684.96312     -12.332035      672.63109    
   3739000   294.24803      0.0092639081   4.6428704      730.03746     -12.674486      717.36298    
   3740000   305.14019      0.0092639081   5.6945932      757.06121     -12.814038      744.24718    
   3741000   299.16566      0.0092639081   5.5812191      742.23825     -12.152647      730.08561    
   3742000   315.33083      0.0092639081   2.9029351      782.34448     -12.933383      769.4111     
   3743000   293.08006      0.0092639081   3.844121       727.13971     -14.706272      712.43343    
   3744000   293.54901      0.0092639081   4.1780968      728.30318     -13.894028      714.40915    
   3745000   301.06702      0.0092639081   5.1843956      746.95557     -14.305424      732.65015    
   3746000   309.41388      0.0092639081   5.4770729      767.66436     -12.958593      754.70577    
   3747000   274.85019      0.0092639081   4.3805201      681.9109      -12.963741      668.94716    
   3748000   290.8239       0.0092639081   5.5223093      721.54212     -11.573265      709.96885    
   3749000   301.29373      0.0092639081   5.1890504      747.51805     -15.52657       731.99148    
   3750000   302.79369      0.0092639081   5.2235748      751.23948     -14.152627      737.08685    
   3751000   300.99349      0.0092639081   4.8368114      746.77315     -13.268475      733.50468    
   3752000   296.46647      0.0092639081   5.0977167      735.54147     -13.479615      722.06186    
   3753000   287.78787      0.0092639081   3.8993308      714.00964     -11.342005      702.66764    
   3754000   301.94653      0.0092639081   7.8623024      749.13767     -13.371452      735.76622    
   3755000   307.56183      0.0092639081   4.9255759      763.06938     -13.844265      749.22512    
   3756000   294.79322      0.0092639081   3.8356307      731.3901      -14.427471      716.96263    
   3757000   284.06419      0.0092639081   4.899066       704.77109     -11.657802      693.11328    
   3758000   304.27202      0.0092639081   5.373039       754.90728     -12.633417      742.27386    
   3759000   307.77588      0.0092639081   5.2194748      763.60044     -10.280793      753.31964    
   3760000   293.53473      0.0092639081   2.3088823      728.26775     -10.891205      717.37654    
   3761000   292.27724      0.0092639081   3.9177355      725.1479      -15.366582      709.78131    
   3762000   301.37588      0.0092639081   6.6895214      747.72185     -12.179852      735.542      
   3763000   311.26851      0.0092639081   7.7217968      772.26576     -12.658261      759.6075     
   3764000   301.12518      0.0092639081   4.89181        747.09986     -15.059505      732.04036    
   3765000   288.36327      0.0092639081   2.8307568      715.43722     -13.530602      701.90662    
   3766000   294.46438      0.0092639081   4.3268978      730.57425     -14.500556      716.07369    
   3767000   301.80312      0.0092639081   6.3915204      748.78186     -16.862032      731.91983    
   3768000   311.08984      0.0092639081   9.1582033      771.82248     -20.037631      751.78485    
   3769000   305.38553      0.0092639081   4.0736656      757.66993     -20.049419      737.62051    
   3770000   303.84873      0.0092639081   3.4618488      753.85707     -18.233642      735.62342    
   3771000   298.98166      0.0092639081   9.5577372      741.78173     -17.013246      724.76849    
   3772000   304.55759      0.0092639081   10.853829      755.61578     -15.10202       740.51376    
   3773000   287.80923      0.0092639081   5.1914346      714.06264     -15.674477      698.38816    
   3774000   317.37333      0.0092639081  -0.13499428     787.41199     -11.537584      775.8744     
   3775000   301.83766      0.0092639081   3.9046355      748.86756     -14.094187      734.77337    
   3776000   280.55101      0.0092639081   6.9787689      696.0548      -13.905472      682.14932    
   3777000   295.20731      0.0092639081   8.322104       732.41747     -18.138258      714.27921    
   3778000   307.38429      0.0092639081  -0.76484436     762.62889     -15.246965      747.38193    
   3779000   289.53062      0.0092639081  -0.069857795    718.33344     -14.355753      703.97769    
   3780000   302.8205       0.0092639081   8.6656456      751.30601     -13.841707      737.4643     
   3781000   311.00785      0.0092639081   3.3848798      771.61904     -12.496074      759.12297    
   3782000   287.62483      0.0092639081   0.72136394     713.60514     -19.370997      694.23414    
   3783000   293.27831      0.0092639081   6.1389053      727.63157     -19.004248      708.62733    
   3784000   301.83049      0.0092639081   6.848496       748.84978     -21.942232      726.90755    
   3785000   316.37022      0.0092639081   6.5191922      784.92324     -19.670805      765.25244    
   3786000   294.37558      0.0092639081   2.5580987      730.35394     -18.490831      711.86311    
   3787000   294.33566      0.0092639081   7.2866479      730.25488     -16.550579      713.70431    
   3788000   304.26433      0.0092639081   6.0800948      754.8882      -13.841347      741.04685    
   3789000   317.30749      0.0092639081   4.2000447      787.24864     -15.157357      772.09128    
   3790000   300.94129      0.0092639081   3.8326643      746.64364     -14.480777      732.16286    
   3791000   298.59262      0.0092639081   6.0506745      740.81653     -15.546404      725.27012    
   3792000   305.62282      0.0092639081   5.457658       758.25863     -13.843026      744.41561    
   3793000   297.34462      0.0092639081   4.2745467      737.72019     -14.732436      722.98775    
   3794000   295.14486      0.0092639081   8.1295296      732.26253     -13.836598      718.42593    
   3795000   309.65158      0.0092639081   5.1213623      768.25411     -17.378713      750.8754     
   3796000   298.67554      0.0092639081   1.6140477      741.02224     -13.391282      727.63096    
   3797000   295.56686      0.0092639081   7.207327       733.30952     -16.98293       716.32659    
   3798000   299.08435      0.0092639081   9.4458971      742.03652     -17.074631      724.96189    
   3799000   302.88539      0.0092639081   6.4339505      751.467       -17.033548      734.43345    
   3800000   308.87141      0.0092639081  -0.72997209     766.31848     -17.813665      748.50481    
   3801000   294.24996      0.0092639081   1.2923362      730.04226     -17.064677      712.97758    
   3802000   291.15047      0.0092639081   6.0806598      722.35235     -18.041177      704.31117    
   3803000   303.33643      0.0092639081   5.8401924      752.58604     -15.552962      737.03307    
   3804000   303.99348      0.0092639081   4.0447615      754.21621     -18.150382      736.06583    
   3805000   295.47896      0.0092639081   5.4953813      733.09145     -18.378772      714.71268    
   3806000   304.57022      0.0092639081   5.7203698      755.64712     -15.861407      739.78571    
   3807000   293.55368      0.0092639081   4.5507517      728.31476     -15.561182      712.75358    
   3808000   298.14874      0.0092639081   2.736499       739.71524     -15.051216      724.66402    
   3809000   296.71711      0.0092639081   7.3342284      736.16333     -11.899888      724.26344    
   3810000   305.07981      0.0092639081   5.837355       756.91141     -15.077822      741.83359    
   3811000   289.68845      0.0092639081   0.30123478     718.72502     -14.657174      704.06785    
   3812000   292.67351      0.0092639081   6.5516932      726.13105     -16.563289      709.56776    
   3813000   322.92236      0.0092639081   6.9433737      801.17928     -19.001443      782.17784    
   3814000   301.69543      0.0092639081  -1.8768591      748.51468     -18.074489      730.44019    
   3815000   295.59356      0.0092639081   1.9332507      733.37578     -17.676205      715.69958    
   3816000   287.1505       0.0092639081  -1.2697939      712.42829     -15.326261      697.10203    
   3817000   297.01408      0.0092639081   6.4352353      736.90013     -16.626512      720.27362    
   3818000   321.28337      0.0092639081   11.535851      797.11289     -16.159635      780.95326    
   3819000   298.95561      0.0092639081   3.5515019      741.71711     -17.166541      724.55056    
   3820000   290.52046      0.0092639081  -0.11068792     720.78928     -16.857015      703.93227    
   3821000   308.48921      0.0092639081   8.9414156      765.37023     -16.787143      748.58309    
   3822000   308.45034      0.0092639081  -2.2805067      765.27379     -16.967447      748.30634    
   3823000   294.66227      0.0092639081   3.4120493      731.06523     -14.327496      716.73773    
   3824000   288.97619      0.0092639081   7.1153572      716.9579      -13.737091      703.22081    
   3825000   299.07714      0.0092639081   5.4132427      742.01863     -14.680662      727.33797    
   3826000   317.02774      0.0092639081   3.971587       786.55457     -14.733662      771.8209     
   3827000   296.53923      0.0092639081   5.2851727      735.72201     -12.079372      723.64264    
   3828000   314.66197      0.0092639081   3.6192405      780.68501     -13.532769      767.15224    
   3829000   301.87256      0.0092639081   6.4536981      748.95414     -16.324369      732.62977    
   3830000   294.33637      0.0092639081   5.3899781      730.25664     -14.745213      715.51142    
   3831000   287.36407      0.0092639081   5.220705       712.95817     -9.5467618      703.41141    
   3832000   308.15326      0.0092639081   5.2254385      764.53673     -12.27584       752.26089    
   3833000   309.79065      0.0092639081   5.0260683      768.59915     -10.967568      757.63159    
   3834000   319.10717      0.0092639081   5.9420998      791.71369     -13.25734       778.45635    
   3835000   285.09797      0.0092639081   4.3370056      707.33592     -12.069374      695.26655    
   3836000   305.11577      0.0092639081   5.3776344      757.00063     -13.29291       743.70772    
   3837000   316.33942      0.0092639081   5.5593856      784.84683     -13.47569       771.37114    
   3838000   294.67557      0.0092639081   4.7494541      731.09821     -12.998459      718.09975    
   3839000   304.86556      0.0092639081   5.3651571      756.37986     -15.949985      740.42987    
   3840000   303.1021       0.0092639081   5.1302393      752.00467     -13.731283      738.27339    
   3841000   286.03252      0.0092639081   5.302914       709.65457     -6.3603604      703.29421    
   3842000   292.39549      0.0092639081   6.142353       725.44127     -15.580481      709.86079    
   3843000   305.53181      0.0092639081   5.370002       758.03284     -11.669528      746.36331    
   3844000   307.49024      0.0092639081   5.3659812      762.89176     -12.749478      750.14228    
   3845000   296.78967      0.0092639081   3.1028958      736.34335     -14.308038      722.03531    
   3846000   297.30611      0.0092639081   3.7823062      737.62466     -13.011773      724.61289    
   3847000   300.13357      0.0092639081   5.9519559      744.63967     -10.593808      734.04586    
   3848000   304.94024      0.0092639081   5.209219       756.56513     -9.5896704      746.97546    
   3849000   301.11859      0.0092639081   5.1195566      747.08351     -8.534251       738.54926    
   3850000   297.64734      0.0092639081   4.9885892      738.47127     -10.469372      728.00189    
   3851000   294.78236      0.0092639081   5.370804       731.36316     -9.9368015      721.42636    
   3852000   298.35083      0.0092639081   5.515783       740.21664     -7.4405464      732.77609    
   3853000   304.37642      0.0092639081   4.1447153      755.1663      -8.5811106      746.58519    
   3854000   307.41888      0.0092639081   5.2152632      762.71471     -7.4476876      755.26702    
   3855000   312.63719      0.0092639081   8.5439538      775.66148     -10.916147      764.74533    
   3856000   300.2863       0.0092639081   4.941876       745.01859     -10.10804       734.91055    
   3857000   293.09293      0.0092639081   4.9068706      727.17164     -11.982084      715.18955    
   3858000   312.02376      0.0092639081   6.1550548      774.13956     -12.661043      761.47851    
   3859000   307.40528      0.0092639081   5.5580622      762.68097     -12.908318      749.77265    
   3860000   300.3326       0.0092639081   5.1467881      745.13345     -16.522345      728.6111     
   3861000   294.59592      0.0092639081   3.4955868      730.90061     -16.698314      714.20229    
   3862000   296.32815      0.0092639081   7.6133743      735.19831     -12.659669      722.53864    
   3863000   315.07369      0.0092639081   4.5431257      781.70652     -12.254197      769.45232    
   3864000   290.75913      0.0092639081   4.8142026      721.38141     -11.753324      709.62809    
   3865000   291.01137      0.0092639081   6.2135365      722.00724     -10.910755      711.09648    
   3866000   318.67186      0.0092639081   6.4345213      790.63367     -13.962508      776.67116    
   3867000   306.56152      0.0092639081   4.1920449      760.58757     -16.230468      744.3571     
   3868000   284.85197      0.0092639081   4.0971333      706.72559     -17.803847      688.92174    
   3869000   307.92958      0.0092639081   5.3863021      763.98178     -16.975493      747.00628    
   3870000   307.56442      0.0092639081   5.1867801      763.07579     -13.698733      749.37706    
   3871000   290.98946      0.0092639081   3.7543064      721.95286     -14.999314      706.95355    
   3872000   285.01916      0.0092639081   7.5668356      707.1404      -19.130126      688.01028    
   3873000   297.1629       0.0092639081   9.9668302      737.26936     -17.747128      719.52223    
   3874000   314.70571      0.0092639081   7.652482       780.79353     -16.733793      764.05974    
   3875000   303.77293      0.0092639081   0.68056454     753.66902     -16.488344      737.18067    
   3876000   288.99335      0.0092639081   5.0892179      717.00046     -13.116565      703.88389    
   3877000   298.55742      0.0092639081   4.8965427      740.7292      -14.848688      725.88051    
   3878000   309.037        0.0092639081   5.5452685      766.72932     -12.030078      754.69924    
   3879000   307.6395       0.0092639081   6.732984       763.26208     -12.248379      751.0137     
   3880000   284.80187      0.0092639081   3.5122406      706.60129     -9.8299412      696.77134    
   3881000   301.34424      0.0092639081   3.0046472      747.64336     -10.096817      737.54654    
   3882000   298.93716      0.0092639081   9.5246158      741.67133     -7.9619083      733.70943    
   3883000   294.71893      0.0092639081   7.8641053      731.20579     -8.009067       723.19673    
   3884000   299.47746      0.0092639081   5.3783696      743.01183     -11.943756      731.06808    
   3885000   288.55353      0.0092639081   5.1069391      715.90927     -12.999637      702.90963    
   3886000   305.6582       0.0092639081   5.2838443      758.34642     -12.092689      746.25373    
   3887000   312.01616      0.0092639081   5.0052309      774.1207      -11.514435      762.60626    
   3888000   292.75499      0.0092639081   7.9454173      726.3332      -15.076032      711.25717    
   3889000   289.25733      0.0092639081   6.3965141      717.65542     -11.51251       706.14291    
   3890000   314.3437       0.0092639081   1.0833888      779.89539     -14.406605      765.48878    
   3891000   314.14226      0.0092639081   6.1267617      779.39561     -14.115331      765.28027    
   3892000   292.6894       0.0092639081   5.0434071      726.17046     -13.341025      712.82944    
   3893000   304.86241      0.0092639081   2.7085427      756.37203     -12.676736      743.6953     
   3894000   314.22088      0.0092639081   6.3712625      779.59066     -12.402762      767.18789    
   3895000   301.8325       0.0092639081   7.2237473      748.85475     -14.559414      734.29534    
   3896000   296.21716      0.0092639081   3.1128607      734.92294     -18.620509      716.30243    
   3897000   299.91555      0.0092639081   10.619972      744.09876     -17.267188      726.83157    
   3898000   303.1683       0.0092639081   5.1466658      752.1689      -17.768008      734.4009     
   3899000   301.91325      0.0092639081   2.2212934      749.05509     -18.685441      730.36965    
   3900000   309.34757      0.0092639081   4.7463871      767.49985     -18.393712      749.10614    
   3901000   283.65099      0.0092639081   6.7223862      703.74594     -15.484082      688.26185    
   3902000   303.01446      0.0092639081   2.5823554      751.78723     -15.575003      736.21223    
   3903000   313.14943      0.0092639081   2.2376632      776.93236     -12.714861      764.2175     
   3904000   299.22173      0.0092639081   7.1204997      742.37737     -16.250307      726.12706    
   3905000   309.19568      0.0092639081   8.2697183      767.123       -13.094718      754.02828    
   3906000   298.56097      0.0092639081   1.2555008      740.738       -14.716135      726.02186    
   3907000   306.67636      0.0092639081   1.624933       760.87251     -14.609196      746.26331    
   3908000   286.08831      0.0092639081   8.8583927      709.79297     -10.918061      698.87491    
   3909000   299.32166      0.0092639081   5.0664155      742.62529     -14.036562      728.58873    
   3910000   307.09207      0.0092639081   1.4978547      761.90388     -11.405627      750.49826    
   3911000   292.6496       0.0092639081   5.6884189      726.07174     -13.012116      713.05962    
   3912000   290.9983       0.0092639081   7.190533       721.9748      -13.09084       708.88396    
   3913000   299.16043      0.0092639081   1.8019458      742.22527     -12.809588      729.41568    
   3914000   305.53902      0.0092639081   4.573497       758.05073     -13.176936      744.87379    
   3915000   314.04866      0.0092639081   2.7840814      779.16338     -12.352814      766.81057    
   3916000   294.97529      0.0092639081   7.3015294      731.84183     -14.663421      717.17841    
   3917000   290.36086      0.0092639081   3.2347683      720.3933      -13.625256      706.76804    
   3918000   315.50727      0.0092639081   3.4765898      782.78223     -15.057716      767.72451    
   3919000   306.14         0.0092639081   6.4875967      759.54179     -10.750406      748.79138    
   3920000   295.58287      0.0092639081   4.8192924      733.34925     -17.75802       715.59123    
   3921000   290.1261       0.0092639081   4.0451392      719.81086     -15.472916      704.33794    
   3922000   314.00676      0.0092639081   4.4937002      779.05943     -15.957297      763.10214    
   3923000   306.77451      0.0092639081   5.8826249      761.11601     -17.078351      744.03766    
   3924000   298.121        0.0092639081   2.2886448      739.64642     -17.166658      722.47977    
   3925000   301.94183      0.0092639081   5.5358669      749.12601     -17.513324      731.61268    
   3926000   295.46293      0.0092639081   6.5197244      733.05167     -18.986731      714.06494    
   3927000   303.01337      0.0092639081   5.7805891      751.78452     -16.319729      735.46479    
   3928000   296.93491      0.0092639081   5.2554875      736.70369     -14.871629      721.83206    
   3929000   303.45251      0.0092639081   5.2611274      752.87404     -16.778526      736.09552    
   3930000   296.6917       0.0092639081   3.2515287      736.10028     -15.846906      720.25338    
   3931000   311.00826      0.0092639081   5.2427045      771.62006     -18.159848      753.46021    
   3932000   295.22249      0.0092639081   5.1383783      732.45512     -17.030677      715.42445    
   3933000   309.7555       0.0092639081   6.6370769      768.51193     -17.291972      751.21996    
   3934000   302.88307      0.0092639081   4.4413864      751.46125     -18.968378      732.49287    
   3935000   291.10918      0.0092639081   4.9999447      722.2499      -15.438775      706.81112    
   3936000   302.07236      0.0092639081   6.3799265      749.44985     -17.45553       731.99432    
   3937000   301.82414      0.0092639081   4.8485617      748.83401     -14.180924      734.65309    
   3938000   300.1412       0.0092639081   2.9397242      744.65859     -15.938278      728.72031    
   3939000   291.24163      0.0092639081   7.1279241      722.57852     -17.683985      704.89453    
   3940000   298.4383       0.0092639081   9.3098415      740.43365     -19.621267      720.81238    
   3941000   305.50227      0.0092639081   5.3111216      757.95955     -19.772615      738.18694    
   3942000   307.36967      0.0092639081   3.077665       762.59263     -17.429379      745.16325    
   3943000   294.8072       0.0092639081   2.769163       731.4248      -15.465383      715.95942    
   3944000   291.72731      0.0092639081   9.3656562      723.7835      -17.639497      706.14401    
   3945000   308.37971      0.0092639081   5.0438314      765.09855     -14.426394      750.67216    
   3946000   288.41054      0.0092639081   1.5034031      715.5545      -18.388756      697.16574    
   3947000   283.09721      0.0092639081   7.3879256      702.37197     -17.142054      685.22992    
   3948000   300.90398      0.0092639081   8.220756       746.55106     -16.230306      730.32076    
   3949000   306.05272      0.0092639081   7.8910372      759.32524     -18.885011      740.44023    
   3950000   303.57001      0.0092639081   5.3564313      753.16556     -12.789737      740.37582    
   3951000   300.74444      0.0092639081   3.6513565      746.15524     -16.528273      729.62697    
   3952000   311.77619      0.0092639081   2.2759855      773.52531     -17.666981      755.85833    
   3953000   286.65373      0.0092639081   7.2541404      711.1958      -17.06396       694.13184    
   3954000   293.02255      0.0092639081   6.3247562      726.99703     -15.232562      711.76447    
   3955000   303.86946      0.0092639081   5.3948147      753.9085      -16.83721       737.07129    
   3956000   322.76545      0.0092639081   3.8677076      800.78999     -16.958007      783.83198    
   3957000   292.12994      0.0092639081   2.8697291      724.78244     -14.627833      710.15461    
   3958000   292.81206      0.0092639081   6.2270531      726.4748      -14.487861      711.98693    
   3959000   310.14317      0.0092639081   5.8842332      769.47376     -12.31322       757.16054    
   3960000   305.91337      0.0092639081   3.7664725      758.97951     -11.842093      747.13741    
   3961000   271.02025      0.0092639081   4.3447163      672.4087      -11.523119      660.88559    
   3962000   297.47131      0.0092639081   5.8091252      738.03451     -12.467713      725.5668     
   3963000   311.63164      0.0092639081   5.340318       773.16668     -12.539831      760.62685    
   3964000   297.47546      0.0092639081   0.85684962     738.04482     -15.6653        722.37952    
   3965000   279.39298      0.0092639081   5.0480972      693.18169     -10.547951      682.63374    
   3966000   301.98901      0.0092639081   5.4692693      749.24306     -12.186465      737.05659    
   3967000   310.65655      0.0092639081   3.8536573      770.74747     -10.253655      760.49382    
   3968000   290.43922      0.0092639081   4.3970519      720.58772     -11.358129      709.22959    
   3969000   292.39658      0.0092639081   5.2002779      725.44397     -14.348008      711.09596    
   3970000   314.86728      0.0092639081   5.2883957      781.19441     -10.776699      770.41771    
   3971000   302.38821      0.0092639081   7.9754693      750.23348     -12.494245      737.73924    
   3972000   294.26232      0.0092639081   4.5319691      730.07292     -14.254946      715.81797    
   3973000   312.47285      0.0092639081   4.6026962      775.25375     -15.261334      759.99242    
   3974000   302.14335      0.0092639081   3.2502878      749.62599     -9.8271071      739.79888    
   3975000   307.68726      0.0092639081   11.009382      763.38057     -14.799609      748.58096    
   3976000   296.15733      0.0092639081   4.9118415      734.77449     -15.755659      719.01883    
   3977000   319.9537       0.0092639081   4.1697049      793.81396     -14.51874       779.29522    
   3978000   297.57766      0.0092639081   7.2076423      738.29837     -13.10933       725.18904    
   3979000   282.07984      0.0092639081   5.0676768      699.84787     -14.095885      685.75198    
   3980000   298.98623      0.0092639081   4.6462414      741.79308     -12.614369      729.17871    
   3981000   311.51514      0.0092639081   5.2442931      772.87766     -13.41494       759.46272    
   3982000   290.19834      0.0092639081   5.6867226      719.99008     -12.314015      707.67606    
   3983000   290.23293      0.0092639081   5.1761227      720.07591     -12.33436       707.74155    
   3984000   303.45186      0.0092639081   4.4844083      752.87243     -11.014089      741.85834    
   3985000   304.12289      0.0092639081   1.282305       754.53727     -11.24763       743.28964    
   3986000   301.46068      0.0092639081   5.9036136      747.93226     -11.39716       736.5351     
   3987000   298.0418       0.0092639081   4.5494586      739.44992     -10.393552      729.05637    
   3988000   305.17259      0.0092639081   5.3219369      757.14161     -15.92637       741.21524    
   3989000   303.34033      0.0092639081   4.7737658      752.59571     -14.786926      737.80878    
   3990000   307.737        0.0092639081   5.4529587      763.50399     -12.858695      750.64529    
   3991000   300.24631      0.0092639081   4.0660268      744.91937     -17.99086       726.92851    
   3992000   294.94636      0.0092639081   5.9991309      731.77004     -12.876611      718.89343    
   3993000   305.31101      0.0092639081   2.3879432      757.48502     -13.443308      744.04171    
   3994000   297.80052      0.0092639081   3.3223171      738.8513      -14.222177      724.62912    
   3995000   300.67153      0.0092639081   10.035599      745.97436     -15.223089      730.75127    
   3996000   301.7778       0.0092639081   6.2986146      748.71904     -16.447667      732.27138    
   3997000   303.75744      0.0092639081   0.10006778     753.63058     -12.766292      740.86429    
   3998000   289.71877      0.0092639081   1.5155375      718.80027     -14.312944      704.48732    
   3999000   297.75709      0.0092639081   9.2171145      738.74354     -17.103948      721.63959    
   4000000   307.9244       0.0092639081   2.245777       763.96892     -16.810933      747.15799    
Loop time of 12445.2 on 1 procs for 4000000 steps with 1500 atoms

Performance: 6.942 ns/day, 3.457 hours/ns, 321.408 timesteps/s, 482.112 katom-step/s
99.3% CPU use with 1 MPI tasks x 1 OpenMP threads

MPI task timing breakdown:
Section |  min time  |  avg time  |  max time  |%varavg| %total
---------------------------------------------------------------
Pair    | 814.73     | 814.73     | 814.73     |   0.0 |  6.55
Bond    | 184.51     | 184.51     | 184.51     |   0.0 |  1.48
Kspace  | 10569      | 10569      | 10569      |   0.0 | 84.93
Neigh   | 0.04926    | 0.04926    | 0.04926    |   0.0 |  0.00
Comm    | 30.046     | 30.046     | 30.046     |   0.0 |  0.24
Output  | 0.13548    | 0.13548    | 0.13548    |   0.0 |  0.00
Modify  | 826.71     | 826.71     | 826.71     |   0.0 |  6.64
Other   |            | 19.69      |            |       |  0.16

Nlocal:           1500 ave        1500 max        1500 min
Histogram: 1 0 0 0 0 0 0 0 0 0
Nghost:            921 ave         921 max         921 min
Histogram: 1 0 0 0 0 0 0 0 0 0
Neighs:              0 ave           0 max           0 min
Histogram: 1 0 0 0 0 0 0 0 0 0

Total # of neighbors = 0
Ave neighs/atom = 0
Ave special neighs/atom = 2
Neighbor list builds = 19580
Dangerous builds = 0
write_data	last_conf.data pair ij
System init for write_data ...
PPPM initialization ...
  using 12-bit tables for long-range coulomb (src/kspace.cpp:342)
  G vector (1/distance) = 0.15674324
  grid = 30 30 30
  stencil order = 5
  estimated absolute RMS force accuracy = 0.037664379
  estimated relative force accuracy = 0.00011342516
  using double precision FFTW3
  3d grid and FFT values/proc = 42875 27000
Generated 1 of 1 mixed pair_coeff terms from arithmetic mixing rule
Total wall time: 3:27:25
