LAMMPS (29 Aug 2024 - Update 1)
  using 1 OpenMP thread(s) per MPI task
package gpu 1 gpuID 0
# GCMC for CO2 molecular fluid, rigid/small/nvt dynamics
# Rigid CO2 TraPPE model
# [Potoff and J.I. Siepmann, Vapor-liquid equilibria of
# mixtures containing alkanes, carbon dioxide and
# nitrogen AIChE J., 47,1676-1682 (2001)].

# global model settings

units           real
atom_style      full
boundary        p p p
pair_style      lj/cut/coul/long  12
pair_modify     mix arithmetic shift yes
kspace_style    pppm 1.0e-4
bond_style      harmonic
angle_style     harmonic
neigh_modify    one 4000

# box, start molecules on simple cubic lattice
region          mbox block 0 ${lbox} 0 ${lbox} 0 ${lbox} units box
region          mbox block 0 110 0 ${lbox} 0 ${lbox} units box
region          mbox block 0 110 0 110 0 ${lbox} units box
region          mbox block 0 110 0 110 0 110 units box
create_box      2 mbox                                       bond/types 1                                angle/types 1                               extra/bond/per/atom 2                       extra/angle/per/atom 1                      extra/special/per/atom 2
Created orthogonal box = (0 0 0) to (110 110 110)
  1 by 1 by 1 MPI processor grid
molecule        co2mol ../CO2.txt
Read molecule template co2mol:
# CO2 molecule file. TraPPE model.
  1 molecules
  0 fragments
  3 atoms with max type 2
  2 bonds with max type 1
  1 angles with max type 1
  0 dihedrals with max type 0
  0 impropers with max type 0
create_atoms   	0 random ${nmols} 34578 mbox mol co2mol 464563 overlap 1.2
create_atoms   	0 random 500 34578 mbox mol co2mol 464563 overlap 1.2
Created 1500 atoms
  using lattice units in orthogonal box = (0 0 0) to (110 110 110)
  create_atoms CPU = 0.015 seconds

# rigid CO2 TraPPE model

pair_coeff      1   1  0.053649   2.800
pair_coeff      2   2  0.156973   3.050
bond_coeff      1       0       1.16
angle_coeff     1       0       180

# masses

mass 1 12.0107
mass 2 15.9994

write_data init_conf.data  pair ij
System init for write_data ...
PPPM initialization ...
  using 12-bit tables for long-range coulomb (src/kspace.cpp:342)
  G vector (1/distance) = 0.16792325
  grid = 24 24 24
  stencil order = 5
  estimated absolute RMS force accuracy = 0.038443853
  estimated relative force accuracy = 0.00011577252
  using double precision FFTW3
  3d grid and FFT values/proc = 24389 13824
Generated 1 of 1 mixed pair_coeff terms from arithmetic mixing rule

# MD settings

group           co2 type 1 2
1500 atoms in group co2
velocity       	all create 300 54654
timestep        0.25

# rigid constraints with thermostat
fix             myrigidnvt co2 rigid/nvt molecule temp 300 300 $(100*dt)
fix             myrigidnvt co2 rigid/nvt molecule temp 300 300 25
  500 rigid bodies with 1500 atoms

thermo 1000
thermo_style custom step temp density press ke pe etotal


variable    mvol equal vol
variable    mden equal density
variable	mtmp equal temp
variable    mpre equal press

fix mydat all ave/time 1 4000 4000 v_mtmp v_mden v_mpre file statistics.dat ## every 1ps

run 4000000 ## 1ns

CITE-CITE-CITE-CITE-CITE-CITE-CITE-CITE-CITE-CITE-CITE-CITE-CITE

Your simulation uses code contributions which should be cited:

- GPU package (short-range, long-range and three-body potentials): doi:10.1016/j.cpc.2010.12.021, doi:10.1016/j.cpc.2011.10.012, doi:10.1016/j.cpc.2013.08.002, doi:10.1016/j.commatsci.2014.10.068, doi:10.1016/j.cpc.2016.10.020, doi:10.3233/APC200086

@Article{Brown11,
 author = {W. M. Brown and P. Wang and S. J. Plimpton and A. N. Tharrington},
 title = {Implementing Molecular Dynamics on Hybrid High Performance Computers---Short Range Forces},
 journal = {Comput.\ Phys.\ Commun.},
 year =    2011,
 volume =  182,
 pages =   {898--911},
 doi =     {10.1016/j.cpc.2010.12.021}
}

@Article{Brown12,
 author = {W. M. Brown and A. Kohlmeyer and S. J. Plimpton and A. N. Tharrington},
 title = {Implementing Molecular Dynamics on Hybrid High Performance Computers - Particle-Particle Particle-Mesh},
 journal = {Comput.\ Phys.\ Commun.},
 year =    2012,
 volume =  183,
 doi =     {10.1016/j.cpc.2011.10.012},
 pages =   {449--459}
}

@Article{Brown13,
 author = {W. M. Brown and Y. Masako},
 title = {Implementing Molecular Dynamics on Hybrid High Performance Computers---Three-Body Potentials},
 journal = {Comput.\ Phys.\ Commun.},
 year =    2013,
 volume =  184,
 pages =   {2785--2793},
 doi =     {10.1016/j.cpc.2013.08.002},
}

@Article{Trung15,
 author = {T. D. Nguyen and S. J. Plimpton},
 title = {Accelerating Dissipative Particle Dynamics Simulations for Soft Matter Systems},
 journal = {Comput.\ Mater.\ Sci.},
 year =    2015,
 doi =     {10.1016/j.commatsci.2014.10.068},
 volume =  100,
 pages =   {173--180}
}

@Article{Trung17,
 author = {T. D. Nguyen},
 title = {{GPU}-Accelerated {T}ersoff Potentials for Massively Parallel
    Molecular Dynamics Simulations},
 journal = {Comput.\ Phys.\ Commun.},
 year =    2017,
 doi =     {10.1016/j.cpc.2016.10.020},
 volume =  212,
 pages =   {113--122}
}

@inproceedings{Nikolskiy19,
 author = {V. Nikolskiy and V. Stegailov},
 title = {{GPU} Acceleration of Four-Site Water Models in {LAMMPS}},
 booktitle = {Proceedings of the International Conference on Parallel
    Computing (ParCo 2019), Prague, Czech Republic},
 doi =     {10.3233/APC200086},
 year =    2019
}

CITE-CITE-CITE-CITE-CITE-CITE-CITE-CITE-CITE-CITE-CITE-CITE-CITE

PPPM initialization ...
  using 12-bit tables for long-range coulomb (src/kspace.cpp:342)
  G vector (1/distance) = 0.16792325
  grid = 24 24 24
  stencil order = 5
  estimated absolute RMS force accuracy = 0.038443853
  estimated relative force accuracy = 0.00011577252
  using double precision FFTW3
  3d grid and FFT values/proc = 24389 13824
Generated 1 of 1 mixed pair_coeff terms from arithmetic mixing rule
Per MPI rank memory allocation (min/avg/max) = 9.591 | 9.591 | 9.591 Mbytes
   Step          Temp         Density         Press          KinEng         PotEng         TotEng    
         0   305.66621      0.02745285    -972.4084       758.3663       3347.7853      4106.1516    
      1000   293.69251      0.02745285     11.262073      728.65921     -32.75069       695.90852    
      2000   291.08859      0.02745285     17.542397      722.19882     -41.955468      680.24335    
      3000   296.20117      0.02745285     15.702306      734.88326     -49.31546       685.5678     
      4000   290.03352      0.02745285     14.653545      719.58116     -51.462641      668.11851    
      5000   307.06698      0.02745285     29.058491      761.84165     -38.900168      722.94148    
      6000   308.22473      0.02745285     12.827756      764.71406     -68.325357      696.38871    
      7000   308.80498      0.02745285     19.712995      766.15367     -66.04593       700.10774    
      8000   302.38098      0.02745285     18.413555      750.21555     -64.643228      685.57233    
      9000   296.57433      0.02745285     15.174102      735.80909     -68.226868      667.58222    
     10000   297.46145      0.02745285     0.11345495     738.01006     -72.990011      665.02005    
     11000   309.94618      0.02745285     15.017945      768.98502     -77.080176      691.90484    
     12000   305.83038      0.02745285     16.303867      758.7736      -70.169397      688.6042     
     13000   286.92015      0.02745285     25.585434      711.85679     -68.985572      642.87122    
     14000   296.74482      0.02745285     4.170586       736.23208     -76.480912      659.75117    
     15000   308.72481      0.02745285     26.580423      765.95478     -80.210619      685.74416    
     16000   310.89519      0.02745285     18.688176      771.33954     -78.922389      692.41716    
     17000   299.57243      0.02745285     13.804091      743.24744     -81.250598      661.99685    
     18000   295.66864      0.02745285     7.1630564      733.56205     -85.53464       648.02741    
     19000   317.11988      0.02745285     13.109025      786.78316     -85.338912      701.44425    
     20000   293.26952      0.02745285     13.036207      727.60976     -96.810519      630.79924    
     21000   290.67224      0.02745285     13.038222      721.16583     -90.284583      630.88125    
     22000   300.58267      0.02745285     13.556036      745.75388     -88.146546      657.60734    
     23000   300.56911      0.02745285     11.527977      745.72024     -102.28391      643.43632    
     24000   303.77102      0.02745285     11.859522      753.66428     -96.346874      657.3174     
     25000   299.79361      0.02745285     13.238896      743.79621     -95.888235      647.90798    
     26000   292.60569      0.02745285     11.381295      725.96279     -102.074        623.88879    
     27000   305.56627      0.02745285     14.391011      758.11834     -104.63621      653.48212    
     28000   287.40919      0.02745285     14.543937      713.07012     -103.21509      609.85503    
     29000   291.34838      0.02745285     22.005603      722.84336     -98.331587      624.51177    
     30000   290.28002      0.02745285     7.6978242      720.19274     -95.822884      624.36985    
     31000   312.89767      0.02745285     12.228964      776.30775     -95.830955      680.4768     
     32000   306.28003      0.02745285     12.823862      759.88921     -101.01209      658.87712    
     33000   305.35751      0.02745285     14.184492      757.6004      -101.18211      656.41829    
     34000   299.36332      0.02745285     11.602378      742.72866     -101.09599      641.63267    
     35000   296.6749       0.02745285     18.148221      736.0586      -103.27327      632.78533    
     36000   287.53296      0.02745285     12.087749      713.37721     -98.541076      614.83613    
     37000   298.0583       0.02745285     11.682628      739.49085     -102.06263      637.42822    
     38000   312.98478      0.02745285     13.411287      776.52387     -102.90819      673.61568    
     39000   286.77886      0.02745285     13.282062      711.50626     -110.66341      600.84285    
     40000   293.34665      0.02745285     16.531414      727.80113     -97.815435      629.9857     
     41000   308.55434      0.02745285     14.103696      765.53182     -115.44727      650.08455    
     42000   300.17965      0.02745285     14.897082      744.754       -109.50492      635.24908    
     43000   296.68488      0.02745285     13.43429       736.08335     -111.69344      624.38991    
     44000   303.50077      0.02745285     13.1494        752.99378     -113.91199      639.08178    
     45000   310.09041      0.02745285     16.184147      769.34285     -111.47223      657.87062    
     46000   305.57157      0.02745285     15.174215      758.13148     -115.60677      642.52471    
     47000   292.78153      0.02745285     11.984286      726.39905     -111.70534      614.69371    
     48000   305.15368      0.02745285     7.2774228      757.09469     -105.19435      651.90034    
     49000   311.50535      0.02745285     16.054348      772.85337     -109.77737      663.07599    
     50000   293.13753      0.02745285     12.028028      727.2823      -109.84165      617.44065    
     51000   296.70031      0.02745285     12.695352      736.12164     -110.88391      625.23772    
     52000   294.85661      0.02745285     16.598387      731.54737     -113.22903      618.31834    
     53000   299.25419      0.02745285     14.872901      742.4579      -110.48221      631.97569    
     54000   296.59975      0.02745285    -8.9410128      735.87215     -119.03049      616.84166    
     55000   299.31789      0.02745285     18.08325       742.61594     -120.03632      622.57962    
     56000   297.90929      0.02745285     15.264308      739.12115     -116.59413      622.52702    
     57000   309.73054      0.02745285     6.3518505      768.45002     -117.13676      651.31326    
     58000   318.81774      0.02745285     16.348667      790.9956      -118.19918      672.79642    
     59000   297.00632      0.02745285     15.103754      736.88087     -112.66839      624.21248    
     60000   293.52948      0.02745285     9.6270175      728.25474     -116.98971      611.26504    
     61000   309.00916      0.02745285     14.898422      766.66025     -108.59322      658.06703    
     62000   301.26864      0.02745285     11.360597      747.4558      -105.25686      642.19894    
     63000   292.47808      0.02745285     4.1259006      725.64617     -103.91465      621.73152    
     64000   291.38897      0.02745285     14.537191      722.94406     -105.91632      617.02773    
     65000   314.23397      0.02745285     22.548821      779.62313     -110.95961      668.66352    
     66000   309.71657      0.02745285    -9.8768412      768.41535     -109.38985      659.0255     
     67000   301.09139      0.02745285     2.4393992      747.01604     -106.41567      640.60037    
     68000   292.10759      0.02745285     34.912088      724.72699     -106.92996      617.79704    
     69000   310.35779      0.02745285     4.0554368      770.00623     -107.18961      662.81662    
     70000   300.11035      0.02745285     13.829265      744.58205     -106.99799      637.58406    
     71000   303.79524      0.02745285     20.839818      753.72437     -109.38583      644.33854    
     72000   301.11804      0.02745285     14.469337      747.08215     -100.52378      646.55837    
     73000   294.73717      0.02745285     6.5931354      731.25104     -109.03021      622.22083    
     74000   305.99396      0.02745285     35.460949      759.17945     -112.37499      646.80446    
     75000   317.10753      0.02745285     16.181405      786.75252     -114.4288       672.32372    
     76000   297.54998      0.02745285     9.6321939      738.22971     -111.06421      627.1655     
     77000   283.01424      0.02745285     13.874471      702.16613     -110.26053      591.9056     
     78000   299.73238      0.02745285     15.935         743.6443      -112.35543      631.28887    
     79000   315.82869      0.02745285     15.097444      783.57967     -99.94124       683.63843    
     80000   299.76105      0.02745285     11.724652      743.71542     -100.14742      643.568      
     81000   293.55609      0.02745285     9.3686879      728.32076     -99.980119      628.34064    
     82000   309.9214       0.02745285     18.682178      768.92353     -102.46146      666.46207    
     83000   310.29976      0.02745285     12.104163      769.86227     -102.28152      667.58075    
     84000   301.75624      0.02745285     2.6800723      748.66555     -91.675227      656.99032    
     85000   299.55589      0.02745285     12.224343      743.20642     -92.02936       651.17706    
     86000   298.91181      0.02745285     27.21861       741.60843     -96.67941       644.92902    
     87000   303.24636      0.02745285     14.107012      752.36258     -103.43087      648.93171    
     88000   291.84832      0.02745285     9.5900921      724.08374     -95.474483      628.60925    
     89000   298.92336      0.02745285     22.258898      741.6371      -99.991717      641.64539    
     90000   295.63119      0.02745285     17.633036      733.46913     -102.26611      631.20303    
     91000   309.82975      0.02745285     13.981793      768.69614     -106.46426      662.23188    
     92000   297.47332      0.02745285     14.445165      738.0395      -103.46114      634.57836    
     93000   289.33834      0.02745285     9.9690487      717.85641     -107.1268       610.72961    
     94000   292.36752      0.02745285     16.086186      725.37187     -97.834517      627.53736    
     95000   305.03311      0.02745285     14.980481      756.79556     -106.58006      650.2155     
     96000   305.18219      0.02745285     7.3726201      757.16543     -99.527102      657.63833    
     97000   296.34386      0.02745285     10.579864      735.23728     -107.16393      628.07335    
     98000   292.52237      0.02745285     12.337025      725.75606     -102.81745      622.9386     
     99000   311.94428      0.02745285     13.033847      773.94236     -98.120277      675.82208    
    100000   308.32745      0.02745285     15.301475      764.9689      -93.006362      671.96254    
    101000   289.52175      0.02745285     10.353607      718.31145     -93.816164      624.49528    
    102000   288.7015       0.02745285     14.408597      716.27638     -90.583133      625.69325    
    103000   307.62978      0.02745285     10.439278      763.23797     -90.681693      672.55628    
    104000   312.60743      0.02745285     15.598283      775.58764     -93.432909      682.15473    
    105000   289.27796      0.02745285     23.730703      717.70659     -95.171206      622.53538    
    106000   284.25085      0.02745285     16.543989      705.2342      -93.985495      611.2487     
    107000   290.86116      0.02745285     11.702238      721.63456     -98.962384      622.67218    
    108000   307.75277      0.02745285     14.009715      763.54311     -97.479966      666.06315    
    109000   299.81652      0.02745285     13.796915      743.85306     -96.695853      647.15721    
    110000   290.32806      0.02745285     13.431881      720.31192     -96.20449       624.10743    
    111000   302.53351      0.02745285     13.527365      750.59397     -95.740391      654.85358    
    112000   305.36012      0.02745285     10.859349      757.60687     -97.246344      660.36053    
    113000   306.72154      0.02745285     20.67743       760.9846      -100.42531      660.55928    
    114000   295.24868      0.02745285     10.854643      732.52011     -101.06679      631.45332    
    115000   324.19134      0.02745285     10.24939       804.32766     -104.3818       699.94586    
    116000   311.7124       0.02745285     12.183099      773.36705     -97.80654       675.56051    
    117000   299.58477      0.02745285     22.785012      743.27807     -87.702944      655.57513    
    118000   292.86455      0.02745285     27.748757      726.60503     -94.577452      632.02758    
    119000   297.89602      0.02745285     8.083671       739.08824     -90.155824      648.93242    
    120000   308.50256      0.02745285     9.6429661      765.40335     -86.489957      678.91339    
    121000   300.36833      0.02745285     15.63838       745.2221      -91.989698      653.2324     
    122000   292.64551      0.02745285     12.538065      726.06157     -91.159623      634.90195    
    123000   295.61079      0.02745285    -2.7432284      733.41852     -91.824931      641.59359    
    124000   304.76433      0.02745285     16.996886      756.1287      -88.801682      667.32702    
    125000   309.05326      0.02745285     37.382792      766.76965     -85.296889      681.47276    
    126000   303.12771      0.02745285     8.814615       752.0682      -94.054172      658.01403    
    127000   299.35202      0.02745285    -16.603881      742.70062     -83.162135      659.53848    
    128000   301.704        0.02745285     23.692317      748.53594     -83.855315      664.68062    
    129000   291.25241      0.02745285     12.440214      722.60525     -87.282026      635.32323    
    130000   289.59593      0.02745285     10.311945      718.49548     -82.884969      635.61051    
    131000   309.21287      0.02745285     23.410884      767.16565     -81.848532      685.31711    
    132000   306.39877      0.02745285     13.672277      760.1838      -79.67506       680.50874    
    133000   293.36455      0.02745285     1.8814352      727.84554     -80.881304      646.96423    
    134000   301.64046      0.02745285     7.1979724      748.37831     -81.741952      666.63635    
    135000   302.93087      0.02745285     29.41039       751.57985     -85.473946      666.1059     
    136000   290.73296      0.02745285     16.004965      721.31649     -90.716241      630.60025    
    137000   307.39036      0.02745285     11.015031      762.64396     -88.1528        674.49116    
    138000   306.0517       0.02745285    -0.13530291     759.32271     -81.700034      677.62268    
    139000   307.03043      0.02745285     25.499444      761.75097     -80.575252      681.17572    
    140000   298.27993      0.02745285     21.747097      740.04074     -82.253155      657.78758    
    141000   302.29277      0.02745285    -11.688531      749.99668     -79.161405      670.83528    
    142000   297.81489      0.02745285     17.187204      738.88695     -75.146812      663.74014    
    143000   291.25533      0.02745285     22.354675      722.61251     -78.05009       644.56242    
    144000   300.86006      0.02745285    -3.0160092      746.44211     -78.211297      668.23081    
    145000   308.0785       0.02745285     6.8702546      764.35126     -75.345423      689.00584    
    146000   306.96988      0.02745285     18.620417      761.60073     -69.587146      692.01358    
    147000   294.44225      0.02745285     31.431158      730.51933     -76.753249      653.76608    
    148000   294.73676      0.02745285     17.729024      731.25003     -73.60193       657.6481     
    149000   315.39062      0.02745285    -11.989139      782.49283     -74.085176      708.40766    
    150000   313.74308      0.02745285     17.879134      778.40522     -76.126546      702.27867    
    151000   302.57768      0.02745285     16.50132       750.70358     -74.955761      675.74781    
    152000   284.39336      0.02745285     26.57839       705.58778     -75.92215       629.66563    
    153000   308.94325      0.02745285     10.005303      766.49671     -78.452608      688.0441     
    154000   305.31205      0.02745285     24.068882      757.4876      -78.07819       679.40941    
    155000   292.59762      0.02745285     21.719402      725.94277     -76.281092      649.66167    
    156000   283.85076      0.02745285     20.825969      704.24155     -68.899165      635.34239    
    157000   298.34655      0.02745285     10.09336       740.206       -72.063257      668.14275    
    158000   323.60941      0.02745285     5.7740427      802.88387     -74.621269      728.2626     
    159000   302.69772      0.02745285     16.663295      751.00138     -76.072708      674.92867    
    160000   305.08852      0.02745285     14.084714      756.93304     -71.059497      685.87354    
    161000   293.66147      0.02745285     11.808786      728.5822      -70.637078      657.94512    
    162000   308.99419      0.02745285     15.763464      766.62311     -62.625219      703.9979     
    163000   302.4235       0.02745285     12.264412      750.32103     -61.735563      688.58547    
    164000   297.21247      0.02745285     14.922573      737.39234     -56.952013      680.44033    
    165000   307.76099      0.02745285     15.3948        763.56349     -63.194986      700.3685     
    166000   279.36744      0.02745285     11.7816        693.11832     -58.59869       634.51963    
    167000   304.8518       0.02745285     14.083055      756.34572     -60.568042      695.77768    
    168000   316.64349      0.02745285     16.796882      785.60123     -61.604558      723.99667    
    169000   302.38767      0.02745285     3.27951        750.23215     -64.982102      685.25005    
    170000   295.65521      0.02745285     15.300004      733.52872     -60.856051      672.67267    
    171000   312.77701      0.02745285     17.845657      776.00839     -64.940084      711.06831    
    172000   291.86116      0.02745285     15.009588      724.11558     -62.126354      661.98923    
    173000   288.5079       0.02745285     16.605071      715.79604     -68.26588       647.53016    
    174000   308.40517      0.02745285     16.248085      765.16174     -69.208406      695.95333    
    175000   296.54761      0.02745285     15.185115      735.74279     -67.228688      668.51411    
    176000   309.87789      0.02745285     14.720042      768.81559     -60.846454      707.96914    
    177000   297.70517      0.02745285     11.200769      738.61473     -67.188466      671.42627    
    178000   298.84924      0.02745285     14.32767       741.45321     -63.158386      678.29482    
    179000   297.83516      0.02745285     14.442276      738.93723     -64.172941      674.76429    
    180000   301.71969      0.02745285     14.664995      748.57487     -65.333306      683.24157    
    181000   311.42338      0.02745285     11.771282      772.64998     -64.147059      708.50292    
    182000   305.72843      0.02745285     16.924094      758.52066     -57.592628      700.92803    
    183000   285.70842      0.02745285     15.941995      708.85046     -61.581194      647.26926    
    184000   305.69282      0.02745285     14.77114       758.43232     -60.252174      698.18015    
    185000   310.03038      0.02745285     14.551185      769.19393     -60.058296      709.13563    
    186000   300.8242       0.02745285     11.094209      746.35312     -61.197206      685.15592    
    187000   295.88705      0.02745285     14.400711      734.10393     -57.84235       676.26158    
    188000   293.00279      0.02745285     16.985899      726.94801     -64.084401      662.86361    
    189000   313.49319      0.02745285     14.527192      777.78525     -60.864003      716.92124    
    190000   301.74438      0.02745285     7.857646       748.63612     -53.974972      694.66114    
    191000   286.26425      0.02745285     12.662759      710.22949     -53.98326       656.24623    
    192000   299.85194      0.02745285     14.947124      743.94094     -52.304697      691.63624    
    193000   311.16382      0.02745285     9.8054024      772.00601     -59.612246      712.39376    
    194000   297.15812      0.02745285     13.73636       737.25749     -64.052523      673.20497    
    195000   299.11519      0.02745285     16.450857      742.11303     -57.668501      684.44452    
    196000   305.00479      0.02745285     19.370374      756.72528     -58.014172      698.71111    
    197000   303.04367      0.02745285     13.298163      751.85969     -63.272129      688.58756    
    198000   288.59417      0.02745285     13.145105      716.01009     -60.909147      655.10094    
    199000   292.14616      0.02745285     16.622651      724.82269     -56.562392      668.26029    
    200000   303.32394      0.02745285     13.852604      752.55505     -59.144266      693.41078    
    201000   292.33266      0.02745285     5.9563962      725.28538     -62.68867       662.59671    
    202000   296.48813      0.02745285     17.484687      735.59522     -60.244338      675.35088    
    203000   303.78532      0.02745285     11.797748      753.69974     -56.554246      697.1455     
    204000   292.63633      0.02745285     8.4980464      726.0388      -59.846757      666.19204    
    205000   291.24466      0.02745285     14.505706      722.58603     -54.51472       668.07131    
    206000   304.79071      0.02745285     18.681423      756.19415     -58.952081      697.24207    
    207000   315.27787      0.02745285     15.350785      782.21308     -53.68727       728.52581    
    208000   299.77925      0.02745285     9.4435816      743.76057     -61.187163      682.57341    
    209000   281.24493      0.02745285     13.357779      697.77642     -59.192474      638.58395    
    210000   299.88441      0.02745285     19.719892      744.02149     -61.225187      682.79631    
    211000   318.52422      0.02745285     0.83524066     790.26738     -65.530368      724.73701    
    212000   301.86885      0.02745285     11.177765      748.94495     -67.509304      681.43564    
    213000   291.77062      0.02745285     18.821893      723.89095     -61.268405      662.62254    
    214000   300.49503      0.02745285     32.909347      745.53645     -60.122072      685.41438    
    215000   306.17858      0.02745285     6.9101223      759.63749     -63.496874      696.14062    
    216000   305.75687      0.02745285     11.175835      758.59121     -57.536095      701.05512    
    217000   299.10562      0.02745285     15.872812      742.08928     -59.371686      682.7176     
    218000   307.46711      0.02745285     38.640757      762.83439     -55.632833      707.20155    
    219000   304.2766       0.02745285     17.621964      754.91862     -57.464273      697.45435    
    220000   301.15853      0.02745285     2.1688748      747.18262     -53.57052       693.61211    
    221000   307.54382      0.02745285     13.722987      763.0247      -57.085965      705.93874    
    222000   297.82064      0.02745285     29.769438      738.90123     -59.500279      679.40095    
    223000   310.52064      0.02745285     16.947843      770.41026     -61.158883      709.25138    
    224000   300.28248      0.02745285    -3.6290797      745.0091      -63.156204      681.8529     
    225000   290.92568      0.02745285     12.108422      721.79464     -58.952096      662.84254    
    226000   302.37152      0.02745285     26.041477      750.19209     -62.222554      687.96953    
    227000   307.78489      0.02745285     15.043191      763.62281     -59.945471      703.67734    
    228000   297.24498      0.02745285     5.39486        737.473       -60.780022      676.69298    
    229000   289.36203      0.02745285     11.163816      717.91516     -67.226348      650.68881    
    230000   301.68119      0.02745285     34.641359      748.47934     -65.397446      683.08189    
    231000   300.74482      0.02745285     15.973089      746.15619     -61.154916      685.00128    
    232000   298.33623      0.02745285    -7.9862252      740.18042     -55.794238      684.38618    
    233000   295.75708      0.02745285     9.2968155      733.78148     -58.609976      675.1715     
    234000   284.87656      0.02745285     21.935821      706.7866      -55.419965      651.36663    
    235000   304.76788      0.02745285     16.088937      756.13752     -54.132847      702.00467    
    236000   314.24311      0.02745285     9.5188085      779.64583     -57.125739      722.52009    
    237000   286.47253      0.02745285     9.5377076      710.74625     -61.847711      648.89854    
    238000   295.91846      0.02745285     22.359076      734.18185     -66.04349       668.13836    
    239000   305.4938       0.02745285     16.51563       757.93855     -60.655064      697.28348    
    240000   312.96965      0.02745285     7.1329336      776.48633     -64.268493      712.21784    
    241000   286.80128      0.02745285     14.851571      711.56188     -62.862521      648.69936    
    242000   290.57391      0.02745285     20.498504      720.92189     -63.939649      656.98224    
    243000   287.34745      0.02745285     16.705382      712.91694     -59.836038      653.08091    
    244000   313.26853      0.02745285     14.645976      777.22785     -63.172952      714.0549     
    245000   309.57743      0.02745285     15.71526       768.07013     -55.269762      712.80037    
    246000   289.48473      0.02745285     14.578714      718.21959     -55.244309      662.97529    
    247000   300.99856      0.02745285     14.427044      746.78572     -56.909352      689.87637    
    248000   309.45981      0.02745285     17.479764      767.77832     -62.273842      705.50448    
    249000   306.26979      0.02745285     16.551752      759.8638      -60.663237      699.20056    
    250000   298.83928      0.02745285     4.9029003      741.4285      -60.951612      680.47689    
    251000   307.13179      0.02745285     13.808258      762.00244     -59.903522      702.09892    
    252000   311.16913      0.02745285     17.089208      772.01918     -52.592423      719.42676    
    253000   306.64503      0.02745285     14.358258      760.79476     -49.971006      710.82376    
    254000   291.85602      0.02745285     13.499393      724.10284     -51.643839      672.459      
    255000   291.21407      0.02745285     12.318935      722.51015     -51.415106      671.09504    
    256000   302.52256      0.02745285     13.423188      750.56682     -53.664265      696.90256    
    257000   311.01528      0.02745285     15.047723      771.63748     -53.42128       718.2162     
    258000   289.53416      0.02745285     14.799862      718.34223     -53.749142      664.59309    
    259000   292.64904      0.02745285     14.776085      726.07033     -50.439275      675.63106    
    260000   294.75145      0.02745285     15.519163      731.28648     -46.94307       684.34341    
    261000   309.59836      0.02745285     14.080811      768.12207     -45.571142      722.55093    
    262000   289.92382      0.02745285     11.843072      719.30898     -48.170301      671.13868    
    263000   296.08721      0.02745285     7.2297452      734.60053     -45.63436       688.96617    
    264000   312.94282      0.02745285     15.643128      776.41977     -46.239715      730.18006    
    265000   280.8302       0.02745285     18.411454      696.74745     -42.99326       653.75419    
    266000   280.66167      0.02745285     9.9896961      696.32934     -42.147688      654.18166    
    267000   305.84697      0.02745285     15.752136      758.81475     -42.944177      715.87058    
    268000   308.00551      0.02745285     16.37565       764.17016     -42.360781      721.80938    
    269000   292.14193      0.02745285     22.487788      724.81218     -43.794158      681.01802    
    270000   287.48613      0.02745285     12.266973      713.26102     -44.861518      668.39951    
    271000   303.75801      0.02745285     15.087977      753.63199     -39.755256      713.87673    
    272000   313.41535      0.02745285     22.293618      777.59212     -46.977956      730.61416    
    273000   286.63862      0.02745285     15.14306       711.15832     -48.882307      662.27601    
    274000   298.66107      0.02745285     11.019794      740.98634     -43.672215      697.31413    
    275000   313.36957      0.02745285     23.493914      777.47855     -45.949571      731.52898    
    276000   290.23913      0.02745285     13.606498      720.09127     -45.40822       674.68305    
    277000   304.27057      0.02745285     10.146012      754.90367     -48.924903      705.97877    
    278000   298.45949      0.02745285     18.809259      740.48622     -47.938828      692.5474     
    279000   286.91044      0.02745285     17.180628      711.83272     -51.127312      660.70541    
    280000   299.26897      0.02745285     8.1128586      742.49456     -49.599718      692.89484    
    281000   303.48924      0.02745285     6.738004       752.96518     -44.754516      708.21067    
    282000   293.46556      0.02745285     14.115427      728.09615     -47.415471      680.68068    
    283000   302.08432      0.02745285     13.646711      749.47953     -43.626838      705.8527     
    284000   310.56512      0.02745285     14.111599      770.52061     -44.737839      725.78278    
    285000   283.50909      0.02745285     11.641608      703.39386     -43.368649      660.02521    
    286000   292.53709      0.02745285     15.228309      725.79258     -44.539022      681.25355    
    287000   307.03841      0.02745285     15.052235      761.77077     -54.31916       707.45161    
    288000   297.918        0.02745285     15.320335      739.14278     -49.236324      689.90645    
    289000   296.1459       0.02745285     14.554552      734.74614     -52.455501      682.29064    
    290000   301.98058      0.02745285     15.407835      749.22214     -47.005694      702.21644    
    291000   300.12299      0.02745285     13.613991      744.6134      -42.406625      702.20678    
    292000   280.03686      0.02745285     13.854271      694.77918     -43.258284      651.5209     
    293000   299.9093       0.02745285     15.276864      744.08323     -44.630213      699.45302    
    294000   312.36189      0.02745285     16.216664      774.97846     -47.000452      727.978      
    295000   305.35445      0.02745285     13.937561      757.5928      -40.784601      716.8082     
    296000   299.03017      0.02745285     14.231243      741.9021      -52.145721      689.75638    
    297000   294.86823      0.02745285     12.850252      731.5762      -42.661828      688.91437    
    298000   299.88889      0.02745285     16.219124      744.0326      -43.026819      701.00578    
    299000   305.96678      0.02745285     16.543372      759.11202     -45.447842      713.66417    
    300000   310.44662      0.02745285     16.884883      770.22662     -39.557609      730.66901    
    301000   303.02328      0.02745285     15.162206      751.80911     -38.944057      712.86505    
    302000   294.51424      0.02745285     12.84037       730.69794     -43.077561      687.62038    
    303000   295.75223      0.02745285     12.754016      733.76944     -42.234539      691.5349     
    304000   314.52161      0.02745285     15.347734      780.33677     -40.035905      740.30087    
    305000   312.21593      0.02745285     15.567997      774.61633     -50.421204      724.19512    
    306000   292.49347      0.02745285     15.128983      725.68437     -49.075946      676.60842    
    307000   307.05672      0.02745285     13.974316      761.81619     -45.324073      716.49211    
    308000   305.2667       0.02745285     14.691318      757.37509     -47.457375      709.91772    
    309000   304.85141      0.02745285     16.340641      756.34475     -41.457257      714.8875     
    310000   303.42877      0.02745285     14.650642      752.81513     -41.902603      710.91253    
    311000   301.10759      0.02745285     14.088329      747.05624     -46.431886      700.62436    
    312000   298.81896      0.02745285     14.395285      741.37807     -38.176444      703.20162    
    313000   298.07894      0.02745285     13.633944      739.54207     -35.520726      704.02134    
    314000   299.76312      0.02745285     13.505743      743.72057     -39.358993      704.36158    
    315000   271.97564      0.02745285     12.708425      674.77905     -45.649222      629.12983    
    316000   297.55622      0.02745285     13.636653      738.24519     -51.026556      687.21863    
    317000   311.333        0.02745285     13.836415      772.42575     -48.883202      723.54255    
    318000   293.56026      0.02745285     9.0999972      728.33109     -48.141466      680.18962    
    319000   284.70064      0.02745285     14.782578      706.35014     -43.867634      662.48251    
    320000   307.09067      0.02745285     14.845289      761.90041     -46.788323      715.11209    
    321000   305.4836       0.02745285     16.650479      757.91323     -51.514058      706.39917    
    322000   295.82032      0.02745285     17.865552      733.93837     -46.145359      687.79301    
    323000   278.28544      0.02745285     10.673232      690.43386     -55.536047      634.89781    
    324000   303.11794      0.02745285     11.207029      752.04397     -50.614363      701.42961    
    325000   307.65747      0.02745285     15.589457      763.30666     -46.642581      716.66408    
    326000   295.48067      0.02745285     14.291659      733.09569     -49.917567      683.17813    
    327000   291.6525       0.02745285     11.894886      723.59789     -46.99198       676.60591    
    328000   314.33091      0.02745285     11.570833      779.86365     -48.050346      731.81331    
    329000   310.47337      0.02745285     14.342705      770.293       -45.280673      725.01233    
    330000   293.74191      0.02745285     14.137739      728.78178     -48.028898      680.75288    
    331000   297.68912      0.02745285     12.680639      738.5749      -46.790095      691.78481    
    332000   303.51678      0.02745285     13.820265      753.03349     -54.500033      698.53346    
    333000   299.68464      0.02745285     15.104015      743.52585     -51.8273        691.69855    
    334000   299.04344      0.02745285     22.070416      741.93501     -46.382778      695.55223    
    335000   297.93482      0.02745285     7.0203387      739.18451     -46.749823      692.43469    
    336000   308.47258      0.02745285     15.768413      765.32898     -46.292013      719.03697    
    337000   303.90527      0.02745285     17.590443      753.99735     -46.969173      707.02818    
    338000   290.76497      0.02745285     19.205178      721.3959      -48.916769      672.47913    
    339000   300.39123      0.02745285     14.823425      745.27891     -40.153431      705.12548    
    340000   299.51086      0.02745285     7.888085       743.0947      -44.916875      698.17783    
    341000   293.6156       0.02745285     12.806991      728.46841     -47.006361      681.46205    
    342000   294.35081      0.02745285     20.285173      730.29248     -44.840848      685.45163    
    343000   306.63786      0.02745285     15.743984      760.77698     -42.780355      717.99663    
    344000   305.83802      0.02745285     10.545969      758.79256     -49.34452       709.44804    
    345000   294.17976      0.02745285     18.820488      729.8681      -47.042286      682.82581    
    346000   290.22782      0.02745285     13.340124      720.06323     -47.821944      672.24129    
    347000   303.77055      0.02745285     11.306563      753.66311     -44.173917      709.48919    
    348000   296.40063      0.02745285     10.437398      735.37812     -44.276168      691.10196    
    349000   303.81147      0.02745285     12.451312      753.76462     -49.109989      704.65463    
    350000   294.44375      0.02745285     15.4703        730.52307     -46.316858      684.20621    
    351000   302.48101      0.02745285     13.041562      750.46373     -49.74602       700.71771    
    352000   308.78713      0.02745285     14.647693      766.10939     -41.68726       724.42213    
    353000   289.72691      0.02745285     14.077273      718.82045     -42.648142      676.17231    
    354000   300.18842      0.02745285     13.928837      744.77575     -42.077125      702.69862    
    355000   293.18723      0.02745285     13.34827       727.4056      -46.778439      680.62716    
    356000   295.59212      0.02745285     17.026573      733.3722      -42.391364      690.98083    
    357000   299.4628       0.02745285     19.363985      742.97547     -43.594648      699.38082    
    358000   297.34451      0.02745285     15.329556      737.71991     -48.155221      689.56469    
    359000   295.08572      0.02745285     6.6585087      732.11581     -50.985467      681.13034    
    360000   294.04492      0.02745285    -10.261255      729.53354     -54.155595      675.37795    
    361000   305.15462      0.02745285     16.663432      757.09703     -52.72736       704.36968    
    362000   298.33554      0.02745285     12.347817      740.17869     -48.262015      691.91668    
    363000   304.63891      0.02745285     14.202052      755.81753     -51.382094      704.43544    
    364000   311.24077      0.02745285     13.929489      772.19693     -49.573152      722.62378    
    365000   286.54         0.02745285     14.491869      710.91364     -48.058992      662.85465    
    366000   303.17939      0.02745285     14.841808      752.19641     -46.7589        705.43751    
    367000   292.71895      0.02745285     16.044338      726.24378     -43.525974      682.7178     
    368000   305.35748      0.02745285     17.108377      757.60032     -46.045519      711.5548     
    369000   302.13652      0.02745285     14.763055      749.60903     -48.581674      701.02736    
    370000   297.57198      0.02745285     15.191808      738.28428     -49.419676      688.86461    
    371000   302.44184      0.02745285     14.725274      750.36654     -51.671829      698.69471    
    372000   307.16535      0.02745285     13.61679       762.08571     -47.596062      714.48965    
    373000   297.62817      0.02745285     14.568045      738.42369     -43.738821      694.68486    
    374000   293.14651      0.02745285     13.977412      727.30457     -45.922582      681.38199    
    375000   300.72664      0.02745285     11.378289      746.11109     -52.241734      693.86935    
    376000   305.15546      0.02745285     15.365776      757.0991      -48.778548      708.32055    
    377000   302.41617      0.02745285     14.272391      750.30285     -54.689636      695.61321    
    378000   287.86126      0.02745285     6.4021201      714.19173     -53.297104      660.89462    
    379000   290.20639      0.02745285     15.285617      720.01005     -51.561129      668.44892    
    380000   302.80995      0.02745285     15.082569      751.27984     -51.476882      699.80295    
    381000   312.36562      0.02745285     17.79997       774.98772     -54.897814      720.0899     
    382000   305.06653      0.02745285     12.704352      756.87848     -50.617959      706.26052    
    383000   297.37757      0.02745285     13.52302       737.80195     -48.415304      689.38665    
    384000   312.63498      0.02745285     14.225203      775.65601     -49.08399       726.57202    
    385000   299.4668       0.02745285     9.0633119      742.98538     -48.748153      694.23723    
    386000   293.44289      0.02745285     13.674251      728.03991     -51.955045      676.08486    
    387000   297.42331      0.02745285     17.536635      737.91544     -48.277291      689.63815    
    388000   313.63255      0.02745285     14.70145       778.131       -52.749105      725.38189    
    389000   291.90426      0.02745285     12.496701      724.22251     -53.594123      670.62839    
    390000   293.27733      0.02745285     11.987642      727.62915     -62.135361      665.49379    
    391000   305.77663      0.02745285     13.326007      758.64025     -56.869455      701.77079    
    392000   306.22434      0.02745285     14.892876      759.75102     -57.636976      702.11404    
    393000   309.50116      0.02745285     12.522468      767.8809      -49.399328      718.48157    
    394000   293.31405      0.02745285     14.383373      727.72025     -50.583493      677.13675    
    395000   299.63442      0.02745285     12.263945      743.40126     -49.088958      694.3123     
    396000   289.67353      0.02745285     17.080186      718.68801     -49.438845      669.24917    
    397000   302.48474      0.02745285     13.091115      750.47298     -46.561793      703.91119    
    398000   305.06585      0.02745285     15.236509      756.87677     -46.90554       709.97123    
    399000   295.30357      0.02745285     15.029069      732.65631     -47.080955      685.57535    
    400000   299.63153      0.02745285     9.0411499      743.39408     -48.81953       694.57455    
    401000   307.29495      0.02745285     17.549382      762.40724     -54.194325      708.21291    
    402000   298.89219      0.02745285     17.851902      741.55976     -51.804449      689.75531    
    403000   292.44663      0.02745285     14.729828      725.56816     -52.483205      673.08496    
    404000   295.67225      0.02745285     11.576136      733.571       -52.654033      680.91696    
    405000   309.36655      0.02745285     13.921074      767.54693     -52.267856      715.27907    
    406000   306.46906      0.02745285     15.466978      760.35818     -48.593038      711.76514    
    407000   285.90918      0.02745285     13.315809      709.34855     -44.357636      664.99092    
    408000   285.85         0.02745285     15.429334      709.20173     -44.473677      664.72805    
    409000   298.21442      0.02745285     10.128576      739.87821     -45.041945      694.83626    
    410000   297.1177       0.02745285     12.138098      737.15719     -49.752556      687.40464    
    411000   293.12613      0.02745285     15.041564      727.25402     -48.010736      679.24328    
    412000   304.87601      0.02745285     17.354156      756.40578     -41.322266      715.08351    
    413000   311.68207      0.02745285     9.8755998      773.29182     -35.103787      738.18803    
    414000   299.92406      0.02745285     13.064846      744.11986     -33.782945      710.33692    
    415000   287.0871       0.02745285     18.088566      712.27101     -36.685452      675.58556    
    416000   309.61846      0.02745285     16.042791      768.17193     -37.520858      730.65108    
    417000   316.49702      0.02745285     12.983059      785.23784     -43.740068      741.49777    
    418000   297.31677      0.02745285    -1.3401553      737.65111     -40.955978      696.69513    
    419000   292.42195      0.02745285     17.618731      725.50693     -42.169608      683.33732    
    420000   298.1883       0.02745285     13.730008      739.81338     -47.231595      692.58178    
    421000   305.32467      0.02745285     3.1055125      757.51892     -42.633123      714.8858     
    422000   293.94162      0.02745285     15.576169      729.27727     -44.235256      685.04201    
    423000   300.93325      0.02745285     13.761292      746.62369     -45.766906      700.85679    
    424000   298.747        0.02745285    -7.109987       741.19954     -37.597108      703.60243    
    425000   292.02097      0.02745285     22.946832      724.51209     -40.124978      684.38711    
    426000   300.90852      0.02745285     39.468261      746.56233     -41.250165      705.31217    
    427000   308.70552      0.02745285     19.922708      765.90691     -37.84387       728.06304    
    428000   306.3699       0.02745285     4.7402123      760.11217     -42.906722      717.20544    
    429000   299.38039      0.02745285    -8.0873219      742.771       -42.805177      699.96582    
    430000   289.20826      0.02745285     17.131411      717.53366     -44.826042      672.70762    
    431000   307.62309      0.02745285     27.099537      763.22138     -43.313475      719.9079     
    432000   307.35892      0.02745285    -1.2703989      762.56595     -42.085037      720.48091    
    433000   292.24383      0.02745285     17.087649      725.065       -48.620951      676.44405    
    434000   295.12954      0.02745285     21.03066       732.22453     -53.570686      678.65385    
    435000   304.48012      0.02745285     22.817446      755.42357     -51.354347      704.06922    
    436000   308.6291       0.02745285     23.23814       765.7173      -47.180025      718.53727    
    437000   309.17044      0.02745285     16.526688      767.06039     -44.600513      722.45988    
    438000   310.80403      0.02745285    -9.8588384      771.11336     -47.700988      723.41237    
    439000   290.58403      0.02745285     17.29246       720.94699     -46.623868      674.32312    
    440000   289.26542      0.02745285     29.987645      717.67549     -43.650343      674.02514    
    441000   306.38502      0.02745285     14.703903      760.14967     -51.283211      708.86646    
    442000   299.9153       0.02745285     1.8289503      744.09812     -41.06149       703.03663    
    443000   290.75768      0.02745285     13.375471      721.37782     -47.407889      673.96993    
    444000   293.02327      0.02745285     19.301372      726.9988      -43.489351      683.50945    
    445000   304.29615      0.02745285     18.476465      754.96714     -42.581626      712.38552    
    446000   321.69239      0.02745285     10.224341      798.12769     -39.852669      758.27502    
    447000   293.07928      0.02745285     12.779161      727.13776     -50.222952      676.91481    
    448000   283.8736       0.02745285     14.301446      704.29823     -44.153625      660.14461    
    449000   303.39857      0.02745285     13.059572      752.74022     -47.482518      705.2577     
    450000   313.78494      0.02745285     11.053207      778.50908     -48.494203      730.01488    
    451000   300.70383      0.02745285     19.308685      746.05448     -55.3291        690.72538    
    452000   279.04161      0.02745285     13.176286      692.30993     -46.09035       646.21958    
    453000   290.39939      0.02745285     14.507055      720.48889     -50.10043       670.38846    
    454000   302.49751      0.02745285     15.795787      750.50467     -45.316759      705.18791    
    455000   313.2889       0.02745285     14.30372       777.27839     -46.144339      731.13405    
    456000   296.01442      0.02745285     13.381905      734.41994     -47.99964       686.4203     
    457000   301.36773      0.02745285     14.368983      747.70164     -43.793637      703.908      
    458000   305.88176      0.02745285     13.628912      758.90108     -39.707512      719.19356    
    459000   296.12918      0.02745285     16.34668       734.70466     -40.320646      694.38401    
    460000   293.59191      0.02745285     18.075779      728.40962     -42.544726      685.8649     
    461000   305.35112      0.02745285     14.411013      757.58455     -44.463461      713.12109    
    462000   303.86833      0.02745285     14.177594      753.90569     -43.027855      710.87784    
    463000   305.6471       0.02745285     16.207896      758.31889     -36.699348      721.61954    
    464000   299.75445      0.02745285     13.179495      743.69904     -45.966983      697.73206    
    465000   293.62565      0.02745285     18.933693      728.49334     -42.987423      685.50592    
    466000   306.29497      0.02745285     18.949281      759.92627     -45.236265      714.69       
    467000   305.40151      0.02745285     13.851938      757.70956     -40.299156      717.4104     
    468000   288.46776      0.02745285     14.122248      715.69647     -44.213098      671.48338    
    469000   292.32437      0.02745285     12.487076      725.26482     -45.360367      679.90446    
    470000   304.00586      0.02745285     23.263114      754.24691     -38.295386      715.95153    
    471000   302.73079      0.02745285     13.156602      751.08344     -43.057793      708.02565    
    472000   311.99249      0.02745285     14.548553      774.06197     -40.939215      733.12275    
    473000   309.13305      0.02745285     22.552076      766.96762     -42.908499      724.05912    
    474000   289.09429      0.02745285     14.610509      717.25089     -41.245147      676.00574    
    475000   295.19566      0.02745285     15.548557      732.38858     -43.347823      689.04076    
    476000   303.41802      0.02745285     7.8498759      752.78846     -41.307776      711.48069    
    477000   306.78573      0.02745285     12.210736      761.14385     -44.670761      716.47309    
    478000   304.86515      0.02745285     19.394445      756.37884     -39.369674      717.00917    
    479000   299.28933      0.02745285     18.101723      742.54507     -38.574049      703.97102    
    480000   307.89783      0.02745285     13.546661      763.90301     -41.395048      722.50796    
    481000   301.25879      0.02745285     10.209375      747.43136     -39.908509      707.52285    
    482000   298.72056      0.02745285     17.202206      741.13395     -42.918784      698.21517    
    483000   295.5239       0.02745285     7.9268614      733.20294     -43.070304      690.13263    
    484000   310.78882      0.02745285     14.291744      771.07562     -43.222959      727.85266    
    485000   296.65804      0.02745285     20.978394      736.01676     -42.000151      694.01661    
    486000   294.79226      0.02745285     11.229371      731.38772     -42.981988      688.40574    
    487000   303.03875      0.02745285     12.485851      751.84749     -45.89647       705.95102    
    488000   288.41806      0.02745285     17.317303      715.57315     -46.381839      669.19131    
    489000   297.33491      0.02745285     10.821159      737.6961      -42.966225      694.72987    
    490000   301.53043      0.02745285     15.203437      748.10532     -35.976839      712.12848    
    491000   305.21223      0.02745285     14.459704      757.23996     -36.329077      720.91088    
    492000   289.76576      0.02745285     15.623459      718.91684     -40.311955      678.60489    
    493000   299.90763      0.02745285     18.947389      744.07909     -41.169         702.91009    
    494000   301.7248       0.02745285     17.760121      748.58755     -42.432032      706.15552    
    495000   302.67318      0.02745285     13.814135      750.9405      -43.378726      707.56178    
    496000   305.63347      0.02745285     16.907633      758.28506     -42.24695       716.03811    
    497000   299.86776      0.02745285     20.209674      743.98019     -46.734111      697.24608    
    498000   289.3077       0.02745285     17.464549      717.78038     -35.743988      682.03639    
    499000   306.14328      0.02745285     13.664904      759.54992     -36.311866      723.23806    
    500000   293.7161       0.02745285     14.0543        728.71775     -39.68698       689.03077    
    501000   296.63352      0.02745285     18.069402      735.95593     -32.572684      703.38324    
    502000   304.73277      0.02745285     10.931937      756.0504      -40.19805       715.85235    
    503000   312.64107      0.02745285     9.7924494      775.6711      -41.734225      733.93688    
    504000   303.91821      0.02745285     16.719551      754.02945     -38.474378      715.55507    
    505000   292.30424      0.02745285     14.736714      725.21488     -41.252193      683.96268    
    506000   308.01488      0.02745285     14.630318      764.1934      -42.284025      721.90938    
    507000   304.06702      0.02745285     15.690266      754.39866     -41.162324      713.23633    
    508000   293.44188      0.02745285     10.839858      728.0374      -46.284594      681.75281    
    509000   303.49362      0.02745285     11.559126      752.97605     -50.061001      702.91505    
    510000   307.61394      0.02745285     15.590782      763.19866     -50.370047      712.82861    
    511000   301.9059       0.02745285     16.777026      749.03686     -50.30493       698.73193    
    512000   304.25196      0.02745285     14.800315      754.85751     -50.139344      704.71817    
    513000   296.09136      0.02745285     13.734703      734.61081     -46.971088      687.63973    
    514000   313.01168      0.02745285     13.204877      776.5906      -41.491386      735.09921    
    515000   296.6409       0.02745285     14.649061      735.97425     -49.038566      686.93569    
    516000   301.27343      0.02745285     14.70877       747.46768     -44.59515       702.87253    
    517000   284.76522      0.02745285     6.8242629      706.51037     -44.634587      661.87578    
    518000   292.68405      0.02745285     20.801603      726.15719     -52.872649      673.28454    
    519000   306.69351      0.02745285     19.692702      760.91506     -50.950821      709.96424    
    520000   305.03351      0.02745285     9.5656589      756.79654     -49.423431      707.37311    
    521000   291.62774      0.02745285     15.953768      723.53645     -52.610732      670.92572    
    522000   301.41987      0.02745285     15.983798      747.831       -43.26504       704.56596    
    523000   310.18486      0.02745285     15.595311      769.57719     -49.008526      720.56866    
    524000   293.75158      0.02745285     14.109119      728.80576     -49.071256      679.73451    
    525000   291.51619      0.02745285     14.87269       723.25971     -54.795291      668.46442    
    526000   309.39963      0.02745285     15.661399      767.62902     -47.702863      719.92616    
    527000   296.91338      0.02745285     15.212702      736.65029     -45.263215      691.38707    
    528000   300.66586      0.02745285     14.388552      745.96028     -39.507324      706.45296    
    529000   311.86958      0.02745285     13.156363      773.75704     -44.23906       729.51798    
    530000   294.36146      0.02745285     3.9143222      730.3189      -47.769811      682.54909    
    531000   295.39004      0.02745285     19.802335      732.87083     -49.066839      683.80399    
    532000   306.27794      0.02745285     11.519212      759.88401     -50.207836      709.67618    
    533000   293.31883      0.02745285     7.4838626      727.73211     -50.509241      677.22287    
    534000   303.98326      0.02745285     21.540138      754.19084     -49.941572      704.24927    
    535000   305.24438      0.02745285     0.97892087     757.31973     -46.674781      710.64495    
    536000   298.3178       0.02745285     2.5092837      740.13469     -42.356598      697.77809    
    537000   293.13461      0.02745285     8.5569592      727.27505     -53.98283       673.29221    
    538000   282.69391      0.02745285     15.272471      701.37139     -50.642386      650.72901    
    539000   299.87636      0.02745285     15.211086      744.0015      -49.96391       694.03759    
    540000   305.69887      0.02745285     13.036561      758.44732     -51.304379      707.14295    
    541000   299.46474      0.02745285     14.220592      742.98029     -49.150339      693.82995    
    542000   291.99164      0.02745285     14.487865      724.4393      -50.866424      673.57288    
    543000   307.81215      0.02745285     15.305001      763.69042     -52.070321      711.6201     
    544000   309.74457      0.02745285     15.20894       768.48481     -50.157644      718.32717    
    545000   297.56189      0.02745285     10.99925       738.25926     -50.700379      687.55888    
    546000   289.80127      0.02745285     4.3511729      719.00493     -52.975269      666.02966    
    547000   296.39587      0.02745285     13.384376      735.36633     -51.738311      683.62802    
    548000   302.06709      0.02745285     15.357967      749.43678     -55.327834      694.10895    
    549000   299.41008      0.02745285     12.526559      742.84467     -58.85094       683.99373    
    550000   300.24809      0.02745285     9.9316076      744.92379     -53.989136      690.93465    
    551000   299.57102      0.02745285     19.71108       743.24395     -47.540052      695.7039     
    552000   295.05563      0.02745285     17.532798      732.04114     -45.90845       686.13269    
    553000   305.05995      0.02745285     13.029602      756.86215     -47.256298      709.60586    
    554000   311.94024      0.02745285     12.571434      773.93235     -41.532992      732.39935    
    555000   303.14016      0.02745285     16.825959      752.09908     -37.616857      714.48222    
    556000   291.67947      0.02745285     13.735593      723.66481     -38.541728      685.12308    
    557000   299.72226      0.02745285     9.5561649      743.61919     -46.390311      697.22888    
    558000   303.88297      0.02745285     9.6976379      753.94201     -45.289477      708.65254    
    559000   305.96569      0.02745285     21.165941      759.10931     -45.375019      713.73429    
    560000   293.87272      0.02745285     15.3116        729.10633     -43.359399      685.74693    
    561000   301.42911      0.02745285     5.3828803      747.85394     -42.623138      705.2308     
    562000   307.44343      0.02745285     18.655704      762.77561     -38.99239       723.78323    
    563000   293.67917      0.02745285     22.342376      728.6261      -37.511342      691.11476    
    564000   295.25796      0.02745285     12.071228      732.54313     -39.95558       692.58755    
    565000   304.74459      0.02745285     10.022868      756.07973     -34.51197       721.56776    
    566000   299.4468       0.02745285     17.327409      742.93577     -37.179935      705.75584    
    567000   290.14067      0.02745285     24.913942      719.84701     -40.180092      679.66691    
    568000   303.42941      0.02745285     22.354666      752.81672     -42.703755      710.11296    
    569000   297.19442      0.02745285     15.42297       737.34755     -47.143343      690.20421    
    570000   294.08226      0.02745285     6.2407852      729.6262      -44.267805      685.3584     
    571000   312.56749      0.02745285     18.943014      775.48857     -39.379015      736.10955    
    572000   291.36232      0.02745285     20.064094      722.87795     -39.770955      683.107      
    573000   291.3938       0.02745285     15.535875      722.95604     -47.094607      675.86144    
    574000   300.00256      0.02745285     10.399141      744.31462     -46.592357      697.72226    
    575000   309.16059      0.02745285     16.817258      767.03594     -49.44136       717.59458    
    576000   311.04057      0.02745285     16.385612      771.70022     -51.896348      719.80387    
    577000   303.91915      0.02745285     15.454209      754.0318      -50.452687      703.57911    
    578000   297.65741      0.02745285    -6.9062808      738.49625     -49.12253       689.37372    
    579000   298.40694      0.02745285     16.756394      740.35585     -48.035986      692.31987    
    580000   304.41139      0.02745285     15.216192      755.25306     -51.71374       703.53932    
    581000   288.44626      0.02745285     17.753053      715.64313     -54.456549      661.18658    
    582000   296.33913      0.02745285     9.3537591      735.22556     -48.547327      686.67823    
    583000   317.64218      0.02745285     0.81076433     788.079       -50.468088      737.61091    
    584000   301.7475       0.02745285     18.613043      748.64387     -45.580814      703.06306    
    585000   299.05566      0.02745285     23.04968       741.96533     -40.088161      701.87717    
    586000   288.52549      0.02745285     15.017455      715.8397      -48.357112      667.48259    
    587000   300.98834      0.02745285     8.9503413      746.76037     -39.872811      706.88756    
    588000   308.8149       0.02745285     11.029116      766.17827     -44.715258      721.46301    
    589000   304.51996      0.02745285     19.330697      755.52241     -45.431636      710.09078    
    590000   304.86713      0.02745285     20.397963      756.38375     -41.529559      714.85419    
    591000   295.42059      0.02745285     15.253964      732.94663     -44.031381      688.91525    
    592000   294.11388      0.02745285     10.078049      729.70465     -44.649517      685.05514    
    593000   311.60252      0.02745285     16.135984      773.09445     -50.121276      722.97317    
    594000   307.49492      0.02745285     19.035194      762.90338     -46.447874      716.4555     
    595000   296.68476      0.02745285     14.758745      736.08306     -48.866185      687.21687    
    596000   290.47684      0.02745285     14.499841      720.68105     -46.975748      673.7053     
    597000   310.0498       0.02745285     13.36828       769.2421      -48.992773      720.24933    
    598000   302.06854      0.02745285     12.96132       749.44036     -51.19678       698.24358    
    599000   302.43679      0.02745285     6.5044548      750.35401     -49.100562      701.25345    
    600000   290.21661      0.02745285     3.2500768      720.03541     -54.58148       665.45393    
    601000   299.78207      0.02745285     17.429576      743.76759     -54.053477      689.71411    
    602000   315.60296      0.02745285     21.625594      783.01964     -47.384024      735.63562    
    603000   299.31853      0.02745285     10.287102      742.61752     -50.666729      691.95079    
    604000   290.30474      0.02745285     7.9727348      720.25406     -48.966282      671.28778    
    605000   299.56889      0.02745285     17.011226      743.23868     -51.865815      691.37287    
    606000   305.25321      0.02745285     20.628452      757.34163     -47.429252      709.91237    
    607000   310.71058      0.02745285     27.349658      770.8815      -57.524715      713.35679    
    608000   294.88568      0.02745285    -0.58146364     731.6195      -50.288988      681.33051    
    609000   299.52395      0.02745285     5.9875548      743.12717     -47.392924      695.73425    
    610000   298.78351      0.02745285     25.551415      741.29013     -52.423172      688.86696    
    611000   298.71976      0.02745285     22.257473      741.13197     -47.233839      693.89813    
    612000   297.68318      0.02745285     2.2326744      738.56017     -52.460688      686.09949    
    613000   295.17506      0.02745285     8.6143821      732.33745     -48.832349      683.5051     
    614000   307.50972      0.02745285     23.977351      762.9401      -42.769569      720.17053    
    615000   307.3711       0.02745285     14.017354      762.59617     -44.805996      717.79018    
    616000   290.33728      0.02745285     13.283019      720.3348      -43.178045      677.15675    
    617000   314.59017      0.02745285     43.268668      780.50689     -48.713292      731.79359    
    618000   307.83444      0.02745285     9.8782336      763.74574     -54.744486      709.00125    
    619000   309.97497      0.02745285     1.4403853      769.05644     -56.650306      712.40613    
    620000   296.62651      0.02745285     15.435699      735.93856     -56.745583      679.19297    
    621000   318.64212      0.02745285     19.391616      790.55988     -55.731406      734.82847    
    622000   298.1039       0.02745285     10.760682      739.60399     -59.647802      679.95619    
    623000   281.28159      0.02745285     22.923847      697.86738     -51.798248      646.06913    
    624000   299.97375      0.02745285     18.468563      744.24313     -50.952496      693.29064    
    625000   297.19679      0.02745285     3.7702923      737.35342     -54.207088      683.14633    
    626000   302.30294      0.02745285     16.157226      750.02192     -53.743381      696.27853    
    627000   306.92793      0.02745285     25.19949       761.49665     -57.13429       704.36236    
    628000   293.44431      0.02745285     9.576203       728.04343     -56.150048      671.89338    
    629000   293.46138      0.02745285     9.5200854      728.08576     -53.536237      674.54953    
    630000   300.70924      0.02745285     22.391313      746.06791     -50.678342      695.38956    
    631000   303.21533      0.02745285     11.837866      752.28558     -51.698245      700.58734    
    632000   289.45675      0.02745285    -4.2841066      718.15018     -47.096605      671.05357    
    633000   288.6923       0.02745285     13.215453      716.25355     -46.115044      670.13851    
    634000   305.22066      0.02745285     29.93669       757.26088     -45.916801      711.34408    
    635000   314.18293      0.02745285     6.6039585      779.4965      -45.700228      733.79627    
    636000   288.43436      0.02745285     9.6793455      715.6136      -44.604487      671.00911    
    637000   292.56762      0.02745285     18.218407      725.86834     -41.307946      684.56039    
    638000   303.12638      0.02745285     28.738655      752.0649      -40.250596      711.81431    
    639000   312.61838      0.02745285     7.7261808      775.61481     -51.141964      724.47284    
    640000   308.28519      0.02745285     5.7442631      764.86406     -47.966153      716.89791    
    641000   299.07414      0.02745285     0.033842578    742.01118     -45.659573      696.35161    
    642000   299.99377      0.02745285     20.939472      744.29282     -42.7897        701.50313    
    643000   298.36273      0.02745285     24.326291      740.24615     -51.74491       688.50124    
    644000   302.67108      0.02745285     17.86533       750.9353      -50.263745      700.67155    
    645000   308.57783      0.02745285     9.2404828      765.59011     -46.481673      719.10844    
    646000   287.93393      0.02745285     12.991587      714.37202     -48.213965      666.15805    
    647000   290.82121      0.02745285     20.816291      721.53544     -48.157764      673.37768    
    648000   310.60502      0.02745285     14.474408      770.61963     -47.160811      723.45882    
    649000   298.4018       0.02745285     11.982034      740.34309     -48.017417      692.32568    
    650000   292.40981      0.02745285     20.349431      725.47679     -45.662872      679.81392    
    651000   286.75937      0.02745285     9.4578549      711.45791     -49.28181       662.1761     
    652000   287.92419      0.02745285     13.897963      714.34785     -50.436296      663.91155    
    653000   310.93435      0.02745285     15.813401      771.4367      -51.344788      720.09191    
    654000   308.04387      0.02745285     13.734484      764.26532     -51.404548      712.86077    
    655000   303.03399      0.02745285     13.765255      751.83569     -50.903215      700.93247    
    656000   277.4697       0.02745285     14.101437      688.40996     -45.786679      642.62328    
    657000   299.36273      0.02745285     12.432146      742.72719     -50.484417      692.24277    
    658000   306.43734      0.02745285     13.492382      760.27948     -57.108382      703.1711     
    659000   306.62121      0.02745285     15.210875      760.73566     -52.060215      708.67545    
    660000   296.64677      0.02745285     13.14182       735.98881     -51.240677      684.74813    
    661000   303.0921       0.02745285     13.051142      751.97985     -45.376722      706.60313    
    662000   317.34574      0.02745285     17.995201      787.34353     -45.346342      741.99719    
    663000   298.7802       0.02745285     13.284171      741.28192     -44.195161      697.08676    
    664000   296.324        0.02745285     14.166349      735.188       -46.70108       688.48692    
    665000   294.56865      0.02745285     14.803508      730.83295     -45.786441      685.04651    
    666000   309.19439      0.02745285     15.288737      767.11979     -52.429306      714.69049    
    667000   301.44238      0.02745285     19.058987      747.88686     -46.315174      701.57169    
    668000   312.59672      0.02745285     2.4136049      775.56108     -57.718479      717.8426     
    669000   298.10335      0.02745285     14.307224      739.60264     -54.737563      684.86508    
    670000   295.28994      0.02745285     29.069809      732.62249     -51.45746       681.16502    
    671000   307.82908      0.02745285     10.386843      763.73244     -52.327157      711.40528    
    672000   307.81441      0.02745285     8.2578713      763.69605     -54.715633      708.98041    
    673000   294.99876      0.02745285     14.795197      731.90005     -48.178955      683.7211     
    674000   291.01697      0.02745285     16.382821      722.02112     -46.352435      675.66869    
    675000   312.051        0.02745285     10.609419      774.20714     -48.544948      725.66219    
    676000   291.52371      0.02745285     14.367026      723.27836     -47.345692      675.93266    
    677000   291.6544       0.02745285     23.633473      723.60262     -50.82224       672.78038    
    678000   319.69317      0.02745285     16.971168      793.16757     -52.259327      740.90824    
    679000   303.07096      0.02745285     15.402647      751.92741     -49.913483      702.01393    
    680000   293.34179      0.02745285     9.7817175      727.78906     -45.559455      682.2296     
    681000   307.66725      0.02745285     13.513853      763.33092     -47.96048       715.37044    
    682000   304.19819      0.02745285     28.149534      754.7241      -48.476239      706.24786    
    683000   290.27053      0.02745285     23.969296      720.16918     -49.657015      670.51216    
    684000   290.83456      0.02745285     9.3581367      721.56856     -49.49752       672.07104    
    685000   293.81064      0.02745285     12.890772      728.95231     -47.306538      681.64577    
    686000   301.29654      0.02745285     31.911596      747.52501     -47.144641      700.38037    
    687000   298.96128      0.02745285     20.907054      741.73117     -42.516714      699.21446    
    688000   298.3876       0.02745285     14.454031      740.30787     -42.73137       697.5765     
    689000   302.98424      0.02745285     10.911063      751.71226     -43.92794       707.78432    
    690000   304.51718      0.02745285     18.81249       755.51551     -48.060279      707.45524    
    691000   295.36603      0.02745285     0.92858513     732.81126     -51.080588      681.73067    
    692000   300.00882      0.02745285     14.423512      744.33014     -45.991424      698.33872    
    693000   299.15288      0.02745285     17.705618      742.20653     -48.641907      693.56462    
    694000   300.23283      0.02745285     10.144848      744.88592     -45.17974       699.70618    
    695000   308.41038      0.02745285     11.993969      765.17465     -45.623284      719.55136    
    696000   306.61843      0.02745285     18.787265      760.72877     -46.504724      714.22404    
    697000   300.15286      0.02745285     25.55353       744.68751     -43.054123      701.63339    
    698000   297.07548      0.02745285     17.080303      737.05245     -46.180579      690.87187    
    699000   303.42255      0.02745285     9.5852402      752.79972     -53.536762      699.26296    
    700000   295.01015      0.02745285     19.302277      731.92831     -50.927631      681.00068    
    701000   294.96194      0.02745285     11.379677      731.8087      -52.444791      679.36391    
    702000   306.29716      0.02745285     11.544655      759.9317      -51.973363      707.95834    
    703000   293.44794      0.02745285     27.697857      728.05244     -45.960816      682.09162    
    704000   286.41584      0.02745285     11.317758      710.60559     -51.691657      658.91394    
    705000   299.46835      0.02745285     11.070712      742.98922     -47.571052      695.41817    
    706000   305.10183      0.02745285     16.38024       756.96605     -47.588198      709.37785    
    707000   284.41937      0.02745285     12.902641      705.65229     -46.775223      658.87707    
    708000   285.22954      0.02745285     11.94685       707.66235     -41.472073      666.19027    
    709000   318.60555      0.02745285     16.023243      790.46915     -52.070718      738.39843    
    710000   299.36298      0.02745285     17.169556      742.72781     -50.178821      692.54899    
    711000   293.5265       0.02745285     14.136235      728.24733     -47.305093      680.94223    
    712000   303.36643      0.02745285     14.287856      752.66048     -43.983008      708.67747    
    713000   306.12049      0.02745285     15.261771      759.49337     -45.573394      713.91998    
    714000   288.62105      0.02745285     13.831118      716.07677     -40.203592      675.87318    
    715000   295.60857      0.02745285     12.695118      733.413       -42.299085      691.11392    
    716000   277.58759      0.02745285     10.284574      688.70245     -50.406203      638.29625    
    717000   287.04203      0.02745285     11.274954      712.15919     -49.240951      662.91824    
    718000   308.61583      0.02745285     15.212033      765.68437     -47.659866      718.02451    
    719000   302.63057      0.02745285     13.533764      750.83479     -48.776128      702.05866    
    720000   302.36113      0.02745285     16.208165      750.1663      -44.94463       705.22167    
    721000   296.73046      0.02745285     16.872237      736.19644     -45.571105      690.62534    
    722000   299.93056      0.02745285     8.975414       744.136       -48.668193      695.46781    
    723000   306.65669      0.02745285     7.2977691      760.8237      -45.599219      715.22448    
    724000   300.14903      0.02745285     14.353234      744.67801     -46.889918      697.78809    
    725000   301.88769      0.02745285     18.825494      748.99167     -48.256497      700.73517    
    726000   294.38437      0.02745285     8.7317137      730.37573     -41.458586      688.91714    
    727000   302.04129      0.02745285     11.32127       749.37277     -41.17825       708.19452    
    728000   296.05722      0.02745285     22.603419      734.52612     -42.507951      692.01817    
    729000   288.36458      0.02745285     18.39441       715.44047     -48.35665       667.08382    
    730000   305.69169      0.02745285     6.7809143      758.42952     -52.039658      706.38986    
    731000   309.64473      0.02745285     7.2989495      768.23712     -52.870573      715.36655    
    732000   301.84639      0.02745285     17.69129       748.8892      -48.76773       700.12147    
    733000   289.83134      0.02745285     12.074281      719.07953     -50.245208      668.83433    
    734000   298.90474      0.02745285     7.1890044      741.5909      -47.548494      694.04241    
    735000   306.42539      0.02745285     13.716062      760.24984     -46.318815      713.93103    
    736000   304.34922      0.02745285     17.890411      755.09881     -43.6378        711.46101    
    737000   296.49348      0.02745285     15.811139      735.60851     -49.836321      685.77219    
    738000   303.56977      0.02745285     10.714156      753.16498     -52.999402      700.16557    
    739000   304.57903      0.02745285     24.19562       755.66896     -45.214286      710.45468    
    740000   288.03697      0.02745285     12.090331      714.62765     -49.637726      664.98992    
    741000   310.95358      0.02745285     7.4910444      771.48441     -49.470165      722.01425    
    742000   319.02761      0.02745285     15.758089      791.5163      -50.308945      741.20736    
    743000   300.91876      0.02745285     16.41468       746.58775     -41.692395      704.89535    
    744000   291.90177      0.02745285     13.921786      724.21635     -51.803179      672.41317    
    745000   289.98157      0.02745285     14.746807      719.45226     -46.29411       673.15815    
    746000   312.18832      0.02745285     13.707693      774.54782     -47.098604      727.44922    
    747000   306.02041      0.02745285     12.775882      759.24507     -44.08467       715.1604     
    748000   286.36307      0.02745285     13.721163      710.47467     -43.661405      666.81327    
    749000   302.28526      0.02745285     16.770894      749.97807     -44.902118      705.07595    
    750000   309.70904      0.02745285     14.572524      768.39667     -48.795793      719.60087    
    751000   294.99004      0.02745285     13.402131      731.87841     -51.028076      680.85033    
    752000   294.16567      0.02745285     14.683167      729.83314     -50.836687      678.99645    
    753000   293.49314      0.02745285     18.718415      728.16457     -45.682629      682.48194    
    754000   310.00707      0.02745285     14.228406      769.13608     -43.299179      725.8369     
    755000   305.55325      0.02745285     10.161683      758.08604     -47.852286      710.23376    
    756000   291.22248      0.02745285     13.166623      722.531       -43.656515      678.87448    
    757000   292.73121      0.02745285     19.972648      726.27421     -47.33706       678.93715    
    758000   299.70841      0.02745285     14.298227      743.58483     -43.866017      699.71882    
    759000   296.67832      0.02745285     9.4561156      736.06709     -40.468846      695.59825    
    760000   301.04049      0.02745285     14.648027      746.88975     -42.346038      704.54371    
    761000   305.92034      0.02745285     16.809106      758.9968      -45.124655      713.87215    
    762000   298.46158      0.02745285     12.006217      740.49141     -45.250891      695.24052    
    763000   297.17578      0.02745285     13.164247      737.30129     -45.706833      691.59446    
    764000   298.37366      0.02745285     18.566878      740.27326     -42.174424      698.09884    
    765000   306.80001      0.02745285     14.133701      761.17929     -43.72136       717.45793    
    766000   287.52096      0.02745285     9.8332607      713.34742     -41.519284      671.82814    
    767000   298.83353      0.02745285     15.681567      741.41422     -48.885743      692.52848    
    768000   312.67549      0.02745285     12.629032      775.75651     -52.25313       723.50338    
    769000   303.43456      0.02745285     11.619487      752.82952     -51.492181      701.33734    
    770000   293.47084      0.02745285     14.253511      728.10924     -57.192292      670.91694    
    771000   301.19424      0.02745285     13.612492      747.27121     -55.593917      691.67729    
    772000   303.68109      0.02745285     14.943855      753.44116     -51.030448      702.41071    
    773000   314.08132      0.02745285     16.446973      779.24442     -52.484869      726.75955    
    774000   301.71081      0.02745285     14.849655      748.55284     -52.128675      696.42416    
    775000   302.99581      0.02745285     15.670617      751.74095     -49.624527      702.11642    
    776000   299.47304      0.02745285     4.2872515      743.00086     -51.692587      691.30828    
    777000   302.49618      0.02745285     15.017977      750.50136     -52.653767      697.8476     
    778000   293.96273      0.02745285     23.013524      729.32965     -49.269073      680.06057    
    779000   292.73302      0.02745285     9.7821061      726.27868     -52.078992      674.19969    
    780000   309.96615      0.02745285     8.1415616      769.03456     -56.228994      712.80556    
    781000   300.6491       0.02745285     17.065279      745.9187      -53.969575      691.94913    
    782000   291.78243      0.02745285     16.736028      723.92026     -52.122096      671.79816    
    783000   301.58588      0.02745285     13.440603      748.24289     -53.560039      694.68285    
    784000   310.50639      0.02745285     16.2085        770.37491     -54.17713       716.19777    
    785000   284.20348      0.02745285     14.370101      705.11666     -56.32183       648.79483    
    786000   297.18516      0.02745285     16.44061       737.32456     -56.851627      680.47294    
    787000   307.99332      0.02745285     15.893593      764.13991     -61.176083      702.96383    
    788000   310.68755      0.02745285     12.535614      770.82439     -58.736637      712.08775    
    789000   292.15548      0.02745285     10.142167      724.8458      -58.375963      666.46984    
    790000   292.52327      0.02745285     17.240281      725.75829     -64.428962      661.32933    
    791000   310.57856      0.02745285     16.779425      770.55397     -54.64135       715.91262    
    792000   309.91261      0.02745285     9.3734414      768.90172     -61.037972      707.86375    
    793000   282.04116      0.02745285     16.433328      699.75189     -52.167232      647.58466    
    794000   307.68096      0.02745285     22.748267      763.36494     -57.003089      706.36185    
    795000   310.33569      0.02745285     14.443561      769.9514      -52.526244      717.42516    
    796000   301.05532      0.02745285     12.823111      746.92656     -57.594792      689.33177    
    797000   283.20351      0.02745285     14.288281      702.63571     -59.989403      642.64631    
    798000   283.4208       0.02745285     1.29352        703.17481     -56.318605      646.85621    
    799000   295.41679      0.02745285     12.353287      732.93719     -63.078326      669.85887    
    800000   310.2001       0.02745285     25.913045      769.61499     -63.418243      706.19675    
    801000   304.98848      0.02745285     17.838894      756.68482     -60.370388      696.31443    
    802000   295.85804      0.02745285     6.0889651      734.03196     -62.110273      671.92169    
    803000   303.24041      0.02745285     24.453674      752.34782     -61.296451      691.05137    
    804000   315.34061      0.02745285     10.886245      782.36875     -58.284674      724.08407    
    805000   290.14155      0.02745285     8.4386771      719.84917     -56.804682      663.04449    
    806000   291.88987      0.02745285     10.708661      724.18681     -53.661311      670.5255     
    807000   310.86107      0.02745285     30.263373      771.25488     -59.173834      712.08105    
    808000   303.20148      0.02745285     6.3506261      752.25123     -58.884074      693.36716    
    809000   300.80877      0.02745285     12.481058      746.31484     -55.956381      690.35846    
    810000   304.96648      0.02745285     24.089822      756.63026     -56.730871      699.89938    
    811000   305.3911       0.02745285     13.82159       757.68374     -59.557903      698.12584    
    812000   305.58684      0.02745285    -4.7721062      758.16937     -60.542403      697.62697    
    813000   303.93022      0.02745285     13.363883      754.05925     -59.906412      694.15284    
    814000   314.49465      0.02745285     15.631668      780.26989     -62.381076      717.88881    
    815000   296.45462      0.02745285     6.4975717      735.51209     -60.982312      674.52978    
    816000   280.70915      0.02745285     18.996178      696.44715     -56.892534      639.55462    
    817000   304.75408      0.02745285     15.252058      756.10327     -52.746751      703.35652    
    818000   316.3556       0.02745285     12.806801      784.88697     -50.898825      733.98814    
    819000   298.25637      0.02745285     9.1989529      739.98227     -51.463366      688.5189     
    820000   277.52095      0.02745285     19.245618      688.53713     -51.507488      637.02964    
    821000   300.53286      0.02745285     18.909224      745.6303      -54.655657      690.97464    
    822000   307.18964      0.02745285     2.4648685      762.14598     -50.623027      711.52295    
    823000   307.92168      0.02745285     11.202922      763.96217     -51.628935      712.33324    
    824000   289.72376      0.02745285     11.341284      718.81264     -50.035691      668.77695    
    825000   301.01711      0.02745285     23.275223      746.83176     -43.409017      703.42274    
    826000   299.02046      0.02745285     8.1624464      741.87801     -46.020676      695.85733    
    827000   309.70292      0.02745285     14.103862      768.38149     -41.953252      726.42824    
    828000   309.78488      0.02745285     19.367193      768.58482     -47.722845      720.86197    
    829000   297.31079      0.02745285     11.405534      737.63627     -45.006635      692.62963    
    830000   289.80618      0.02745285     15.793424      719.01712     -44.056187      674.96093    
    831000   304.31944      0.02745285     16.582514      755.02492     -47.150071      707.87485    
    832000   309.50432      0.02745285     7.1403194      767.88876     -41.454807      726.43395    
    833000   294.78337      0.02745285     16.463419      731.36567     -46.287097      685.07857    
    834000   309.89539      0.02745285     16.830874      768.85902     -42.498986      726.36003    
    835000   294.27293      0.02745285     14.778399      730.09924     -47.023542      683.0757     
    836000   292.13336      0.02745285     3.4849398      724.79091     -46.373943      678.41697    
    837000   311.4042       0.02745285     20.078112      772.6024      -48.505483      724.09692    
    838000   299.41726      0.02745285     15.941235      742.86248     -46.787128      696.07536    
    839000   297.6104       0.02745285     11.208809      738.37961     -56.886148      681.49347    
    840000   289.85442      0.02745285     12.215858      719.13682     -52.355738      666.78108    
    841000   308.34363      0.02745285     15.566375      765.00906     -49.750501      715.25855    
    842000   312.41109      0.02745285     14.107922      775.10053     -49.764871      725.33566    
    843000   296.94792      0.02745285     13.905291      736.73598     -45.825263      690.91072    
    844000   312.73644      0.02745285     17.940526      775.90773     -49.007142      726.90058    
    845000   310.34259      0.02745285     15.18203       769.96851     -48.60653       721.36198    
    846000   297.85217      0.02745285     12.790437      738.97945     -44.252249      694.7272     
    847000   297.39442      0.02745285     15.835094      737.84375     -39.61113       698.23262    
    848000   314.04747      0.02745285     14.369669      779.16043     -45.177401      733.98303    
    849000   313.0934       0.02745285     16.882433      776.79336     -53.117682      723.67568    
    850000   284.84772      0.02745285     14.579049      706.71503     -52.695565      654.01947    
    851000   295.27343      0.02745285     15.865793      732.58151     -48.039322      684.54219    
    852000   320.02357      0.02745285     15.589549      793.9873      -51.757389      742.22991    
    853000   293.20676      0.02745285     14.012942      727.45406     -51.072758      676.3813     
    854000   298.54552      0.02745285     12.556915      740.69967     -44.971927      695.72775    
    855000   305.86983      0.02745285     14.363854      758.87148     -46.507255      712.36422    
    856000   301.14956      0.02745285     14.483716      747.16036     -46.498196      700.66217    
    857000   281.67101      0.02745285     12.633269      698.83353     -43.909624      654.9239     
    858000   283.12912      0.02745285     9.2368256      702.45114     -44.239875      658.21126    
    859000   315.51852      0.02745285     13.232197      782.81014     -50.208612      732.60153    
    860000   302.48306      0.02745285     15.821369      750.4688      -54.2473        696.2215     
    861000   293.77663      0.02745285     15.005997      728.86791     -50.849388      678.01853    
    862000   285.66214      0.02745285     9.6659553      708.73565     -49.510198      659.22545    
    863000   315.98548      0.02745285     12.920547      783.96868     -46.131192      737.83749    
    864000   304.67391      0.02745285     19.281772      755.90437     -52.753177      703.15119    
    865000   293.08656      0.02745285     15.311451      727.15584     -51.144015      676.01182    
    866000   306.0336       0.02745285     5.7081744      759.2778      -47.767146      711.51065    
    867000   311.39243      0.02745285     15.879032      772.57321     -51.661133      720.91208    
    868000   295.24153      0.02745285     21.904488      732.50239     -46.971694      685.53069    
    869000   286.85324      0.02745285     13.932955      711.6908      -47.834957      663.85584    
    870000   311.63407      0.02745285     12.091485      773.17271     -45.946071      727.22664    
    871000   306.4236       0.02745285     20.909553      760.24541     -51.081845      709.16356    
    872000   284.82816      0.02745285     21.391762      706.6665      -48.318731      658.34777    
    873000   297.08238      0.02745285     14.694857      737.06957     -51.168713      685.90086    
    874000   299.79294      0.02745285     10.190694      743.79454     -55.681099      688.11344    
    875000   313.83156      0.02745285     14.791033      778.62475     -52.322896      726.30185    
    876000   305.03179      0.02745285     18.836993      756.79228     -47.872919      708.91936    
    877000   297.09836      0.02745285     13.170697      737.10923     -44.964659      692.14457    
    878000   294.26492      0.02745285     14.238289      730.07938     -47.792627      682.28676    
    879000   295.66557      0.02745285     12.446422      733.55443     -47.392202      686.16223    
    880000   306.47055      0.02745285     16.320519      760.36188     -50.360357      710.00152    
    881000   302.48811      0.02745285     16.006272      750.48134     -42.785347      707.69599    
    882000   299.82395      0.02745285     13.917168      743.87147     -43.266892      700.60458    
    883000   301.80228      0.02745285     11.804604      748.77976     -51.792473      696.98729    
    884000   291.25646      0.02745285     12.32684       722.61531     -49.886974      672.72834    
    885000   297.29711      0.02745285     17.161104      737.60232     -46.884168      690.71815    
    886000   309.4146       0.02745285     14.397178      767.66615     -45.885491      721.78066    
    887000   301.60532      0.02745285     13.352233      748.2911      -42.947542      705.34356    
    888000   281.55083      0.02745285     12.24675       698.53537     -44.696547      653.83882    
    889000   301.80047      0.02745285     12.864056      748.77528     -45.400563      703.37472    
    890000   310.36576      0.02745285     14.895235      770.02601     -43.023565      727.00245    
    891000   281.99033      0.02745285     11.6004        699.62578     -38.090551      661.53523    
    892000   287.68044      0.02745285     14.721326      713.74311     -46.370647      667.37247    
    893000   306.77608      0.02745285     15.252002      761.11992     -43.615268      717.50465    
    894000   305.28972      0.02745285     16.810864      757.4322      -43.735727      713.69647    
    895000   299.60086      0.02745285     9.7819186      743.31799     -50.182492      693.1355     
    896000   293.4691       0.02745285     12.738022      728.10492     -44.833288      683.27163    
    897000   314.46178      0.02745285     15.824999      780.18835     -42.309234      737.87911    
    898000   297.78463      0.02745285     13.188801      738.81188     -45.159634      693.65224    
    899000   290.32231      0.02745285     13.259995      720.29766     -46.89711       673.40055    
    900000   300.18508      0.02745285     15.149519      744.76746     -44.703278      700.06418    
    901000   308.42331      0.02745285     9.4782745      765.20673     -48.792853      716.41388    
    902000   299.93932      0.02745285     15.233514      744.15773     -45.154905      699.00282    
    903000   310.63145      0.02745285     16.999814      770.68519     -47.087204      723.59798    
    904000   319.73228      0.02745285     25.494913      793.26459     -48.425319      744.83927    
    905000   303.90746      0.02745285     12.661858      754.00278     -48.46729       705.53549    
    906000   290.37981      0.02745285     7.1846371      720.44031     -43.169606      677.27071    
    907000   287.12942      0.02745285     13.463349      712.376       -49.169173      663.20683    
    908000   293.33145      0.02745285     18.353449      727.76342     -46.334537      681.42888    
    909000   316.66835      0.02745285     15.056284      785.6629      -39.486316      746.17659    
    910000   311.09055      0.02745285     14.315152      771.82422     -40.328492      731.49573    
    911000   305.35454      0.02745285     13.323275      757.59304     -50.895537      706.6975     
    912000   293.54677      0.02745285     13.109781      728.29763     -45.73286       682.56477    
    913000   322.29882      0.02745285     15.54657       799.63226     -51.842059      747.7902     
    914000   299.24506      0.02745285     11.2523        742.43524     -51.007107      691.42813    
    915000   287.902        0.02745285     16.962757      714.29279     -49.282068      665.01072    
    916000   315.30228      0.02745285     17.760839      782.27364     -47.463427      734.81022    
    917000   299.47495      0.02745285     13.346931      743.0056      -49.317601      693.688      
    918000   288.74639      0.02745285     12.015295      716.38776     -46.449999      669.93776    
    919000   303.12079      0.02745285     15.694645      752.05103     -51.07665       700.97438    
    920000   300.13778      0.02745285     21.015818      744.6501      -50.581866      694.06824    
    921000   299.99474      0.02745285     15.978802      744.29522     -60.427498      683.86773    
    922000   302.01987      0.02745285     14.682797      749.31961     -55.641278      693.67833    
    923000   309.97472      0.02745285     6.5243657      769.05583     -50.667785      718.38804    
    924000   293.53216      0.02745285     14.629536      728.26137     -56.616321      671.64505    
    925000   304.14309      0.02745285     14.482182      754.58739     -45.616305      708.97108    
    926000   296.67383      0.02745285     10.592399      736.05595     -49.177144      686.87881    
    927000   299.0754       0.02745285     17.843488      742.0143      -43.650911      698.36339    
    928000   305.07112      0.02745285     11.531754      756.88987     -47.957376      708.93249    
    929000   291.01149      0.02745285     12.748469      722.00752     -40.966236      681.04128    
    930000   298.52268      0.02745285     13.321932      740.64299     -41.720023      698.92297    
    931000   303.92018      0.02745285     18.118817      754.03435     -41.218004      712.81635    
    932000   297.09534      0.02745285     14.717212      737.10173     -45.024104      692.07763    
    933000   287.92002      0.02745285     13.41107       714.33752     -43.688016      670.6495     
    934000   297.50179      0.02745285     13.384449      738.11015     -48.166702      689.94345    
    935000   311.70336      0.02745285     14.889532      773.34464     -45.262677      728.08196    
    936000   298.19986      0.02745285     12.287993      739.84208     -53.649727      686.19236    
    937000   291.43614      0.02745285     14.268992      723.06111     -46.677023      676.38409    
    938000   301.25838      0.02745285     16.009473      747.43034     -43.083699      704.34664    
    939000   304.94237      0.02745285     16.74904       756.57042     -38.389029      718.18139    
    940000   290.12268      0.02745285     18.647473      719.80235     -40.137122      679.66523    
    941000   317.97305      0.02745285     12.499717      788.89989     -41.431337      747.46856    
    942000   307.13273      0.02745285     14.51488       762.00476     -44.37896       717.6258     
    943000   287.34168      0.02745285     18.365117      712.90263     -44.840916      668.06171    
    944000   297.77016      0.02745285     19.493053      738.77598     -52.551327      686.22465    
    945000   294.62749      0.02745285     10.251805      730.97892     -52.158485      678.82044    
    946000   299.14513      0.02745285    -2.1673286      742.18731     -51.818516      690.36879    
    947000   303.19303      0.02745285     17.535894      752.23026     -52.621487      699.60877    
    948000   293.87418      0.02745285     12.744062      729.10994     -48.932053      680.17789    
    949000   306.14887      0.02745285     11.734871      759.56378     -50.208126      709.35565    
    950000   287.49415      0.02745285     21.28032       713.28091     -47.253006      666.02791    
    951000   294.73432      0.02745285     9.2606888      731.24397     -48.657562      682.58641    
    952000   328.18396      0.02745285     18.864975      814.23344     -40.1805        774.05294    
    953000   305.83822      0.02745285     19.520681      758.79305     -42.023997      716.76905    
    954000   283.25869      0.02745285     16.102849      702.77262     -42.727992      660.04462    
    955000   297.22609      0.02745285     6.2796759      737.42612     -42.310097      695.11603    
    956000   316.73109      0.02745285     12.374029      785.81856     -45.968207      739.85036    
    957000   307.78656      0.02745285     15.873358      763.62694     -40.883018      722.74393    
    958000   285.82963      0.02745285     15.618145      709.15119     -49.13288       660.01831    
    959000   312.43602      0.02745285     2.3501596      775.16237     -46.243106      728.91926    
    960000   309.18067      0.02745285     21.00957       767.08575     -40.093446      726.99231    
    961000   290.62655      0.02745285     17.686197      721.05249     -47.189028      673.86346    
    962000   289.51595      0.02745285     15.290079      718.29706     -42.372997      675.92407    
    963000   298.74703      0.02745285     9.6196894      741.19961     -48.282552      692.91705    
    964000   304.07099      0.02745285     15.271212      754.4085      -45.064451      709.34405    
    965000   297.75695      0.02745285     15.598743      738.74319     -45.280226      693.46296    
    966000   297.47458      0.02745285     4.3111757      738.04263     -43.136982      694.90565    
    967000   305.79853      0.02745285     10.305359      758.69458     -46.779418      711.91516    
    968000   309.23743      0.02745285     18.012626      767.22658     -49.405901      717.82068    
    969000   300.91684      0.02745285     14.570066      746.58298     -41.877568      704.70542    
    970000   302.28967      0.02745285     9.9679328      749.98901     -40.129321      709.85969    
    971000   311.00596      0.02745285     13.064967      771.61437     -41.986354      729.62801    
    972000   293.00311      0.02745285     16.17678       726.94879     -40.386014      686.56277    
    973000   297.01309      0.02745285     14.984375      736.89767     -42.152589      694.74508    
    974000   309.51793      0.02745285     15.520219      767.92251     -41.296855      726.62565    
    975000   296.82193      0.02745285     16.768463      736.42339     -39.976648      696.44674    
    976000   299.59507      0.02745285     10.752333      743.30363     -40.972467      702.33117    
    977000   296.25153      0.02745285     13.440707      735.0082      -42.663931      692.34427    
    978000   298.08607      0.02745285     14.809187      739.55976     -38.223525      701.33624    
    979000   301.24206      0.02745285     14.264641      747.38986     -40.243748      707.14611    
    980000   299.12557      0.02745285     16.293007      742.13878     -35.849483      706.28929    
    981000   300.65938      0.02745285     15.424523      745.94422     -41.160547      704.78367    
    982000   296.47051      0.02745285     21.73885       735.5515      -45.5685        689.983      
    983000   302.34674      0.02745285     16.521874      750.13059     -48.617999      701.51259    
    984000   299.30396      0.02745285     4.6642294      742.58138     -47.19596       695.38542    
    985000   293.74746      0.02745285     3.4120157      728.79554     -53.477526      675.31801    
    986000   294.04142      0.02745285     11.714469      729.52486     -53.2743        676.25056    
    987000   291.16295      0.02745285     15.748466      722.3833      -49.515351      672.86795    
    988000   301.98601      0.02745285     7.493364       749.23562     -46.258734      702.97689    
    989000   299.9384       0.02745285     9.4661456      744.15544     -49.671391      694.48405    
    990000   297.23585      0.02745285     21.811301      737.45033     -53.152628      684.2977     
    991000   301.13097      0.02745285     14.358813      747.11423     -53.095997      694.01823    
    992000   289.51249      0.02745285     14.768602      718.28847     -52.012233      666.27624    
    993000   290.23292      0.02745285     12.284147      720.07587     -49.847601      670.22827    
    994000   305.53538      0.02745285     15.242484      758.0417      -50.006724      708.03497    
    995000   305.43868      0.02745285     17.411292      757.80178     -45.943571      711.85821    
    996000   292.86202      0.02745285     10.885353      726.59875     -41.787094      684.81166    
    997000   287.45267      0.02745285     8.0224126      713.17801     -45.559535      667.61847    
    998000   307.84577      0.02745285     13.934357      763.77384     -47.531004      716.24283    
    999000   301.53829      0.02745285     14.169575      748.1248      -52.312753      695.81204    
   1000000   302.94209      0.02745285     16.622338      751.60767     -54.119182      697.48848    
   1001000   316.25793      0.02745285     18.959226      784.64465     -45.705277      738.93938    
   1002000   300.73494      0.02745285     14.189447      746.13169     -49.621716      696.50997    
   1003000   291.38515      0.02745285     12.924562      722.93459     -50.558364      672.37622    
   1004000   300.40627      0.02745285     12.616931      745.31625     -39.178305      706.13794    
   1005000   322.01148      0.02745285     14.633589      798.91935     -41.658253      757.2611     
   1006000   292.53598      0.02745285     13.107342      725.78982     -53.056587      672.73324    
   1007000   293.27842      0.02745285     14.091198      727.63185     -49.871504      677.76035    
   1008000   309.7392       0.02745285     15.353517      768.4715      -44.244575      724.22693    
   1009000   302.17314      0.02745285     12.593957      749.6999      -46.623112      703.07679    
   1010000   285.84766      0.02745285     14.900473      709.19593     -45.653554      663.54237    
   1011000   304.41965      0.02745285     15.247448      755.27355     -44.416444      710.8571     
   1012000   300.66156      0.02745285     12.521829      745.94962     -44.72037       701.22925    
   1013000   288.89512      0.02745285     9.5044436      716.75675     -49.941619      666.81513    
   1014000   293.86362      0.02745285     17.203663      729.08374     -46.237469      682.84627    
   1015000   321.01819      0.02745285     12.441277      796.45497     -45.768874      750.6861     
   1016000   294.34062      0.02745285     7.7539516      730.26719     -43.212706      687.05448    
   1017000   288.38977      0.02745285     18.541002      715.50298     -46.641266      668.86171    
   1018000   314.53059      0.02745285     16.670612      780.35907     -46.737138      733.62193    
   1019000   312.24853      0.02745285     8.1283698      774.6972      -48.264573      726.43263    
   1020000   290.35123      0.02745285     21.611687      720.3694      -46.184109      674.18529    
   1021000   304.78782      0.02745285     34.928545      756.18698     -48.307938      707.87904    
   1022000   308.35525      0.02745285     12.717885      765.03788     -43.559006      721.47887    
   1023000   297.66314      0.02745285     15.210861      738.51046     -42.874301      695.63615    
   1024000   291.21884      0.02745285     19.849861      722.52196     -45.223707      677.29826    
   1025000   314.56169      0.02745285     16.956614      780.43622     -44.234628      736.20159    
   1026000   304.60282      0.02745285    -3.7915854      755.728       -47.686608      708.04139    
   1027000   289.22922      0.02745285     17.844167      717.58567     -42.800088      674.78558    
   1028000   303.06885      0.02745285     19.179871      751.92217     -43.882221      708.03995    
   1029000   313.97668      0.02745285     9.1347217      778.9848      -46.442068      732.54274    
   1030000   303.81262      0.02745285     4.216821       753.76748     -46.741273      707.0262     
   1031000   283.30508      0.02745285     14.804929      702.88772     -46.18923       656.69849    
   1032000   302.21485      0.02745285     16.900465      749.80339     -50.544981      699.2584     
   1033000   308.01458      0.02745285     12.714851      764.19266     -44.8766        719.31606    
   1034000   291.79075      0.02745285     13.528265      723.94089     -48.292285      675.64861    
   1035000   304.23198      0.02745285     25.38324       754.80794     -48.36205       706.44589    
   1036000   305.4742       0.02745285     11.244623      757.88991     -45.763746      712.12617    
   1037000   291.26884      0.02745285     7.2384135      722.64603     -41.342132      681.3039     
   1038000   283.13964      0.02745285     14.592923      702.47725     -40.334944      662.1423     
   1039000   307.69015      0.02745285     17.515237      763.38774     -40.470645      722.9171     
   1040000   313.85835      0.02745285     3.0372857      778.69121     -44.650293      734.04091    
   1041000   296.56226      0.02745285     17.723268      735.77914     -49.477593      686.30155    
   1042000   319.81504      0.02745285     19.075393      793.46992     -45.241561      748.22836    
   1043000   304.58464      0.02745285     16.043907      755.68289     -46.420125      709.26276    
   1044000   294.89994      0.02745285     11.204726      731.65488     -47.261471      684.39341    
   1045000   295.81112      0.02745285     16.925467      733.91553     -46.477237      687.4383     
   1046000   304.79442      0.02745285     17.148412      756.20336     -47.343586      708.85977    
   1047000   308.35288      0.02745285     12.756419      765.03199     -44.069664      720.96232    
   1048000   303.46029      0.02745285     23.398738      752.89333     -47.186772      705.70656    
   1049000   294.74799      0.02745285     10.798677      731.27788     -40.026242      691.25164    
   1050000   316.70735      0.02745285     11.985255      785.75965     -43.341278      742.41838    
   1051000   309.85204      0.02745285     19.659336      768.75146     -47.108362      721.6431     
   1052000   284.29488      0.02745285     5.0462534      705.34342     -48.868359      656.47506    
   1053000   293.9515       0.02745285     7.2260613      729.30178     -45.845785      683.45599    
   1054000   305.56243      0.02745285    -14.887998      758.10881     -45.955427      712.15338    
   1055000   304.1673       0.02745285     26.481523      754.64746     -47.763259      706.8842     
   1056000   288.79003      0.02745285     15.294168      716.49603     -50.978576      665.51745    
   1057000   294.68203      0.02745285    -6.640216       731.11425     -45.933036      685.18122    
   1058000   305.8474       0.02745285     16.376114      758.81583     -42.688059      716.12777    
   1059000   300.8503       0.02745285     16.109365      746.41789     -48.113995      698.3039     
   1060000   291.76981      0.02745285     19.495434      723.88893     -43.195734      680.6932     
   1061000   296.76094      0.02745285     8.9805688      736.27208     -50.01567       686.25641    
   1062000   316.2916       0.02745285     25.589797      784.72818     -51.904679      732.8235     
   1063000   308.5585       0.02745285     37.061371      765.54213     -54.079409      711.46273    
   1064000   296.44173      0.02745285     14.674141      735.4801      -56.590019      678.89008    
   1065000   288.38263      0.02745285     17.69268       715.48525     -50.291127      665.19412    
   1066000   289.56967      0.02745285     7.607658       718.43032     -52.408986      666.02134    
   1067000   327.46348      0.02745285     14.582956      812.44591     -47.285759      765.16015    
   1068000   299.29011      0.02745285     25.59358       742.54702     -50.676555      691.87046    
   1069000   293.87252      0.02745285     9.8988016      729.10582     -48.77371       680.33211    
   1070000   303.4056       0.02745285     7.6015478      752.75765     -46.339344      706.4183     
   1071000   309.52012      0.02745285     15.333237      767.92796     -46.20675       721.72121    
   1072000   298.99544      0.02745285     17.820685      741.81594     -48.633925      693.18201    
   1073000   297.22741      0.02745285     24.220753      737.4294      -46.286157      691.14324    
   1074000   292.68533      0.02745285     28.19017       726.16038     -45.387054      680.77333    
   1075000   300.76197      0.02745285     8.8471023      746.19874     -42.474393      703.72435    
   1076000   294.50834      0.02745285    -5.1409993      730.6833      -39.336304      691.347      
   1077000   305.28229      0.02745285     22.407167      757.41377     -45.180358      712.23342    
   1078000   302.62424      0.02745285     16.098993      750.81909     -49.05576       701.76333    
   1079000   296.11907      0.02745285    -0.91557487     734.67959     -56.058703      678.62088    
   1080000   299.84026      0.02745285     15.752833      743.91194     -49.413351      694.49859    
   1081000   301.36758      0.02745285     30.338279      747.70128     -44.999132      702.70215    
   1082000   294.70845      0.02745285     11.963586      731.17978     -41.683744      689.49604    
   1083000   294.12743      0.02745285     11.28982       729.73827     -43.555476      686.18279    
   1084000   289.16562      0.02745285     21.32722       717.42788     -34.732442      682.69544    
   1085000   294.48378      0.02745285     20.336405      730.62238     -35.02129       695.60109    
   1086000   293.64025      0.02745285     13.425549      728.52956     -32.756209      695.77335    
   1087000   300.03784      0.02745285     4.4071882      744.40214     -40.086013      704.31613    
   1088000   306.97649      0.02745285     22.230599      761.61714     -42.799289      718.81785    
   1089000   310.83351      0.02745285     41.773616      771.1865      -45.555459      725.63104    
   1090000   298.25781      0.02745285     6.2255777      739.98584     -50.97638       689.00946    
   1091000   295.69754      0.02745285     14.495596      733.63374     -50.063309      683.57044    
   1092000   294.33188      0.02745285     24.870939      730.2455      -51.230377      679.01512    
   1093000   294.35872      0.02745285     12.438044      730.3121      -56.178198      674.1339     
   1094000   302.10878      0.02745285     13.221606      749.54021     -52.334538      697.20567    
   1095000   297.33653      0.02745285     15.284356      737.70012     -47.484222      690.2159     
   1096000   286.29219      0.02745285     13.077483      710.29883     -51.781478      658.51735    
   1097000   301.94743      0.02745285     15.542682      749.1399      -51.611107      697.52879    
   1098000   295.77557      0.02745285     13.001317      733.82735     -47.945069      685.88228    
   1099000   304.74882      0.02745285     13.980299      756.09023     -49.918768      706.17147    
   1100000   304.96312      0.02745285     13.358485      756.62191     -48.755782      707.86613    
   1101000   294.6281       0.02745285     14.850327      730.98045     -48.961926      682.01852    
   1102000   304.41203      0.02745285     18.589611      755.25463     -49.659311      705.59532    
   1103000   291.95743      0.02745285     12.101044      724.35442     -48.19444       676.15998    
   1104000   301.77254      0.02745285     16.212377      748.706       -43.500831      705.20517    
   1105000   298.78551      0.02745285     20.112616      741.29508     -44.233523      697.06156    
   1106000   296.55282      0.02745285     15.594586      735.75571     -47.309829      688.44589    
   1107000   301.48301      0.02745285     16.98653       747.98765     -41.933607      706.05404    
   1108000   303.34589      0.02745285     13.283476      752.60952     -45.298472      707.31105    
   1109000   292.25694      0.02745285     14.219567      725.09754     -45.049354      680.04818    
   1110000   297.30753      0.02745285     15.780857      737.62817     -42.632004      694.99616    
   1111000   312.15587      0.02745285     16.181211      774.46732     -48.755712      725.71161    
   1112000   303.89584      0.02745285     16.520919      753.97396     -44.231013      709.74295    
   1113000   292.23229      0.02745285     12.767338      725.03638     -48.343348      676.69303    
   1114000   295.40292      0.02745285     13.874035      732.90279     -47.422438      685.48035    
   1115000   307.02062      0.02745285     14.156398      761.72663     -43.345219      718.38141    
   1116000   307.02439      0.02745285     19.365291      761.73597     -43.088721      718.64725    
   1117000   289.52501      0.02745285     13.350118      718.31953     -52.288849      666.03068    
   1118000   289.42139      0.02745285     9.9280895      718.06246     -53.437835      664.62462    
   1119000   303.64924      0.02745285     14.331167      753.36213     -52.478848      700.88328    
   1120000   302.84264      0.02745285     25.491655      751.36094     -55.661875      695.69907    
   1121000   292.65306      0.02745285     15.207842      726.0803      -52.08          674.0003     
   1122000   284.83629      0.02745285     13.431958      706.68669     -44.78723       661.89946    
   1123000   301.05459      0.02745285     10.684834      746.92474     -43.797651      703.12709    
   1124000   315.95716      0.02745285     10.527662      783.89842     -43.165552      740.73286    
   1125000   289.21196      0.02745285     18.078692      717.54284     -40.018327      677.52452    
   1126000   294.6845       0.02745285     10.587856      731.12037     -45.085029      686.03534    
   1127000   316.41717      0.02745285     15.15182       785.03972     -45.820114      739.21961    
   1128000   304.03567      0.02745285     16.149462      754.32088     -41.298836      713.02204    
   1129000   279.36261      0.02745285     12.782942      693.10635     -37.259501      655.84685    
   1130000   301.94974      0.02745285     12.591296      749.14562     -43.217122      705.92849    
   1131000   300.86737      0.02745285     11.49641       746.46024     -42.227468      704.23277    
   1132000   302.44859      0.02745285     18.564327      750.38329     -40.597545      709.78575    
   1133000   296.28347      0.02745285     8.6045564      735.08745     -44.104476      690.98297    
   1134000   303.00074      0.02745285     5.6884202      751.7532      -51.245237      700.50796    
   1135000   302.44789      0.02745285     16.828479      750.38154     -49.696513      700.68503    
   1136000   283.69514      0.02745285     25.67209       703.85546     -47.324514      656.53094    
   1137000   288.16653      0.02745285     11.981466      714.94909     -53.430802      661.51829    
   1138000   306.61921      0.02745285     14.545439      760.73071     -50.598159      710.13255    
   1139000   293.97344      0.02745285     19.205168      729.3562      -50.572747      678.78345    
   1140000   304.10266      0.02745285     10.792398      754.48709     -49.765945      704.72115    
   1141000   309.04648      0.02745285     14.533215      766.75285     -50.044648      716.7082     
   1142000   298.94186      0.02745285     14.282287      741.68299     -48.102829      693.58016    
   1143000   300.9415       0.02745285     10.728005      746.64415     -50.824673      695.81948    
   1144000   295.64871      0.02745285     19.014777      733.5126      -46.768046      686.74456    
   1145000   294.88426      0.02745285     16.608996      731.61598     -51.213784      680.40219    
   1146000   303.40746      0.02745285     18.192174      752.76228     -51.34962       701.41266    
   1147000   306.33138      0.02745285     13.222452      760.01661     -50.678957      709.33765    
   1148000   301.43009      0.02745285     13.810114      747.85635     -52.111618      695.74474    
   1149000   301.91272      0.02745285     18.209443      749.05378     -46.732991      702.32079    
   1150000   298.48242      0.02745285     14.511443      740.54312     -45.859914      694.6832     
   1151000   292.33496      0.02745285     16.063234      725.2911      -48.310063      676.98104    
   1152000   306.81129      0.02745285     17.167934      761.20726     -44.412265      716.79499    
   1153000   314.1092       0.02745285     12.441573      779.31358     -43.126339      736.18724    
   1154000   296.20566      0.02745285     12.359573      734.89442     -40.518626      694.37579    
   1155000   284.41406      0.02745285     15.703481      705.63912     -40.467987      665.17113    
   1156000   308.42747      0.02745285     18.464605      765.21705     -43.246559      721.97049    
   1157000   303.09087      0.02745285     8.734207       751.97679     -43.897969      708.07883    
   1158000   280.79127      0.02745285     12.413835      696.65088     -41.490139      655.16074    
   1159000   295.3788       0.02745285     17.378228      732.84293     -46.06951       686.77342    
   1160000   327.45984      0.02745285     13.647088      812.43689     -41.066757      771.37013    
   1161000   301.02095      0.02745285     7.609248       746.84128     -45.074109      701.76717    
   1162000   283.75435      0.02745285     31.590837      704.00235     -43.465275      660.53708    
   1163000   308.91804      0.02745285     13.91537       766.43418     -39.603936      726.83024    
   1164000   300.41745      0.02745285     4.0443865      745.34397     -45.861035      699.48293    
   1165000   287.65674      0.02745285     17.297337      713.6843      -48.894504      664.78979    
   1166000   302.63386      0.02745285     16.630451      750.84294     -44.217503      706.62544    
   1167000   313.94935      0.02745285     13.524364      778.91698     -44.879861      734.03712    
   1168000   288.69114      0.02745285     15.662553      716.25066     -42.152316      674.09835    
   1169000   287.2937       0.02745285     14.750597      712.78358     -43.83771       668.94587    
   1170000   308.29401      0.02745285     18.039074      764.88594     -43.234402      721.65154    
   1171000   301.34472      0.02745285     15.656568      747.64456     -39.531371      708.11319    
   1172000   285.71792      0.02745285     17.036379      708.87404     -39.427935      669.44611    
   1173000   298.18118      0.02745285     13.903342      739.79574     -45.368138      694.4276     
   1174000   317.35368      0.02745285     13.651888      787.36322     -51.645012      735.71821    
   1175000   304.15787      0.02745285     15.031706      754.62405     -53.460279      701.16377    
   1176000   304.94119      0.02745285     15.027316      756.56749     -55.660445      700.90705    
   1177000   303.52648      0.02745285     14.265324      753.05758     -52.481249      700.57633    
   1178000   303.03571      0.02745285     14.53506       751.83995     -49.233719      702.60623    
   1179000   300.97379      0.02745285     13.589026      746.72428     -49.515398      697.20888    
   1180000   307.41001      0.02745285     16.40048       762.69272     -42.897484      719.79523    
   1181000   295.09959      0.02745285     13.303492      732.15023     -44.052592      688.09763    
   1182000   299.97881      0.02745285     15.012495      744.2557      -45.646122      698.60958    
   1183000   302.81377      0.02745285     16.792705      751.2893      -40.273441      711.01586    
   1184000   290.6094       0.02745285     14.093486      721.00992     -41.455591      679.55433    
   1185000   303.39229      0.02745285     13.114903      752.72464     -45.112716      707.61192    
   1186000   296.84417      0.02745285     14.793816      736.47857     -44.558528      691.92004    
   1187000   293.50601      0.02745285     14.675295      728.19651     -51.497701      676.69881    
   1188000   294.84527      0.02745285     4.2671969      731.51924     -46.427885      685.09136    
   1189000   289.99748      0.02745285     15.51485       719.49175     -47.369293      672.12246    
   1190000   304.5601       0.02745285     13.780599      755.62201     -48.066421      707.55559    
   1191000   313.93574      0.02745285     17.698028      778.88322     -48.238543      730.64468    
   1192000   319.33627      0.02745285     11.15662       792.28209     -42.108014      750.17407    
   1193000   295.16621      0.02745285     14.283595      732.31551     -48.519004      683.7965     
   1194000   292.14742      0.02745285     10.719588      724.8258      -43.868174      680.95763    
   1195000   297.47712      0.02745285     13.685141      738.04893     -49.943878      688.10506    
   1196000   299.18492      0.02745285     16.605071      742.28604     -47.007335      695.27871    
   1197000   294.06293      0.02745285     11.986104      729.57824     -46.80795       682.77029    
   1198000   301.38035      0.02745285     8.5120924      747.73295     -45.645047      702.0879     
   1199000   286.45984      0.02745285     10.000612      710.71476     -45.454462      665.2603     
   1200000   297.15444      0.02745285     26.318722      737.24837     -45.88684       691.36153    
   1201000   303.56649      0.02745285     12.156874      753.15683     -46.121253      707.03558    
   1202000   310.59921      0.02745285     7.2741796      770.60521     -51.665093      718.94011    
   1203000   291.48758      0.02745285     16.158306      723.18872     -55.104802      668.08392    
   1204000   302.32566      0.02745285     20.686944      750.07828     -50.072443      700.00584    
   1205000   297.07375      0.02745285     5.8933032      737.04816     -48.292549      688.75561    
   1206000   305.20062      0.02745285     7.8055553      757.21114     -46.890318      710.32082    
   1207000   303.22787      0.02745285     27.639051      752.31669     -47.187099      705.12959    
   1208000   307.35094      0.02745285     14.483479      762.54615     -52.178169      710.36798    
   1209000   292.8564       0.02745285     10.102194      726.58479     -46.533756      680.05103    
   1210000   304.28885      0.02745285     27.821271      754.94903     -48.475699      706.47333    
   1211000   315.12699      0.02745285     14.910952      781.83875     -49.260138      732.57862    
   1212000   295.21178      0.02745285     7.4609815      732.42857     -51.985101      680.44347    
   1213000   290.31643      0.02745285     13.501922      720.28306     -49.192083      671.09097    
   1214000   309.36638      0.02745285     24.42949       767.54651     -53.703237      713.84327    
   1215000   303.81115      0.02745285    -3.1683483      753.76385     -51.037263      702.72659    
   1216000   287.262        0.02745285     9.1735952      712.70494     -59.367028      653.33791    
   1217000   289.72917      0.02745285     17.689062      718.82606     -53.983705      664.84236    
   1218000   305.62444      0.02745285     16.472769      758.26267     -49.418152      708.84451    
   1219000   296.98271      0.02745285     10.193761      736.8223      -50.796349      686.02595    
   1220000   291.15438      0.02745285     8.1911257      722.36205     -48.056963      674.30509    
   1221000   302.66406      0.02745285     16.855521      750.91787     -42.770797      708.14708    
   1222000   302.02169      0.02745285     14.376087      749.32414     -44.731152      704.59299    
   1223000   282.99139      0.02745285     6.311445       702.10943     -45.226608      656.88282    
   1224000   292.00037      0.02745285     8.1402284      724.46096     -47.804626      676.65634    
   1225000   302.24155      0.02745285     13.757547      749.86961     -47.933551      701.93606    
   1226000   290.15235      0.02745285     18.86835       719.87597     -51.154577      668.72139    
   1227000   298.37504      0.02745285     19.912141      740.27669     -53.560666      686.71603    
   1228000   302.3753       0.02745285     7.8351921      750.20146     -52.680473      697.52098    
   1229000   301.41248      0.02745285     13.281316      747.81268     -49.75258       698.0601     
   1230000   293.19973      0.02745285     18.344815      727.43661     -44.522716      682.9139     
   1231000   308.47673      0.02745285     11.106725      765.33927     -41.777993      723.56127    
   1232000   301.85264      0.02745285     7.288709       748.90472     -43.489743      705.41498    
   1233000   303.19308      0.02745285     12.899162      752.2304      -48.058249      704.17215    
   1234000   290.64813      0.02745285     18.576588      721.10602     -50.535436      670.57058    
   1235000   314.15038      0.02745285     0.97274236     779.41575     -56.024713      723.39103    
   1236000   305.23566      0.02745285     10.789651      757.29808     -52.411106      704.88697    
   1237000   297.41548      0.02745285     32.933616      737.896       -51.708829      686.18717    
   1238000   296.26242      0.02745285     20.774066      735.03523     -48.098789      686.93644    
   1239000   308.33024      0.02745285     8.2576505      764.97582     -51.883123      713.0927     
   1240000   291.08563      0.02745285     11.008799      722.19146     -50.065104      672.12636    
   1241000   292.34453      0.02745285     19.697549      725.31483     -46.443123      678.87171    
   1242000   306.08508      0.02745285     12.154979      759.40552     -48.635788      710.76973    
   1243000   296.07564      0.02745285     13.677993      734.57183     -42.802888      691.76894    
   1244000   288.419        0.02745285     13.123752      715.5755      -44.246112      671.32938    
   1245000   296.67907      0.02745285     14.654506      736.06894     -42.301712      693.76723    
   1246000   305.04383      0.02745285     21.503965      756.82216     -38.764313      718.05785    
   1247000   299.25653      0.02745285     13.469395      742.46371     -39.730532      702.73318    
   1248000   298.67112      0.02745285     6.2077682      741.01128     -34.184491      706.82679    
   1249000   316.19266      0.02745285     12.830905      784.4827      -39.242127      745.24058    
   1250000   298.94004      0.02745285     15.874426      741.67848     -38.85191       702.82657    
   1251000   288.30347      0.02745285     12.706872      715.28886     -37.725093      677.56377    
   1252000   292.95612      0.02745285     11.318821      726.8322      -40.00761       686.82459    
   1253000   311.30057      0.02745285     18.368511      772.34529     -39.251377      733.09391    
   1254000   299.07496      0.02745285     17.462337      742.01322     -39.315849      702.69737    
   1255000   297.01958      0.02745285     14.005279      736.91376     -42.197893      694.71587    
   1256000   292.15711      0.02745285     9.3927293      724.84984     -39.781558      685.06828    
   1257000   291.96867      0.02745285     10.561229      724.38232     -40.325328      684.057      
   1258000   301.24302      0.02745285     19.940071      747.39223     -44.695844      702.69638    
   1259000   292.29742      0.02745285     10.899748      725.19796     -44.208981      680.98898    
   1260000   287.11072      0.02745285     12.796949      712.32961     -43.463515      668.8661     
   1261000   293.70179      0.02745285     9.8711588      728.68223     -41.780314      686.90191    
   1262000   295.76239      0.02745285     7.2557606      733.79464     -43.534744      690.2599     
   1263000   297.3529       0.02745285     14.849427      737.74073     -41.914867      695.82586    
   1264000   291.8694       0.02745285     17.122608      724.13603     -36.159002      687.97703    
   1265000   296.1374       0.02745285     13.812384      734.72505     -35.919585      698.80547    
   1266000   306.99932      0.02745285     15.230291      761.67377     -37.7996        723.87417    
   1267000   296.74673      0.02745285     16.743911      736.23681     -42.910055      693.32675    
   1268000   301.52172      0.02745285     14.162679      748.08371     -44.6911        703.39261    
   1269000   292.07182      0.02745285     14.203818      724.63824     -46.848784      677.78945    
   1270000   297.1625       0.02745285     16.513826      737.26834     -46.167447      691.1009     
   1271000   300.31768      0.02745285     13.065293      745.09644     -45.42232       699.67412    
   1272000   304.48313      0.02745285     14.971193      755.43103     -42.879482      712.55154    
   1273000   300.78606      0.02745285     18.847941      746.25852     -44.430105      701.82841    
   1274000   311.30111      0.02745285     13.001329      772.34662     -49.660239      722.68638    
   1275000   296.68499      0.02745285     11.752595      736.08365     -49.436285      686.64736    
   1276000   300.73929      0.02745285     14.569738      746.14246     -43.023744      703.11872    
   1277000   293.18655      0.02745285     14.851798      727.40391     -45.184191      682.21972    
   1278000   306.18864      0.02745285     13.88168       759.66246     -45.253745      714.40871    
   1279000   287.96945      0.02745285     11.597528      714.46014     -45.975777      668.48436    
   1280000   301.12574      0.02745285     29.318208      747.10127     -47.761987      699.33929    
   1281000   308.65682      0.02745285     6.9936966      765.78607     -49.908934      715.87714    
   1282000   293.70088      0.02745285     15.245318      728.67998     -44.124111      684.55587    
   1283000   285.56964      0.02745285     17.852608      708.50616     -44.708556      663.7976     
   1284000   305.40391      0.02745285     19.812507      757.71552     -38.329075      719.38645    
   1285000   313.79852      0.02745285     16.129474      778.54278     -37.549806      740.99297    
   1286000   298.97738      0.02745285     12.431798      741.77112     -42.885429      698.88569    
   1287000   280.90369      0.02745285     13.496435      696.92979     -42.729534      654.20026    
   1288000   309.91341      0.02745285     14.985527      768.90371     -41.440576      727.46313    
   1289000   310.68346      0.02745285     14.989676      770.81423     -42.008716      728.80552    
   1290000   306.47027      0.02745285     14.06426       760.36119     -39.172434      721.18875    
   1291000   284.34343      0.02745285     11.27521       705.46388     -37.94285       667.52103    
   1292000   300.59632      0.02745285     14.004017      745.78775     -39.259353      706.5284     
   1293000   315.39088      0.02745285     18.538379      782.49348     -38.438817      744.05466    
   1294000   302.42814      0.02745285     13.820387      750.33254     -40.113741      710.2188     
   1295000   293.60632      0.02745285     12.760937      728.44538     -44.012006      684.43338    
   1296000   307.39047      0.02745285     16.605703      762.64424     -42.594833      720.0494     
   1297000   298.535        0.02745285     14.647306      740.67356     -46.075438      694.59812    
   1298000   299.20011      0.02745285     12.405075      742.32373     -46.433813      695.88992    
   1299000   298.53056      0.02745285     14.608887      740.66255     -51.158443      689.5041     
   1300000   310.03048      0.02745285     22.199326      769.19418     -49.721765      719.47241    
   1301000   297.93527      0.02745285     12.414913      739.18561     -46.509178      692.67643    
   1302000   310.56353      0.02745285     12.073935      770.51669     -45.730727      724.78596    
   1303000   303.56651      0.02745285     18.007644      753.15689     -41.315474      711.84141    
   1304000   287.59517      0.02745285     26.571586      713.53156     -43.451959      670.0796     
   1305000   298.94611      0.02745285     10.891598      741.69354     -43.684149      698.00939    
   1306000   318.47462      0.02745285     12.926782      790.14431     -41.995862      748.14845    
   1307000   300.53616      0.02745285     17.115513      745.63851     -44.275789      701.36272    
   1308000   283.7172       0.02745285     19.991562      703.91019     -38.302543      665.60764    
   1309000   295.65224      0.02745285     11.335213      733.52136     -41.912631      691.60873    
   1310000   305.68221      0.02745285     14.17137       758.406       -48.099933      710.30607    
   1311000   300.29004      0.02745285     18.358659      745.02786     -45.789185      699.23868    
   1312000   293.93786      0.02745285     12.621642      729.26794     -46.366256      682.90168    
   1313000   308.23627      0.02745285     13.3588        764.74268     -51.635447      713.10724    
   1314000   306.3276       0.02745285     20.191595      760.00722     -50.233418      709.7738     
   1315000   297.94442      0.02745285     16.17809       739.20832     -49.960713      689.2476     
   1316000   296.85839      0.02745285     4.2831731      736.51384     -46.198562      690.31528    
   1317000   305.49488      0.02745285     15.856447      757.94122     -45.808838      712.13238    
   1318000   305.07485      0.02745285     15.673113      756.8991      -45.575585      711.32352    
   1319000   295.16934      0.02745285     13.597502      732.32328     -44.346287      687.97699    
   1320000   307.39381      0.02745285     9.8794348      762.65251     -47.561282      715.09123    
   1321000   310.006        0.02745285     14.628475      769.13343     -46.045006      723.08843    
   1322000   291.44562      0.02745285     14.674416      723.08462     -46.246353      676.83826    
   1323000   296.54699      0.02745285     10.497703      735.74127     -44.891263      690.85001    
   1324000   306.18864      0.02745285     16.585425      759.66246     -46.939075      712.72338    
   1325000   302.25513      0.02745285     15.02039       749.90331     -43.13751       706.7658     
   1326000   298.70413      0.02745285     14.723934      741.09319     -47.422321      693.67087    
   1327000   296.96763      0.02745285     9.3493559      736.78488     -44.639164      692.14572    
   1328000   289.9391       0.02745285     8.6959898      719.34691     -42.000634      677.34628    
   1329000   305.7824       0.02745285     26.712143      758.65456     -51.34336       707.3112     
   1330000   300.55491      0.02745285     14.440107      745.68502     -42.13137       703.55365    
   1331000   293.4915       0.02745285     5.8154636      728.16049     -43.995631      684.16486    
   1332000   287.80491      0.02745285     9.1007846      714.05191     -44.602052      669.44986    
   1333000   302.90528      0.02745285     9.6390419      751.51636     -48.852467      702.66389    
   1334000   291.86759      0.02745285     28.845333      724.13153     -44.850286      679.28125    
   1335000   274.60191      0.02745285     6.4675052      681.29491     -46.392439      634.90247    
   1336000   287.22027      0.02745285     16.984186      712.6014      -48.750814      663.85058    
   1337000   302.94073      0.02745285     15.442801      751.60431     -48.147421      703.45689    
   1338000   323.56597      0.02745285     9.0546906      802.7761      -52.571179      750.20492    
   1339000   299.38219      0.02745285     2.6284577      742.77546     -53.094568      689.6809     
   1340000   284.17405      0.02745285     18.794016      705.04365     -53.016959      652.02669    
   1341000   307.01025      0.02745285     19.648986      761.7009      -49.349211      712.35169    
   1342000   306.69068      0.02745285     6.9634462      760.90802     -52.032208      708.87581    
   1343000   294.48801      0.02745285     11.757891      730.63286     -51.57769       679.05517    
   1344000   294.0726       0.02745285     18.545011      729.60222     -49.733112      679.86911    
   1345000   320.57809      0.02745285     11.311238      795.36307     -54.026362      741.3367     
   1346000   295.23265      0.02745285     4.7743946      732.48035     -46.311143      686.16921    
   1347000   295.2997       0.02745285     18.399792      732.6467      -44.099229      688.54747    
   1348000   327.94722      0.02745285     23.680557      813.64609     -48.28755       765.35854    
   1349000   314.65913      0.02745285     14.668251      780.67797     -47.527376      733.15059    
   1350000   304.12148      0.02745285     8.8221567      754.53377     -49.997833      704.53594    
   1351000   282.60872      0.02745285     18.14146       701.16002     -51.467737      649.69228    
   1352000   290.07139      0.02745285     17.935176      719.67511     -50.366961      669.30815    
   1353000   309.9632       0.02745285     18.549666      769.02725     -47.525512      721.50174    
   1354000   320.6498       0.02745285     14.010551      795.541       -49.976338      745.56466    
   1355000   295.47725      0.02745285     6.3302525      733.0872      -56.398042      676.68916    
   1356000   288.35545      0.02745285     15.824186      715.41782     -50.868537      664.54929    
   1357000   307.92109      0.02745285     14.484316      763.96071     -50.009208      713.9515     
   1358000   303.92603      0.02745285     16.921277      754.04886     -52.80124       701.24762    
   1359000   287.75067      0.02745285     15.571453      713.91734     -51.953293      661.96404    
   1360000   291.79919      0.02745285     13.785104      723.96182     -55.131456      668.83037    
   1361000   307.5797       0.02745285     11.517184      763.11373     -50.321144      712.79258    
   1362000   302.99549      0.02745285     13.109648      751.74016     -48.213743      703.52642    
   1363000   295.88767      0.02745285     16.579034      734.10546     -48.279441      685.82602    
   1364000   304.88798      0.02745285     14.004878      756.43548     -44.794012      711.64147    
   1365000   297.55675      0.02745285     13.695085      738.2465      -42.160085      696.08642    
   1366000   304.37593      0.02745285     12.960352      755.16507     -45.548102      709.61697    
   1367000   307.64456      0.02745285     18.552873      763.27463     -45.730356      717.54427    
   1368000   283.7112       0.02745285     9.7615719      703.89532     -46.114294      657.78102    
   1369000   301.59161      0.02745285     4.4180053      748.2571      -43.845671      704.41143    
   1370000   300.2382       0.02745285     12.711145      744.89925     -46.47875       698.4205     
   1371000   307.14631      0.02745285     20.438908      762.03846     -46.208793      715.82966    
   1372000   301.01432      0.02745285     7.3625824      746.82482     -48.850617      697.9742     
   1373000   303.95734      0.02745285     15.218179      754.12655     -50.674867      703.45168    
   1374000   290.33631      0.02745285     15.273925      720.33239     -43.947834      676.38456    
   1375000   304.61336      0.02745285     12.375143      755.75415     -47.68007       708.07408    
   1376000   314.20797      0.02745285     16.493229      779.55865     -42.514726      737.04392    
   1377000   297.88258      0.02745285     12.383022      739.05489     -48.220827      690.83406    
   1378000   287.73534      0.02745285     11.455069      713.8793      -49.96887       663.91043    
   1379000   303.98788      0.02745285     17.903111      754.20232     -53.184235      701.01808    
   1380000   298.00251      0.02745285     13.28031       739.35244     -51.930981      687.42146    
   1381000   296.77406      0.02745285     13.311976      736.30463     -50.88859       685.41604    
   1382000   296.35745      0.02745285     16.401715      735.27099     -53.601265      681.66973    
   1383000   310.28968      0.02745285     15.042014      769.83725     -53.383286      716.45397    
   1384000   302.65615      0.02745285     7.9858094      750.89826     -51.360332      699.53792    
   1385000   284.6537       0.02745285     12.629496      706.23367     -48.716327      657.51734    
   1386000   306.42813      0.02745285     18.472523      760.25664     -45.524496      714.73214    
   1387000   306.53532      0.02745285     14.648878      760.52258     -46.181331      714.34124    
   1388000   296.32171      0.02745285     7.2896678      735.18234     -46.048261      689.13408    
   1389000   294.77775      0.02745285     16.071891      731.35172     -44.617814      686.7339     
   1390000   314.5885       0.02745285     16.121463      780.50275     -44.203014      736.29973    
   1391000   305.25837      0.02745285     12.541778      757.35443     -47.934828      709.4196     
   1392000   282.33997      0.02745285     5.3780172      700.49325     -47.665915      652.82734    
   1393000   300.34062      0.02745285     12.680021      745.15336     -47.371937      697.78142    
   1394000   297.98426      0.02745285     28.166819      739.30715     -48.115724      691.19143    
   1395000   298.42873      0.02745285     24.187291      740.4099      -43.641099      696.7688     
   1396000   305.5033       0.02745285     12.923763      757.9621      -41.70974       716.25236    
   1397000   302.88504      0.02745285     14.916617      751.46613     -35.268117      716.19801    
   1398000   312.89338      0.02745285     22.655823      776.29711     -42.990196      733.30692    
   1399000   300.17403      0.02745285     12.219052      744.74005     -42.214013      702.52603    
   1400000   296.98655      0.02745285     3.5823842      736.83183     -45.65667       691.17516    
   1401000   300.94576      0.02745285     19.535633      746.65472     -42.566287      704.08843    
   1402000   316.72017      0.02745285     20.388577      785.79147     -49.855877      735.93559    
   1403000   294.08082      0.02745285     9.7657169      729.62262     -45.122008      684.50061    
   1404000   295.056        0.02745285     13.730762      732.04207     -47.921502      684.12057    
   1405000   311.35182      0.02745285     25.860602      772.47246     -50.507673      721.96478    
   1406000   308.72926      0.02745285     12.233882      765.9658      -42.227204      723.7386     
   1407000   293.86153      0.02745285     4.1704248      729.07855     -46.867718      682.21083    
   1408000   291.60845      0.02745285     24.97321       723.4886      -47.675552      675.81305    
   1409000   312.93063      0.02745285     18.499941      776.38951     -42.432446      733.95706    
   1410000   305.44292      0.02745285     12.9291        757.81232     -39.284379      718.52794    
   1411000   287.31481      0.02745285     16.917082      712.83596     -44.445054      668.39091    
   1412000   301.05542      0.02745285     13.71844       746.92679     -47.28765       699.63915    
   1413000   300.67584      0.02745285     10.546485      745.98506     -44.54728       701.43778    
   1414000   303.74069      0.02745285     14.772805      753.58901     -43.473103      710.11591    
   1415000   288.25935      0.02745285     18.540929      715.1794      -41.787801      673.3916     
   1416000   299.9344       0.02745285     8.5671943      744.1455      -37.378325      706.76718    
   1417000   313.52051      0.02745285     24.82869       777.85302     -40.126166      737.72685    
   1418000   298.09824      0.02745285     19.962854      739.58994     -43.284904      696.30504    
   1419000   292.64204      0.02745285    -3.8233909      726.05297     -45.017426      681.03554    
   1420000   319.27094      0.02745285     17.778486      792.12        -44.839966      747.28003    
   1421000   298.02812      0.02745285     18.347078      739.41599     -45.630645      693.78534    
   1422000   285.59293      0.02745285     11.533591      708.56392     -44.284426      664.2795     
   1423000   306.06751      0.02745285     12.411433      759.36194     -43.262747      716.09919    
   1424000   311.5355       0.02745285     25.537293      772.92817     -43.852932      729.07524    
   1425000   287.04537      0.02745285     11.648965      712.16748     -44.586965      667.58052    
   1426000   310.72157      0.02745285     14.003795      770.90878     -45.607611      725.30117    
   1427000   296.68134      0.02745285     23.436031      736.07458     -45.703569      690.37101    
   1428000   297.31738      0.02745285     16.576454      737.65262     -52.027175      685.62544    
   1429000   300.75087      0.02745285     5.4157669      746.17121     -51.307292      694.86392    
   1430000   305.36428      0.02745285     16.295422      757.61721     -43.920248      713.69696    
   1431000   301.31961      0.02745285     18.880579      747.58226     -42.105288      705.47697    
   1432000   301.22451      0.02745285     16.966679      747.34631     -46.780613      700.56569    
   1433000   298.42998      0.02745285     7.2884283      740.41301     -51.275177      689.13783    
   1434000   323.79289      0.02745285     26.416258      803.33908     -51.062736      752.27635    
   1435000   294.74056      0.02745285     17.772088      731.25944     -50.941719      680.31773    
   1436000   295.26687      0.02745285     10.399333      732.56523     -48.530438      684.03479    
   1437000   305.96372      0.02745285     11.519911      759.10441     -45.065767      714.03865    
   1438000   310.20489      0.02745285     16.454184      769.62688     -50.28449       719.34239    
   1439000   287.85591      0.02745285     16.170723      714.17846     -45.187645      668.99081    
   1440000   295.22979      0.02745285     11.257621      732.47324     -44.810259      687.66298    
   1441000   303.98963      0.02745285     25.706156      754.20664     -49.409536      704.79711    
   1442000   296.3674       0.02745285     22.395608      735.2957      -43.483443      691.81225    
   1443000   293.42089      0.02745285     19.821915      727.98532     -52.096832      675.88848    
   1444000   287.38657      0.02745285     1.9787226      713.014       -48.077505      664.9365     
   1445000   315.1063       0.02745285    -7.8228001      781.78741     -45.797375      735.99003    
   1446000   302.54977      0.02745285     17.926981      750.63432     -48.02113       702.61319    
   1447000   282.56962      0.02745285     14.413131      701.06302     -45.321374      655.74165    
   1448000   299.44912      0.02745285     1.8242182      742.94152     -42.964551      699.97697    
   1449000   311.41627      0.02745285     16.17209       772.63235     -38.314198      734.31816    
   1450000   296.94162      0.02745285     28.488554      736.72033     -38.213496      698.50684    
   1451000   294.46069      0.02745285     15.422851      730.5651      -46.485007      684.08009    
   1452000   302.45889      0.02745285     7.3447048      750.40885     -38.799007      711.60984    
   1453000   304.77636      0.02745285     16.077837      756.15856     -47.08817       709.07039    
   1454000   290.54157      0.02745285     14.51892       720.84164     -46.914088      673.92755    
   1455000   299.92513      0.02745285     9.6724004      744.12252     -47.299261      696.82326    
   1456000   311.21793      0.02745285     15.67201       772.14027     -47.168177      724.9721     
   1457000   296.60735      0.02745285     14.801282      735.89101     -56.724663      679.16634    
   1458000   294.73634      0.02745285     16.333366      731.24897     -47.527351      683.72162    
   1459000   292.68234      0.02745285     11.553014      726.15295     -48.594162      677.55878    
   1460000   308.71505      0.02745285     14.052835      765.93054     -47.56805       718.36249    
   1461000   295.19         0.02745285     15.494336      732.37454     -45.158828      687.21571    
   1462000   301.20919      0.02745285     12.134348      747.3083      -44.793399      702.5149     
   1463000   307.24411      0.02745285     13.933498      762.28109     -47.066519      715.21457    
   1464000   307.07061      0.02745285     3.1426969      761.85065     -53.203671      708.64698    
   1465000   292.43808      0.02745285     12.426082      725.54694     -52.448029      673.09891    
   1466000   300.96891      0.02745285     15.100814      746.71215     -58.765164      687.94699    
   1467000   304.24891      0.02745285     17.162207      754.84994     -52.609817      702.24012    
   1468000   303.09727      0.02745285     13.864599      751.99267     -46.163772      705.8289     
   1469000   300.98542      0.02745285     13.104045      746.75312     -45.515536      701.23758    
   1470000   298.97095      0.02745285     10.44219       741.75517     -43.329528      698.42565    
   1471000   308.22765      0.02745285     16.743818      764.7213      -43.495726      721.22558    
   1472000   297.88946      0.02745285     20.46611       739.07196     -47.677853      691.3941     
   1473000   296.08538      0.02745285     13.80692       734.59598     -48.99274       685.60324    
   1474000   306.00058      0.02745285     13.229485      759.19587     -45.147044      714.04883    
   1475000   316.72676      0.02745285     15.182721      785.80782     -38.022096      747.78572    
   1476000   283.30984      0.02745285     14.746237      702.89951     -41.648902      661.25061    
   1477000   294.76258      0.02745285     14.449469      731.31408     -42.221879      689.0922     
   1478000   301.0108       0.02745285     14.956576      746.8161      -45.185641      701.63046    
   1479000   310.94724      0.02745285     14.224122      771.46868     -51.088749      720.37993    
   1480000   318.46495      0.02745285     18.061757      790.12032     -46.121388      743.99893    
   1481000   294.18409      0.02745285     14.051545      729.87883     -45.911227      683.9676     
   1482000   303.02927      0.02745285     10.289768      751.82397     -42.99236       708.83161    
   1483000   311.98507      0.02745285     12.131731      774.04357     -49.473854      724.56971    
   1484000   300.55522      0.02745285     15.276198      745.68579     -50.785486      694.9003     
   1485000   290.56635      0.02745285     18.665168      720.90314     -48.347701      672.55543    
   1486000   295.04254      0.02745285     14.394804      732.00867     -60.321652      671.68702    
   1487000   294.21353      0.02745285     12.590768      729.95187     -52.26675       677.68512    
   1488000   295.08131      0.02745285     14.33497       732.10487     -54.572972      677.53189    
   1489000   310.27509      0.02745285     17.501651      769.80106     -49.344155      720.45691    
   1490000   305.56249      0.02745285     15.213911      758.10897     -54.208808      703.90016    
   1491000   297.90821      0.02745285     13.634049      739.11848     -49.932249      689.18623    
   1492000   295.41569      0.02745285     15.100604      732.93447     -44.700294      688.23417    
   1493000   303.78732      0.02745285     15.132827      753.70472     -50.688274      703.01645    
   1494000   310.08605      0.02745285     5.1096844      769.33203     -44.984095      724.34793    
   1495000   312.00263      0.02745285     21.134667      774.08712     -42.103721      731.9834     
   1496000   304.09344      0.02745285     10.137612      754.46421     -44.118551      710.34566    
   1497000   295.45722      0.02745285     14.167691      733.03751     -50.738374      682.29914    
   1498000   287.29949      0.02745285     14.343895      712.79795     -48.926355      663.87159    
   1499000   297.70617      0.02745285     23.680421      738.61721     -47.531179      691.08604    
   1500000   308.86169      0.02745285     22.664925      766.29436     -56.042725      710.25164    
   1501000   303.62546      0.02745285     7.7586834      753.30313     -46.037147      707.26598    
   1502000   298.37748      0.02745285     7.5480714      740.28275     -46.468998      693.81375    
   1503000   290.2072       0.02745285     11.284078      720.01206     -46.832497      673.17956    
   1504000   301.82065      0.02745285     14.730037      748.82536     -49.131628      699.69373    
   1505000   302.94967      0.02745285     17.020183      751.62649     -47.2803        704.34619    
   1506000   314.79299      0.02745285     15.479029      781.01008     -49.874608      731.13547    
   1507000   295.80644      0.02745285     14.602517      733.90392     -51.571993      682.33193    
   1508000   295.30913      0.02745285     13.954558      732.6701      -48.071747      684.59836    
   1509000   300.94772      0.02745285     12.621765      746.65958     -46.921778      699.7378     
   1510000   291.29829      0.02745285     13.906387      722.71909     -46.078703      676.64039    
   1511000   302.25442      0.02745285     13.896256      749.90156     -45.983045      703.91851    
   1512000   305.05203      0.02745285     13.203737      756.8425      -42.226962      714.61554    
   1513000   310.48658      0.02745285     19.180505      770.32576     -49.23464       721.09112    
   1514000   303.88389      0.02745285     17.069804      753.94431     -50.549175      703.39513    
   1515000   307.58343      0.02745285     8.9669452      763.12296     -49.056898      714.06606    
   1516000   303.72678      0.02745285     12.159992      753.55452     -48.682342      704.87218    
   1517000   288.87295      0.02745285     14.027907      716.70175     -53.100393      663.60136    
   1518000   304.45757      0.02745285     15.263755      755.36762     -55.816932      699.55069    
   1519000   302.85222      0.02745285     16.450635      751.38471     -52.265525      699.11919    
   1520000   301.55047      0.02745285     13.418119      748.15504     -54.648269      693.50677    
   1521000   293.26387      0.02745285     15.002308      727.59575     -53.828589      673.76716    
   1522000   294.5929       0.02745285     15.867477      730.89311     -53.649491      677.24362    
   1523000   302.99636      0.02745285     14.71312       751.74233     -48.321         703.42133    
   1524000   304.00315      0.02745285     11.646012      754.2402      -47.60208       706.63812    
   1525000   292.91864      0.02745285     20.648729      726.73923     -49.312045      677.42718    
   1526000   299.78882      0.02745285     16.120259      743.78433     -43.95941       699.82492    
   1527000   281.89697      0.02745285     12.316796      699.39416     -43.310466      656.08369    
   1528000   294.3398       0.02745285     14.404013      730.26515     -43.521079      686.74408    
   1529000   306.79797      0.02745285     13.738118      761.17423     -44.036134      717.13809    
   1530000   299.79415      0.02745285     14.783405      743.79754     -46.024669      697.77287    
   1531000   293.81091      0.02745285     8.256874       728.95298     -50.076913      678.87607    
   1532000   292.83379      0.02745285     19.021582      726.52871     -46.976646      679.55206    
   1533000   314.34061      0.02745285     23.876042      779.88771     -47.37356       732.51415    
   1534000   303.50322      0.02745285     15.697437      752.99985     -50.765326      702.23453    
   1535000   300.04915      0.02745285     12.562694      744.43021     -52.85195       691.57826    
   1536000   308.28906      0.02745285     13.468295      764.87366     -55.300443      709.57322    
   1537000   298.38171      0.02745285     11.677267      740.29325     -56.396657      683.8966     
   1538000   294.97128      0.02745285     14.227489      731.83188     -54.211008      677.62087    
   1539000   296.20912      0.02745285     17.379013      734.90298     -53.121196      681.78179    
   1540000   306.35767      0.02745285     14.941677      760.08182     -48.638185      711.44363    
   1541000   304.61004      0.02745285     14.082837      755.74592     -54.960676      700.78524    
   1542000   306.23698      0.02745285     13.307683      759.78239     -54.141977      705.64041    
   1543000   290.34413      0.02745285     15.373247      720.3518      -50.232314      670.11948    
   1544000   304.11291      0.02745285     16.139241      754.51251     -49.271292      705.24122    
   1545000   300.25708      0.02745285     14.523906      744.9461      -56.655894      688.2902     
   1546000   293.19241      0.02745285     13.474349      727.41846     -57.640764      669.77769    
   1547000   309.16266      0.02745285     7.1293161      767.04109     -57.375178      709.66591    
   1548000   315.10667      0.02745285     14.475659      781.78834     -57.252294      724.53605    
   1549000   285.41159      0.02745285     13.906448      708.11403     -50.759665      657.35436    
   1550000   289.27898      0.02745285     13.982936      717.70913     -56.62353       661.0856     
   1551000   310.5369       0.02745285     15.172828      770.45062     -50.704508      719.74611    
   1552000   307.06798      0.02745285     14.447689      761.84413     -47.41377       714.43036    
   1553000   293.10236      0.02745285     15.933483      727.19502     -49.013285      678.18174    
   1554000   310.50651      0.02745285     13.678136      770.37521     -50.565406      719.8098     
   1555000   309.69975      0.02745285     10.908049      768.37362     -49.806398      718.56722    
   1556000   296.48052      0.02745285     18.270833      735.57634     -51.327246      684.2491     
   1557000   302.42268      0.02745285     14.551578      750.319       -51.017757      699.30125    
   1558000   298.55084      0.02745285     6.7335812      740.71286     -55.513101      685.19976    
   1559000   302.06353      0.02745285     17.425157      749.42794     -53.318357      696.10959    
   1560000   306.35989      0.02745285     14.094745      760.08732     -59.278421      700.8089     
   1561000   294.33858      0.02745285     12.753973      730.26213     -57.530441      672.73168    
   1562000   291.57983      0.02745285     19.386961      723.4176      -55.584045      667.83356    
   1563000   307.64758      0.02745285     14.529019      763.28212     -52.833776      710.44834    
   1564000   315.0395       0.02745285     8.7322874      781.62168     -48.993025      732.62866    
   1565000   292.54688      0.02745285     16.185899      725.81688     -48.577252      677.23963    
   1566000   303.72231      0.02745285     13.771458      753.54343     -48.828146      704.71528    
   1567000   294.18123      0.02745285     14.25213       729.87175     -50.637269      679.23448    
   1568000   306.86935      0.02745285     10.625011      761.35131     -54.377431      706.97388    
   1569000   285.6599       0.02745285     16.321987      708.73007     -55.848152      652.88192    
   1570000   292.55718      0.02745285     19.630857      725.84242     -46.258474      679.58394    
   1571000   317.41013      0.02745285     18.677042      787.50327     -48.701555      738.80172    
   1572000   303.59941      0.02745285     12.019853      753.23851     -45.94226       707.29625    
   1573000   274.91409      0.02745285     24.207154      682.06943     -51.039026      631.0304     
   1574000   304.32         0.02745285     27.186719      755.02631     -43.489076      711.53724    
   1575000   315.46616      0.02745285     15.306491      782.68025     -49.456423      733.22382    
   1576000   303.44381      0.02745285     4.5183095      752.85247     -48.329656      704.52281    
   1577000   290.06978      0.02745285     9.0793444      719.67111     -47.098781      672.57233    
   1578000   285.94158      0.02745285     17.507096      709.42894     -46.051336      663.3776     
   1579000   321.54155      0.02745285     16.164138      797.75344     -52.584405      745.16904    
   1580000   300.97724      0.02745285     11.811137      746.73283     -52.03259       694.70024    
   1581000   296.69763      0.02745285     5.2094325      736.11501     -52.100856      684.01415    
   1582000   289.49791      0.02745285     28.935295      718.25231     -49.231169      669.02114    
   1583000   311.88228      0.02745285     11.162856      773.78854     -54.044806      719.74373    
   1584000   299.6802       0.02745285     12.858916      743.51485     -50.792961      692.72189    
   1585000   294.96231      0.02745285     17.323926      731.80962     -53.118936      678.69068    
   1586000   317.69808      0.02745285     19.045752      788.2177      -51.520098      736.6976     
   1587000   303.08544      0.02745285     10.771458      751.96334     -53.78878       698.17456    
   1588000   292.85358      0.02745285     7.7426103      726.57782     -53.882077      672.69574    
   1589000   292.46027      0.02745285     18.706194      725.60198     -53.839543      671.76244    
   1590000   309.70522      0.02745285     16.745747      768.38719     -51.972178      716.41501    
   1591000   309.27424      0.02745285     9.051736       767.31791     -48.089207      719.2287     
   1592000   298.74304      0.02745285     9.9586742      741.18971     -52.347713      688.842      
   1593000   284.28398      0.02745285     21.017859      705.3164      -51.828965      653.48743    
   1594000   305.38791      0.02745285     18.277719      757.67583     -48.833735      708.84209    
   1595000   303.79212      0.02745285     13.586627      753.71663     -51.539881      702.17675    
   1596000   299.2765       0.02745285     14.847712      742.51325     -44.519437      697.99382    
   1597000   303.97923      0.02745285     14.051797      754.18084     -47.331584      706.84926    
   1598000   303.60659      0.02745285     16.604627      753.25633     -50.080476      703.17585    
   1599000   306.89978      0.02745285     16.998615      761.4268      -49.152377      712.27442    
   1600000   296.68804      0.02745285     12.149942      736.09122     -49.150611      686.94061    
   1601000   297.44503      0.02745285     17.528214      737.96931     -52.196737      685.77257    
   1602000   305.80476      0.02745285     21.78275       758.71003     -47.506988      711.20304    
   1603000   300.84571      0.02745285     13.265123      746.40649     -49.573189      696.8333     
   1604000   291.55245      0.02745285     7.1131024      723.34966     -48.949295      674.40036    
   1605000   294.32589      0.02745285     13.800261      730.23065     -53.850581      676.38007    
   1606000   300.05613      0.02745285     15.008191      744.44752     -45.744039      698.70349    
   1607000   304.61722      0.02745285     14.408125      755.76371     -56.180647      699.58306    
   1608000   297.04686      0.02745285     14.429799      736.98146     -48.296978      688.68448    
   1609000   296.02541      0.02745285     12.968205      734.4472      -50.707509      683.7397     
   1610000   301.48608      0.02745285     13.737015      747.99528     -45.634613      702.36067    
   1611000   303.82274      0.02745285     15.943874      753.79259     -45.19066       708.60193    
   1612000   289.3353       0.02745285     15.656027      717.84887     -47.428931      670.41993    
   1613000   295.46999      0.02745285     11.543191      733.06918     -48.795212      684.27397    
   1614000   307.42406      0.02745285     6.2636885      762.72757     -52.404312      710.32326    
   1615000   312.6478       0.02745285     12.978291      775.6878      -49.562015      726.12578    
   1616000   296.77258      0.02745285     14.916671      736.30096     -51.678873      684.62208    
   1617000   298.03991      0.02745285     12.601451      739.44522     -57.171055      682.27417    
   1618000   307.23796      0.02745285     12.166856      762.26584     -54.288745      707.97709    
   1619000   298.98175      0.02745285     16.973918      741.78196     -49.169757      692.6122     
   1620000   289.75085      0.02745285     15.536462      718.87984     -44.445785      674.43406    
   1621000   297.01296      0.02745285     15.041227      736.89734     -44.73344       692.1639     
   1622000   305.07574      0.02745285     15.709507      756.90133     -42.450999      714.45033    
   1623000   299.58214      0.02745285     14.610259      743.27156     -48.548846      694.72271    
   1624000   296.30595      0.02745285     13.662809      735.14322     -49.848065      685.29516    
   1625000   303.62512      0.02745285     14.994644      753.30228     -49.307332      703.99495    
   1626000   304.9632       0.02745285     14.542371      756.6221      -47.329925      709.29218    
   1627000   293.55487      0.02745285     16.262368      728.31772     -46.041631      682.27608    
   1628000   295.48176      0.02745285     13.987958      733.0984      -41.069623      692.02878    
   1629000   314.4484       0.02745285     15.577228      780.15514     -45.697577      734.45756    
   1630000   303.29018      0.02745285     13.672353      752.47131     -49.30901       703.1623     
   1631000   300.59521      0.02745285     12.346598      745.78501     -46.391832      699.39318    
   1632000   293.09559      0.02745285     12.483137      727.17823     -48.30156       678.87667    
   1633000   289.76905      0.02745285     17.812203      718.925       -51.461937      667.46306    
   1634000   303.64297      0.02745285     17.501265      753.34658     -48.911225      704.43535    
   1635000   320.49777      0.02745285     15.763899      795.16381     -47.300031      747.86378    
   1636000   293.29141      0.02745285     11.402675      727.66406     -46.490474      681.17359    
   1637000   289.73671      0.02745285     16.910527      718.84475     -44.763627      674.08113    
   1638000   308.03599      0.02745285     14.075294      764.24578     -53.525943      710.71984    
   1639000   291.98936      0.02745285     13.836735      724.43364     -48.48994       675.9437     
   1640000   301.86323      0.02745285     13.572395      748.931       -53.739203      695.1918     
   1641000   304.76492      0.02745285     15.038017      756.13017     -47.98946       708.14071    
   1642000   287.69039      0.02745285     14.343509      713.76779     -45.183588      668.5842     
   1643000   294.35791      0.02745285     15.61396       730.31008     -49.603418      680.70666    
   1644000   313.97043      0.02745285     16.274441      778.9693      -52.924498      726.0448     
   1645000   296.57256      0.02745285     15.627853      735.8047      -52.806624      682.99808    
   1646000   289.13192      0.02745285     11.770645      717.34425     -46.833363      670.51089    
   1647000   303.05344      0.02745285     13.203895      751.88394     -46.294141      705.5898     
   1648000   309.15962      0.02745285     15.35969       767.03354     -43.495717      723.53782    
   1649000   306.32922      0.02745285     19.796223      760.01125     -49.363898      710.64735    
   1650000   292.29364      0.02745285     11.101374      725.18858     -48.360469      676.82811    
   1651000   305.57284      0.02745285     13.810959      758.13464     -51.654845      706.47979    
   1652000   305.27746      0.02745285     15.381159      757.40179     -45.326734      712.07505    
   1653000   288.83598      0.02745285     12.679358      716.61003     -47.592953      669.01708    
   1654000   288.75495      0.02745285     15.746932      716.409       -46.729863      669.67913    
   1655000   299.21444      0.02745285     13.618157      742.35927     -50.76922       691.59005    
   1656000   308.77422      0.02745285     8.2087554      766.07736     -46.227834      719.84953    
   1657000   304.35522      0.02745285     15.052559      755.11369     -46.34616       708.76753    
   1658000   302.31187      0.02745285     25.432397      750.04409     -50.046067      699.99802    
   1659000   305.69317      0.02745285     15.436538      758.43318     -44.797877      713.6353     
   1660000   285.95077      0.02745285     11.469001      709.45173     -39.456755      669.99498    
   1661000   290.2591       0.02745285     13.582373      720.14084     -41.466389      678.67445    
   1662000   301.65372      0.02745285     17.722968      748.4112      -44.948005      703.46319    
   1663000   308.17132      0.02745285     15.423958      764.58155     -47.66405       716.9175     
   1664000   296.65709      0.02745285     12.616098      736.01441     -49.082913      686.9315     
   1665000   300.56797      0.02745285     14.55973       745.71742     -47.118498      698.59892    
   1666000   312.50461      0.02745285     16.35128       775.33254     -50.932093      724.40045    
   1667000   301.60441      0.02745285     14.574334      748.28885     -40.920328      707.36852    
   1668000   282.21988      0.02745285     12.671331      700.19531     -46.470507      653.7248     
   1669000   298.25404      0.02745285     12.047795      739.97649     -49.524874      690.45161    
   1670000   320.87407      0.02745285     18.295584      796.09741     -50.085117      746.0123     
   1671000   301.84169      0.02745285     17.374069      748.87755     -43.360465      705.51709    
   1672000   288.61015      0.02745285     13.794032      716.04974     -46.3987        669.65104    
   1673000   291.01116      0.02745285     12.927512      722.0067      -45.419015      676.58769    
   1674000   312.1147       0.02745285     14.649136      774.36518     -43.223056      731.14212    
   1675000   292.03825      0.02745285     14.963753      724.55495     -40.983119      683.57183    
   1676000   296.22261      0.02745285     14.985837      734.93647     -40.993961      693.94251    
   1677000   309.27236      0.02745285     12.562556      767.31325     -43.573729      723.73952    
   1678000   292.85299      0.02745285     23.012999      726.57635     -44.342429      682.23392    
   1679000   294.27744      0.02745285     13.431411      730.11045     -51.254317      678.85613    
   1680000   312.41637      0.02745285     8.5053848      775.11361     -50.611785      724.50183    
   1681000   308.54459      0.02745285     12.428755      765.50764     -44.564266      720.94337    
   1682000   304.77781      0.02745285     25.917901      756.16215     -42.775856      713.38629    
   1683000   300.4518       0.02745285     10.4822        745.42921     -44.165414      701.2638     
   1684000   316.64977      0.02745285     11.872966      785.6168      -41.742325      743.87448    
   1685000   306.95126      0.02745285     16.153742      761.55454     -43.075321      718.47922    
   1686000   288.96955      0.02745285     9.7300845      716.94141     -44.369117      672.57229    
   1687000   302.8805       0.02745285     14.505034      751.45488     -45.995629      705.45925    
   1688000   302.39315      0.02745285     12.703415      750.24575     -51.388665      698.85708    
   1689000   298.38126      0.02745285     15.843397      740.29213     -51.763108      688.52902    
   1690000   294.63726      0.02745285     17.313907      731.00316     -49.008285      681.99488    
   1691000   306.26099      0.02745285     17.247528      759.84195     -51.952617      707.88934    
   1692000   306.9505       0.02745285     9.7360648      761.55266     -53.251458      708.3012     
   1693000   292.39375      0.02745285     12.015078      725.43694     -46.937563      678.49938    
   1694000   297.3012       0.02745285     22.574755      737.61248     -46.747791      690.86469    
   1695000   301.35364      0.02745285     21.954821      747.66668     -45.004876      702.6618     
   1696000   300.79205      0.02745285     13.969935      746.27338     -42.643506      703.62987    
   1697000   293.2042       0.02745285    -2.514779       727.44771     -42.07896       685.36875    
   1698000   299.43012      0.02745285     8.0252568      742.89438     -49.000694      693.89368    
   1699000   299.78736      0.02745285     26.691489      743.78071     -50.175571      693.60514    
   1700000   296.42262      0.02745285     18.198341      735.43269     -44.100633      691.33205    
   1701000   306.37465      0.02745285     8.3924285      760.12396     -39.158274      720.96568    
   1702000   293.99079      0.02745285     18.775253      729.39924     -37.661648      691.73759    
   1703000   312.06094      0.02745285     19.43903       774.2318      -31.25942       742.97238    
   1704000   294.77861      0.02745285     12.790308      731.35385     -33.783945      697.56991    
   1705000   288.68491      0.02745285     9.8350463      716.23522     -36.33552       679.8997     
   1706000   302.3206       0.02745285     14.342223      750.06574     -33.86689       716.19885    
   1707000   312.54795      0.02745285     13.986452      775.44009     -41.23049       734.2096     
   1708000   299.10736      0.02745285     17.418677      742.0936      -44.415567      697.67803    
   1709000   296.28929      0.02745285     15.172457      735.1019      -38.242567      696.85933    
   1710000   302.1587       0.02745285     14.222125      749.66405     -42.786859      706.87719    
   1711000   311.61635      0.02745285     14.584644      773.12875     -39.185594      733.94316    
   1712000   313.37085      0.02745285     10.54733       777.48173     -40.881214      736.60051    
   1713000   292.77501      0.02745285     14.488805      726.38287     -31.152765      695.2301     
   1714000   293.65215      0.02745285     18.082496      728.55907     -37.070812      691.48826    
   1715000   299.05789      0.02745285     17.281063      741.97088     -34.694931      707.27594    
   1716000   320.64097      0.02745285     18.362971      795.51908     -42.046724      753.47236    
   1717000   300.7587       0.02745285     2.6733696      746.19063     -40.324088      705.86654    
   1718000   284.99744      0.02745285     10.144186      707.08651     -44.195353      662.89115    
   1719000   286.12049      0.02745285     12.826885      709.87282     -41.270882      668.60194    
   1720000   314.66292      0.02745285     15.610347      780.68738     -42.594047      738.09333    
   1721000   310.96412      0.02745285     15.761078      771.51054     -38.932923      732.57762    
   1722000   303.93914      0.02745285     14.185441      754.08138     -46.947109      707.13427    
   1723000   301.91228      0.02745285     15.945889      749.05268     -40.314892      708.73779    
   1724000   283.80674      0.02745285     14.104054      704.13235     -38.842387      665.28996    
   1725000   287.30593      0.02745285     15.014579      712.81392     -36.617755      676.19617    
   1726000   304.18107      0.02745285     13.775287      754.68161     -46.314632      708.36698    
   1727000   310.78549      0.02745285     15.245348      771.06737     -44.14959       726.91778    
   1728000   291.91154      0.02745285     16.018712      724.24057     -44.874496      679.36607    
   1729000   296.00607      0.02745285     11.300875      734.39922     -43.860888      690.53833    
   1730000   315.59818      0.02745285     12.723835      783.00779     -48.005538      735.00226    
   1731000   305.92928      0.02745285     16.742611      759.01898     -46.297004      712.72198    
   1732000   291.96343      0.02745285     20.009951      724.36931     -52.763202      671.6061     
   1733000   298.71859      0.02745285     13.516013      741.12906     -41.256226      699.87283    
   1734000   310.55186      0.02745285     10.473045      770.48772     -42.504183      727.98354    
   1735000   298.9952       0.02745285     15.32488       741.81534     -43.045386      698.76996    
   1736000   287.1637       0.02745285     15.504235      712.46105     -39.333855      673.1272     
   1737000   303.59742      0.02745285     14.041036      753.23358     -50.766099      702.46748    
   1738000   310.3315       0.02745285     11.886611      769.94101     -51.564987      718.37602    
   1739000   287.44985      0.02745285     13.457898      713.17101     -52.360763      660.81024    
   1740000   286.90415      0.02745285     12.833145      711.8171      -48.755404      663.0617     
   1741000   299.35974      0.02745285     1.1175687      742.71976     -44.468359      698.2514     
   1742000   308.08966      0.02745285     11.674047      764.37894     -38.305039      726.0739     
   1743000   309.26533      0.02745285     18.093432      767.29581     -36.993473      730.30234    
   1744000   302.53769      0.02745285     24.661635      750.60435     -39.771426      710.83292    
   1745000   298.00721      0.02745285     14.9343        739.3641      -38.121501      701.2426     
   1746000   293.09692      0.02745285     9.2311081      727.18154     -40.030119      687.15142    
   1747000   306.32476      0.02745285     21.989364      760.00019     -40.869412      719.13077    
   1748000   308.58814      0.02745285     20.741459      765.61569     -44.726263      720.88943    
   1749000   301.97183      0.02745285     17.240368      749.20043     -41.533225      707.66721    
   1750000   288.62761      0.02745285     10.260852      716.09306     -48.035242      668.05782    
   1751000   310.23192      0.02745285     16.362402      769.69393     -47.536603      722.15733    
   1752000   301.12942      0.02745285     17.251467      747.11038     -47.978974      699.13141    
   1753000   293.285        0.02745285     17.339731      727.64817     -50.528479      677.11969    
   1754000   297.67869      0.02745285    -2.3643192      738.54903     -48.916011      689.63302    
   1755000   301.33882      0.02745285     9.4130827      747.62992     -47.882588      699.74733    
   1756000   299.97945      0.02745285     24.088497      744.25728     -45.501649      698.75563    
   1757000   297.63136      0.02745285     15.708228      738.4316      -49.788091      688.64351    
   1758000   302.66463      0.02745285     10.149284      750.91928     -51.940705      698.97858    
   1759000   300.59157      0.02745285     15.45885       745.77597     -49.935093      695.84088    
   1760000   293.89123      0.02745285     15.293046      729.15224     -50.634322      678.51792    
   1761000   298.22823      0.02745285     6.0174463      739.91246     -51.033255      688.87921    
   1762000   312.01988      0.02745285     13.328181      774.12993     -51.965768      722.16416    
   1763000   303.39657      0.02745285     13.897841      752.73525     -50.925506      701.80975    
   1764000   297.21605      0.02745285     15.19322       737.4012      -45.900194      691.50101    
   1765000   293.83048      0.02745285     17.439421      729.00151     -46.74331       682.2582     
   1766000   315.78158      0.02745285     16.725638      783.46281     -46.607083      736.85572    
   1767000   295.07149      0.02745285     3.8910667      732.0805      -50.81986       681.26064    
   1768000   288.77285      0.02745285     14.828798      716.45341     -51.090786      665.36263    
   1769000   304.58891      0.02745285     12.685038      755.69349     -52.701278      702.99221    
   1770000   299.53452      0.02745285     16.557018      743.1534      -47.937472      695.21593    
   1771000   296.57208      0.02745285     16.663386      735.8035      -41.976972      693.82652    
   1772000   295.09059      0.02745285     14.549141      732.12788     -45.292567      686.83531    
   1773000   302.30839      0.02745285     16.396336      750.03546     -49.308776      700.72668    
   1774000   303.0737       0.02745285     16.316078      751.9342      -46.458828      705.47537    
   1775000   289.52573      0.02745285     6.7251213      718.32133     -48.927332      669.39399    
   1776000   301.31025      0.02745285     7.6384891      747.55903     -48.352896      699.20613    
   1777000   293.12061      0.02745285     14.012252      727.24031     -45.933392      681.30692    
   1778000   297.62361      0.02745285     18.407827      738.41238     -47.917975      690.4944     
   1779000   303.54279      0.02745285     14.923821      753.09802     -44.978843      708.11918    
   1780000   312.5327       0.02745285     10.996284      775.40224     -44.046863      731.35537    
   1781000   287.36372      0.02745285     8.92006        712.95732     -42.151865      670.80545    
   1782000   291.93036      0.02745285     8.7740444      724.28727     -42.831216      681.45606    
   1783000   305.16521      0.02745285     38.112108      757.12331     -47.897263      709.22604    
   1784000   320.49299      0.02745285     16.608685      795.15194     -48.199269      746.95267    
   1785000   293.56495      0.02745285     15.273381      728.34274     -50.700206      677.64253    
   1786000   310.73124      0.02745285     27.001517      770.93277     -52.38496       718.54781    
   1787000   310.07139      0.02745285     10.361846      769.29566     -49.137676      720.15798    
   1788000   297.4923       0.02745285     15.176802      738.08659     -42.514457      695.57213    
   1789000   322.25301      0.02745285     19.117518      799.5186      -46.246765      753.27183    
   1790000   311.7143       0.02745285     10.725961      773.37177     -47.549414      725.82235    
   1791000   308.06748      0.02745285     8.8871801      764.3239      -48.18093       716.14297    
   1792000   298.70829      0.02745285     14.61994       741.10349     -47.882589      693.2209     
   1793000   308.85971      0.02745285     18.973952      766.28946     -51.368554      714.92091    
   1794000   301.36078      0.02745285     11.385252      747.6844      -47.929316      699.75508    
   1795000   288.34757      0.02745285     8.178174       715.39826     -45.561721      669.83654    
   1796000   309.85319      0.02745285     24.14544       768.7543      -46.504333      722.24997    
   1797000   307.21155      0.02745285     14.563676      762.20032     -52.251584      709.94874    
   1798000   296.51055      0.02745285     10.451295      735.65085     -46.980026      688.67083    
   1799000   292.64512      0.02745285     9.7112185      726.0606      -48.829863      677.23074    
   1800000   297.8523       0.02745285     15.434323      738.97976     -55.999417      682.98034    
   1801000   297.95007      0.02745285     15.410221      739.22234     -52.717675      686.50467    
   1802000   311.67302      0.02745285     12.281828      773.26936     -46.41186       726.8575     
   1803000   308.757        0.02745285     7.9401013      766.03462     -43.154761      722.87986    
   1804000   290.14728      0.02745285     14.848362      719.8634      -47.796996      672.0664     
   1805000   303.40984      0.02745285     16.414716      752.76819     -49.020444      703.74774    
   1806000   296.95887      0.02745285     11.631941      736.76315     -46.49826       690.26489    
   1807000   298.80327      0.02745285     14.855576      741.33916     -45.674824      695.66434    
   1808000   302.81507      0.02745285     12.455962      751.29253     -46.714017      704.57851    
   1809000   304.98586      0.02745285     15.74839       756.67832     -39.908329      716.76999    
   1810000   299.1327       0.02745285     14.327856      742.15648     -50.063118      692.09336    
   1811000   307.29207      0.02745285     15.318912      762.40009     -48.265188      714.1349     
   1812000   305.32765      0.02745285     13.75855       757.52632     -43.670889      713.85543    
   1813000   312.94996      0.02745285     14.639973      776.43749     -46.174894      730.26259    
   1814000   303.83096      0.02745285     15.861302      753.81299     -46.86602       706.94697    
   1815000   287.23721      0.02745285     13.841774      712.64344     -46.431845      666.21159    
   1816000   301.9539       0.02745285     12.417629      749.15595     -45.73996       703.41599    
   1817000   298.63651      0.02745285     13.914924      740.92541     -43.070833      697.85458    
   1818000   295.12909      0.02745285     15.541167      732.2234      -43.256904      688.96649    
   1819000   307.10088      0.02745285     16.040504      761.92576     -42.300767      719.62499    
   1820000   291.4344       0.02745285     13.074341      723.05679     -40.025872      683.03091    
   1821000   304.31801      0.02745285     14.863172      755.02136     -47.827971      707.19339    
   1822000   309.48497      0.02745285     13.801574      767.84074     -51.422168      716.41858    
   1823000   296.66052      0.02745285     13.778481      736.02293     -48.811658      687.21127    
   1824000   303.95836      0.02745285     13.771839      754.12907     -50.854161      703.27491    
   1825000   286.67656      0.02745285     16.380776      711.25245     -46.336029      664.91642    
   1826000   292.63896      0.02745285     13.776676      726.04533     -47.577845      678.46749    
   1827000   311.34325      0.02745285     15.540116      772.45119     -43.518425      728.93276    
   1828000   308.10411      0.02745285     12.966746      764.41479     -41.303487      723.1113     
   1829000   289.43757      0.02745285     8.1051597      718.1026      -38.202603      679.9        
   1830000   305.81413      0.02745285     14.689447      758.73329     -38.191035      720.54225    
   1831000   301.75783      0.02745285     15.023286      748.6695      -40.785979      707.88352    
   1832000   299.56308      0.02745285     14.95804       743.22427     -37.233306      705.99096    
   1833000   295.74085      0.02745285     14.441133      733.74121     -42.087025      691.65418    
   1834000   295.30558      0.02745285     16.144512      732.66129     -42.743701      689.91759    
   1835000   308.3944       0.02745285     16.64014       765.135       -41.849616      723.28538    
   1836000   298.9826       0.02745285     14.83682       741.78407     -42.810093      698.97398    
   1837000   294.03336      0.02745285     12.172446      729.50487     -38.647502      690.85736    
   1838000   296.16654      0.02745285     12.785591      734.79736     -39.985755      694.8116     
   1839000   296.8428       0.02745285     17.38354       736.47518     -42.309244      694.16594    
   1840000   290.62034      0.02745285     13.387096      721.03707     -47.138314      673.89875    
   1841000   308.9752       0.02745285     10.555284      766.57598     -49.354972      717.22101    
   1842000   298.83993      0.02745285     15.864072      741.43011     -52.669         688.76111    
   1843000   278.48182      0.02745285     15.114934      690.92106     -52.574861      638.3462     
   1844000   301.8946       0.02745285     13.341577      749.00883     -45.078832      703.93       
   1845000   304.32811      0.02745285     15.371412      755.04642     -39.003521      716.0429     
   1846000   306.8424       0.02745285     14.316572      761.28444     -44.150521      717.13392    
   1847000   297.40165      0.02745285     15.205346      737.86168     -44.153327      693.70836    
   1848000   303.71136      0.02745285     14.793331      753.51626     -42.209556      711.3067     
   1849000   302.23012      0.02745285     16.083027      749.84127     -44.554227      705.28704    
   1850000   302.14424      0.02745285     14.429323      749.62818     -44.082862      705.54532    
   1851000   298.39637      0.02745285     12.898281      740.32961     -45.490816      694.83879    
   1852000   300.87805      0.02745285     19.17465       746.48674     -42.118106      704.36864    
   1853000   312.99124      0.02745285     13.723314      776.5399      -45.07915       731.46075    
   1854000   306.32718      0.02745285     13.394069      760.00618     -45.777129      714.22906    
   1855000   295.41551      0.02745285     18.098674      732.93402     -46.449173      686.48485    
   1856000   302.58034      0.02745285     12.662886      750.71016     -43.340003      707.37016    
   1857000   299.08244      0.02745285     9.2449618      742.03177     -46.922775      695.10899    
   1858000   305.3177       0.02745285     15.244561      757.50164     -41.371461      716.13018    
   1859000   301.18084      0.02745285     19.947002      747.23796     -37.840671      709.39729    
   1860000   297.46022      0.02745285     12.688778      738.00702     -40.559974      697.44704    
   1861000   296.69323      0.02745285     10.478195      736.10409     -44.179008      691.92508    
   1862000   312.19245      0.02745285     14.095937      774.55807     -48.790359      725.76771    
   1863000   319.61711      0.02745285     9.7920616      792.97887     -51.078704      741.90016    
   1864000   295.33604      0.02745285     13.968225      732.73685     -57.71907       675.01778    
   1865000   296.56992      0.02745285     15.193456      735.79813     -52.301471      683.49666    
   1866000   300.89539      0.02745285     10.741145      746.52976     -54.060881      692.46888    
   1867000   300.13623      0.02745285     13.080688      744.64625     -47.997468      696.64878    
   1868000   303.42025      0.02745285     18.193742      752.794       -47.559428      705.23457    
   1869000   304.35023      0.02745285     16.727972      755.10132     -43.14537       711.95595    
   1870000   296.89968      0.02745285     12.785855      736.6163      -45.827494      690.7888     
   1871000   298.44887      0.02745285     6.7113225      740.45988     -45.306241      695.15364    
   1872000   306.36109      0.02745285     15.839232      760.0903      -48.469419      711.62088    
   1873000   300.80523      0.02745285     14.5668        746.30606     -55.709334      690.59673    
   1874000   295.51492      0.02745285     15.215163      733.18067     -46.517361      686.66331    
   1875000   307.23664      0.02745285     14.639018      762.26257     -49.119008      713.14356    
   1876000   296.34977      0.02745285     16.348864      735.25195     -53.990736      681.26121    
   1877000   291.41903      0.02745285     12.034968      723.01864     -48.824306      674.19434    
   1878000   296.15805      0.02745285     14.998252      734.77629     -41.604116      693.17218    
   1879000   308.46752      0.02745285     18.840069      765.31642     -36.81828       728.49814    
   1880000   298.06459      0.02745285     15.027931      739.50646     -38.054275      701.45219    
   1881000   301.27772      0.02745285     14.040364      747.47834     -48.323232      699.1551     
   1882000   294.02788      0.02745285     16.479434      729.49128     -42.243023      687.24825    
   1883000   309.22386      0.02745285     24.943857      767.19291     -48.861936      718.33098    
   1884000   293.58029      0.02745285     10.047746      728.38079     -44.532125      683.84866    
   1885000   293.04369      0.02745285     8.3281587      727.04948     -48.916491      678.13299    
   1886000   298.30427      0.02745285     16.643553      740.10113     -48.741557      691.35957    
   1887000   309.95438      0.02745285     24.697953      769.00535     -51.991057      717.01429    
   1888000   299.96981      0.02745285     15.012043      744.23336     -48.088053      696.14531    
   1889000   284.51499      0.02745285     3.4688776      705.88952     -55.243079      650.64645    
   1890000   305.1665       0.02745285     15.209326      757.12649     -49.952579      707.17391    
   1891000   314.1965       0.02745285     18.213395      779.53017     -49.8291        729.70107    
   1892000   288.53973      0.02745285     15.963524      715.87502     -55.078621      660.7964     
   1893000   300.95002      0.02745285     6.0107266      746.6653      -50.697375      695.96793    
   1894000   308.12167      0.02745285     13.75055       764.45835     -49.628547      714.82981    
   1895000   290.54533      0.02745285     17.092251      720.85097     -47.603865      673.2471     
   1896000   300.13381      0.02745285     12.566918      744.64026     -46.231189      698.40908    
   1897000   318.59369      0.02745285     7.9904333      790.43973     -47.983895      742.45584    
   1898000   295.5779       0.02745285     22.443027      733.33692     -43.841397      689.49552    
   1899000   284.47423      0.02745285     22.663895      705.7884      -46.559688      659.22872    
   1900000   304.15537      0.02745285     3.4592763      754.61786     -46.233215      708.38465    
   1901000   309.58303      0.02745285     25.468061      768.08404     -51.013963      717.07007    
   1902000   302.3456       0.02745285     46.628943      750.12778     -48.02231       702.10547    
   1903000   296.21394      0.02745285     4.4122312      734.91494     -54.754627      680.16032    
   1904000   301.12045      0.02745285     3.8597253      747.08813     -54.599119      692.48901    
   1905000   306.10826      0.02745285     27.782807      759.46304     -47.600818      711.86222    
   1906000   297.53355      0.02745285     26.662465      738.18894     -45.20755       692.98139    
   1907000   303.67689      0.02745285    -5.0513517      753.43074     -49.697537      703.7332     
   1908000   309.93265      0.02745285     7.8485662      768.95144     -46.305865      722.64558    
   1909000   291.58814      0.02745285     22.820151      723.43822     -49.027252      674.41097    
   1910000   296.3469       0.02745285     21.805814      735.24483     -48.311026      686.93381    
   1911000   295.81477      0.02745285     0.99535178     733.92459     -46.970218      686.95438    
   1912000   296.66206      0.02745285     6.6233824      736.02674     -46.700007      689.32674    
   1913000   304.61041      0.02745285     26.551099      755.74683     -49.111908      706.63492    
   1914000   297.57358      0.02745285     31.402558      738.28826     -49.893158      688.3951     
   1915000   291.0713       0.02745285     16.250854      722.15591     -40.982139      681.17378    
   1916000   307.01292      0.02745285     8.9959489      761.70751     -40.101769      721.60574    
   1917000   293.50186      0.02745285     34.528272      728.18619     -41.594235      686.59196    
   1918000   289.66422      0.02745285     10.856493      718.66492     -41.689291      676.97563    
   1919000   292.32443      0.02745285     13.189612      725.26496     -35.55443       689.71053    
   1920000   308.98766      0.02745285     12.398021      766.60691     -41.493621      725.11329    
   1921000   299.49402      0.02745285     15.459934      743.05291     -45.842563      697.21034    
   1922000   273.34462      0.02745285     12.425028      678.17554     -43.127911      635.04763    
   1923000   305.18558      0.02745285     13.383376      757.17383     -42.203526      714.9703     
   1924000   305.39911      0.02745285     16.212498      757.70361     -46.893577      710.81003    
   1925000   297.63781      0.02745285     13.321478      738.4476      -51.088248      687.35936    
   1926000   293.19573      0.02745285     13.474675      727.42669     -47.407595      680.01909    
   1927000   307.19718      0.02745285     19.300543      762.16468     -43.67101       718.49367    
   1928000   312.94981      0.02745285     10.131147      776.4371      -45.501636      730.93547    
   1929000   286.41325      0.02745285     13.05682       710.59918     -38.036333      672.56284    
   1930000   308.15033      0.02745285     21.853034      764.52947     -36.856259      727.67321    
   1931000   309.50072      0.02745285     10.211623      767.87982     -39.294616      728.5852     
   1932000   286.07588      0.02745285     2.81513        709.76213     -35.833603      673.92853    
   1933000   283.00914      0.02745285     19.509269      702.15347     -43.610831      658.54264    
   1934000   308.42525      0.02745285     16.004984      765.21155     -45.920993      719.29056    
   1935000   301.49911      0.02745285     10.070382      748.02761     -49.532877      698.49473    
   1936000   295.16962      0.02745285     13.175204      732.32395     -47.802551      684.5214     
   1937000   286.67111      0.02745285     26.524406      711.23893     -45.643302      665.59563    
   1938000   308.47305      0.02745285     32.877621      765.33015     -44.820558      720.50959    
   1939000   297.37738      0.02745285     0.17015993     737.80148     -42.699554      695.10193    
   1940000   294.62849      0.02745285     13.916751      730.98141     -41.203327      689.77808    
   1941000   303.74749      0.02745285     23.373192      753.60588     -46.806679      706.79921    
   1942000   312.52449      0.02745285     14.30394       775.38186     -52.087622      723.29424    
   1943000   298.50617      0.02745285     1.7630286      740.60205     -50.92708       689.67497    
   1944000   286.71189      0.02745285     33.830885      711.34009     -55.474425      655.86567    
   1945000   306.08888      0.02745285     20.458356      759.41495     -51.983974      707.43098    
   1946000   314.82233      0.02745285     5.0546121      781.08287     -56.700463      724.38241    
   1947000   291.70179      0.02745285     18.142746      723.72018     -51.537484      672.18269    
   1948000   303.60901      0.02745285     34.530422      753.26233     -52.563134      700.6992     
   1949000   287.92338      0.02745285     7.7780171      714.34584     -52.892386      661.45345    
   1950000   295.21382      0.02745285     6.7723086      732.43362     -51.911151      680.52247    
   1951000   298.83031      0.02745285     23.205567      741.40624     -46.662938      694.7433     
   1952000   301.90195      0.02745285     34.148305      749.02706     -48.515359      700.51171    
   1953000   299.61306      0.02745285     11.797902      743.34825     -49.420158      693.92809    
   1954000   288.99548      0.02745285     2.8518484      717.00576     -39.93626       677.0695     
   1955000   302.67605      0.02745285     25.206537      750.94762     -42.901301      708.04631    
   1956000   300.83085      0.02745285     25.026957      746.36963     -42.886376      703.48326    
   1957000   308.60196      0.02745285     12.05701       765.64996     -44.053612      721.59635    
   1958000   301.34837      0.02745285     10.744394      747.65362     -43.85133       703.80229    
   1959000   279.30446      0.02745285     23.98116       692.96205     -46.868619      646.09343    
   1960000   289.2559       0.02745285     26.680789      717.65185     -54.576563      663.07529    
   1961000   312.69872      0.02745285     20.483819      775.81415     -50.648842      725.16531    
   1962000   307.82991      0.02745285     5.2360005      763.73448     -43.83832       719.89616    
   1963000   291.12932      0.02745285     15.031176      722.29987     -43.95772       678.34215    
   1964000   301.40636      0.02745285     15.139576      747.79749     -46.952317      700.84517    
   1965000   309.65261      0.02745285     3.5148473      768.25665     -45.215093      723.04156    
   1966000   301.95936      0.02745285    -8.7894319      749.1695      -44.832684      704.33682    
   1967000   287.69184      0.02745285     12.369573      713.77138     -48.403698      665.36768    
   1968000   288.44161      0.02745285     22.23749       715.63158     -47.849186      667.7824     
   1969000   317.41951      0.02745285     27.951386      787.52654     -51.077317      736.44923    
   1970000   303.15908      0.02745285     11.982712      752.14604     -46.652106      705.49393    
   1971000   277.1628       0.02745285     11.302326      687.64855     -45.119657      642.5289     
   1972000   283.7874       0.02745285     23.123097      704.08436     -45.364939      658.71942    
   1973000   308.50615      0.02745285     18.90429       765.41226     -55.726213      709.68604    
   1974000   302.3915       0.02745285    -0.41814855     750.24165     -52.753556      697.4881     
   1975000   296.01737      0.02745285     3.2399783      734.42725     -55.454305      678.97294    
   1976000   289.39124      0.02745285     17.548911      717.98765     -48.823724      669.16393    
   1977000   310.47204      0.02745285     21.708846      770.2897      -50.696652      719.59305    
   1978000   303.83166      0.02745285     18.121709      753.81471     -47.633999      706.18071    
   1979000   308.03168      0.02745285    -0.68160645     764.23509     -48.166752      716.06834    
   1980000   309.76813      0.02745285     17.303872      768.54327     -48.813717      719.72955    
   1981000   312.77091      0.02745285     27.179828      775.99324     -48.408441      727.5848     
   1982000   300.06896      0.02745285     8.6843667      744.47936     -48.956445      695.52292    
   1983000   294.08031      0.02745285     12.837913      729.62134     -53.869973      675.75137    
   1984000   300.64605      0.02745285     13.14132       745.91114     -48.833207      697.07794    
   1985000   312.92844      0.02745285     14.427006      776.38409     -55.365184      721.0189     
   1986000   281.54626      0.02745285     12.787876      698.52403     -53.195854      645.32817    
   1987000   293.44014      0.02745285     13.190061      728.03307     -51.077023      676.95605    
   1988000   301.63632      0.02745285     16.688611      748.36802     -47.102754      701.26527    
   1989000   307.47577      0.02745285     17.684313      762.85585     -46.867362      715.98849    
   1990000   302.28642      0.02745285     11.769094      749.98095     -51.469622      698.51133    
   1991000   308.09681      0.02745285     14.690153      764.39667     -49.964592      714.43208    
   1992000   290.40254      0.02745285     14.222144      720.4967      -46.813673      673.68303    
   1993000   302.38178      0.02745285     12.881915      750.21753     -45.368475      704.84906    
   1994000   310.30048      0.02745285     13.665353      769.86404     -52.714601      717.14944    
   1995000   294.77626      0.02745285     14.885         731.34803     -47.113037      684.23499    
   1996000   304.92346      0.02745285     7.7335507      756.52351     -48.787948      707.73556    
   1997000   301.93899      0.02745285     20.523133      749.11896     -47.114578      702.00438    
   1998000   298.17305      0.02745285     14.629772      739.77555     -41.50176       698.27379    
   1999000   298.83353      0.02745285     9.9919247      741.41423     -40.652809      700.76142    
   2000000   308.04529      0.02745285     15.292583      764.26886     -47.420714      716.84815    
   2001000   280.77069      0.02745285     16.196386      696.59982     -50.180913      646.41891    
   2002000   297.55244      0.02745285     13.008841      738.23581     -54.118262      684.11754    
   2003000   317.80545      0.02745285     15.323362      788.48408     -50.34637       738.13771    
   2004000   307.17615      0.02745285     12.775324      762.11249     -53.635157      708.47733    
   2005000   285.76039      0.02745285     13.211595      708.97941     -55.095705      653.88371    
   2006000   317.30295      0.02745285     11.910928      787.23736     -58.797699      728.43966    
   2007000   301.21826      0.02745285     15.266285      747.3308      -51.797519      695.53328    
   2008000   298.95333      0.02745285     16.824812      741.71146     -52.750181      688.96128    
   2009000   300.73271      0.02745285     15.659452      746.12613     -50.578774      695.54736    
   2010000   303.26116      0.02745285     7.7059617      752.39929     -46.416994      705.98229    
   2011000   295.21772      0.02745285     11.545737      732.4433      -47.606497      684.8368     
   2012000   294.48426      0.02745285     12.367117      730.62356     -54.813081      675.81048    
   2013000   296.39152      0.02745285     11.394388      735.35552     -51.930209      683.42531    
   2014000   291.909        0.02745285     10.154897      724.23427     -51.135497      673.09877    
   2015000   309.69801      0.02745285     15.936213      768.3693      -54.736531      713.63277    
   2016000   302.96558      0.02745285     21.36228       751.66596     -56.32367       695.34229    
   2017000   297.94607      0.02745285     19.715198      739.21242     -59.7404        679.47202    
   2018000   293.4099       0.02745285     13.31797       727.95806     -51.222462      676.7356     
   2019000   307.81277      0.02745285     9.8580866      763.69197     -50.789012      712.90296    
   2020000   305.34729      0.02745285     13.277287      757.57505     -46.341728      711.23332    
   2021000   306.75561      0.02745285     20.630303      761.06911     -46.124949      714.94416    
   2022000   289.42496      0.02745285     12.700086      718.07129     -51.532488      666.53881    
   2023000   307.0689       0.02745285     22.185595      761.8464      -47.295423      714.55097    
   2024000   298.56693      0.02745285     24.194731      740.75278     -46.420346      694.33244    
   2025000   290.51126      0.02745285     15.389698      720.76644     -46.565781      674.20066    
   2026000   300.47288      0.02745285     11.396913      745.48149     -45.123558      700.35793    
   2027000   319.62539      0.02745285     19.46444       792.9994      -42.76388       750.23552    
   2028000   306.26869      0.02745285     18.177303      759.86106     -51.575308      708.28576    
   2029000   291.4748       0.02745285     13.300194      723.15701     -49.11605       674.04096    
   2030000   317.85595      0.02745285     14.158075      788.60937     -41.275092      747.33428    
   2031000   304.6859       0.02745285     17.398447      755.93412     -40.269802      715.66432    
   2032000   286.81633      0.02745285     14.093191      711.59921     -40.298358      671.30085    
   2033000   309.31745      0.02745285     13.128434      767.42512     -44.942955      722.48216    
   2034000   313.01285      0.02745285     18.140627      776.59352     -47.730671      728.86285    
   2035000   302.5153       0.02745285     17.266916      750.5488      -48.138351      702.41045    
   2036000   293.41247      0.02745285     19.11517       727.96443     -56.023098      671.94133    
   2037000   275.21255      0.02745285     12.627236      682.80992     -55.427139      627.38278    
   2038000   309.33096      0.02745285     10.407043      767.45863     -51.111322      716.34731    
   2039000   304.19377      0.02745285     15.162978      754.71314     -54.698344      700.0148     
   2040000   293.00274      0.02745285     15.564358      726.94787     -51.950337      674.99754    
   2041000   303.80524      0.02745285     13.460232      753.74918     -52.125316      701.62387    
   2042000   318.94116      0.02745285     16.541133      791.30182     -47.81144       743.49038    
   2043000   300.08169      0.02745285     13.750062      744.51094     -54.251131      690.25981    
   2044000   300.94395      0.02745285     14.331748      746.65024     -51.729054      694.92118    
   2045000   303.4786       0.02745285     5.2900069      752.93877     -48.225932      704.71284    
   2046000   316.56416      0.02745285     14.136847      785.40439     -52.748592      732.6558     
   2047000   293.96291      0.02745285     18.10991       729.33008     -52.672631      676.65745    
   2048000   289.52087      0.02745285     10.278455      718.30927     -49.871872      668.4374     
   2049000   302.51095      0.02745285     11.444038      750.53801     -50.450822      700.08718    
   2050000   308.06852      0.02745285     25.574214      764.3265      -53.35035       710.97615    
   2051000   296.29878      0.02745285     13.5706        735.12544     -49.85265       685.27279    
   2052000   299.74961      0.02745285     4.0288799      743.68705     -55.71009       687.97696    
   2053000   307.22235      0.02745285     22.356237      762.22711     -56.694098      705.53301    
   2054000   289.34432      0.02745285     15.129917      717.87122     -58.121033      659.75019    
   2055000   301.59706      0.02745285     14.018133      748.27063     -59.094287      689.17634    
   2056000   309.47793      0.02745285     20.417028      767.82327     -48.342172      719.4811     
   2057000   301.05211      0.02745285     13.732897      746.91858     -47.521134      699.39745    
   2058000   302.63566      0.02745285     11.021972      750.84741     -47.132545      703.71487    
   2059000   314.88589      0.02745285     18.049469      781.24057     -44.228082      737.01249    
   2060000   298.77053      0.02745285     16.872628      741.25793     -47.464546      693.79339    
   2061000   304.97003      0.02745285     16.474173      756.63905     -45.304068      711.33498    
   2062000   295.73979      0.02745285     13.818517      733.73858     -49.120993      684.61759    
   2063000   297.40855      0.02745285     10.926863      737.87881     -47.303139      690.57567    
   2064000   312.08786      0.02745285     16.47439       774.29859     -44.746167      729.55242    
   2065000   317.00305      0.02745285     12.058773      786.4933      -47.967787      738.52552    
   2066000   304.03516      0.02745285     16.006451      754.31962     -45.066955      709.25267    
   2067000   291.23896      0.02745285     17.539949      722.57189     -47.439158      675.13274    
   2068000   302.80764      0.02745285     12.859069      751.27411     -44.030413      707.2437     
   2069000   298.79626      0.02745285     11.035471      741.32177     -47.61868       693.70309    
   2070000   301.62522      0.02745285     15.124958      748.34049     -45.692583      702.64791    
   2071000   305.47456      0.02745285     12.997853      757.89079     -47.046193      710.8446     
   2072000   309.24672      0.02745285     14.428688      767.24964     -48.192728      719.05691    
   2073000   295.86382      0.02745285     14.544897      734.0463      -54.297245      679.74905    
   2074000   288.23586      0.02745285     14.3215        715.12112     -47.175214      667.94591    
   2075000   301.92004      0.02745285     8.8990945      749.07195     -47.254879      701.81707    
   2076000   296.39623      0.02745285     24.745352      735.36721     -55.519392      679.84781    
   2077000   309.25179      0.02745285     11.268678      767.26221     -57.403539      709.85867    
   2078000   308.70933      0.02745285     14.383131      765.91635     -58.993981      706.92237    
   2079000   299.1379       0.02745285     8.9881498      742.16937     -60.647401      681.52197    
   2080000   302.54593      0.02745285     15.636119      750.6248      -55.944487      694.68031    
   2081000   289.20108      0.02745285     11.900847      717.51586     -47.232899      670.28296    
   2082000   298.67119      0.02745285     14.295263      741.01147     -54.750893      686.26057    
   2083000   302.00644      0.02745285     18.288743      749.28631     -56.245891      693.04042    
   2084000   307.57783      0.02745285     13.546248      763.10908     -53.459029      709.65005    
   2085000   304.37302      0.02745285     14.358603      755.15785     -53.751883      701.40597    
   2086000   302.73062      0.02745285     15.905898      751.08301     -50.746973      700.33604    
   2087000   299.67367      0.02745285     10.205345      743.49864     -56.739087      686.75956    
   2088000   311.33067      0.02745285     11.706817      772.41997     -56.994831      715.42513    
   2089000   300.12585      0.02745285     10.074272      744.6205      -58.933304      685.68719    
   2090000   288.62555      0.02745285     16.914079      716.08795     -56.147288      659.94066    
   2091000   298.63991      0.02745285     15.702382      740.93385     -51.987694      688.94616    
   2092000   304.83771      0.02745285     13.4108        756.31076     -57.290693      699.02006    
   2093000   302.5292       0.02745285     14.97675       750.58329     -52.213411      698.36988    
   2094000   300.55143      0.02745285     14.28106       745.67638     -55.781528      689.89486    
   2095000   299.61552      0.02745285     16.641453      743.35437     -46.907875      696.44649    
   2096000   298.43229      0.02745285     15.397476      740.41875     -48.730026      691.68872    
   2097000   306.14619      0.02745285     15.419364      759.55714     -46.736432      712.82071    
   2098000   303.49057      0.02745285     14.377219      752.96847     -45.118516      707.84995    
   2099000   295.4312       0.02745285     13.968822      732.97296     -48.941666      684.03129    
   2100000   289.4998       0.02745285     12.282276      718.25699     -48.333893      669.9231     
   2101000   304.53044      0.02745285     15.39016       755.54842     -48.210339      707.33808    
   2102000   305.18324      0.02745285     14.918793      757.16802     -54.474607      702.69341    
   2103000   313.75834      0.02745285     11.801074      778.4431      -47.158718      731.28438    
   2104000   289.79888      0.02745285     12.640497      718.999       -54.342326      664.65668    
   2105000   304.21391      0.02745285     17.77962       754.7631      -57.327514      697.43559    
   2106000   303.23451      0.02745285     5.7802037      752.33318     -49.58614       702.74704    
   2107000   293.29205      0.02745285     17.574877      727.66565     -51.33146       676.33419    
   2108000   299.44038      0.02745285     18.751519      742.91984     -51.755117      691.16473    
   2109000   300.85189      0.02745285     12.458284      746.42184     -50.23732       696.18452    
   2110000   300.21019      0.02745285     5.9663082      744.82976     -42.73891       702.09085    
   2111000   284.18988      0.02745285     11.837391      705.08292     -44.881404      660.20152    
   2112000   293.14514      0.02745285     19.361435      727.30118     -43.452612      683.84857    
   2113000   296.75141      0.02745285     13.376593      736.24843     -48.9012        687.34723    
   2114000   300.21423      0.02745285     18.244849      744.83978     -50.071853      694.76792    
   2115000   312.53651      0.02745285     16.512481      775.41168     -45.594842      729.81684    
   2116000   291.30036      0.02745285     12.854773      722.72422     -45.974949      676.74927    
   2117000   291.99631      0.02745285     13.843761      724.45089     -47.379344      677.07155    
   2118000   291.74753      0.02745285     13.107693      723.83365     -47.649711      676.18394    
   2119000   306.78024      0.02745285     11.24671       761.13024     -36.412385      724.71786    
   2120000   307.79524      0.02745285     26.064179      763.64847     -34.364588      729.28388    
   2121000   285.25608      0.02745285     17.152817      707.7282      -39.083223      668.64498    
   2122000   300.46834      0.02745285     10.122054      745.47023     -43.480299      701.98993    
   2123000   312.4104       0.02745285     15.362518      775.09881     -44.070947      731.02786    
   2124000   293.55479      0.02745285     13.41618       728.31753     -47.416922      680.90061    
   2125000   291.09219      0.02745285     13.471171      722.20774     -50.729309      671.47843    
   2126000   297.62305      0.02745285     12.478167      738.41099     -44.074721      694.33627    
   2127000   312.92971      0.02745285     14.059652      776.38725     -49.126784      727.26046    
   2128000   292.08334      0.02745285     14.59063       724.66682     -53.027895      671.63892    
   2129000   303.74165      0.02745285     14.197117      753.5914      -54.144305      699.44709    
   2130000   303.84802      0.02745285     12.507398      753.85531     -51.928107      701.9272     
   2131000   304.83587      0.02745285     12.931363      756.3062      -54.247775      702.05842    
   2132000   311.78744      0.02745285     16.388157      773.55324     -57.829723      715.72352    
   2133000   296.6609       0.02745285     15.486247      736.02386     -59.122029      676.90183    
   2134000   294.92756      0.02745285     7.1029358      731.72341     -52.936989      678.78643    
   2135000   300.34889      0.02745285     1.478194       745.17387     -46.716114      698.45775    
   2136000   316.71518      0.02745285     14.526154      785.77909     -47.581516      738.19757    
   2137000   295.58764      0.02745285     26.803128      733.36108     -48.980491      684.38059    
   2138000   286.65406      0.02745285     13.358933      711.19663     -52.22521       658.97142    
   2139000   298.65989      0.02745285     13.960903      740.98343     -47.611745      693.37168    
   2140000   314.74141      0.02745285     14.644491      780.88213     -51.493671      729.38845    
   2141000   284.05411      0.02745285     19.509409      704.74608     -52.310885      652.43519    
   2142000   300.05575      0.02745285     10.732756      744.44658     -49.148577      695.298      
   2143000   321.88462      0.02745285     10.831899      798.60461     -47.264389      751.34022    
   2144000   300.95469      0.02745285     12.26571       746.67689     -50.290799      696.38609    
   2145000   303.52914      0.02745285     14.421039      753.06416     -52.930873      700.13329    
   2146000   309.97439      0.02745285     10.782936      769.055       -58.207063      710.84793    
   2147000   299.30804      0.02745285     15.183492      742.5915      -53.489984      689.10152    
   2148000   303.80961      0.02745285     20.868032      753.76003     -56.221778      697.53825    
   2149000   301.85832      0.02745285     16.407827      748.91882     -53.504822      695.414      
   2150000   279.96388      0.02745285     6.2070722      694.5981      -51.588005      643.0101     
   2151000   295.57273      0.02745285     15.65696       733.32409     -49.304998      684.01909    
   2152000   299.88399      0.02745285     13.020997      744.02044     -53.218235      690.80221    
   2153000   298.51133      0.02745285     13.996593      740.61484     -50.218638      690.39621    
   2154000   300.03496      0.02745285     17.121821      744.39501     -51.071577      693.32344    
   2155000   295.81201      0.02745285     18.106402      733.91776     -54.558822      679.35894    
   2156000   289.12453      0.02745285     13.1231        717.32594     -53.366366      663.95957    
   2157000   284.70368      0.02745285     11.494074      706.35769     -51.107511      655.25018    
   2158000   310.74956      0.02745285     8.4923751      770.97823     -51.584004      719.39423    
   2159000   307.38404      0.02745285     9.7281763      762.62829     -54.975506      707.65278    
   2160000   302.21957      0.02745285     16.481499      749.81509     -56.537058      693.27803    
   2161000   300.19853      0.02745285     16.01241       744.80082     -52.203955      692.59687    
   2162000   307.48472      0.02745285     5.2889324      762.87806     -57.906471      704.97159    
   2163000   295.03307      0.02745285     15.357927      731.98517     -49.265232      682.71994    
   2164000   301.3366       0.02745285     10.944939      747.62442     -51.873109      695.75131    
   2165000   294.74203      0.02745285     14.482324      731.2631      -55.980582      675.28251    
   2166000   300.38703      0.02745285     14.171871      745.2685      -56.61773       688.65077    
   2167000   298.05088      0.02745285     14.440153      739.47245     -52.063395      687.40905    
   2168000   292.02681      0.02745285     13.320772      724.52655     -50.990313      673.53624    
   2169000   301.80468      0.02745285     15.56917       748.78572     -52.891451      695.89427    
   2170000   297.22992      0.02745285     15.184471      737.43564     -50.173772      687.26186    
   2171000   310.35333      0.02745285     14.440641      769.99516     -44.332974      725.66219    
   2172000   305.08365      0.02745285     11.97215       756.92096     -43.138913      713.78204    
   2173000   295.52591      0.02745285     3.7397208      733.20793     -43.056932      690.151      
   2174000   302.04304      0.02745285     12.304499      749.3771      -49.418783      699.95831    
   2175000   299.30058      0.02745285     24.435182      742.573       -49.10483       693.46817    
   2176000   301.87062      0.02745285     3.6468034      748.94933     -44.982806      703.96653    
   2177000   298.55303      0.02745285     8.7390156      740.71829     -47.242495      693.47579    
   2178000   293.16724      0.02745285     8.6273463      727.35601     -45.006694      682.34932    
   2179000   291.04546      0.02745285     14.974508      722.0918      -42.239602      679.8522     
   2180000   304.03438      0.02745285     15.516591      754.31769     -44.126646      710.19104    
   2181000   316.2012       0.02745285     12.169444      784.50388     -43.930735      740.57315    
   2182000   293.78606      0.02745285     6.7385069      728.8913      -41.772545      687.11876    
   2183000   288.80431      0.02745285     14.427912      716.53144     -41.485644      675.0458     
   2184000   301.3273       0.02745285     16.887965      747.60133     -42.365792      705.23554    
   2185000   334.36406      0.02745285     11.274319      829.56644     -47.635239      781.9312     
   2186000   294.99076      0.02745285     7.1558227      731.88021     -50.569333      681.31087    
   2187000   274.70108      0.02745285     13.035883      681.54094     -50.59095       630.94999    
   2188000   294.962        0.02745285     11.020863      731.80886     -48.467963      683.34089    
   2189000   295.87483      0.02745285     15.467886      734.07361     -49.385552      684.68806    
   2190000   311.48241      0.02745285     19.404564      772.79643     -42.544557      730.25188    
   2191000   309.60803      0.02745285     17.976287      768.14607     -49.386102      718.75997    
   2192000   303.88352      0.02745285     13.988617      753.9434      -46.265063      707.67834    
   2193000   308.38412      0.02745285     11.176217      765.10951     -46.196132      718.91338    
   2194000   309.84154      0.02745285     16.470447      768.72541     -48.90957       719.81584    
   2195000   284.84073      0.02745285     17.542097      706.69771     -44.954089      661.74362    
   2196000   305.89087      0.02745285     11.884172      758.92368     -38.212032      720.71165    
   2197000   304.63464      0.02745285     18.269471      755.80694     -42.870578      712.93636    
   2198000   272.89628      0.02745285     10.903344      677.06319     -44.038376      633.02481    
   2199000   302.36729      0.02745285     14.395811      750.18157     -38.908268      711.2733     
   2200000   302.47421      0.02745285     16.716575      750.44685     -43.706295      706.74055    
   2201000   295.88585      0.02745285     16.219242      734.10095     -37.487795      696.61316    
   2202000   291.90853      0.02745285     15.775775      724.23312     -39.248568      684.98455    
   2203000   304.65344      0.02745285     15.72716       755.85358     -37.781194      718.07239    
   2204000   312.6814       0.02745285     13.809617      775.77118     -39.612811      736.15836    
   2205000   309.10767      0.02745285     13.440071      766.90466     -46.254424      720.65024    
   2206000   286.77016      0.02745285     18.040981      711.48467     -44.824322      666.66035    
   2207000   310.85475      0.02745285     14.93918       771.2392      -49.528029      721.71117    
   2208000   304.17542      0.02745285     13.549435      754.6676      -50.834936      703.83266    
   2209000   295.97971      0.02745285     13.975616      734.33383     -42.667021      691.6668     
   2210000   303.1126       0.02745285     14.897809      752.03071     -49.442012      702.58869    
   2211000   301.09028      0.02745285     14.783391      747.01329     -50.301451      696.71184    
   2212000   290.12802      0.02745285     16.77953       719.81561     -50.583621      669.23199    
   2213000   302.50956      0.02745285     15.527392      750.53456     -53.313963      697.2206     
   2214000   302.67639      0.02745285     20.031903      750.94846     -52.953075      697.99538    
   2215000   297.73475      0.02745285     10.509614      738.68813     -54.242637      684.4455     
   2216000   296.79294      0.02745285     24.067803      736.35146     -50.403663      685.9478     
   2217000   317.66857      0.02745285     23.513492      788.14448     -50.597842      737.54664    
   2218000   297.49766      0.02745285     10.866509      738.0999      -45.499367      692.60054    
   2219000   278.99362      0.02745285     18.915713      692.19087     -49.107113      643.08376    
   2220000   300.28187      0.02745285     14.468668      745.00759     -52.34172       692.66587    
   2221000   292.63945      0.02745285     11.064199      726.04654     -52.746388      673.30015    
   2222000   290.71207      0.02745285     13.854534      721.26465     -50.598579      670.66607    
   2223000   301.54838      0.02745285     16.497705      748.14984     -50.585767      697.56407    
   2224000   309.3329       0.02745285     15.118781      767.46345     -49.104236      718.35922    
   2225000   300.50126      0.02745285     15.537042      745.55192     -47.514388      698.03753    
   2226000   290.44478      0.02745285     7.2203689      720.60149     -49.926669      670.67482    
   2227000   303.54643      0.02745285     15.977127      753.10707     -50.134422      702.97265    
   2228000   313.22506      0.02745285     29.190549      777.12002     -54.202838      722.91718    
   2229000   298.62394      0.02745285     11.700762      740.89423     -52.633616      688.26061    
   2230000   289.36408      0.02745285     0.68553918     717.92025     -55.485074      662.43518    
   2231000   302.18805      0.02745285     14.205713      749.73688     -60.457142      689.27974    
   2232000   315.67114      0.02745285     36.731422      783.18879     -52.481004      730.70779    
   2233000   301.02538      0.02745285     3.5482233      746.85227     -57.147008      689.70526    
   2234000   286.53092      0.02745285     9.4122838      710.89112     -57.103827      653.78729    
   2235000   303.81879      0.02745285     32.160054      753.7828      -55.435159      698.34764    
   2236000   312.5225       0.02745285     5.5901317      775.37693     -62.172397      713.20453    
   2237000   300.00052      0.02745285     3.4144336      744.30956     -53.855857      690.4537     
   2238000   292.92204      0.02745285     24.211041      726.74767     -55.507932      671.23974    
   2239000   299.15646      0.02745285     3.6594382      742.21543     -59.132187      683.08324    
   2240000   303.75273      0.02745285     3.7185432      753.6189      -63.153331      690.46557    
   2241000   304.3514       0.02745285     12.916644      755.10421     -52.165121      702.93909    
   2242000   294.40949      0.02745285     20.443409      730.43806     -54.603559      675.8345     
   2243000   319.60657      0.02745285     30.467062      792.9527      -49.568187      743.38451    
   2244000   305.38713      0.02745285     2.0667386      757.67388     -54.034446      703.63943    
   2245000   287.10791      0.02745285     2.2940911      712.32263     -54.931175      657.39146    
   2246000   295.87144      0.02745285     20.909051      734.0652      -50.524497      683.54071    
   2247000   310.65761      0.02745285     12.337607      770.75008     -48.952298      721.79779    
   2248000   307.5793       0.02745285     5.0308191      763.11272     -49.313425      713.7993     
   2249000   293.71767      0.02745285    -1.8307947      728.72164     -48.052185      680.66945    
   2250000   290.05747      0.02745285     17.646812      719.64057     -47.043246      672.59733    
   2251000   302.74754      0.02745285     16.070072      751.12499     -54.501569      696.62342    
   2252000   312.60485      0.02745285     7.0062672      775.58126     -51.544493      724.03677    
   2253000   293.86179      0.02745285     8.505975       729.07921     -54.525107      674.5541     
   2254000   294.70819      0.02745285     14.642279      731.17913     -57.5831        673.59603    
   2255000   306.8298       0.02745285     26.471739      761.2532      -52.990319      708.26288    
   2256000   304.37732      0.02745285     11.884704      755.16852     -60.013694      695.15483    
   2257000   299.33224      0.02745285     13.72855       742.65154     -54.128913      688.52262    
   2258000   302.27711      0.02745285     14.664343      749.95783     -50.461121      699.49671    
   2259000   304.1672       0.02745285     15.936868      754.64721     -49.594996      705.05221    
   2260000   312.71766      0.02745285     14.149156      775.86114     -43.260674      732.60047    
   2261000   303.12268      0.02745285     14.059627      752.05572     -44.838142      707.21758    
   2262000   293.06389      0.02745285     13.204062      727.09958     -42.394118      684.70546    
   2263000   289.96706      0.02745285     14.190683      719.41626     -42.869555      676.54671    
   2264000   291.37301      0.02745285     13.446773      722.90447     -44.343743      678.56073    
   2265000   307.07273      0.02745285     19.886892      761.85591     -49.346768      712.50914    
   2266000   305.9222       0.02745285     17.318382      759.00141     -51.151377      707.85003    
   2267000   298.45342      0.02745285     18.693284      740.47117     -48.241712      692.22945    
   2268000   279.18098      0.02745285     10.565452      692.6557      -47.401843      645.25385    
   2269000   293.86227      0.02745285     9.27203        729.08038     -47.508337      681.57205    
   2270000   319.59976      0.02745285     15.971957      792.9358      -50.548198      742.3876     
   2271000   303.6282       0.02745285     19.821896      753.30994     -59.303111      694.00683    
   2272000   289.98388      0.02745285     14.157303      719.45801     -56.804351      662.65366    
   2273000   304.64123      0.02745285     11.452919      755.82329     -57.327929      698.49536    
   2274000   305.50007      0.02745285     15.214124      757.9541      -55.176197      702.77791    
   2275000   299.38485      0.02745285     13.473857      742.78206     -51.418242      691.36382    
   2276000   291.16903      0.02745285     13.770699      722.39839     -50.198387      672.2        
   2277000   308.71321      0.02745285     13.937202      765.92598     -54.620736      711.30524    
   2278000   299.06149      0.02745285     14.27617       741.9798      -53.364786      688.61501    
   2279000   299.35827      0.02745285     16.022466      742.71612     -53.547777      689.16834    
   2280000   293.36353      0.02745285     8.8181624      727.84301     -54.417497      673.42552    
   2281000   303.764        0.02745285    -11.504666      753.64686     -56.617823      697.02904    
   2282000   303.74257      0.02745285     25.59185       753.59368     -52.208084      701.3856     
   2283000   293.4405       0.02745285     12.497492      728.03396     -54.053232      673.98073    
   2284000   301.48621      0.02745285     13.499346      747.99561     -50.949726      697.04588    
   2285000   295.25607      0.02745285     6.8787408      732.53844     -50.103484      682.43496    
   2286000   292.81865      0.02745285     7.0083231      726.49114     -54.801016      671.69012    
   2287000   306.26627      0.02745285     22.533585      759.85505     -55.687296      704.16775    
   2288000   294.32511      0.02745285     13.937683      730.22871     -53.318396      676.91032    
   2289000   296.8478       0.02745285     12.075881      736.48758     -54.314323      682.17325    
   2290000   304.79523      0.02745285     13.326181      756.20538     -54.453513      701.75186    
   2291000   299.44457      0.02745285     18.686634      742.93024     -52.172794      690.75745    
   2292000   300.96107      0.02745285     12.184428      746.69272     -54.607664      692.08505    
   2293000   304.46778      0.02745285     14.11764       755.39295     -53.734135      701.65882    
   2294000   300.24656      0.02745285     15.364324      744.91999     -52.570363      692.34963    
   2295000   298.3345       0.02745285     14.222699      740.17613     -46.559957      693.61617    
   2296000   301.99598      0.02745285     9.8928516      749.26036     -51.632206      697.62815    
   2297000   294.41279      0.02745285     15.452959      730.44626     -48.489753      681.95651    
   2298000   290.84387      0.02745285     13.739454      721.59165     -52.901378      668.69027    
   2299000   297.69064      0.02745285     14.532724      738.57868     -50.490285      688.08839    
   2300000   309.83788      0.02745285     14.137927      768.71632     -43.925265      724.79105    
   2301000   302.31011      0.02745285     13.609632      750.03971     -46.293205      703.74651    
   2302000   287.48235      0.02745285     15.583371      713.25164     -43.217082      670.03455    
   2303000   291.59241      0.02745285     14.320693      723.4488      -47.187406      676.26139    
   2304000   299.21997      0.02745285     14.835191      742.37298     -46.291549      696.08143    
   2305000   306.23668      0.02745285     19.283197      759.78165     -50.961351      708.8203     
   2306000   297.43023      0.02745285     14.706078      737.93261     -51.68446       686.24815    
   2307000   294.12229      0.02745285     12.97928       729.72552     -54.372022      675.3535     
   2308000   310.14442      0.02745285     11.999996      769.47686     -50.266041      719.21082    
   2309000   301.31805      0.02745285     15.314827      747.57838     -51.59371       695.98467    
   2310000   300.80542      0.02745285     14.672293      746.30655     -50.965148      695.3414     
   2311000   297.11897      0.02745285     14.201348      737.16034     -46.654779      690.50556    
   2312000   301.88501      0.02745285     11.713945      748.98503     -41.68076       707.30427    
   2313000   292.71191      0.02745285     14.240444      726.22631     -50.050002      676.17631    
   2314000   298.54083      0.02745285     12.222633      740.68803     -45.094153      695.59388    
   2315000   305.30107      0.02745285     13.57512       757.46037     -48.071809      709.38856    
   2316000   298.27666      0.02745285     14.575256      740.03261     -51.670541      688.36207    
   2317000   304.34622      0.02745285     15.915834      755.09136     -45.472979      709.61838    
   2318000   290.04588      0.02745285     7.9333614      719.61183     -46.038488      673.57335    
   2319000   294.53064      0.02745285     18.016984      730.73864     -46.333564      684.40508    
   2320000   310.56579      0.02745285     15.511973      770.5223      -51.841119      718.68118    
   2321000   296.45855      0.02745285     14.390946      735.52183     -51.15926       684.36256    
   2322000   288.09611      0.02745285     15.308992      714.77438     -52.447691      662.32669    
   2323000   304.90613      0.02745285     13.360212      756.48052     -54.837492      701.64303    
   2324000   296.67183      0.02745285     9.9699922      736.05098     -57.758304      678.29267    
   2325000   284.75149      0.02745285     18.526964      706.47629     -51.366431      655.10985    
   2326000   308.76463      0.02745285     14.756164      766.05356     -50.865269      715.18829    
   2327000   298.77815      0.02745285    -4.8538243      741.27683     -49.58614       691.69069    
   2328000   281.97007      0.02745285     10.31283       699.57551     -47.237247      652.33826    
   2329000   305.68075      0.02745285     36.339968      758.40237     -45.863533      712.53883    
   2330000   305.92646      0.02745285     20.34735       759.01199     -44.860383      714.1516     
   2331000   312.40183      0.02745285     17.889704      775.07754     -47.303339      727.7742     
   2332000   300.24912      0.02745285     7.6394901      744.92635     -43.234847      701.69151    
   2333000   293.39309      0.02745285     18.495573      727.91635     -44.776647      683.13971    
   2334000   293.76633      0.02745285     22.625516      728.84235     -37.927019      690.91533    
   2335000   300.36877      0.02745285     11.776744      745.2232      -46.947883      698.27532    
   2336000   292.50425      0.02745285     13.387779      725.7111      -45.49727       680.21383    
   2337000   305.06708      0.02745285     11.588922      756.87983     -46.156183      710.72365    
   2338000   299.14585      0.02745285     17.393442      742.1891      -42.240845      699.94826    
   2339000   288.74735      0.02745285     14.680433      716.39012     -46.461921      669.9282     
   2340000   281.35366      0.02745285     12.550652      698.04618     -43.057688      654.98849    
   2341000   309.78782      0.02745285     13.499439      768.59211     -50.861031      717.73108    
   2342000   296.63355      0.02745285     13.695379      735.95602     -46.37828       689.57774    
   2343000   291.99738      0.02745285     15.018117      724.45356     -50.273993      674.17956    
   2344000   308.55665      0.02745285     14.665503      765.53757     -45.887631      719.64993    
   2345000   299.3642       0.02745285     13.088721      742.73083     -46.747702      695.98313    
   2346000   293.26039      0.02745285     12.584497      727.5871      -47.345307      680.2418     
   2347000   292.88291      0.02745285     13.159561      726.65057     -47.60105       679.04952    
   2348000   309.26965      0.02745285     14.011522      767.30654     -46.626555      720.67998    
   2349000   301.68637      0.02745285     12.644271      748.49221     -44.561355      703.93085    
   2350000   299.37242      0.02745285     14.11276       742.75124     -52.216025      690.53521    
   2351000   297.29106      0.02745285     15.256787      737.58732     -49.209313      688.378      
   2352000   308.69333      0.02745285     14.180608      765.87665     -41.045309      724.83134    
   2353000   288.38677      0.02745285     9.7953863      715.49552     -55.673097      659.82242    
   2354000   290.32682      0.02745285     13.014225      720.30884     -53.088635      667.2202     
   2355000   316.09279      0.02745285     16.65688       784.23491     -52.953882      731.28103    
   2356000   297.94462      0.02745285     15.199116      739.20881     -50.93651       688.2723     
   2357000   290.9415       0.02745285     13.071141      721.83387     -50.89552       670.93835    
   2358000   287.09232      0.02745285     20.061288      712.28396     -47.063332      665.22063    
   2359000   308.12242      0.02745285     14.753363      764.46022     -45.480428      718.97979    
   2360000   303.05425      0.02745285     17.161833      751.88596     -45.689646      706.19631    
   2361000   297.73143      0.02745285     16.967887      738.67988     -46.541167      692.13871    
   2362000   301.75963      0.02745285     9.3162155      748.67396     -47.563916      701.11005    
   2363000   319.35465      0.02745285     10.358413      792.32768     -46.16115       746.16653    
   2364000   284.86137      0.02745285     16.799265      706.7489      -50.809519      655.93938    
   2365000   293.51422      0.02745285     14.371603      728.21686     -51.215342      677.00152    
   2366000   301.88318      0.02745285     12.014221      748.98049     -57.464839      691.51565    
   2367000   303.93736      0.02745285     9.858377       754.07697     -47.261313      706.81565    
   2368000   301.13078      0.02745285     15.543588      747.11376     -52.936054      694.1777     
   2369000   301.97251      0.02745285     17.496991      749.20212     -53.702167      695.49995    
   2370000   294.74571      0.02745285     13.288106      731.27223     -46.798621      684.47361    
   2371000   301.01801      0.02745285     13.953264      746.83399     -49.854972      696.97902    
   2372000   313.40141      0.02745285     14.099516      777.55753     -39.783894      737.77364    
   2373000   309.43463      0.02745285     17.392731      767.71584     -41.805553      725.91029    
   2374000   295.47676      0.02745285     15.91024       733.08598     -44.078785      689.00719    
   2375000   288.21192      0.02745285     12.756214      715.06173     -48.326633      666.7351     
   2376000   297.73563      0.02745285     8.2827043      738.69031     -44.912031      693.77828    
   2377000   306.08681      0.02745285     13.149588      759.4098      -42.872749      716.53705    
   2378000   314.31622      0.02745285     19.337836      779.82722     -48.320982      731.50624    
   2379000   306.37699      0.02745285     14.754603      760.12975     -52.381984      707.74777    
   2380000   292.36642      0.02745285     13.871238      725.36914     -50.496884      674.87226    
   2381000   277.20227      0.02745285     13.927745      687.74648     -53.383091      634.36339    
   2382000   299.18979      0.02745285     15.287787      742.29811     -56.744368      685.55374    
   2383000   308.23794      0.02745285     17.005315      764.74683     -54.411072      710.33576    
   2384000   308.8987       0.02745285     14.254803      766.38619     -56.434208      709.95198    
   2385000   288.88879      0.02745285     7.9708214      716.74106     -53.893475      662.84759    
   2386000   296.59097      0.02745285     16.716004      735.85038     -51.243464      684.60692    
   2387000   321.62091      0.02745285     16.649096      797.95035     -52.647832      745.30251    
   2388000   297.32237      0.02745285     13.169095      737.665       -48.9492        688.7158     
   2389000   292.85376      0.02745285     15.029156      726.57826     -48.320363      678.25789    
   2390000   279.28003      0.02745285     10.960769      692.90146     -51.167887      641.73358    
   2391000   304.68074      0.02745285     11.672694      755.9213      -46.773201      709.1481     
   2392000   304.91828      0.02745285     17.83766       756.51066     -46.212115      710.29855    
   2393000   285.68791      0.02745285     13.176361      708.79957     -44.632402      664.16717    
   2394000   310.81974      0.02745285     9.1103904      771.15234     -46.343155      724.80919    
   2395000   303.96732      0.02745285     14.565197      754.15131     -42.456385      711.69492    
   2396000   291.6276       0.02745285     14.80729       723.5361      -41.856086      681.68002    
   2397000   289.33204      0.02745285     13.248         717.84077     -44.63559       673.20518    
   2398000   305.31135      0.02745285     13.806761      757.48587     -48.238793      709.24708    
   2399000   303.8405       0.02745285     12.609303      753.83665     -48.88914       704.94751    
   2400000   285.70961      0.02745285     10.88546       708.85341     -46.953618      661.89979    
   2401000   293.69713      0.02745285     15.615252      728.67068     -43.894434      684.77625    
   2402000   313.24796      0.02745285     14.13879       777.17684     -46.659238      730.5176     
   2403000   300.0155       0.02745285     13.871249      744.34673     -41.470912      702.87582    
   2404000   285.91835      0.02745285     11.779833      709.37132     -40.758477      668.61284    
   2405000   301.10579      0.02745285     16.561553      747.05176     -40.258063      706.7937     
   2406000   317.96603      0.02745285     17.931194      788.88249     -39.89081       748.99168    
   2407000   284.22589      0.02745285     13.47435       705.17227     -42.605969      662.56631    
   2408000   293.9798       0.02745285     12.492877      729.37198     -45.570174      683.8018     
   2409000   303.55684      0.02745285     14.055658      753.13289     -43.451282      709.68161    
   2410000   304.30012      0.02745285     11.535784      754.97697     -44.219798      710.75718    
   2411000   307.60396      0.02745285     13.973231      763.17389     -42.59549       720.5784     
   2412000   290.42635      0.02745285     16.93654       720.55577     -47.448264      673.1075     
   2413000   301.55924      0.02745285     18.040731      748.17679     -47.03711       701.13968    
   2414000   308.11762      0.02745285     9.2933844      764.44832     -44.92557       719.52275    
   2415000   304.35923      0.02745285     13.271358      755.12364     -42.959995      712.16365    
   2416000   299.77994      0.02745285     21.497339      743.76228     -45.47232       698.28996    
   2417000   296.52545      0.02745285    -5.7875979      735.68782     -43.515181      692.17264    
   2418000   294.38475      0.02745285     18.055378      730.37667     -44.508021      685.86865    
   2419000   310.88413      0.02745285     29.101206      771.31209     -43.264777      728.04731    
   2420000   293.31973      0.02745285     9.0273431      727.73433     -46.231174      681.50315    
   2421000   294.54928      0.02745285     13.743405      730.78489     -44.31673       686.46816    
   2422000   301.09419      0.02745285     15.461034      747.02298     -42.6681        704.35488    
   2423000   310.03369      0.02745285     14.739393      769.20213     -44.322607      724.87953    
   2424000   290.68018      0.02745285     12.009968      721.18553     -46.258163      674.92736    
   2425000   295.15517      0.02745285     17.337548      732.28811     -44.117356      688.17075    
   2426000   309.65372      0.02745285     17.35673       768.2594      -44.627463      723.63194    
   2427000   317.97814      0.02745285     13.521343      788.91254     -44.288753      744.62379    
   2428000   305.7567       0.02745285     15.265215      758.59079     -49.299711      709.29108    
   2429000   288.59942      0.02745285     15.334104      716.02312     -50.144512      665.87861    
   2430000   285.24648      0.02745285     11.329776      707.70438     -47.139364      660.56501    
   2431000   304.90327      0.02745285     14.496415      756.47341     -49.620374      706.85304    
   2432000   298.62077      0.02745285     20.669402      740.88636     -52.343882      688.54248    
   2433000   288.36922      0.02745285     12.254773      715.452       -42.659069      672.79293    
   2434000   296.62827      0.02745285     13.797642      735.94291     -47.449428      688.49348    
   2435000   317.43178      0.02745285     16.736319      787.55699     -46.465849      741.09114    
   2436000   304.8456       0.02745285     19.957111      756.33034     -45.433514      710.89682    
   2437000   294.83949      0.02745285     15.271545      731.5049      -44.542859      686.96204    
   2438000   286.93991      0.02745285     10.087795      711.90582     -48.612405      663.29342    
   2439000   311.60899      0.02745285    -7.9450508      773.11051     -46.213235      726.89727    
   2440000   314.56963      0.02745285     17.061642      780.45593     -45.655777      734.80015    
   2441000   291.99207      0.02745285     18.439441      724.44036     -48.154545      676.28582    
   2442000   298.29798      0.02745285    -1.6762248      740.08552     -50.066233      690.01929    
   2443000   310.8274       0.02745285     4.7079269      771.17134     -50.171169      721.00017    
   2444000   308.85442      0.02745285     17.502194      766.27633     -48.558772      717.71756    
   2445000   290.28405      0.02745285     33.607443      720.20273     -42.180619      678.02211    
   2446000   294.60693      0.02745285     17.096265      730.92792     -42.316323      688.61159    
   2447000   304.55432      0.02745285     4.6241814      755.60767     -39.708617      715.89905    
   2448000   314.82674      0.02745285     16.112605      781.09383     -45.304181      735.78965    
   2449000   293.22117      0.02745285     19.56191       727.48981     -50.259202      677.23061    
   2450000   288.91855      0.02745285     9.2959576      716.81488     -50.940056      665.87482    
   2451000   301.92159      0.02745285     2.6524691      749.07578     -57.343383      691.7324     
   2452000   311.59439      0.02745285     18.364855      773.07427     -54.869123      718.20515    
   2453000   288.63225      0.02745285     19.173984      716.10457     -50.227842      665.87673    
   2454000   292.99142      0.02745285     16.483093      726.91978     -47.538867      679.38091    
   2455000   302.5235       0.02745285     9.9493262      750.56915     -44.781089      705.78806    
   2456000   320.11975      0.02745285     18.424148      794.22591     -47.793292      746.43262    
   2457000   295.8355       0.02745285     24.59562       733.97604     -54.206344      679.76969    
   2458000   284.7834       0.02745285     14.179933      706.55547     -45.541857      661.01362    
   2459000   306.84994      0.02745285     1.7262079      761.30316     -50.840226      710.46294    
   2460000   292.17959      0.02745285     14.598929      724.90562     -50.129531      674.77609    
   2461000   300.09642      0.02745285     18.410605      744.5475      -47.662353      696.88515    
   2462000   302.58118      0.02745285    -16.456468      750.71226     -47.435604      703.27665    
   2463000   304.18453      0.02745285     18.313587      754.6902      -46.76586       707.92434    
   2464000   299.87426      0.02745285     23.019892      743.99631     -44.897439      699.09887    
   2465000   305.18264      0.02745285     13.598133      757.16655     -43.431645      713.7349     
   2466000   307.72639      0.02745285     12.453308      763.47765     -45.047253      718.4304     
   2467000   295.52216      0.02745285     16.906047      733.19863     -43.230931      689.9677     
   2468000   299.99734      0.02745285     19.198221      744.30166     -48.104849      696.19681    
   2469000   307.8709       0.02745285     8.8111173      763.83618     -45.923198      717.91298    
   2470000   304.03807      0.02745285     12.292398      754.32684     -46.238201      708.08864    
   2471000   295.42291      0.02745285     25.798769      732.95238     -48.107424      684.84495    
   2472000   302.99913      0.02745285     15.222822      751.74919     -47.831798      703.91739    
   2473000   298.19529      0.02745285    -7.9586372      739.83073     -43.885445      695.94529    
   2474000   295.70904      0.02745285     18.257101      733.66227     -43.199187      690.46309    
   2475000   305.42068      0.02745285     16.437659      757.75713     -44.199418      713.55771    
   2476000   312.03696      0.02745285     17.533932      774.17229     -47.303175      726.86912    
   2477000   283.82166      0.02745285     9.8074001      704.16935     -47.238164      656.93119    
   2478000   288.36746      0.02745285     11.81175       715.44762     -46.145279      669.30234    
   2479000   304.3223       0.02745285     14.662947      755.03201     -44.509073      710.52294    
   2480000   311.12829      0.02745285     15.442563      771.91786     -50.1456        721.77226    
   2481000   298.64336      0.02745285     16.883139      740.9424      -54.61971       686.32269    
   2482000   289.75989      0.02745285     14.669913      718.90228     -50.938955      667.96333    
   2483000   292.94795      0.02745285     11.959717      726.81193     -45.847401      680.96453    
   2484000   316.27051      0.02745285     16.57312       784.67586     -49.87954       734.79632    
   2485000   314.51669      0.02745285     12.79343       780.32458     -52.033632      728.29095    
   2486000   285.58098      0.02745285     10.519064      708.53428     -48.577556      659.95672    
   2487000   300.36712      0.02745285     14.900736      745.21909     -47.493968      697.72512    
   2488000   309.50363      0.02745285     10.927186      767.88705     -44.252609      723.63444    
   2489000   298.31464      0.02745285     3.8244471      740.12685     -48.902488      691.22436    
   2490000   290.92158      0.02745285     9.7203745      721.78446     -42.579193      679.20527    
   2491000   297.41905      0.02745285     17.037499      737.90487     -43.954312      693.95056    
   2492000   306.57189      0.02745285     26.187236      760.61332     -44.351774      716.26155    
   2493000   299.37575      0.02745285     6.0061282      742.75948     -44.707106      698.05237    
   2494000   298.89631      0.02745285     15.558254      741.56997     -45.604732      695.96524    
   2495000   307.94273      0.02745285     29.071741      764.01441     -45.416255      718.59815    
   2496000   304.01154      0.02745285     7.0882614      754.26101     -44.057692      710.20332    
   2497000   274.40022      0.02745285    -2.87678        680.79451     -39.575683      641.21883    
   2498000   300.38213      0.02745285     15.535092      745.25634     -39.241631      706.01471    
   2499000   303.29037      0.02745285     14.321948      752.47178     -45.831737      706.64004    
   2500000   314.86651      0.02745285     26.880528      781.1925      -50.787667      730.40483    
   2501000   310.82095      0.02745285    -10.366937      771.15535     -43.053408      728.10194    
   2502000   275.88214      0.02745285    -16.35942       684.47121     -39.803067      644.66814    
   2503000   298.36367      0.02745285     21.305739      740.2485      -41.891659      698.35684    
   2504000   310.95416      0.02745285     11.169074      771.48584     -45.585448      725.90039    
   2505000   292.25225      0.02745285     6.9324544      725.08589     -48.719814      676.36608    
   2506000   283.31089      0.02745285     6.5956298      702.90214     -49.148078      653.75406    
   2507000   297.8569       0.02745285     19.659056      738.99119     -47.757487      691.2337     
   2508000   307.65192      0.02745285     19.423097      763.2929      -44.295102      718.9978     
   2509000   306.68342      0.02745285     1.2864218      760.89003     -43.766472      717.12356    
   2510000   293.06459      0.02745285     19.373415      727.10133     -43.963218      683.13811    
   2511000   284.46968      0.02745285     29.223486      705.77712     -39.114651      666.66247    
   2512000   312.38174      0.02745285     22.425911      775.0277      -40.849383      734.17832    
   2513000   313.00585      0.02745285     7.943982       776.57614     -40.211562      736.36458    
   2514000   302.09736      0.02745285     13.187718      749.51187     -44.517633      704.99424    
   2515000   297.43952      0.02745285     26.226814      737.95564     -42.645669      695.30997    
   2516000   287.68734      0.02745285     18.452842      713.76023     -37.260067      676.50016    
   2517000   318.03287      0.02745285     15.70058       789.04832     -44.232262      744.81606    
   2518000   303.60138      0.02745285     4.1204257      753.24339     -38.408597      714.83479    
   2519000   297.73605      0.02745285     14.573193      738.69134     -36.129542      702.5618     
   2520000   306.99549      0.02745285     18.922889      761.66428     -34.722198      726.94208    
   2521000   293.27631      0.02745285     7.1759289      727.62662     -43.805739      683.82088    
   2522000   290.31432      0.02745285     17.210537      720.27783     -43.56534       676.71249    
   2523000   307.46176      0.02745285     18.208895      762.8211      -45.128205      717.6929     
   2524000   301.77247      0.02745285     13.916294      748.70583     -45.182262      703.52357    
   2525000   293.1277       0.02745285     7.9994946      727.2579      -42.750879      684.50702    
   2526000   305.89268      0.02745285     22.160374      758.92817     -42.916975      716.01119    
   2527000   301.76733      0.02745285     19.086903      748.69305     -40.361681      708.33137    
   2528000   291.95023      0.02745285     5.5353383      724.33656     -42.36419       681.97237    
   2529000   297.26994      0.02745285     16.75063       737.53491     -46.144261      691.39064    
   2530000   313.85713      0.02745285     21.743118      778.68819     -45.549888      733.1383     
   2531000   311.14735      0.02745285     12.861577      771.96516     -48.891476      723.07368    
   2532000   289.27888      0.02745285     5.741784       717.70888     -51.174083      666.53479    
   2533000   284.97879      0.02745285     12.709508      707.04022     -40.885625      666.1546     
   2534000   298.16482      0.02745285     17.011308      739.75513     -44.61844       695.13669    
   2535000   293.62548      0.02745285     18.176497      728.49291     -52.249792      676.24312    
   2536000   311.58351      0.02745285     17.249336      773.04728     -52.415109      720.63217    
   2537000   292.29122      0.02745285     3.107327       725.18256     -48.32088       676.86168    
   2538000   305.39592      0.02745285     8.0740195      757.6957      -45.652039      712.04366    
   2539000   294.09829      0.02745285     35.8552        729.66597     -46.765224      682.90074    
   2540000   297.57083      0.02745285     22.238571      738.28144     -45.626369      692.65507    
   2541000   299.42357      0.02745285     10.84042       742.87814     -45.750495      697.12764    
   2542000   298.84733      0.02745285     13.115547      741.44846     -43.348463      698.1        
   2543000   292.75303      0.02745285     22.754811      726.32834     -45.890287      680.43805    
   2544000   315.55481      0.02745285    -0.20139821     782.90018     -46.485939      736.41424    
   2545000   302.65464      0.02745285    -15.019279      750.8945      -50.69933       700.19517    
   2546000   294.40859      0.02745285     5.3340695      730.43584     -51.68309       678.75275    
   2547000   300.46831      0.02745285     12.810193      745.47015     -52.256167      693.21398    
   2548000   306.67916      0.02745285     19.902345      760.87946     -53.21867       707.66079    
   2549000   305.86299      0.02745285     17.240375      758.8545      -52.225765      706.62874    
   2550000   293.44451      0.02745285     3.7643027      728.04392     -49.533362      678.51055    
   2551000   290.2421       0.02745285     12.008553      720.09865     -51.177675      668.92098    
   2552000   302.42151      0.02745285     19.362345      750.31611     -48.376077      701.94003    
   2553000   313.13798      0.02745285     6.4015802      776.90396     -45.058904      731.84506    
   2554000   296.31051      0.02745285     13.924522      735.15454     -52.577528      682.57701    
   2555000   298.40411      0.02745285     24.438614      740.34882     -46.324747      694.02408    
   2556000   298.04131      0.02745285     11.403842      739.44869     -50.417836      689.03086    
   2557000   287.82252      0.02745285     13.550233      714.0956      -50.375651      663.71995    
   2558000   311.37649      0.02745285     15.511261      772.53366     -48.251012      724.28265    
   2559000   296.2733       0.02745285     10.875378      735.06222     -48.009308      687.05291    
   2560000   279.58407      0.02745285     11.896049      693.65579     -44.261132      649.39466    
   2561000   309.34401      0.02745285     14.85877       767.49102     -48.038403      719.45262    
   2562000   306.47156      0.02745285     14.140308      760.36438     -48.035405      712.32898    
   2563000   292.1109       0.02745285     11.436742      724.7352      -47.005835      677.72936    
   2564000   285.42255      0.02745285     8.8963873      708.14121     -51.17463       656.96658    
   2565000   292.81698      0.02745285     14.270573      726.48701     -47.610715      678.87629    
   2566000   321.45131      0.02745285     14.474968      797.52955     -49.510675      748.01888    
   2567000   304.086        0.02745285     12.289777      754.44574     -47.370747      707.07499    
   2568000   297.09408      0.02745285     14.211624      737.09861     -44.718209      692.3804     
   2569000   294.02904      0.02745285     17.343453      729.49416     -43.29001       686.20415    
   2570000   303.44909      0.02745285     15.90717       752.86555     -35.967748      716.8978     
   2571000   299.80979      0.02745285     18.873137      743.83634     -36.612752      707.22359    
   2572000   296.22241      0.02745285     15.7132        734.93597     -41.506303      693.42967    
   2573000   293.53775      0.02745285     14.563931      728.27524     -40.711199      687.56404    
   2574000   300.20658      0.02745285     11.548171      744.82079     -40.664502      704.15629    
   2575000   310.82872      0.02745285     15.003022      771.17463     -34.958563      736.21607    
   2576000   310.89772      0.02745285     16.996074      771.34581     -36.453756      734.89205    
   2577000   290.59517      0.02745285     9.4528389      720.97462     -39.833626      681.14099    
   2578000   299.40648      0.02745285     15.203611      742.83573     -39.188093      703.64764    
   2579000   291.89084      0.02745285     15.785511      724.18921     -35.652783      688.53643    
   2580000   295.37306      0.02745285     11.365552      732.82871     -38.688551      694.14015    
   2581000   313.82103      0.02745285     14.498161      778.59863     -41.02477       737.57386    
   2582000   295.09293      0.02745285     16.497031      732.13368     -38.937226      693.19646    
   2583000   295.27109      0.02745285     12.41737       732.57572     -39.199058      693.37666    
   2584000   309.60849      0.02745285     15.015004      768.14721     -44.801078      723.34613    
   2585000   295.1667       0.02745285     18.470404      732.31672     -43.219286      689.09743    
   2586000   284.23218      0.02745285     12.745909      705.18787     -45.969114      659.21876    
   2587000   316.35749      0.02745285     12.049474      784.89166     -40.947756      743.9439     
   2588000   300.28174      0.02745285     23.82149       745.00727     -35.67349       709.33378    
   2589000   284.6928       0.02745285     5.7179879      706.33069     -42.032787      664.2979     
   2590000   294.38116      0.02745285     3.5503045      730.36778     -42.873521      687.49426    
   2591000   314.29771      0.02745285     9.3895423      779.78129     -42.793331      736.98796    
   2592000   300.41153      0.02745285     19.032439      745.32928     -45.917866      699.41141    
   2593000   295.45757      0.02745285     25.956364      733.03837     -46.147849      686.89052    
   2594000   294.74654      0.02745285    -3.9887686      731.27429     -47.106659      684.16763    
   2595000   304.62617      0.02745285     15.138866      755.78591     -45.211408      710.57451    
   2596000   291.67472      0.02745285     45.099484      723.65302     -41.625401      682.02762    
   2597000   300.739        0.02745285     14.559182      746.14174     -46.515116      699.62663    
   2598000   302.9324       0.02745285    -8.1861599      751.58363     -49.672072      701.91155    
   2599000   310.28306      0.02745285     6.7160873      769.82082     -46.717932      723.10289    
   2600000   295.18634      0.02745285     25.268094      732.36545     -43.835615      688.52984    
   2601000   281.32524      0.02745285    -6.2696643      697.97567     -43.751583      654.22409    
   2602000   304.75912      0.02745285     6.832769       756.11577     -43.072111      713.04365    
   2603000   309.61891      0.02745285     30.706404      768.17304     -41.263281      726.90976    
   2604000   301.48671      0.02745285     39.489307      747.99684     -44.618716      703.37812    
   2605000   279.70388      0.02745285     8.3271006      693.95304     -46.902979      647.05006    
   2606000   295.59038      0.02745285     7.4698381      733.36788     -46.417835      686.95004    
   2607000   310.15328      0.02745285     10.920438      769.49884     -46.376883      723.12196    
   2608000   311.92702      0.02745285     29.794269      773.89953     -45.602113      728.29741    
   2609000   306.74845      0.02745285     20.014944      761.05136     -47.985538      713.06582    
   2610000   287.23426      0.02745285     22.940474      712.63611     -52.871992      659.76412    
   2611000   294.00894      0.02745285     2.0201666      729.44428     -48.403675      681.0406     
   2612000   315.99691      0.02745285     13.386906      783.99704     -47.088662      736.90838    
   2613000   306.67093      0.02745285     17.016582      760.85903     -47.251138      713.60789    
   2614000   287.22649      0.02745285     13.697195      712.61684     -48.18327       664.43357    
   2615000   290.39144      0.02745285     11.410639      720.46917     -45.179589      675.28958    
   2616000   322.30928      0.02745285     16.386871      799.65821     -50.224629      749.43358    
   2617000   311.4929       0.02745285     23.622027      772.82247     -48.546006      724.27646    
   2618000   291.51604      0.02745285     20.293458      723.25933     -48.367417      674.89191    
   2619000   292.19506      0.02745285     6.5362244      724.94401     -50.777604      674.16641    
   2620000   311.32419      0.02745285     6.471991       772.4039      -52.671941      719.73196    
   2621000   301.3192       0.02745285     22.105078      747.58123     -49.657668      697.92357    
   2622000   303.91697      0.02745285     18.768423      754.02639     -46.018566      708.00782    
   2623000   295.47661      0.02745285     3.4312072      733.08562     -45.95145       687.13417    
   2624000   300.4453       0.02745285     6.8259233      745.41306     -46.581261      698.8318     
   2625000   308.54448      0.02745285     27.304689      765.50735     -53.261144      712.24621    
   2626000   299.09348      0.02745285     15.131291      742.05916     -54.581721      687.47744    
   2627000   295.70147      0.02745285     16.887609      733.64349     -49.725434      683.91805    
   2628000   302.98731      0.02745285     10.560945      751.71986     -47.301037      704.41883    
   2629000   300.83844      0.02745285     9.3756336      746.38847     -48.986755      697.40171    
   2630000   297.20473      0.02745285     12.993174      737.37314     -48.921298      688.45184    
   2631000   308.2643       0.02745285     15.890689      764.81223     -44.043261      720.76897    
   2632000   302.17275      0.02745285     14.172955      749.69893     -40.720219      708.97871    
   2633000   292.40975      0.02745285     16.304279      725.47666     -41.854058      683.6226     
   2634000   301.8795       0.02745285     12.082653      748.97137     -41.041156      707.93021    
   2635000   306.82665      0.02745285     14.223558      761.24537     -38.233328      723.01204    
   2636000   290.51046      0.02745285     14.87537       720.76446     -37.880572      682.88389    
   2637000   293.6622       0.02745285     13.985867      728.58401     -34.900372      693.68364    
   2638000   313.39639      0.02745285     12.722204      777.54507     -33.344113      744.20096    
   2639000   304.41195      0.02745285     14.34991       755.25443     -39.05453       716.1999     
   2640000   285.1972       0.02745285     12.435196      707.58213     -38.883334      668.69879    
   2641000   304.65674      0.02745285     10.548188      755.86177     -40.988065      714.87371    
   2642000   302.67959      0.02745285     14.309633      750.9564      -42.127869      708.82853    
   2643000   312.40921      0.02745285     16.799532      775.09586     -43.990434      731.10542    
   2644000   296.79913      0.02745285     14.197428      736.36681     -41.256066      695.11075    
   2645000   283.71862      0.02745285     15.947475      703.91371     -42.005617      661.90809    
   2646000   321.22815      0.02745285     15.083837      796.97591     -43.4332        753.54271    
   2647000   290.47943      0.02745285     15.772457      720.68747     -43.600407      677.08706    
   2648000   290.01343      0.02745285     13.735707      719.5313      -42.393308      677.138      
   2649000   307.79361      0.02745285     15.86196       763.64442     -47.776205      715.86822    
   2650000   300.97032      0.02745285     14.523194      746.71567     -47.592203      699.12346    
   2651000   302.26674      0.02745285     10.641719      749.93213     -43.529698      706.40243    
   2652000   313.70866      0.02745285     13.25141       778.31984     -39.689815      738.63002    
   2653000   295.96358      0.02745285     14.416004      734.29379     -45.427871      688.86592    
   2654000   308.12245      0.02745285     14.522625      764.46029     -43.533385      720.9269     
   2655000   308.95802      0.02745285     17.857824      766.53337     -49.38414       717.14923    
   2656000   298.62454      0.02745285     13.53897       740.89571     -44.422464      696.47324    
   2657000   292.26159      0.02745285     18.651907      725.10907     -47.472126      677.63694    
   2658000   297.28815      0.02745285     18.100227      737.5801      -41.977313      695.60278    
   2659000   319.17374      0.02745285     13.073179      791.87886     -38.46494       753.41392    
   2660000   299.29643      0.02745285     13.413246      742.56269     -46.215651      696.34704    
   2661000   283.42009      0.02745285     14.415739      703.17307     -42.371565      660.8015     
   2662000   286.2554       0.02745285     17.405579      710.20755     -41.701232      668.50632    
   2663000   321.20287      0.02745285     19.397104      796.91318     -44.496942      752.41624    
   2664000   294.15537      0.02745285     10.383702      729.80758     -40.832844      688.97474    
   2665000   285.0642       0.02745285     13.253607      707.25213     -38.910983      668.34115    
   2666000   315.14194      0.02745285     18.170882      781.87585     -38.293534      743.58231    
   2667000   288.51579      0.02745285     4.0206842      715.81562     -42.379765      673.43586    
   2668000   290.34696      0.02745285     18.933725      720.35881     -45.635778      674.72303    
   2669000   312.30456      0.02745285     15.939094      774.83622     -49.662529      725.17369    
   2670000   288.82507      0.02745285     8.8732971      716.58297     -44.707213      671.87575    
   2671000   281.77966      0.02745285     11.171607      699.10311     -53.469298      645.63381    
   2672000   304.88576      0.02745285     19.010885      756.42996     -47.053899      709.37606    
   2673000   301.04715      0.02745285     24.643015      746.90627     -47.03754       699.86873    
   2674000   308.80534      0.02745285    -1.7242032      766.15455     -44.482407      721.67214    
   2675000   296.7576       0.02745285     5.1952405      736.26379     -46.815242      689.44855    
   2676000   304.34447      0.02745285     12.720219      755.08701     -45.323732      709.76328    
   2677000   304.16431      0.02745285     16.9287        754.64003     -41.703503      712.93653    
   2678000   302.05548      0.02745285     11.952441      749.40797     -42.718984      706.68899    
   2679000   283.30801      0.02745285     12.573361      702.89498     -44.697075      658.1979     
   2680000   304.19871      0.02745285     18.81561       754.72538     -43.59523       711.13015    
   2681000   302.17712      0.02745285     14.522588      749.70976     -46.443944      703.26582    
   2682000   305.62152      0.02745285     10.043526      758.25542     -44.762433      713.49299    
   2683000   295.246        0.02745285     23.414738      732.51345     -41.18878       691.32467    
   2684000   310.53822      0.02745285     11.827888      770.45389     -47.586192      722.8677     
   2685000   295.69485      0.02745285    -1.2207819      733.62707     -51.097774      682.5293     
   2686000   288.40719      0.02745285     12.758826      715.5462      -50.012164      665.53403    
   2687000   299.66795      0.02745285     23.924108      743.48445     -53.7591        689.72535    
   2688000   309.56981      0.02745285     14.381984      768.05123     -47.111999      720.93923    
   2689000   299.03318      0.02745285     10.433094      741.90956     -43.044206      698.86535    
   2690000   299.70642      0.02745285     16.079343      743.5799      -37.166379      706.41352    
   2691000   315.29845      0.02745285     14.040515      782.26415     -46.517128      735.74702    
   2692000   293.0352       0.02745285     12.719253      727.02842     -48.636469      678.39195    
   2693000   297.32332      0.02745285     12.736233      737.66734     -47.867502      689.79984    
   2694000   315.77787      0.02745285     13.24542       783.45359     -50.146559      733.30703    
   2695000   299.78423      0.02745285     15.361544      743.77294     -47.8308        695.94214    
   2696000   293.42743      0.02745285     12.163335      728.00155     -45.535512      682.46604    
   2697000   294.44403      0.02745285     12.058709      730.52377     -51.495959      679.02781    
   2698000   300.24008      0.02745285     14.833229      744.90392     -55.79407       689.10985    
   2699000   299.70086      0.02745285     14.94972       743.5661      -47.605952      695.96015    
   2700000   304.31096      0.02745285     15.026998      755.00388     -47.510422      707.49345    
   2701000   305.28993      0.02745285     11.015635      757.43274     -46.182155      711.25058    
   2702000   289.58736      0.02745285     13.461592      718.47422     -46.707607      671.76662    
   2703000   302.27017      0.02745285     15.200294      749.94061     -39.617177      710.32344    
   2704000   291.22826      0.02745285     18.98851       722.54533     -45.377017      677.16831    
   2705000   295.57049      0.02745285     14.311081      733.31852     -42.358662      690.95986    
   2706000   289.72134      0.02745285     4.5799953      718.80663     -38.812012      679.99462    
   2707000   303.43942      0.02745285     10.996905      752.84156     -40.584297      712.25726    
   2708000   305.48259      0.02745285     15.308196      757.91073     -40.628064      717.28266    
   2709000   295.70663      0.02745285     18.744556      733.65631     -41.576223      692.08008    
   2710000   280.97045      0.02745285     9.5105518      697.09544     -41.724077      655.37136    
   2711000   307.04542      0.02745285     12.862873      761.78815     -37.111746      724.6764     
   2712000   316.52443      0.02745285     17.676117      785.30583     -45.326956      739.97888    
   2713000   281.79737      0.02745285     17.503564      699.14703     -45.395117      653.75192    
   2714000   290.15339      0.02745285     10.261495      719.87856     -41.891963      677.9866     
   2715000   306.51321      0.02745285     13.993844      760.46771     -36.820484      723.64723    
   2716000   292.8382       0.02745285     16.385455      726.53964     -37.190082      689.34956    
   2717000   296.45698      0.02745285     13.095464      735.51793     -36.044739      699.47319    
   2718000   295.993        0.02745285     14.484588      734.3668      -36.497712      697.86909    
   2719000   298.03944      0.02745285     14.40071       739.44407     -37.796704      701.64737    
   2720000   295.37737      0.02745285     13.281749      732.83939     -43.395302      689.44409    
   2721000   297.91312      0.02745285     19.200942      739.13066     -40.529784      698.60087    
   2722000   306.91544      0.02745285     13.435727      761.46566     -42.529069      718.93659    
   2723000   294.50022      0.02745285     10.5481        730.66318     -42.443136      688.22004    
   2724000   283.26106      0.02745285     14.947476      702.77849     -45.316791      657.4617     
   2725000   302.3023       0.02745285     16.29282       750.02035     -50.983413      699.03693    
   2726000   316.57127      0.02745285     10.798386      785.42204     -46.555893      738.86615    
   2727000   291.11825      0.02745285     11.498065      722.2724      -45.791628      676.48078    
   2728000   291.65732      0.02745285     14.781307      723.60985     -45.955112      677.65474    
   2729000   314.05919      0.02745285     28.442018      779.18951     -41.183095      738.00641    
   2730000   303.30723      0.02745285     11.378595      752.51359     -43.333183      709.18041    
   2731000   293.47403      0.02745285     9.8589879      728.11716     -45.40607       682.71109    
   2732000   298.55194      0.02745285     14.877572      740.71558     -47.443203      693.27238    
   2733000   302.88215      0.02745285     20.835767      751.45898     -48.768505      702.69047    
   2734000   299.01081      0.02745285     12.774137      741.85406     -51.003327      690.85073    
   2735000   288.33365      0.02745285     5.1568719      715.36373     -52.422338      662.9414     
   2736000   304.82498      0.02745285     14.455367      756.27919     -50.611501      705.66768    
   2737000   313.98915      0.02745285     11.218813      779.01573     -50.039991      728.97574    
   2738000   289.30479      0.02745285     14.798461      717.77316     -51.412234      666.36093    
   2739000   309.04171      0.02745285     18.464378      766.741       -50.256018      716.48498    
   2740000   329.05323      0.02745285     11.049236      816.39014     -48.314148      768.076      
   2741000   290.30517      0.02745285     4.8825784      720.25513     -47.822638      672.4325     
   2742000   290.80474      0.02745285     15.054872      721.49458     -50.37993       671.11465    
   2743000   302.77977      0.02745285     13.352603      751.20496     -52.733576      698.47138    
   2744000   302.71016      0.02745285     4.3476824      751.03224     -46.988466      704.04378    
   2745000   293.13364      0.02745285     4.7830203      727.27265     -44.003269      683.26938    
   2746000   292.84002      0.02745285     19.909097      726.54416     -41.353596      685.19056    
   2747000   299.1399       0.02745285     28.916111      742.17434     -42.318467      699.85588    
   2748000   313.14982      0.02745285     12.311624      776.93334     -42.8437        734.08964    
   2749000   293.4665       0.02745285     11.519163      728.09849     -47.278135      680.82035    
   2750000   299.43622      0.02745285     17.79062       742.90952     -45.102528      697.80699    
   2751000   315.1901       0.02745285     17.416265      781.99534     -44.772878      737.22246    
   2752000   305.18809      0.02745285     19.714044      757.18007     -39.110553      718.06952    
   2753000   281.79178      0.02745285     14.214357      699.13316     -44.922656      654.21051    
   2754000   300.09291      0.02745285     13.039138      744.53877     -42.668149      701.87062    
   2755000   310.57798      0.02745285     14.406803      770.55253     -45.905513      724.64702    
   2756000   295.95892      0.02745285     20.531364      734.28224     -41.65845       692.62379    
   2757000   290.33796      0.02745285     12.66915       720.33648     -43.694704      676.64177    
   2758000   283.69797      0.02745285     13.070832      703.86248     -43.455185      660.4073     
   2759000   301.80406      0.02745285     15.068647      748.78419     -42.587051      706.19714    
   2760000   301.91347      0.02745285     14.631187      749.05565     -39.014163      710.04149    
   2761000   297.39995      0.02745285     13.398938      737.85746     -39.883528      697.97394    
   2762000   306.9191       0.02745285     14.206763      761.47474     -44.725282      716.74946    
   2763000   300.79736      0.02745285     19.334381      746.28654     -43.331821      702.95472    
   2764000   295.29091      0.02745285     12.101426      732.62489     -43.557724      689.06717    
   2765000   314.34819      0.02745285     14.207481      779.90652     -39.621967      740.28455    
   2766000   299.71005      0.02745285     19.509696      743.58889     -40.366208      703.22268    
   2767000   297.45652      0.02745285     15.242122      737.99783     -45.347295      692.65054    
   2768000   303.83925      0.02745285     10.337709      753.83355     -41.211016      712.62253    
   2769000   301.08249      0.02745285     17.6321        746.99397     -43.446736      703.54723    
   2770000   291.52939      0.02745285     19.040359      723.29245     -37.275048      686.0174     
   2771000   307.76929      0.02745285     8.4709989      763.58409     -40.858984      722.72511    
   2772000   301.33169      0.02745285     16.749118      747.61223     -42.815914      704.79632    
   2773000   294.32546      0.02745285     20.244442      730.22959     -45.418242      684.81135    
   2774000   288.39675      0.02745285     11.104904      715.52029     -42.591155      672.92913    
   2775000   319.60088      0.02745285     11.095568      792.93859     -42.135688      750.8029     
   2776000   310.20053      0.02745285     26.199662      769.61606     -38.952913      730.66314    
   2777000   284.4955       0.02745285     16.625115      705.84118     -46.145161      659.69602    
   2778000   296.29951      0.02745285     5.1677601      735.12724     -48.506619      686.62062    
   2779000   310.52273      0.02745285     9.4127935      770.41546     -45.173234      725.24222    
   2780000   307.34351      0.02745285     20.714396      762.52772     -41.707148      720.82057    
   2781000   291.904        0.02745285     18.550992      724.22186     -40.599966      683.6219     
   2782000   292.13295      0.02745285     9.0015341      724.78989     -34.661938      690.12795    
   2783000   313.76113      0.02745285     10.195894      778.45        -41.248578      737.20143    
   2784000   302.72174      0.02745285     18.662413      751.06098     -43.780207      707.28077    
   2785000   309.09215      0.02745285     20.419865      766.86614     -49.759102      717.10704    
   2786000   296.2793       0.02745285     10.974913      735.07711     -49.23725       685.83986    
   2787000   296.0274       0.02745285    -1.7474903      734.45214     -45.465267      688.98687    
   2788000   308.53089      0.02745285     15.945956      765.47363     -50.549202      714.92443    
   2789000   301.22107      0.02745285     14.445872      747.33777     -47.843939      699.49383    
   2790000   303.16003      0.02745285     7.9048333      752.14838     -45.646452      706.50193    
   2791000   307.97766      0.02745285     18.533318      764.10108     -40.777104      723.32397    
   2792000   282.89678      0.02745285     12.632703      701.87471     -42.473311      659.4014     
   2793000   302.44674      0.02745285     12.788851      750.37869     -45.666582      704.71211    
   2794000   317.40555      0.02745285     22.036694      787.49191     -42.918827      744.57309    
   2795000   287.14385      0.02745285     13.590032      712.41182     -43.12462       669.2872     
   2796000   300.4645       0.02745285     10.254167      745.46072     -49.313068      696.14765    
   2797000   319.54687      0.02745285     12.373256      792.8046      -42.846536      749.95806    
   2798000   295.29523      0.02745285     15.699652      732.6356      -45.504914      687.13068    
   2799000   286.49455      0.02745285     14.682783      710.80087     -46.125813      664.67506    
   2800000   308.92788      0.02745285     14.911962      766.45858     -44.43067       722.02791    
   2801000   313.89951      0.02745285     13.533336      778.79332     -43.518006      735.27532    
   2802000   293.15386      0.02745285     13.879003      727.32281     -44.538068      682.78474    
   2803000   297.23826      0.02745285     17.7315        737.45631     -38.04867       699.40764    
   2804000   310.76687      0.02745285     10.651643      771.02118     -42.43567       728.58551    
   2805000   302.58777      0.02745285     7.2139624      750.7286      -44.719565      706.00903    
   2806000   293.91022      0.02745285     9.6160603      729.19935     -50.615062      678.58429    
   2807000   295.28547      0.02745285     21.941345      732.6114      -52.284287      680.32711    
   2808000   310.57043      0.02745285     12.56687       770.53381     -45.888374      724.64544    
   2809000   305.99712      0.02745285     5.5321139      759.18729     -44.180038      715.00725    
   2810000   277.02612      0.02745285     10.449894      687.30944     -53.146273      634.16317    
   2811000   302.18248      0.02745285     19.502095      749.72305     -59.939277      689.78378    
   2812000   313.32638      0.02745285     9.6544548      777.3714      -51.686079      725.68532    
   2813000   292.94762      0.02745285    -2.2464946      726.81113     -47.411791      679.39933    
   2814000   293.23732      0.02745285     8.9277935      727.52987     -50.119573      677.41029    
   2815000   305.88266      0.02745285     24.998004      758.90332     -48.132395      710.77092    
   2816000   302.03056      0.02745285    -3.6715266      749.34614     -48.941619      700.40452    
   2817000   292.08766      0.02745285     11.171589      724.67753     -51.007484      673.67004    
   2818000   286.29561      0.02745285     11.802127      710.3073      -48.406223      661.90107    
   2819000   299.42627      0.02745285     21.959264      742.88483     -47.969078      694.91575    
   2820000   292.73783      0.02745285    -0.9574139      726.29061     -54.32386       671.96675    
   2821000   291.97423      0.02745285     2.6256698      724.39612     -40.19178       684.20434    
   2822000   299.52266      0.02745285     29.030987      743.12398     -39.410991      703.71299    
   2823000   306.19477      0.02745285     11.536229      759.67766     -43.789789      715.88787    
   2824000   293.06006      0.02745285     13.312015      727.09008     -39.520166      687.56992    
   2825000   305.81524      0.02745285     15.922611      758.73605     -47.67775       711.0583     
   2826000   306.11245      0.02745285     17.111186      759.47342     -44.710098      714.76332    
   2827000   302.24787      0.02745285     0.45477308     749.88529     -44.618206      705.26709    
   2828000   285.69869      0.02745285    -1.3104093      708.82633     -44.216311      664.61002    
   2829000   297.96795      0.02745285     22.178823      739.2667      -44.340312      694.92639    
   2830000   307.64126      0.02745285     20.93007       763.26644     -49.298338      713.9681     
   2831000   311.30361      0.02745285    -14.009244      772.35284     -49.127153      723.22569    
   2832000   290.75614      0.02745285     12.117732      721.37401     -45.85308       675.52093    
   2833000   299.26215      0.02745285     19.831493      742.47765     -42.064191      700.41346    
   2834000   303.38881      0.02745285     14.811443      752.71601     -47.946485      704.76952    
   2835000   310.58174      0.02745285    -16.472562      770.56186     -46.758006      723.80386    
   2836000   305.65995      0.02745285     13.173715      758.35076     -49.603489      708.74727    
   2837000   316.84441      0.02745285     13.499972      786.09972     -43.620256      742.47946    
   2838000   314.03586      0.02745285     12.538601      779.13164     -46.487922      732.64371    
   2839000   292.06666      0.02745285     6.0985788      724.62543     -50.429459      674.19597    
   2840000   292.84465      0.02745285     14.302713      726.55565     -47.715682      678.83997    
   2841000   306.44174      0.02745285     24.266248      760.29041     -45.196485      715.09392    
   2842000   305.09894      0.02745285     10.722135      756.95887     -46.529661      710.42921    
   2843000   301.05258      0.02745285     6.0827643      746.91975     -50.870222      696.04952    
   2844000   297.99265      0.02745285     11.898487      739.32797     -57.273818      682.05415    
   2845000   306.46851      0.02745285     20.331273      760.35682     -57.615524      702.7413     
   2846000   298.23424      0.02745285     14.135854      739.92737     -53.566893      686.36048    
   2847000   296.57939      0.02745285     13.497452      735.82164     -48.92207       686.89957    
   2848000   296.43137      0.02745285     14.452921      735.45441     -55.545267      679.90914    
   2849000   296.96109      0.02745285     17.363835      736.76866     -49.729197      687.03947    
   2850000   305.71341      0.02745285     14.639737      758.48339     -49.537255      708.94613    
   2851000   302.7285       0.02745285     7.9011847      751.07775     -55.868417      695.20934    
   2852000   292.44078      0.02745285     22.561821      725.55363     -51.322115      674.23151    
   2853000   294.9648       0.02745285     19.820756      731.8158      -52.824768      678.99103    
   2854000   302.27516      0.02745285     13.840665      749.95301     -55.163675      694.78933    
   2855000   282.10702      0.02745285     12.165397      699.91529     -55.964734      643.95055    
   2856000   303.69105      0.02745285     12.523908      753.46585     -57.320403      696.14545    
   2857000   311.5798       0.02745285     18.479801      773.03808     -58.909149      714.12893    
   2858000   289.37806      0.02745285     13.880136      717.95494     -52.4672        665.48774    
   2859000   299.29396      0.02745285     13.384137      742.55657     -57.296719      685.25985    
   2860000   313.52015      0.02745285     15.298843      777.85214     -51.407         726.44514    
   2861000   301.97949      0.02745285     15.193531      749.21944     -45.980907      703.23853    
   2862000   289.90755      0.02745285     13.057228      719.26862     -51.368699      667.89992    
   2863000   306.33951      0.02745285     18.044773      760.03678     -49.241681      710.7951     
   2864000   310.57055      0.02745285     11.925978      770.53411     -47.253014      723.28109    
   2865000   288.74029      0.02745285     12.193096      716.37261     -50.176022      666.19659    
   2866000   297.09792      0.02745285     14.453147      737.10813     -45.615678      691.49245    
   2867000   318.40754      0.02745285     19.696409      789.97789     -46.757265      743.22063    
   2868000   302.08411      0.02745285     15.53769       749.47899     -54.505398      694.9736     
   2869000   289.88635      0.02745285     9.5415179      719.21601     -50.889678      668.32633    
   2870000   299.04434      0.02745285     3.9941618      741.93726     -53.125624      688.81164    
   2871000   305.78086      0.02745285     16.617004      758.65074     -51.33575       707.315      
   2872000   290.24911      0.02745285     15.90022       720.11605     -49.025983      671.09007    
   2873000   286.96273      0.02745285     12.357679      711.96245     -50.699156      661.2633     
   2874000   292.364        0.02745285     11.972723      725.36315     -52.262189      673.10096    
   2875000   305.30728      0.02745285     16.093382      757.47578     -48.428487      709.04729    
   2876000   304.84853      0.02745285     12.24745       756.33761     -56.784241      699.55337    
   2877000   280.14105      0.02745285     12.449664      695.03767     -56.879418      638.15825    
   2878000   299.6071       0.02745285     13.841928      743.33347     -51.218516      692.11495    
   2879000   317.47827      0.02745285     14.319         787.67235     -46.571498      741.10085    
   2880000   302.55619      0.02745285     13.547929      750.65024     -44.860998      705.78925    
   2881000   300.14315      0.02745285     14.457324      744.66343     -45.659388      699.00404    
   2882000   293.58735      0.02745285     14.15609       728.39832     -45.429163      682.96915    
   2883000   296.29398      0.02745285     10.050508      735.11353     -45.186906      689.92662    
   2884000   300.88713      0.02745285     13.394102      746.50926     -45.314699      701.19456    
   2885000   296.14713      0.02745285     13.069502      734.74918     -49.951491      684.79769    
   2886000   308.08108      0.02745285     14.470996      764.35766     -48.428386      715.92927    
   2887000   303.64385      0.02745285     17.487936      753.34876     -52.885154      700.46361    
   2888000   290.17238      0.02745285     16.898419      719.92567     -50.250673      669.675      
   2889000   291.07329      0.02745285     13.904591      722.16085     -51.774763      670.38608    
   2890000   306.5272       0.02745285     12.212126      760.50243     -53.930973      706.57146    
   2891000   319.54326      0.02745285     20.575549      792.79563     -47.664313      745.13132    
   2892000   288.58503      0.02745285     15.674788      715.98741     -55.758127      660.22928    
   2893000   282.50386      0.02745285     10.604309      700.89987     -48.511785      652.38808    
   2894000   310.37723      0.02745285     7.273247       770.05448     -44.060471      725.994      
   2895000   301.88562      0.02745285     16.62055       748.98655     -47.08542       701.90113    
   2896000   292.28442      0.02745285     15.940219      725.1657      -42.218066      682.94764    
   2897000   297.86522      0.02745285     9.7657329      739.01182     -41.044505      697.96732    
   2898000   313.69677      0.02745285     9.1258321      778.29034     -39.625412      738.66493    
   2899000   296.47968      0.02745285     14.34397       735.57425     -45.788885      689.78537    
   2900000   309.98869      0.02745285     4.4573426      769.09048     -47.917236      721.17325    
   2901000   304.51988      0.02745285     21.105949      755.52222     -45.949316      709.5729     
   2902000   297.83082      0.02745285     24.352075      738.92648     -47.921943      691.00454    
   2903000   291.06169      0.02745285     7.804563       722.13209     -47.426507      674.70558    
   2904000   307.81852      0.02745285     11.372121      763.70624     -45.030961      718.67528    
   2905000   315.10497      0.02745285     12.842141      781.78412     -45.484209      736.29991    
   2906000   303.74765      0.02745285     16.170286      753.60629     -43.39605       710.21023    
   2907000   310.3432       0.02745285     40.795393      769.97004     -52.772274      717.19776    
   2908000   310.04331      0.02745285     15.775057      769.22601     -51.738813      717.48719    
   2909000   300.84002      0.02745285    -4.1665545      746.39237     -44.722149      701.67022    
   2910000   311.57197      0.02745285     13.553781      773.01865     -43.080094      729.93855    
   2911000   299.56001      0.02745285     18.810884      743.21664     -45.708627      697.50802    
   2912000   295.59361      0.02745285     20.578184      733.37589     -47.462325      685.91357    
   2913000   296.41805      0.02745285     8.7481941      735.42136     -45.888658      689.53271    
   2914000   295.81344      0.02745285    -5.7932816      733.92131     -44.803383      689.11792    
   2915000   308.62998      0.02745285     13.249252      765.7195      -45.618574      720.10092    
   2916000   302.14949      0.02745285     22.709207      749.64122     -43.000685      706.64053    
   2917000   296.43978      0.02745285     16.071376      735.47525     -45.236196      690.23906    
   2918000   293.76395      0.02745285     15.381927      728.83646     -45.057737      683.77872    
   2919000   303.34827      0.02745285     11.75057       752.61541     -49.372043      703.24336    
   2920000   310.48568      0.02745285     23.084168      770.32353     -49.412047      720.91149    
   2921000   301.36123      0.02745285     20.532315      747.68553     -46.622498      701.06303    
   2922000   288.85338      0.02745285     13.805516      716.65319     -49.033333      667.61985    
   2923000   297.31944      0.02745285     14.927817      737.65772     -46.42873       691.22899    
   2924000   315.70089      0.02745285     15.319587      783.26261     -46.792766      736.46985    
   2925000   307.37087      0.02745285     12.572991      762.59561     -44.067228      718.52838    
   2926000   289.25054      0.02745285     13.132972      717.63856     -40.699637      676.93892    
   2927000   303.66979      0.02745285     18.03293       753.41311     -40.522876      712.89023    
   2928000   317.62268      0.02745285     16.439353      788.03062     -42.525393      745.50523    
   2929000   300.97052      0.02745285     12.282431      746.71616     -41.392231      705.32393    
   2930000   300.03532      0.02745285     13.444444      744.39591     -44.094463      700.30145    
   2931000   293.31503      0.02745285     13.836174      727.72268     -43.319361      684.40332    
   2932000   304.75866      0.02745285     26.383959      756.11463     -48.482808      707.63182    
   2933000   310.48634      0.02745285     12.110359      770.32517     -51.97068       718.35449    
   2934000   306.12906      0.02745285     1.8145619      759.51463     -51.91766       707.59697    
   2935000   294.69115      0.02745285     12.143052      731.13687     -51.471495      679.66538    
   2936000   311.28123      0.02745285     19.203294      772.29732     -53.991696      718.30562    
   2937000   309.36015      0.02745285     15.551383      767.53107     -50.574325      716.95674    
   2938000   305.76574      0.02745285     16.016383      758.61322     -57.736055      700.87717    
   2939000   298.57786      0.02745285     5.185543       740.77991     -50.942621      689.83729    
   2940000   290.26538      0.02745285     15.670597      720.15641     -49.926843      670.22957    
   2941000   309.75952      0.02745285     20.021554      768.52191     -47.520776      721.00113    
   2942000   302.84445      0.02745285     13.898026      751.36542     -45.830342      705.53508    
   2943000   284.09571      0.02745285     11.287645      704.84928     -39.223192      665.62608    
   2944000   301.9678       0.02745285     15.363857      749.19043     -40.013186      709.17725    
   2945000   315.09965      0.02745285     15.679124      781.77092     -42.737194      739.03373    
   2946000   299.3846       0.02745285     15.928216      742.78144     -40.784471      701.99697    
   2947000   292.4785       0.02745285     14.998878      725.64721     -43.911234      681.73598    
   2948000   308.76079      0.02745285     18.098749      766.04404     -38.970567      727.07347    
   2949000   312.12786      0.02745285     11.504593      774.39782     -44.0365        730.36132    
   2950000   292.45019      0.02745285     12.877877      725.57699     -44.903378      680.67361    
   2951000   288.75451      0.02745285     15.977343      716.40791     -50.633515      665.77439    
   2952000   307.63202      0.02745285     18.974896      763.24353     -50.945418      712.29811    
   2953000   316.86385      0.02745285     2.3387359      786.14793     -48.894964      737.25297    
   2954000   292.58295      0.02745285    -7.3186426      725.90635     -47.831294      678.07506    
   2955000   289.13938      0.02745285     16.059595      717.36277     -47.58564       669.77713    
   2956000   305.50458      0.02745285     33.167435      757.96529     -43.851312      714.11398    
   2957000   304.15835      0.02745285    -0.028387374    754.62524     -50.509985      704.11525    
   2958000   281.40076      0.02745285     28.112055      698.16304     -42.086753      656.07629    
   2959000   303.2815       0.02745285     21.777698      752.44976     -40.23108       712.21868    
   2960000   311.59831      0.02745285     17.063638      773.08398     -44.44175       728.64223    
   2961000   314.78518      0.02745285     4.1665906      780.9907      -41.064003      739.9267     
   2962000   291.24821      0.02745285     2.7976855      722.59483     -45.193587      677.40125    
   2963000   305.02921      0.02745285     9.7205818      756.78589     -47.971516      708.81437    
   2964000   308.3074       0.02745285     14.654266      764.91917     -45.03054       719.88863    
   2965000   307.65802      0.02745285     22.066219      763.30803     -50.749952      712.55807    
   2966000   302.74132      0.02745285     10.606143      751.10955     -49.705862      701.40369    
   2967000   289.20747      0.02745285     13.228303      717.53171     -51.832865      665.69885    
   2968000   301.65082      0.02745285     25.432916      748.40399     -51.948067      696.45593    
   2969000   300.77797      0.02745285     10.986627      746.23844     -55.04366       691.19478    
   2970000   283.43105      0.02745285     9.6230613      703.20025     -56.212056      646.9882     
   2971000   294.72305      0.02745285     17.195221      731.21602     -48.264393      682.95162    
   2972000   309.89641      0.02745285     15.938827      768.86155     -50.435439      718.42611    
   2973000   310.34967      0.02745285     7.4766985      769.98608     -47.317327      722.66876    
   2974000   288.46125      0.02745285     14.692117      715.68032     -46.004814      669.6755     
   2975000   296.32913      0.02745285     28.390385      735.20073     -44.483479      690.71725    
   2976000   305.28671      0.02745285     14.993378      757.42475     -47.447761      709.97699    
   2977000   301.16992      0.02745285     12.466093      747.21088     -44.86205       702.34883    
   2978000   291.41422      0.02745285     14.551009      723.00671     -44.368264      678.63845    
   2979000   301.90064      0.02745285     15.155159      749.02381     -47.752137      701.27167    
   2980000   311.72461      0.02745285     14.523787      773.39734     -50.14953       723.24781    
   2981000   304.61085      0.02745285     14.388283      755.74792     -54.308369      701.43955    
   2982000   298.88544      0.02745285     13.657938      741.54301     -49.840969      691.70204    
   2983000   301.81917      0.02745285     11.565327      748.82169     -53.878121      694.94357    
   2984000   311.23496      0.02745285     15.311755      772.18252     -53.986239      718.19628    
   2985000   298.66185      0.02745285     13.572857      740.98828     -52.135318      688.85296    
   2986000   286.43585      0.02745285     12.18909       710.65524     -53.819176      656.83606    
   2987000   308.69416      0.02745285     13.356362      765.87872     -56.574914      709.3038     
   2988000   308.36116      0.02745285     17.272359      765.05254     -53.388922      711.66362    
   2989000   293.61691      0.02745285     19.609445      728.47165     -47.479269      680.99238    
   2990000   293.80621      0.02745285     6.428149       728.94131     -48.432087      680.50922    
   2991000   315.18388      0.02745285     16.773772      781.97991     -47.743646      734.23626    
   2992000   312.03657      0.02745285     23.209258      774.17134     -44.717137      729.4542     
   2993000   295.4832       0.02745285     18.152418      733.10196     -50.0955        683.00646    
   2994000   289.40242      0.02745285     18.693487      718.01538     -46.333145      671.68223    
   2995000   307.25887      0.02745285     14.034699      762.31771     -45.215587      717.10213    
   2996000   318.96255      0.02745285     11.984565      791.35487     -44.326124      747.02874    
   2997000   309.05153      0.02745285     13.049682      766.76536     -51.295068      715.47029    
   2998000   294.1832       0.02745285     23.865092      729.87662     -50.447889      679.42873    
   2999000   301.20858      0.02745285     9.4473711      747.3068      -49.281876      698.02492    
   3000000   312.83282      0.02745285     15.362763      776.14684     -50.469942      725.6769     
   3001000   295.6024       0.02745285     14.680703      733.39769     -53.603033      679.79466    
   3002000   293.17632      0.02745285     14.2413        727.37853     -45.715845      681.66268    
   3003000   284.11655      0.02745285     11.15738       704.90098     -46.610966      658.29002    
   3004000   312.18232      0.02745285     12.475033      774.53294     -51.485773      723.04717    
   3005000   307.06927      0.02745285     18.144717      761.84733     -48.661053      713.18628    
   3006000   292.82345      0.02745285     14.585164      726.50304     -50.034241      676.4688     
   3007000   300.80549      0.02745285     12.872802      746.3067      -44.520837      701.78587    
   3008000   318.53331      0.02745285     15.914706      790.28993     -48.051167      742.23877    
   3009000   306.65259      0.02745285     17.277448      760.81353     -47.786529      713.027      
   3010000   286.79335      0.02745285     14.087092      711.5422      -49.36066       662.18154    
   3011000   295.62257      0.02745285     14.241732      733.44774     -53.154416      680.29333    
   3012000   304.11563      0.02745285     15.105396      754.51925     -54.362089      700.15716    
   3013000   317.0306       0.02745285     9.6894305      786.56166     -52.995547      733.56611    
   3014000   291.98209      0.02745285     11.21845       724.41561     -50.614973      673.80063    
   3015000   307.34686      0.02745285     15.311292      762.53604     -47.942729      714.59331    
   3016000   310.18281      0.02745285     14.35993       769.5721      -48.9189        720.6532     
   3017000   297.4129       0.02745285     11.5299        737.8896      -44.311987      693.57762    
   3018000   296.14826      0.02745285     16.727406      734.75198     -42.614626      692.13736    
   3019000   310.64864      0.02745285     15.937675      770.72785     -48.010308      722.71754    
   3020000   307.42491      0.02745285     12.551315      762.72968     -45.358987      717.37069    
   3021000   291.61992      0.02745285     13.378236      723.51705     -49.693058      673.82399    
   3022000   305.19872      0.02745285     12.838522      757.20644     -50.669706      706.53673    
   3023000   301.11413      0.02745285     15.800807      747.07246     -53.861402      693.21106    
   3024000   311.54838      0.02745285     21.720264      772.96012     -58.139703      714.82042    
   3025000   299.61751      0.02745285     19.989662      743.3593      -59.430781      683.92852    
   3026000   283.30453      0.02745285     11.682094      702.88636     -51.097689      651.78867    
   3027000   287.09971      0.02745285     12.073168      712.30229     -52.217724      660.08457    
   3028000   307.29468      0.02745285     14.036985      762.40657     -50.333796      712.07277    
   3029000   309.03714      0.02745285     15.259348      766.72966     -49.653046      717.07661    
   3030000   305.79872      0.02745285     15.27062       758.69506     -49.148335      709.54672    
   3031000   305.44306      0.02745285     9.837663       757.81266     -51.048964      706.76369    
   3032000   296.06219      0.02745285     23.907048      734.53846     -50.897835      683.64063    
   3033000   307.12617      0.02745285     15.644442      761.9885      -55.80672       706.18178    
   3034000   319.04905      0.02745285     19.309108      791.56949     -51.517484      740.05201    
   3035000   303.68444      0.02745285     11.535273      753.44948     -48.655118      704.79436    
   3036000   291.96007      0.02745285     11.859193      724.36098     -46.696404      677.66458    
   3037000   289.36143      0.02745285     9.2716746      717.91369     -53.334019      664.57968    
   3038000   300.70837      0.02745285     22.807445      746.06576     -52.081603      693.98416    
   3039000   317.88363      0.02745285     6.438667       788.67806     -49.413958      739.2641     
   3040000   294.52278      0.02745285     14.601229      730.71914     -48.482122      682.23702    
   3041000   288.57168      0.02745285     24.341051      715.9543      -47.304269      668.65003    
   3042000   294.50338      0.02745285     20.106126      730.67101     -48.893487      681.77752    
   3043000   307.23348      0.02745285     13.731236      762.25472     -48.923017      713.33171    
   3044000   307.83143      0.02745285     9.8289761      763.73827     -51.705126      712.03314    
   3045000   298.60398      0.02745285     7.2416626      740.84471     -54.143152      686.70156    
   3046000   290.65774      0.02745285     8.5747017      721.12988     -48.95845       672.17143    
   3047000   301.85288      0.02745285     26.077757      748.90532     -47.707518      701.19781    
   3048000   305.54725      0.02745285     7.1882445      758.07116     -46.150291      711.92087    
   3049000   297.18636      0.02745285     8.1744786      737.32755     -47.577127      689.75042    
   3050000   300.30382      0.02745285     26.701115      745.06206     -46.747623      698.31443    
   3051000   295.97394      0.02745285     16.564723      734.31951     -52.412814      681.90669    
   3052000   306.48557      0.02745285     15.027499      760.39914     -53.476536      706.9226     
   3053000   306.105        0.02745285     7.86603        759.45495     -49.794773      709.66018    
   3054000   295.15578      0.02745285     19.646935      732.28962     -57.040369      675.24925    
   3055000   312.07242      0.02745285     6.4757766      774.26027     -52.368236      721.89204    
   3056000   299.27757      0.02745285     13.015703      742.51589     -52.750715      689.76517    
   3057000   311.3648       0.02745285     24.953665      772.50466     -53.68432       718.82034    
   3058000   297.15637      0.02745285     13.69702       737.25313     -49.835664      687.41747    
   3059000   297.35575      0.02745285     12.984452      737.74781     -58.00736       679.74045    
   3060000   286.43365      0.02745285     13.627934      710.64979     -61.060268      649.58952    
   3061000   301.66413      0.02745285     16.32901       748.43702     -52.206811      696.23021    
   3062000   300.21277      0.02745285     15.733598      744.83617     -54.611464      690.22471    
   3063000   293.39894      0.02745285     12.867446      727.93086     -51.196976      676.73389    
   3064000   313.80248      0.02745285     15.720049      778.5526      -49.446411      729.10618    
   3065000   301.98033      0.02745285     12.768625      749.22152     -49.444574      699.77694    
   3066000   291.49146      0.02745285     12.271142      723.19835     -47.371587      675.82676    
   3067000   311.50331      0.02745285     16.426414      772.84829     -41.8287        731.01959    
   3068000   296.38743      0.02745285     14.197546      735.34537     -43.259521      692.08585    
   3069000   299.52586      0.02745285     12.810283      743.13191     -40.35245       702.77946    
   3070000   309.79226      0.02745285     19.184049      768.60314     -41.824116      726.77902    
   3071000   297.92389      0.02745285     14.483136      739.15739     -44.252412      694.90498    
   3072000   292.13253      0.02745285     17.113092      724.78886     -49.998498      674.79036    
   3073000   290.74458      0.02745285     14.556558      721.34531     -48.381568      672.96374    
   3074000   295.06076      0.02745285     12.772916      732.05389     -46.311943      685.74195    
   3075000   308.33194      0.02745285     11.099586      764.98005     -45.119977      719.86007    
   3076000   297.6042       0.02745285     22.649711      738.36422     -45.06106       693.30316    
   3077000   301.09654      0.02745285     17.145866      747.02882     -51.212758      695.81607    
   3078000   289.96834      0.02745285     11.372863      719.41945     -51.286185      668.13326    
   3079000   302.15555      0.02745285     11.792946      749.65624     -52.267532      697.38871    
   3080000   315.39132      0.02745285     21.490454      782.49455     -46.424466      736.07009    
   3081000   295.28403      0.02745285     13.495701      732.60782     -53.333588      679.27423    
   3082000   300.78097      0.02745285     11.573793      746.24587     -55.109479      691.13639    
   3083000   312.9773       0.02745285     14.600616      776.50531     -52.558643      723.94666    
   3084000   306.85508      0.02745285     21.869369      761.31592     -53.79396       707.52196    
   3085000   286.016        0.02745285     14.498465      709.61358     -50.359378      659.2542     
   3086000   304.23032      0.02745285     11.277442      754.80382     -52.8558        701.94802    
   3087000   301.8797       0.02745285     20.981532      748.97185     -53.931337      695.04051    
   3088000   289.70271      0.02745285     18.759262      718.76042     -50.69916       668.06126    
   3089000   297.34399      0.02745285     13.462572      737.71863     -50.332657      687.38597    
   3090000   306.58094      0.02745285     13.702377      760.63576     -55.74111       704.89465    
   3091000   302.31398      0.02745285     17.443508      750.04931     -48.937097      701.11221    
   3092000   294.05848      0.02745285     14.704247      729.56719     -50.988148      678.57904    
   3093000   298.00979      0.02745285     14.028889      739.37049     -41.046234      698.32426    
   3094000   308.63444      0.02745285     10.372225      765.73056     -40.08976       725.6408     
   3095000   294.66923      0.02745285     36.372441      731.08248     -36.39417       694.68831    
   3096000   277.58658      0.02745285     9.4426794      688.69996     -38.028489      650.67147    
   3097000   300.8461       0.02745285     11.065127      746.40747     -41.04346       705.36401    
   3098000   315.6001       0.02745285     12.415604      783.01255     -49.974339      733.03821    
   3099000   307.73119      0.02745285     16.390505      763.48957     -49.336211      714.15336    
   3100000   296.88042      0.02745285     16.147352      736.56852     -48.234086      688.33443    
   3101000   287.72756      0.02745285     8.2593334      713.86002     -54.41869       659.44133    
   3102000   303.98431      0.02745285     8.8628147      754.19344     -53.863815      700.32963    
   3103000   309.70793      0.02745285     14.842367      768.39392     -53.548122      714.8458     
   3104000   290.39471      0.02745285     12.498543      720.47729     -52.7367        667.74059    
   3105000   294.40348      0.02745285     9.4783834      730.42316     -47.823347      682.59981    
   3106000   311.04428      0.02745285     15.268205      771.70944     -48.227703      723.48174    
   3107000   301.45358      0.02745285     12.535112      747.91464     -46.005125      701.90952    
   3108000   285.09326      0.02745285     14.507827      707.32424     -50.330555      656.99369    
   3109000   289.55607      0.02745285     16.288024      718.39659     -45.675542      672.72105    
   3110000   308.05741      0.02745285     13.713987      764.29894     -48.997746      715.30119    
   3111000   296.62406      0.02745285     12.217571      735.93246     -42.907993      693.02447    
   3112000   294.47271      0.02745285     15.320283      730.59492     -48.638584      681.95634    
   3113000   304.71949      0.02745285     15.453206      756.01745     -44.413199      711.60425    
   3114000   311.84587      0.02745285     15.700339      773.69819     -41.872318      731.82587    
   3115000   287.6501       0.02745285     13.499859      713.66784     -45.640173      668.02766    
   3116000   297.04545      0.02745285     15.248955      736.97795     -40.495337      696.48261    
   3117000   302.05304      0.02745285     16.277781      749.40192     -41.188999      708.21292    
   3118000   302.29829      0.02745285     11.123298      750.01039     -46.192756      703.81763    
   3119000   300.00379      0.02745285     11.98548       744.31767     -46.84943       697.46824    
   3120000   303.67831      0.02745285     15.859047      753.43425     -40.710682      712.72357    
   3121000   297.32924      0.02745285     15.843887      737.68205     -43.632638      694.04941    
   3122000   298.4746       0.02745285     20.273741      740.5237      -43.128761      697.39494    
   3123000   301.5648       0.02745285     13.474424      748.19057     -45.719407      702.47116    
   3124000   302.23895      0.02745285     16.727171      749.86318     -42.033472      707.8297     
   3125000   300.99182      0.02745285     15.148933      746.76901     -40.376113      706.3929     
   3126000   282.27683      0.02745285     16.512162      700.33661     -42.966432      657.37018    
   3127000   299.38164      0.02745285     12.94993       742.77411     -44.13259       698.64152    
   3128000   308.28227      0.02745285     13.656053      764.8568      -46.391562      718.46524    
   3129000   316.34548      0.02745285     18.203817      784.86187     -47.368345      737.49352    
   3130000   284.86301      0.02745285     17.334731      706.75299     -48.975794      657.77719    
   3131000   289.69817      0.02745285     9.9057851      718.74915     -46.274738      672.47441    
   3132000   316.50819      0.02745285     15.208917      785.26554     -39.876961      745.38858    
   3133000   294.2979       0.02745285     16.214265      730.16119     -45.172689      684.9885     
   3134000   291.22126      0.02745285     9.3230629      722.52798     -44.42313       678.10485    
   3135000   300.04681      0.02745285     12.418559      744.42441     -45.835448      698.58897    
   3136000   304.23776      0.02745285     28.173342      754.82228     -42.094566      712.72771    
   3137000   298.45451      0.02745285     10.21558       740.47386     -44.753125      695.72074    
   3138000   302.46336      0.02745285     10.826428      750.41992     -40.971399      709.44853    
   3139000   310.81019      0.02745285     14.681615      771.12865     -44.847295      726.28135    
   3140000   308.85029      0.02745285     21.976243      766.26609     -35.29551       730.97058    
   3141000   297.52195      0.02745285     14.460505      738.16016     -41.917255      696.24291    
   3142000   295.70371      0.02745285     7.9651206      733.64906     -43.510832      690.13823    
   3143000   317.03799      0.02745285     9.0368462      786.57999     -41.207807      745.37219    
   3144000   310.00464      0.02745285     15.151475      769.13006     -38.667233      730.46282    
   3145000   299.47671      0.02745285     22.319313      743.00998     -37.701841      705.30814    
   3146000   288.28049      0.02745285     4.6375782      715.23185     -45.23236       669.99949    
   3147000   294.41334      0.02745285     15.136387      730.44762     -42.665351      687.78227    
   3148000   303.90978      0.02745285     18.769518      754.00853     -43.906308      710.10222    
   3149000   299.13733      0.02745285     14.294224      742.16797     -41.68551       700.48246    
   3150000   303.01964      0.02745285     15.242554      751.80007     -39.873595      711.92648    
   3151000   298.69703      0.02745285     14.109395      741.07557     -40.82485       700.25072    
   3152000   295.06535      0.02745285     15.97082       732.06527     -42.087475      689.97779    
   3153000   308.41825      0.02745285     11.842736      765.19419     -42.851167      722.34302    
   3154000   292.39593      0.02745285     12.034102      725.44237     -44.847607      680.59477    
   3155000   299.36309      0.02745285     12.705204      742.72809     -49.469607      693.25848    
   3156000   303.095        0.02745285     13.995371      751.98704     -49.519435      702.46761    
   3157000   303.00849      0.02745285     13.439821      751.77243     -49.408503      702.36392    
   3158000   299.96285      0.02745285     14.334946      744.21609     -50.058262      694.15783    
   3159000   300.60039      0.02745285     17.938613      745.79786     -49.490379      696.30749    
   3160000   304.2851       0.02745285     15.540812      754.93971     -49.582055      705.35765    
   3161000   289.63688      0.02745285     14.555352      718.59708     -46.700711      671.89637    
   3162000   319.46859      0.02745285     22.699671      792.61037     -48.279093      744.33127    
   3163000   307.35692      0.02745285     11.348243      762.561       -39.414133      723.14687    
   3164000   286.69895      0.02745285     6.2192836      711.30801     -45.613003      665.695      
   3165000   295.03753      0.02745285     15.253947      731.99624     -44.394112      687.60212    
   3166000   301.46064      0.02745285     14.912287      747.93215     -39.673183      708.25897    
   3167000   303.10827      0.02745285     19.157811      752.01998     -41.547594      710.47239    
   3168000   307.53681      0.02745285     9.6325178      763.0073      -45.978153      717.02915    
   3169000   289.42149      0.02745285     7.8116431      718.0627      -44.741002      673.3217     
   3170000   305.76212      0.02745285     25.73814       758.60426     -45.419091      713.18517    
   3171000   310.42855      0.02745285     12.768317      770.18178     -42.297413      727.88437    
   3172000   295.62201      0.02745285     11.580108      733.44636     -48.002431      685.44393    
   3173000   297.83764      0.02745285     10.634514      738.94339     -42.360307      696.58308    
   3174000   301.09512      0.02745285     14.113856      747.02529     -49.276021      697.74927    
   3175000   307.91543      0.02745285     14.409392      763.94668     -48.576121      715.37056    
   3176000   302.68692      0.02745285     18.360786      750.97459     -46.069772      704.90482    
   3177000   307.88206      0.02745285     12.303343      763.86387     -46.279562      717.58431    
   3178000   299.8358       0.02745285     2.7069205      743.90088     -44.629561      699.27132    
   3179000   298.17966      0.02745285     14.843311      739.79196     -39.599012      700.19295    
   3180000   291.89994      0.02745285     21.248516      724.2118      -41.961075      682.25073    
   3181000   305.08559      0.02745285     12.665593      756.92577     -44.0269        712.89887    
   3182000   292.04428      0.02745285    -1.4563417      724.56991     -38.540888      686.02902    
   3183000   312.14081      0.02745285     25.815323      774.42996     -43.386661      731.04329    
   3184000   309.34881      0.02745285     9.2783202      767.50293     -46.281934      721.221      
   3185000   289.74294      0.02745285     11.668966      718.86022     -49.203983      669.65624    
   3186000   300.53811      0.02745285     19.880539      745.64334     -48.097402      697.54594    
   3187000   307.8022       0.02745285     24.351377      763.66573     -48.339656      715.32608    
   3188000   296.96808      0.02745285     8.566099       736.78599     -47.68634       689.09965    
   3189000   293.46927      0.02745285     10.977808      728.10534     -46.844532      681.26081    
   3190000   298.25994      0.02745285     18.218332      739.99114     -52.080322      687.91081    
   3191000   302.66282      0.02745285     12.89978       750.91481     -48.176946      702.73786    
   3192000   301.51534      0.02745285     35.984916      748.06788     -48.49074       699.57714    
   3193000   296.18644      0.02745285     12.805653      734.84671     -51.921701      682.92501    
   3194000   292.44109      0.02745285    -17.19515       725.5544      -54.125429      671.42897    
   3195000   296.84827      0.02745285     9.1348725      736.48875     -50.962073      685.52667    
   3196000   299.87201      0.02745285     24.002191      743.99073     -51.028974      692.96175    
   3197000   311.66577      0.02745285     0.78506779     773.25137     -45.495779      727.75559    
   3198000   283.83146      0.02745285     19.684274      704.19368     -46.96419       657.22949    
   3199000   288.28359      0.02745285     2.5331484      715.23953     -46.550683      668.68885    
   3200000   283.88068      0.02745285     29.469073      704.31579     -43.479266      660.83652    
   3201000   309.51966      0.02745285     19.871003      767.9268      -39.255287      728.67151    
   3202000   297.08839      0.02745285    -3.5368455      737.08449     -47.393955      689.69053    
   3203000   296.1011       0.02745285     19.456754      734.63499     -44.470356      690.16463    
   3204000   301.24963      0.02745285     12.425064      747.40864     -44.582984      702.82565    
   3205000   292.31252      0.02745285    -21.405789      725.23542     -41.286578      683.94884    
   3206000   290.27184      0.02745285     5.4978909      720.17245     -43.50822       676.66422    
   3207000   295.24991      0.02745285     27.61559       732.52316     -42.249095      690.27407    
   3208000   303.85387      0.02745285     24.928278      753.86984     -40.995875      712.87396    
   3209000   300.33851      0.02745285     11.833183      745.14813     -40.306254      704.84187    
   3210000   296.69758      0.02745285     11.314903      736.11487     -41.120252      694.99462    
   3211000   301.17827      0.02745285     14.403117      747.2316      -40.898049      706.33355    
   3212000   308.15592      0.02745285     31.496661      764.54332     -42.950466      721.59286    
   3213000   304.27113      0.02745285     12.20164       754.90507     -41.369191      713.53588    
   3214000   288.57299      0.02745285     13.283505      715.95755     -39.644747      676.3128     
   3215000   294.07224      0.02745285     13.888765      729.60134     -41.682288      687.91905    
   3216000   306.47459      0.02745285     14.664709      760.3719      -46.571113      713.80079    
   3217000   288.09043      0.02745285     14.111952      714.76029     -40.664548      674.09574    
   3218000   307.33644      0.02745285     13.487023      762.51017     -50.315242      712.19493    
   3219000   312.39383      0.02745285     14.235424      775.05771     -44.105376      730.95234    
   3220000   297.09438      0.02745285     14.784474      737.09936     -42.909745      694.18961    
   3221000   280.77832      0.02745285     15.298962      696.61875     -47.597193      649.02156    
   3222000   303.75514      0.02745285     15.212261      753.62488     -44.388689      709.23619    
   3223000   308.89953      0.02745285     12.811427      766.38826     -53.767474      712.62078    
   3224000   289.53833      0.02745285     9.8230342      718.35258     -44.769589      673.58299    
   3225000   297.14062      0.02745285     12.23412       737.21407     -52.954789      684.25928    
   3226000   311.53779      0.02745285     13.938605      772.93385     -51.141546      721.7923     
   3227000   289.92351      0.02745285     23.520546      719.30823     -45.426921      673.88131    
   3228000   291.87813      0.02745285     12.976543      724.15767     -50.644249      673.51343    
   3229000   286.2245       0.02745285     5.0135283      710.13088     -44.987414      665.14346    
   3230000   309.14986      0.02745285     18.818109      767.00934     -46.021712      720.98763    
   3231000   294.90859      0.02745285     16.219887      731.67634     -46.708261      684.96808    
   3232000   306.9819       0.02745285     6.1527869      761.63056     -44.475563      717.155      
   3233000   301.90975      0.02745285     13.92543       749.04641     -50.634991      698.41142    
   3234000   296.09731      0.02745285     19.960965      734.62558     -44.553831      690.07175    
   3235000   293.43573      0.02745285     15.378128      728.02214     -46.392731      681.62941    
   3236000   316.81516      0.02745285     8.0135249      786.02716     -47.098372      738.92878    
   3237000   300.38569      0.02745285     21.842239      745.26518     -45.661094      699.60409    
   3238000   288.05403      0.02745285     11.955615      714.66998     -45.161337      669.50864    
   3239000   301.2752       0.02745285     9.5183854      747.47206     -43.423635      704.04843    
   3240000   308.3167       0.02745285     15.056849      764.94223     -44.362901      720.57933    
   3241000   290.37397      0.02745285     17.493815      720.42583     -40.900946      679.52488    
   3242000   301.59583      0.02745285     3.2932795      748.26756     -47.39011       700.87746    
   3243000   302.692        0.02745285     18.500573      750.9872      -47.118172      703.86902    
   3244000   289.85893      0.02745285     18.61544       719.14799     -44.607895      674.54009    
   3245000   307.3992       0.02745285     11.863159      762.66589     -47.943795      714.7221     
   3246000   301.97296      0.02745285     19.012325      749.20324     -48.949564      700.25368    
   3247000   294.58316      0.02745285     11.098921      730.86893     -52.113531      678.7554     
   3248000   305.41318      0.02745285     14.875363      757.73851     -51.141158      706.59735    
   3249000   316.85813      0.02745285     13.751006      786.13376     -46.132218      740.00154    
   3250000   305.30224      0.02745285     16.135291      757.46328     -51.451738      706.01154    
   3251000   305.04631      0.02745285     13.773486      756.8283      -51.786783      705.04152    
   3252000   277.72347      0.02745285     14.963726      689.03958     -48.56538       640.4742     
   3253000   308.83206      0.02745285     17.936672      766.22085     -48.101214      718.11963    
   3254000   313.82329      0.02745285     7.5344987      778.60423     -51.696488      726.90775    
   3255000   297.63944      0.02745285     14.681798      738.45164     -52.045237      686.40641    
   3256000   290.77847      0.02745285     15.961505      721.42941     -44.879998      676.54941    
   3257000   301.21652      0.02745285     16.281882      747.32649     -47.052237      700.27425    
   3258000   296.09543      0.02745285     10.172638      734.62094     -46.529976      688.09096    
   3259000   295.19381      0.02745285     18.631517      732.38398     -49.816579      682.5674     
   3260000   312.11962      0.02745285     23.671407      774.37739     -44.355665      730.02172    
   3261000   306.64691      0.02745285     19.71145       760.79944     -47.091663      713.70777    
   3262000   303.73211      0.02745285     12.651701      753.56774     -47.196928      706.37081    
   3263000   301.26682      0.02745285     13.950101      747.45129     -46.857465      700.59382    
   3264000   312.59668      0.02745285     16.496697      775.56098     -40.347483      735.21349    
   3265000   301.42706      0.02745285     13.336042      747.84885     -44.449936      703.39892    
   3266000   299.22161      0.02745285     13.932071      742.37707     -46.582202      695.79487    
   3267000   295.75999      0.02745285     13.947286      733.7887      -47.786595      686.0021     
   3268000   310.49028      0.02745285     10.374266      770.33494     -48.014399      722.32054    
   3269000   308.35037      0.02745285     16.780717      765.02576     -55.141527      709.88423    
   3270000   307.36368      0.02745285     16.162976      762.57775     -53.729092      708.84866    
   3271000   306.81847      0.02745285     19.380786      761.22509     -45.646302      715.57878    
   3272000   304.27538      0.02745285     16.506306      754.91562     -40.784845      714.13077    
   3273000   299.12043      0.02745285     13.784989      742.12603     -44.122412      698.00362    
   3274000   299.9068       0.02745285     17.126393      744.07704     -37.292767      706.78427    
   3275000   295.36535      0.02745285     13.975187      732.80956     -40.562385      692.24718    
   3276000   296.9113       0.02745285     10.402107      736.64512     -43.962791      692.68233    
   3277000   300.5223       0.02745285     14.476301      745.60411     -43.326904      702.27721    
   3278000   306.27029      0.02745285     19.53733       759.86503     -42.248642      717.61639    
   3279000   292.00724      0.02745285     19.051382      724.478       -48.133828      676.34417    
   3280000   301.58831      0.02745285    -7.146522       748.24891     -56.298524      691.95039    
   3281000   311.32207      0.02745285     17.294966      772.39863     -50.609139      721.78949    
   3282000   294.25053      0.02745285     34.031169      730.04367     -53.82338       676.22029    
   3283000   292.41704      0.02745285     11.612107      725.49474     -45.321672      680.17307    
   3284000   313.17534      0.02745285     2.1088514      776.99665     -43.005079      733.99157    
   3285000   308.14224      0.02745285     23.922736      764.50938     -41.314509      723.19487    
   3286000   292.96345      0.02745285     11.26436       726.85038     -44.69832       682.15206    
   3287000   289.24699      0.02745285    -2.3993405      717.62975     -50.577457      667.0523     
   3288000   299.00571      0.02745285     6.4936035      741.8414      -51.63757       690.20384    
   3289000   318.06738      0.02745285     45.34761       789.13393     -54.829516      734.30442    
   3290000   300.25158      0.02745285     30.949944      744.93244     -47.333319      697.59913    
   3291000   291.1731       0.02745285     7.3738944      722.40848     -47.564992      674.84348    
   3292000   302.54799      0.02745285     4.2905896      750.6299      -48.449573      702.18033    
   3293000   310.85786      0.02745285     18.905261      771.24692     -44.314511      726.93241    
   3294000   312.83309      0.02745285     30.602196      776.14753     -50.414117      725.73341    
   3295000   287.8549       0.02745285     14.764822      714.17595     -50.285395      663.89056    
   3296000   297.49899      0.02745285     4.2511642      738.1032      -48.859368      689.24383    
   3297000   313.36388      0.02745285     32.641201      777.46443     -45.91888       731.54555    
   3298000   294.55451      0.02745285     15.534781      730.79787     -48.476343      682.32152    
   3299000   284.59281      0.02745285     14.422039      706.0826      -51.103823      654.97877    
   3300000   309.31947      0.02745285    -9.5388735      767.43013     -49.528788      717.90134    
   3301000   312.41734      0.02745285     7.9329965      775.11602     -46.392903      728.72312    
   3302000   298.57387      0.02745285     22.685251      740.77        -43.34175       697.42825    
   3303000   293.24203      0.02745285     17.539175      727.54156     -48.896491      678.64507    
   3304000   295.65055      0.02745285     8.3506557      733.51717     -52.695994      680.82118    
   3305000   307.48801      0.02745285     10.170056      762.88622     -53.755427      709.13079    
   3306000   304.89881      0.02745285     19.440485      756.46236     -50.922969      705.53939    
   3307000   286.38989      0.02745285     18.680893      710.54121     -49.81705       660.72416    
   3308000   292.59446      0.02745285     12.159574      725.93492     -51.00929       674.92563    
   3309000   311.49727      0.02745285     14.671868      772.83332     -52.554159      720.27916    
   3310000   290.2646       0.02745285     13.926798      720.15448     -52.283743      667.87074    
   3311000   295.6591       0.02745285     13.52637       733.53839     -50.74491       682.79348    
   3312000   315.5462       0.02745285     14.365118      782.87882     -53.102361      729.77646    
   3313000   306.83654      0.02745285     13.577818      761.2699      -47.210126      714.05978    
   3314000   289.75605      0.02745285     15.298962      718.89275     -44.638281      674.25447    
   3315000   297.12008      0.02745285     15.401634      737.16312     -47.356084      689.80704    
   3316000   302.67939      0.02745285     16.191236      750.9559      -42.882112      708.07379    
   3317000   316.87089      0.02745285     5.6868683      786.16541     -44.984637      741.18077    
   3318000   286.40443      0.02745285     13.350514      710.57728     -39.146285      671.43099    
   3319000   298.52842      0.02745285     18.616973      740.65723     -41.872772      698.78446    
   3320000   299.57965      0.02745285     10.001135      743.26536     -41.536288      701.72907    
   3321000   294.86042      0.02745285     9.3488637      731.55683     -45.247663      686.30917    
   3322000   295.34657      0.02745285     17.917856      732.76298     -48.385354      684.37763    
   3323000   312.9204       0.02745285     20.556064      776.36414     -42.011176      734.35296    
   3324000   299.37441      0.02745285     9.8973159      742.75617     -42.37961       700.37656    
   3325000   292.56017      0.02745285     19.445315      725.84985     -45.327136      680.52272    
   3326000   311.8504       0.02745285     16.862772      773.70944     -44.46375       729.24569    
   3327000   304.43423      0.02745285     11.297521      755.30972     -45.848705      709.46101    
   3328000   299.29691      0.02745285     15.70526       742.56389     -45.084873      697.47901    
   3329000   300.5621       0.02745285     31.303093      745.70286     -43.068203      702.63465    
   3330000   301.38484      0.02745285     10.345221      747.74409     -42.031033      705.71306    
   3331000   288.19895      0.02745285     13.603011      715.02954     -46.932608      668.09693    
   3332000   294.37576      0.02745285     7.6139308      730.35438     -38.112815      692.24156    
   3333000   299.20215      0.02745285     22.251668      742.32879     -40.029257      702.29954    
   3334000   303.93662      0.02745285     15.143512      754.07514     -43.654163      710.42097    
   3335000   303.61438      0.02745285     8.3112275      753.27565     -41.460108      711.81554    
   3336000   291.98249      0.02745285     25.034297      724.4166      -45.570373      678.84623    
   3337000   303.17386      0.02745285     41.390789      752.1827      -47.254762      704.92794    
   3338000   308.20602      0.02745285     24.49758       764.66762     -48.478286      716.18934    
   3339000   302.14366      0.02745285     13.764435      749.62675     -44.444341      705.18241    
   3340000   295.31775      0.02745285     1.4994894      732.69148     -46.341975      686.34951    
   3341000   308.19393      0.02745285     11.706541      764.63764     -46.830749      717.80689    
   3342000   296.26928      0.02745285     12.228176      735.05225     -39.420614      695.63164    
   3343000   296.49487      0.02745285     15.001745      735.61195     -38.367009      697.24494    
   3344000   309.60747      0.02745285     11.761696      768.14466     -40.429343      727.71532    
   3345000   296.05072      0.02745285     6.8747589      734.51        -38.49761       696.01239    
   3346000   292.11344      0.02745285     20.167215      724.7415      -44.731526      680.00998    
   3347000   290.20021      0.02745285     25.426236      719.99471     -47.932263      672.06245    
   3348000   312.54435      0.02745285     12.028931      775.43116     -45.418194      730.01297    
   3349000   299.13207      0.02745285    -14.341065      742.15491     -41.51598       700.63893    
   3350000   299.08508      0.02745285     4.1091506      742.03833     -36.933083      705.10525    
   3351000   291.10816      0.02745285     25.386258      722.24737     -41.899351      680.34802    
   3352000   301.07684      0.02745285     17.623359      746.97993     -38.128699      708.85123    
   3353000   309.71738      0.02745285     11.396436      768.41736     -40.375905      728.04146    
   3354000   287.33215      0.02745285     0.93364162     712.87899     -39.62407       673.25492    
   3355000   292.87037      0.02745285     22.008388      726.61946     -39.06709       687.55237    
   3356000   313.05404      0.02745285     30.347696      776.69571     -40.416409      736.27931    
   3357000   312.10604      0.02745285     13.900464      774.34368     -40.452828      733.89085    
   3358000   288.87647      0.02745285     11.640361      716.71047     -40.69723       676.01324    
   3359000   307.69455      0.02745285     17.105369      763.39867     -44.488081      718.91059    
   3360000   299.39431      0.02745285     4.3968751      742.80552     -39.12866       703.67686    
   3361000   282.62657      0.02745285     19.02404       701.20432     -38.718869      662.48545    
   3362000   294.75268      0.02745285     12.648187      731.28951     -35.566511      695.723      
   3363000   302.36002      0.02745285     21.547063      750.16354     -36.841625      713.32191    
   3364000   302.57468      0.02745285     17.252978      750.69611     -38.354334      712.34178    
   3365000   290.3778       0.02745285     1.6105927      720.43532     -42.526469      677.90885    
   3366000   306.28039      0.02745285     12.858173      759.89009     -45.129936      714.76015    
   3367000   311.91533      0.02745285     30.459706      773.87053     -43.123033      730.7475     
   3368000   308.67032      0.02745285     13.41918       765.81958     -47.335083      718.48449    
   3369000   302.92601      0.02745285     8.4443578      751.56779     -52.395537      699.17225    
   3370000   280.29571      0.02745285     17.190531      695.42138     -47.076525      648.34485    
   3371000   305.12604      0.02745285     26.366183      757.02611     -50.336394      706.68972    
   3372000   309.81207      0.02745285     11.040137      768.6523      -44.053594      724.5987     
   3373000   294.96353      0.02745285     12.613207      731.81266     -51.364183      680.44847    
   3374000   293.42705      0.02745285     17.475005      728.00061     -56.326519      671.67409    
   3375000   299.76537      0.02745285     14.718508      743.72613     -53.182411      690.54372    
   3376000   310.96486      0.02745285     16.116839      771.51239     -52.050521      719.46187    
   3377000   297.77368      0.02745285     12.652919      738.7847      -53.861606      684.92309    
   3378000   292.2678       0.02745285     11.266534      725.12447     -50.951558      674.17291    
   3379000   312.93043      0.02745285     18.652863      776.38902     -47.941109      728.44791    
   3380000   312.89932      0.02745285     18.444463      776.31185     -50.717614      725.59423    
   3381000   293.09902      0.02745285     14.645185      727.18676     -46.986765      680.19999    
   3382000   289.97424      0.02745285     15.927192      719.43407     -49.937794      669.49628    
   3383000   300.79817      0.02745285     13.9829        746.28854     -52.46626       693.82228    
   3384000   313.4475       0.02745285     14.932021      777.6719      -51.07613       726.59577    
   3385000   294.14806      0.02745285     13.838086      729.78946     -47.956781      681.83268    
   3386000   314.09482      0.02745285     17.428979      779.2779      -52.842412      726.43548    
   3387000   303.27347      0.02745285     15.83305       752.42984     -51.7817        700.64814    
   3388000   312.63084      0.02745285     14.322882      775.64573     -48.104126      727.5416     
   3389000   292.5609       0.02745285     14.975212      725.85166     -44.797712      681.05395    
   3390000   308.22558      0.02745285     14.973995      764.71616     -42.796152      721.92001    
   3391000   301.0126       0.02745285     12.939255      746.82056     -45.256059      701.5645     
   3392000   294.31455      0.02745285     23.602008      730.2025      -45.225671      684.97683    
   3393000   302.88587      0.02745285     10.728928      751.46819     -44.775333      706.69286    
   3394000   301.46878      0.02745285     17.722908      747.95236     -41.507553      706.44481    
   3395000   288.16322      0.02745285     22.977759      714.9409      -45.666455      669.27445    
   3396000   306.54293      0.02745285     34.273326      760.54146     -44.26006       716.2814     
   3397000   302.86752      0.02745285     10.568486      751.42266     -35.193699      716.22896    
   3398000   306.01968      0.02745285     9.4064275      759.24326     -34.115683      725.12757    
   3399000   296.07825      0.02745285     7.6793331      734.57831     -36.464977      698.11333    
   3400000   290.25839      0.02745285     16.172796      720.13907     -44.365842      675.77322    
   3401000   305.54638      0.02745285     17.464878      758.069       -45.566763      712.50224    
   3402000   303.33622      0.02745285     14.615808      752.58552     -43.556005      709.02951    
   3403000   285.40583      0.02745285     14.543233      708.09972     -44.314667      663.78506    
   3404000   304.3304       0.02745285     15.358923      755.05211     -40.156216      714.89589    
   3405000   320.52064      0.02745285     13.582801      795.22054     -39.46182       755.75872    
   3406000   296.67913      0.02745285     16.793996      736.0691      -47.050303      689.0188     
   3407000   293.29976      0.02745285     11.974535      727.68478     -43.832415      683.85236    
   3408000   302.76474      0.02745285     11.491935      751.16767     -45.488437      705.67924    
   3409000   315.45507      0.02745285     23.428637      782.65273     -36.774968      745.87776    
   3410000   301.27976      0.02745285     15.220959      747.48339     -44.549773      702.93362    
   3411000   292.03697      0.02745285     2.2675953      724.55178     -40.413466      684.13831    
   3412000   292.13994      0.02745285     14.821225      724.80724     -36.874776      687.93246    
   3413000   298.05793      0.02745285     19.763615      739.48993     -40.717107      698.77282    
   3414000   301.95998      0.02745285     10.899282      749.17103     -46.931912      702.23912    
   3415000   299.65394      0.02745285     11.182544      743.44968     -40.551095      702.89859    
   3416000   302.80785      0.02745285     21.37157       751.27462     -50.786377      700.48825    
   3417000   292.69729      0.02745285     21.408709      726.19003     -48.91879       677.27124    
   3418000   298.62228      0.02745285     12.704473      740.89011     -45.10299       695.78712    
   3419000   300.75755      0.02745285     13.613069      746.18776     -40.549148      705.63861    
   3420000   307.08002      0.02745285     17.192519      761.87398     -39.617482      722.2565     
   3421000   295.49653      0.02745285     15.616192      733.13504     -37.575336      695.5597     
   3422000   312.59163      0.02745285     13.845615      775.54846     -42.739159      732.8093     
   3423000   302.09923      0.02745285     10.668295      749.51651     -42.677296      706.83922    
   3424000   297.36899      0.02745285     11.091072      737.78066     -48.294414      689.48625    
   3425000   295.00522      0.02745285     17.560498      731.91609     -51.479517      680.43657    
   3426000   303.39923      0.02745285     16.432608      752.74186     -48.448656      704.2932     
   3427000   291.65531      0.02745285     14.883953      723.60486     -57.05254       666.55232    
   3428000   294.70236      0.02745285     12.434096      731.16468     -53.575866      677.58881    
   3429000   297.06354      0.02745285     15.258131      737.02283     -47.379991      689.64283    
   3430000   302.5056       0.02745285     19.818203      750.52472     -48.136889      702.38783    
   3431000   301.11167      0.02745285     12.263286      747.06636     -44.551259      702.5151     
   3432000   298.37666      0.02745285     12.175177      740.28072     -44.264427      696.0163     
   3433000   306.42599      0.02745285     15.812608      760.25132     -43.654745      716.59658    
   3434000   297.1974       0.02745285     13.620552      737.35494     -46.958583      690.39636    
   3435000   287.23933      0.02745285     15.104852      712.6487      -45.054254      667.59445    
   3436000   302.75017      0.02745285     8.7646008      751.13152     -54.940515      696.19101    
   3437000   321.60013      0.02745285     24.073002      797.89878     -46.909916      750.98886    
   3438000   313.58858      0.02745285     20.818247      778.02191     -43.318002      734.70391    
   3439000   289.58152      0.02745285     16.328414      718.45972     -43.36179       675.09793    
   3440000   300.78382      0.02745285     14.311212      746.25295     -47.172622      699.08033    
   3441000   305.78892      0.02745285     16.507542      758.67073     -45.940741      712.72999    
   3442000   303.38146      0.02745285     14.61075       752.69776     -46.106648      706.59111    
   3443000   301.50831      0.02745285     16.192317      748.05044     -43.196773      704.85367    
   3444000   297.39905      0.02745285     12.148073      737.85523     -37.903453      699.95178    
   3445000   294.38774      0.02745285     12.888635      730.38409     -44.305165      686.07893    
   3446000   307.80611      0.02745285     16.464766      763.67544     -42.191751      721.48368    
   3447000   305.09419      0.02745285     16.159706      756.9471      -38.981082      717.96602    
   3448000   304.06453      0.02745285     10.228097      754.39248     -43.54958       710.8429     
   3449000   290.7386       0.02745285     15.689249      721.33048     -48.305155      673.02532    
   3450000   305.73821      0.02745285     17.284458      758.54493     -47.137766      711.40716    
   3451000   306.09837      0.02745285     13.043582      759.43849     -52.501878      706.93661    
   3452000   298.41628      0.02745285     13.877574      740.37901     -51.706047      688.67296    
   3453000   304.05393      0.02745285     15.08314       754.36617     -52.084969      702.2812     
   3454000   310.03909      0.02745285     16.369701      769.21553     -45.385397      723.83013    
   3455000   302.99282      0.02745285     8.0335455      751.73354     -45.375824      706.35772    
   3456000   298.00722      0.02745285     17.693421      739.36412     -48.160033      691.20408    
   3457000   304.20132      0.02745285     16.464796      754.73185     -53.893896      700.83796    
   3458000   293.68489      0.02745285     2.5604825      728.64031     -56.154154      672.48615    
   3459000   296.54154      0.02745285     14.875058      735.72774     -48.315421      687.41232    
   3460000   301.56564      0.02745285     14.320237      748.19267     -46.579104      701.61357    
   3461000   297.04917      0.02745285     14.858081      736.98719     -42.736743      694.25045    
   3462000   311.83388      0.02745285     14.5702        773.66845     -42.572436      731.09602    
   3463000   298.36019      0.02745285     15.170216      740.23985     -38.358919      701.88093    
   3464000   281.31121      0.02745285     13.42736       697.94088     -42.373526      655.56735    
   3465000   304.97026      0.02745285     16.35583       756.63963     -36.030664      720.60897    
   3466000   300.45493      0.02745285     17.886902      745.43697     -38.360087      707.07688    
   3467000   300.38183      0.02745285     12.691067      745.2556      -41.252399      704.0032     
   3468000   297.74547      0.02745285     4.8469583      738.71472     -40.027681      698.68704    
   3469000   309.16658      0.02745285     15.034583      767.0508      -39.063324      727.98748    
   3470000   291.57851      0.02745285     16.212346      723.41431     -44.150219      679.26409    
   3471000   307.28453      0.02745285     6.7068647      762.38139     -45.140878      717.24051    
   3472000   297.33395      0.02745285     25.363908      737.69374     -43.764467      693.92927    
   3473000   286.9212       0.02745285     11.658953      711.85941     -42.084787      669.77463    
   3474000   303.48379      0.02745285     11.698855      752.95164     -48.090401      704.86124    
   3475000   315.77913      0.02745285     17.615544      783.45673     -56.623307      726.83342    
   3476000   300.43565      0.02745285     14.106544      745.38912     -53.326214      692.06291    
   3477000   284.05823      0.02745285     12.843808      704.75629     -48.69593       656.06036    
   3478000   304.60967      0.02745285     15.129299      755.74499     -50.406409      705.33858    
   3479000   315.32602      0.02745285     14.101046      782.33254     -54.949908      727.38264    
   3480000   298.95488      0.02745285     6.758249       741.71529     -47.142063      694.57323    
   3481000   291.14001      0.02745285     12.748043      722.3264      -52.520972      669.80542    
   3482000   292.60779      0.02745285     14.76027       725.968       -49.015429      676.95257    
   3483000   311.38451      0.02745285     14.454302      772.55354     -44.108127      728.44542    
   3484000   295.36019      0.02745285     14.671347      732.79678     -40.008751      692.78803    
   3485000   292.83046      0.02745285     12.491005      726.52045     -43.945384      682.57507    
   3486000   294.27158      0.02745285     15.241681      730.0959      -43.924785      686.17111    
   3487000   312.49848      0.02745285     17.451824      775.31735     -41.663133      733.65422    
   3488000   303.31343      0.02745285     14.063948      752.52898     -44.330291      708.19869    
   3489000   304.07512      0.02745285     14.88384       754.41876     -45.422142      708.99662    
   3490000   311.55721      0.02745285     16.008153      772.98203     -44.781039      728.20099    
   3491000   297.9663       0.02745285     14.97589       739.26261     -44.068199      695.19441    
   3492000   283.2072       0.02745285     12.290336      702.64486     -46.109975      656.53489    
   3493000   303.74122      0.02745285     15.264786      753.59034     -45.11499       708.47535    
   3494000   327.3912       0.02745285     18.76413       812.26659     -46.020345      766.24625    
   3495000   293.97014      0.02745285     14.897063      729.34802     -44.258651      685.08937    
   3496000   291.92457      0.02745285     13.127841      724.27291     -42.936711      681.3362     
   3497000   309.76548      0.02745285     12.812183      768.5367      -41.385788      727.15091    
   3498000   304.38111      0.02745285     10.718393      755.17793     -41.194995      713.98294    
   3499000   280.71254      0.02745285     13.957919      696.45556     -44.466668      651.98889    
   3500000   286.38845      0.02745285     14.25207       710.53763     -46.670599      663.86703    
   3501000   293.11713      0.02745285     14.499168      727.23167     -47.649879      679.58179    
   3502000   300.11136      0.02745285     16.0962        744.58457     -44.901726      699.68284    
   3503000   298.82251      0.02745285     11.512173      741.3869      -45.623473      695.76342    
   3504000   295.74635      0.02745285     13.343788      733.75484     -48.263828      685.49101    
   3505000   305.21462      0.02745285     14.74052       757.24588     -41.967678      715.27821    
   3506000   289.31642      0.02745285     17.201165      717.80201     -39.060357      678.74166    
   3507000   293.78983      0.02745285     14.070856      728.90067     -42.694119      686.20655    
   3508000   293.5721       0.02745285     14.489749      728.36048     -37.517667      690.84281    
   3509000   300.54194      0.02745285     14.069533      745.65285     -40.448485      705.20436    
   3510000   300.27907      0.02745285     13.171494      745.00065     -40.384703      704.61595    
   3511000   298.47561      0.02745285     15.196544      740.52622     -40.356548      700.16967    
   3512000   296.3996       0.02745285     19.023063      735.37559     -34.029891      701.3457     
   3513000   307.48467      0.02745285     13.127495      762.87794     -36.397246      726.48069    
   3514000   303.34877      0.02745285     11.200397      752.61666     -41.294562      711.3221     
   3515000   303.32125      0.02745285     18.317373      752.54838     -35.812781      716.7356     
   3516000   296.60188      0.02745285     21.062398      735.87744     -34.287687      701.58975    
   3517000   298.28434      0.02745285     11.206041      740.05168     -42.661426      697.39026    
   3518000   306.10093      0.02745285     18.054333      759.44485     -41.779713      717.66514    
   3519000   290.3564       0.02745285     20.263078      720.38223     -45.27257       675.10966    
   3520000   300.80267      0.02745285     9.1265008      746.29971     -42.371178      703.92853    
   3521000   316.5956       0.02745285     20.319881      785.4824      -40.088512      745.39389    
   3522000   291.6914       0.02745285     23.215804      723.69441     -43.179773      680.51463    
   3523000   292.13643      0.02745285     13.142885      724.79854     -39.081713      685.71683    
   3524000   289.97872      0.02745285     7.7508078      719.4452      -39.855419      679.58978    
   3525000   280.04392      0.02745285     17.875304      694.79668     -40.057962      654.73872    
   3526000   296.4056       0.02745285     11.990611      735.39047     -41.541423      693.84905    
   3527000   314.50853      0.02745285     18.441513      780.30432     -51.198506      729.10582    
   3528000   305.46505      0.02745285     13.642691      757.86721     -44.642474      713.22474    
   3529000   290.3453       0.02745285     13.911885      720.3547      -47.502148      672.85255    
   3530000   318.26936      0.02745285     14.944339      789.63505     -48.987286      740.64776    
   3531000   309.01747      0.02745285     12.72005       766.68086     -55.551243      711.12961    
   3532000   298.71462      0.02745285     11.388423      741.11922     -51.826092      689.29313    
   3533000   288.53109      0.02745285     18.816404      715.85358     -52.50905       663.34453    
   3534000   301.16751      0.02745285     15.702316      747.20489     -44.702328      702.50256    
   3535000   313.85979      0.02745285     13.643769      778.69478     -49.270243      729.42454    
   3536000   301.24002      0.02745285     8.9841043      747.3848      -52.000231      695.38457    
   3537000   278.72499      0.02745285     13.499498      691.52437     -48.300532      643.22384    
   3538000   302.02211      0.02745285     13.982156      749.32519     -47.180864      702.14433    
   3539000   304.57987      0.02745285     16.048795      755.67105     -35.147755      720.52329    
   3540000   292.22062      0.02745285     12.140262      725.0074      -46.897833      678.10957    
   3541000   301.73129      0.02745285     15.977024      748.60364     -44.698282      703.90536    
   3542000   300.20365      0.02745285     14.605535      744.81353     -42.682602      702.13093    
   3543000   299.7675       0.02745285     11.584547      743.73143     -45.156841      698.57459    
   3544000   298.01516      0.02745285     12.835163      739.38383     -48.765912      690.61792    
   3545000   284.60417      0.02745285     14.255982      706.1108      -45.382281      660.72852    
   3546000   296.3841       0.02745285     16.511973      735.33711     -54.907071      680.43004    
   3547000   309.61902      0.02745285     18.610301      768.17331     -49.519293      718.65402    
   3548000   309.38375      0.02745285     14.734922      767.58962     -52.700664      714.88895    
   3549000   293.73505      0.02745285     14.083106      728.76476     -52.448183      676.31657    
   3550000   304.94535      0.02745285     14.233285      756.57783     -47.75404       708.82379    
   3551000   316.02993      0.02745285     15.592162      784.07896     -51.964177      732.11479    
   3552000   299.203        0.02745285     14.981339      742.3309      -50.536649      691.79425    
   3553000   293.4875       0.02745285     15.034966      728.15058     -55.102884      673.04769    
   3554000   298.89568      0.02745285     14.915468      741.56843     -51.857227      689.7112     
   3555000   298.60289      0.02745285     12.563512      740.842       -51.649379      689.19262    
   3556000   303.36027      0.02745285     14.674978      752.64518     -52.650103      699.99508    
   3557000   290.35379      0.02745285     15.39272       720.37575     -48.114957      672.26079    
   3558000   292.73318      0.02745285     9.8872437      726.27909     -43.376673      682.90242    
   3559000   311.89811      0.02745285     11.944338      773.8278      -43.584804      730.243      
   3560000   315.23628      0.02745285     17.022476      782.10991     -41.573821      740.53608    
   3561000   288.63557      0.02745285     17.002899      716.1128      -45.479516      670.63329    
   3562000   290.11636      0.02745285     13.59406       719.7867      -46.317587      673.46911    
   3563000   310.68421      0.02745285     5.5966967      770.81608     -48.205364      722.61072    
   3564000   306.18953      0.02745285     16.423799      759.66466     -49.448562      710.2161     
   3565000   294.30275      0.02745285     12.289221      730.17323     -50.628065      679.54516    
   3566000   306.9079       0.02745285     13.785432      761.44696     -48.275552      713.17141    
   3567000   299.37328      0.02745285     14.577466      742.75336     -56.248111      686.50525    
   3568000   312.08636      0.02745285     16.755657      774.29486     -53.605699      720.68916    
   3569000   289.36917      0.02745285     13.77396       717.93289     -46.715927      671.21696    
   3570000   299.4353       0.02745285     15.045957      742.90722     -48.499226      694.408      
   3571000   302.16037      0.02745285     12.625813      749.6682      -45.950681      703.71752    
   3572000   301.6138       0.02745285     4.5154         748.31214     -51.327858      696.98429    
   3573000   290.40952      0.02745285     8.0603039      720.51403     -44.376609      676.13742    
   3574000   287.92219      0.02745285     10.274141      714.34289     -54.2023        660.14059    
   3575000   298.29131      0.02745285     16.776121      740.06896     -48.84532       691.22364    
   3576000   315.78905      0.02745285     10.888482      783.48133     -51.079559      732.40178    
   3577000   291.28431      0.02745285     6.5099168      722.68441     -47.023763      675.66065    
   3578000   306.02885      0.02745285     22.761073      759.26602     -43.031952      716.23407    
   3579000   308.90188      0.02745285     15.106172      766.39407     -38.435507      727.95856    
   3580000   299.46922      0.02745285     26.441743      742.9914      -36.717442      706.27396    
   3581000   308.10542      0.02745285     7.0835278      764.41803     -38.054687      726.36334    
   3582000   313.17733      0.02745285     14.906583      777.00159     -43.514238      733.48735    
   3583000   297.49477      0.02745285     15.513828      738.09272     -39.374329      698.71839    
   3584000   305.29472      0.02745285     26.839007      757.44462     -43.656562      713.78806    
   3585000   300.62746      0.02745285     11.985781      745.86502     -41.006426      704.85859    
   3586000   291.88245      0.02745285     13.782141      724.16841     -44.548357      679.62005    
   3587000   301.83121      0.02745285     14.740391      748.85156     -39.705012      709.14655    
   3588000   301.44831      0.02745285     14.562614      747.90156     -42.971712      704.92985    
   3589000   305.2982       0.02745285     8.0330477      757.45326     -45.078152      712.37511    
   3590000   292.31179      0.02745285     14.866168      725.23361     -47.270617      677.96299    
   3591000   297.8141       0.02745285     16.453373      738.88499     -49.414762      689.47022    
   3592000   299.55954      0.02745285     16.135472      743.21548     -47.808776      695.4067     
   3593000   299.97937      0.02745285     14.354119      744.25708     -45.207586      699.04949    
   3594000   290.59418      0.02745285     14.570503      720.97217     -41.335608      679.63656    
   3595000   305.36183      0.02745285     14.570149      757.61112     -45.758014      711.85311    
   3596000   309.00809      0.02745285     16.837963      766.65759     -46.651921      720.00567    
   3597000   279.13147      0.02745285     12.53258       692.53287     -53.875531      638.65734    
   3598000   308.92368      0.02745285     12.729245      766.44816     -54.006753      712.4414     
   3599000   304.92891      0.02745285     13.795899      756.53704     -50.109509      706.42753    
   3600000   303.12053      0.02745285     16.081603      752.0504      -49.05613       702.99427    
   3601000   308.30083      0.02745285     15.30435       764.90286     -46.526842      718.37602    
   3602000   302.75636      0.02745285     15.73061       751.14687     -48.4431        702.70377    
   3603000   296.055        0.02745285     14.113309      734.52061     -45.711477      688.80913    
   3604000   306.29792      0.02745285     14.953196      759.93357     -44.487153      715.44642    
   3605000   305.51259      0.02745285     11.758416      757.98517     -47.889905      710.09526    
   3606000   287.29928      0.02745285     11.693944      712.79744     -47.314565      665.48287    
   3607000   290.62745      0.02745285     14.537569      721.05472     -45.474401      675.58032    
   3608000   295.87406      0.02745285     26.762677      734.0717      -48.703578      685.36812    
   3609000   310.72319      0.02745285     15.41212       770.9128      -50.207837      720.70497    
   3610000   295.23464      0.02745285     8.9379674      732.48527     -52.543537      679.94173    
   3611000   296.61253      0.02745285     15.051308      735.90386     -56.120388      679.78348    
   3612000   300.21445      0.02745285     17.620673      744.84032     -51.769508      693.07081    
   3613000   302.6585       0.02745285     13.880355      750.90407     -43.075262      707.82881    
   3614000   281.95494      0.02745285     10.70629       699.53797     -46.524547      653.01343    
   3615000   291.27378      0.02745285     15.771384      722.65829     -46.94671       675.71158    
   3616000   300.79784      0.02745285     14.962408      746.28773     -39.309649      706.97809    
   3617000   316.36014      0.02745285     14.81477       784.89823     -40.262008      744.63622    
   3618000   302.73665      0.02745285     13.711171      751.09797     -42.943998      708.15397    
   3619000   288.78831      0.02745285     11.396048      716.49175     -40.280942      676.21081    
   3620000   290.61204      0.02745285     12.895009      721.01649     -43.17988       677.83661    
   3621000   299.64572      0.02745285     14.872081      743.42929     -46.461462      696.96783    
   3622000   310.08709      0.02745285     8.3368605      769.33462     -47.442954      721.89167    
   3623000   309.77507      0.02745285     17.694866      768.56048     -46.338564      722.22192    
   3624000   291.10288      0.02745285     13.517574      722.23428     -43.987381      678.2469     
   3625000   301.95868      0.02745285     10.802095      749.16781     -40.735547      708.43226    
   3626000   305.83115      0.02745285     14.563978      758.7755      -35.969148      722.80636    
   3627000   303.00663      0.02745285     14.823318      751.76781     -36.682883      715.08493    
   3628000   292.20069      0.02745285     8.405662       724.95797     -38.437344      686.52062    
   3629000   309.37993      0.02745285     10.175861      767.58014     -37.936208      729.64394    
   3630000   311.36456      0.02745285     12.616478      772.50407     -47.080958      725.42311    
   3631000   297.25537      0.02745285     20.907661      737.49876     -48.742132      688.75663    
   3632000   292.4157       0.02745285     11.439078      725.49141     -47.108559      678.38286    
   3633000   311.69147      0.02745285     11.688866      773.31512     -47.864249      725.45087    
   3634000   305.59854      0.02745285     18.679722      758.19841     -53.405796      704.79262    
   3635000   281.13852      0.02745285     13.354317      697.51243     -53.670825      643.8416     
   3636000   301.89959      0.02745285     12.735232      749.0212      -48.773235      700.24797    
   3637000   314.04024      0.02745285     12.564537      779.14248     -39.544646      739.59783    
   3638000   305.79873      0.02745285     21.590663      758.69509     -42.035911      716.65918    
   3639000   287.29353      0.02745285     12.855807      712.78316     -43.329286      669.45387    
   3640000   295.07303      0.02745285     15.171854      732.08432     -43.722895      688.36143    
   3641000   327.84501      0.02745285     17.41867       813.39252     -39.993322      773.3992     
   3642000   300.34598      0.02745285     11.938037      745.16666     -43.482669      701.68399    
   3643000   285.55514      0.02745285     13.717069      708.47016     -41.081926      667.38824    
   3644000   299.30499      0.02745285     14.45685       742.58394     -41.000913      701.58303    
   3645000   301.9993       0.02745285     14.720332      749.26859     -41.19388       708.07471    
   3646000   297.51926      0.02745285     16.59073       738.15348     -40.809465      697.34402    
   3647000   300.4979       0.02745285     13.899887      745.54357     -37.537596      708.00597    
   3648000   311.18808      0.02745285     14.472752      772.06621     -42.627858      729.43835    
   3649000   296.55621      0.02745285     14.661576      735.76413     -42.475126      693.289      
   3650000   290.22126      0.02745285     12.124843      720.04695     -41.777834      678.26912    
   3651000   308.84648      0.02745285     14.411063      766.25662     -43.737408      722.51921    
   3652000   312.70817      0.02745285     15.803823      775.83758     -47.064992      728.77259    
   3653000   299.38636      0.02745285     16.76608       742.78582     -47.578797      695.20702    
   3654000   299.01947      0.02745285     13.240032      741.87555     -48.119153      693.7564     
   3655000   300.60202      0.02745285     15.710587      745.8019      -50.517122      695.28478    
   3656000   307.43515      0.02745285     16.213318      762.75507     -47.537302      715.21777    
   3657000   305.92875      0.02745285     14.247717      759.01766     -46.696031      712.32162    
   3658000   293.73565      0.02745285     13.21991       728.76624     -45.673036      683.09321    
   3659000   304.03945      0.02745285     12.611104      754.33026     -49.473431      704.85683    
   3660000   292.09872      0.02745285     18.348714      724.70498     -45.591396      679.11358    
   3661000   293.33819      0.02745285     14.209453      727.78012     -49.438619      678.34151    
   3662000   301.07446      0.02745285     14.346892      746.97403     -48.607332      698.3667     
   3663000   306.53496      0.02745285     13.271139      760.5217      -50.697389      709.82431    
   3664000   292.32135      0.02745285     20.779432      725.25733     -49.02161       676.23572    
   3665000   294.73417      0.02745285     10.234968      731.24359     -45.795244      685.44835    
   3666000   308.71734      0.02745285     10.988152      765.93624     -47.63471       718.30153    
   3667000   315.55494      0.02745285     13.656225      782.9005      -50.466726      732.43378    
   3668000   287.70733      0.02745285     26.702358      713.80981     -49.563685      664.24612    
   3669000   292.43065      0.02745285     12.306382      725.52849     -45.188058      680.34043    
   3670000   298.32739      0.02745285     6.2411911      740.15848     -42.801252      697.35723    
   3671000   309.57572      0.02745285     13.496195      768.06591     -47.330953      720.73495    
   3672000   292.01653      0.02745285     14.599269      724.50105     -44.843039      679.65801    
   3673000   296.96535      0.02745285     14.708228      736.77922     -41.481875      695.29734    
   3674000   310.27676      0.02745285     16.370208      769.8052      -44.798888      725.00631    
   3675000   304.87164      0.02745285     14.278343      756.39493     -40.934163      715.46077    
   3676000   287.07343      0.02745285     11.976308      712.2371      -42.491775      669.74533    
   3677000   292.08926      0.02745285     34.734322      724.6815      -41.413135      683.26837    
   3678000   307.35697      0.02745285     10.990522      762.56111     -44.746282      717.81482    
   3679000   285.80484      0.02745285     7.7201631      709.08968     -48.798333      660.29135    
   3680000   302.64776      0.02745285     18.800881      750.87744     -43.406445      707.471      
   3681000   302.69279      0.02745285     4.970167       750.98917     -41.272403      709.71676    
   3682000   299.30327      0.02745285     14.19105       742.57967     -42.29816       700.28151    
   3683000   309.43935      0.02745285     18.946468      767.72756     -36.13398       731.59358    
   3684000   300.44579      0.02745285     14.36453       745.41428     -42.021139      703.39314    
   3685000   293.21414      0.02745285     14.837299      727.47236     -41.935562      685.53679    
   3686000   284.63148      0.02745285     21.548182      706.17854     -41.292344      664.88619    
   3687000   310.57766      0.02745285     14.934144      770.55174     -42.907809      727.64393    
   3688000   306.52382      0.02745285     14.851225      760.49406     -42.135803      718.35825    
   3689000   299.08264      0.02745285     10.683552      742.03228     -42.402942      699.62934    
   3690000   293.5365       0.02745285     12.540264      728.27215     -39.530093      688.74205    
   3691000   287.91607      0.02745285     15.230029      714.32771     -44.333687      669.99403    
   3692000   306.14237      0.02745285     13.645268      759.54766     -45.665169      713.8825     
   3693000   293.35864      0.02745285     14.208101      727.83088     -42.796615      685.03426    
   3694000   294.14481      0.02745285     13.228057      729.78137     -45.514372      684.267      
   3695000   293.02216      0.02745285     14.645821      726.99607     -44.392207      682.60386    
   3696000   317.23095      0.02745285     16.115172      787.05873     -50.642006      736.41673    
   3697000   283.003        0.02745285     4.8221765      702.13825     -45.98126       656.15699    
   3698000   281.78988      0.02745285     13.359742      699.12846     -44.542722      654.58574    
   3699000   311.91121      0.02745285     23.353107      773.8603      -48.957285      724.90302    
   3700000   304.49181      0.02745285     9.3080919      755.45259     -44.241377      711.21121    
   3701000   285.30684      0.02745285     13.516405      707.85414     -47.545724      660.30841    
   3702000   300.37214      0.02745285     23.776027      745.23155     -43.957415      701.27414    
   3703000   298.72813      0.02745285    -2.6800767      741.15272     -46.719069      694.43365    
   3704000   300.33331      0.02745285     16.792076      745.13523     -46.387043      698.74819    
   3705000   313.34016      0.02745285     24.590904      777.40557     -51.10719       726.29838    
   3706000   298.58648      0.02745285     11.767336      740.8013      -40.699497      700.1018     
   3707000   288.67111      0.02745285     4.5567076      716.20099     -44.560909      671.64008    
   3708000   297.30954      0.02745285     19.318651      737.63316     -49.904052      687.72911    
   3709000   305.91276      0.02745285     18.225137      758.978       -52.761042      706.21695    
   3710000   307.57335      0.02745285     11.924114      763.09797     -48.229308      714.86866    
   3711000   298.98069      0.02745285     7.5063239      741.77933     -48.150297      693.62904    
   3712000   292.22772      0.02745285     10.342565      725.02502     -48.539256      676.48576    
   3713000   296.98823      0.02745285     15.081615      736.836       -46.029263      690.80673    
   3714000   293.81556      0.02745285     13.247772      728.96451     -44.878945      684.08557    
   3715000   310.03449      0.02745285     12.533326      769.20411     -41.647991      727.55612    
   3716000   305.35773      0.02745285     15.380611      757.60094     -42.94104       714.6599     
   3717000   280.36432      0.02745285     13.73713       695.5916      -45.123501      650.4681     
   3718000   301.81665      0.02745285     12.884389      748.81542     -50.611856      698.20357    
   3719000   321.07494      0.02745285     16.30389       796.59578     -45.492399      751.10338    
   3720000   293.09253      0.02745285     15.957507      727.17065     -43.05275       684.1179     
   3721000   296.01704      0.02745285     6.4413162      734.42644     -41.474895      692.95155    
   3722000   301.71633      0.02745285     13.21153       748.56653     -47.03471       701.53182    
   3723000   306.92072      0.02745285     19.811606      761.47877     -43.460022      718.01875    
   3724000   289.27402      0.02745285     13.140739      717.69683     -50.077525      667.6193     
   3725000   298.80141      0.02745285     16.657068      741.33455     -51.308109      690.02644    
   3726000   307.409        0.02745285     17.221902      762.6902      -58.368682      704.32151    
   3727000   302.79025      0.02745285     10.401103      751.23096     -55.693991      695.53697    
   3728000   288.83846      0.02745285     14.995775      716.61618     -46.383111      670.23307    
   3729000   309.71143      0.02745285     14.457104      768.40261     -45.654703      722.7479     
   3730000   309.94644      0.02745285     12.637545      768.98566     -49.706629      719.27903    
   3731000   289.6757       0.02745285     14.163998      718.6934      -43.833433      674.85996    
   3732000   297.10187      0.02745285     16.374382      737.11792     -48.633995      688.48392    
   3733000   307.19566      0.02745285     11.22728       762.1609      -48.094282      714.06662    
   3734000   301.27806      0.02745285     14.453024      747.47916     -45.387999      702.09116    
   3735000   284.09359      0.02745285     12.924269      704.84403     -46.762148      658.08189    
   3736000   295.25193      0.02745285     15.227677      732.52818     -36.331938      696.19624    
   3737000   303.45181      0.02745285     14.530029      752.8723      -43.900017      708.97228    
   3738000   315.35194      0.02745285     16.174055      782.39685     -39.630135      742.76671    
   3739000   292.86615      0.02745285     15.186129      726.609       -43.825354      682.78364    
   3740000   287.63758      0.02745285     7.3406784      713.63677     -44.554837      669.08194    
   3741000   316.32977      0.02745285     12.348813      784.82289     -45.760509      739.06238    
   3742000   305.24772      0.02745285     14.771853      757.328       -49.003354      708.32465    
   3743000   294.36307      0.02745285     13.801387      730.32289     -49.158565      681.16433    
   3744000   289.91359      0.02745285     14.408334      719.28361     -45.82717       673.45644    
   3745000   314.84722      0.02745285     13.992056      781.14464     -42.797979      738.34666    
   3746000   305.15178      0.02745285     14.641184      757.08997     -47.010369      710.0796     
   3747000   292.17352      0.02745285     17.172869      724.89056     -43.919323      680.97124    
   3748000   303.89664      0.02745285     13.094178      753.97595     -43.105972      710.86998    
   3749000   328.92508      0.02745285     9.2432959      816.07219     -45.61296       770.45924    
   3750000   299.74914      0.02745285     16.978615      743.68587     -47.92238       695.76349    
   3751000   290.15358      0.02745285     14.989415      719.87902     -47.413594      672.46542    
   3752000   302.17379      0.02745285     13.723625      749.7015      -51.51713       698.18437    
   3753000   311.87831      0.02745285     12.914098      773.77869     -50.370985      723.4077     
   3754000   291.45178      0.02745285     15.331546      723.09989     -42.16055       680.93934    
   3755000   291.97755      0.02745285     13.817959      724.40435     -41.580204      682.82415    
   3756000   303.99946      0.02745285     12.357905      754.23105     -44.17498       710.05607    
   3757000   313.63238      0.02745285     15.699413      778.13058     -48.931977      729.1986     
   3758000   295.04836      0.02745285     15.123505      732.0231      -52.335787      679.68732    
   3759000   286.75983      0.02745285     9.0655658      711.45904     -53.796796      657.66224    
   3760000   306.36405      0.02745285     14.280681      760.09765     -51.618045      708.47961    
   3761000   300.3121       0.02745285     13.071861      745.08259     -55.199383      689.88321    
   3762000   276.45659      0.02745285     15.819123      685.89643     -43.886999      642.00943    
   3763000   295.05459      0.02745285     14.86141       732.03856     -51.240252      680.79831    
   3764000   305.51021      0.02745285     13.242739      757.97926     -49.018084      708.96118    
   3765000   299.73736      0.02745285     13.001946      743.65665     -48.958098      694.69855    
   3766000   292.89863      0.02745285     14.190068      726.68958     -45.307869      681.38171    
   3767000   305.64457      0.02745285     14.853674      758.31261     -46.467034      711.84558    
   3768000   308.71957      0.02745285     18.593503      765.94177     -54.209994      711.73177    
   3769000   291.09814      0.02745285     13.596825      722.22252     -50.173353      672.04917    
   3770000   305.74602      0.02745285     14.802868      758.56432     -53.433515      705.1308     
   3771000   319.21375      0.02745285     15.135174      791.9781      -50.952245      741.02586    
   3772000   293.15978      0.02745285     13.708726      727.33748     -51.314135      676.02335    
   3773000   294.62686      0.02745285     8.176859       730.97735     -52.738124      678.23923    
   3774000   299.46032      0.02745285     4.1178485      742.96931     -54.024877      688.94443    
   3775000   310.81357      0.02745285     11.202908      771.13702     -50.176107      720.96092    
   3776000   303.74393      0.02745285     16.290887      753.59706     -47.30524       706.29182    
   3777000   301.49384      0.02745285     12.38676       748.01454     -55.376231      692.63831    
   3778000   298.48508      0.02745285     10.439811      740.54972     -51.052149      689.49757    
   3779000   306.27986      0.02745285     12.229631      759.88876     -50.839127      709.04964    
   3780000   297.11739      0.02745285     29.989892      737.15643     -51.463141      685.69329    
   3781000   293.84219      0.02745285     13.071524      729.03057     -53.457961      675.57261    
   3782000   300.83415      0.02745285     1.0146436      746.37782     -44.900655      701.47717    
   3783000   305.79652      0.02745285     14.475847      758.68959     -51.154948      707.53465    
   3784000   280.53236      0.02745285     21.165482      696.00851     -51.344871      644.66364    
   3785000   298.68814      0.02745285     19.309719      741.05351     -46.064972      694.98854    
   3786000   298.90677      0.02745285     13.493506      741.59594     -52.927312      688.66862    
   3787000   288.38479      0.02745285     6.4443974      715.49061     -51.620593      663.87002    
   3788000   300.56501      0.02745285     14.774491      745.71008     -55.017364      690.69272    
   3789000   293.01736      0.02745285     11.618369      726.98415     -57.750596      669.23356    
   3790000   292.42571      0.02745285     13.123587      725.51625     -56.469304      669.04695    
   3791000   297.28974      0.02745285     14.548862      737.58403     -56.056196      681.52784    
   3792000   304.6181       0.02745285     11.47924       755.76591     -57.932674      697.83324    
   3793000   322.56212      0.02745285     10.767532      800.28552     -55.324783      744.96073    
   3794000   291.33459      0.02745285     18.257312      722.80915     -52.357504      670.45165    
   3795000   287.64013      0.02745285     17.062174      713.64309     -58.411364      655.23173    
   3796000   306.14836      0.02745285     5.6638383      759.56252     -49.676225      709.8863     
   3797000   318.57696      0.02745285     60.723417      790.39822     -50.177335      740.22089    
   3798000   280.86986      0.02745285     39.524158      696.84587     -50.324753      646.52112    
   3799000   293.25738      0.02745285    -0.49386784     727.57964     -51.181857      676.39779    
   3800000   310.69635      0.02745285     27.668703      770.8462      -42.129991      728.71621    
   3801000   299.6018       0.02745285     28.629386      743.32032     -49.473627      693.84669    
   3802000   294.69089      0.02745285     1.74124        731.13622     -50.012189      681.12404    
   3803000   314.09399      0.02745285     2.361955       779.27584     -48.700401      730.57544    
   3804000   299.22204      0.02745285     26.191924      742.37812     -50.470382      691.90774    
   3805000   286.56373      0.02745285     20.829127      710.97252     -49.964861      661.00766    
   3806000   310.25633      0.02745285    -1.1776098      769.75451     -52.433921      717.32059    
   3807000   303.01395      0.02745285     8.3501161      751.78597     -47.605971      704.18       
   3808000   302.74856      0.02745285     26.076428      751.12753     -50.934413      700.19312    
   3809000   291.28417      0.02745285     16.419178      722.68405     -51.174323      671.50973    
   3810000   305.35529      0.02745285     10.239195      757.5949      -52.488996      705.1059     
   3811000   300.58785      0.02745285     14.110511      745.76673     -44.269549      701.49718    
   3812000   297.61684      0.02745285     21.679493      738.39558     -47.646765      690.74881    
   3813000   302.57419      0.02745285     15.403107      750.69489     -48.602986      702.09191    
   3814000   315.20918      0.02745285     20.917034      782.04265     -48.720415      733.32224    
   3815000   300.94562      0.02745285     15.020683      746.65437     -50.673461      695.98091    
   3816000   291.59969      0.02745285     14.731549      723.46688     -46.124403      677.34247    
   3817000   296.18429      0.02745285     13.978024      734.84139     -38.418742      696.42265    
   3818000   324.93535      0.02745285     14.130919      806.17356     -40.705515      765.46804    
   3819000   297.13862      0.02745285     11.831251      737.20912     -43.01564       694.19348    
   3820000   291.20292      0.02745285     14.683127      722.48248     -40.969376      681.5131     
   3821000   301.89759      0.02745285     19.268215      749.01624     -43.235111      705.78112    
   3822000   314.00874      0.02745285     15.950266      779.06434     -42.663003      736.40134    
   3823000   294.40241      0.02745285     13.999222      730.42051     -40.977564      689.44294    
   3824000   295.21811      0.02745285     14.356935      732.44426     -41.153585      691.29067    
   3825000   313.6001       0.02745285     14.147975      778.0505      -43.325361      734.72513    
   3826000   303.00946      0.02745285     13.186397      751.77483     -39.100037      712.6748     
   3827000   294.80348      0.02745285     14.550686      731.41557     -40.101529      691.31404    
   3828000   304.47997      0.02745285     15.68985       755.4232      -44.777557      710.64565    
   3829000   307.23911      0.02745285     14.177991      762.2687      -42.492407      719.7763     
   3830000   292.91086      0.02745285     14.277106      726.71991     -45.432756      681.28715    
   3831000   309.42376      0.02745285     21.14893       767.68888     -42.257958      725.43092    
   3832000   307.34946      0.02745285     11.588645      762.54248     -45.412386      717.13009    
   3833000   293.0687       0.02745285     14.462038      727.11152     -43.844326      683.2672     
   3834000   310.40773      0.02745285     20.531468      770.13014     -42.281918      727.84822    
   3835000   311.63142      0.02745285     11.745679      773.16614     -36.579485      736.58666    
   3836000   300.39054      0.02745285     11.425432      745.2772      -40.494267      704.78293    
   3837000   289.4921       0.02745285     15.718658      718.23788     -39.60957       678.62831    
   3838000   298.90186      0.02745285     18.66655       741.58376     -48.148851      693.43491    
   3839000   305.03901      0.02745285     6.2006264      756.8102      -51.850484      704.95972    
   3840000   295.82472      0.02745285     13.345471      733.9493      -49.400138      684.54916    
   3841000   305.66806      0.02745285     28.707701      758.37087     -49.961851      708.40902    
   3842000   307.2046       0.02745285     29.419872      762.18307     -45.89248       716.29059    
   3843000   302.29861      0.02745285     5.8804865      750.01118     -43.513078      706.49811    
   3844000   281.58918      0.02745285     10.771679      698.63052     -49.961304      648.66921    
   3845000   300.35057      0.02745285     20.302702      745.17804     -46.978775      698.19927    
   3846000   302.42239      0.02745285    -0.74024997     750.31827     -46.274828      704.04345    
   3847000   301.7645       0.02745285     24.324877      748.68605     -46.036995      702.64905    
   3848000   299.64428      0.02745285     23.868332      743.42571     -47.743811      695.6819     
   3849000   319.26459      0.02745285     16.385022      792.10426     -49.246772      742.85748    
   3850000   299.72238      0.02745285    -3.5367906      743.61949     -49.076451      694.54304    
   3851000   286.15093      0.02745285     36.320985      709.94835     -43.322749      666.6256     
   3852000   308.9515       0.02745285     13.39853       766.51718     -45.386606      721.13058    
   3853000   301.19826      0.02745285     5.6393074      747.28118     -42.954602      704.32658    
   3854000   296.65016      0.02745285     11.197923      735.99722     -44.168064      691.82915    
   3855000   305.50093      0.02745285     19.050257      757.95622     -42.771819      715.18441    
   3856000   302.70604      0.02745285     21.315541      751.02203     -37.614584      713.40745    
   3857000   300.54831      0.02745285    -3.8802175      745.66864     -43.395556      702.27308    
   3858000   294.38982      0.02745285     7.5031789      730.38927     -44.813371      685.57589    
   3859000   299.10599      0.02745285     30.99545       742.09021     -44.466963      697.62325    
   3860000   312.96267      0.02745285     0.12354441     776.46902     -45.909469      730.55955    
   3861000   299.09434      0.02745285     0.44327301     742.06129     -42.668446      699.39285    
   3862000   279.70445      0.02745285     3.3792792      693.95445     -41.62361       652.33084    
   3863000   301.25423      0.02745285     31.813052      747.42004     -38.008516      709.41152    
   3864000   318.18129      0.02745285    -11.902393      789.41656     -40.759183      748.65738    
   3865000   297.6989       0.02745285    -3.8061533      738.59918     -40.093843      698.50534    
   3866000   298.07773      0.02745285     28.012907      739.53906     -41.325754      698.2133     
   3867000   299.17771      0.02745285    -3.964361       742.26814     -43.780041      698.4881     
   3868000   293.12275      0.02745285    -5.9435536      727.24563     -34.758288      692.48734    
   3869000   292.64566      0.02745285     16.349834      726.06195     -38.111519      687.95043    
   3870000   298.69649      0.02745285     19.850441      741.07422     -40.06402       701.0102     
   3871000   305.60844      0.02745285     23.604375      758.22296     -40.218429      718.00453    
   3872000   307.51339      0.02745285     17.879172      762.94921     -46.394889      716.55432    
   3873000   287.61775      0.02745285     4.3375938      713.58756     -45.958826      667.62873    
   3874000   293.80697      0.02745285     20.042602      728.9432      -47.304661      681.63854    
   3875000   288.72584      0.02745285     20.78798       716.33677     -48.183002      668.15376    
   3876000   305.54661      0.02745285     15.436999      758.06956     -48.694688      709.37487    
   3877000   301.1201       0.02745285     4.5332762      747.08727     -44.977568      702.1097     
   3878000   285.4827       0.02745285     14.785626      708.29045     -45.090542      663.19991    
   3879000   299.60076      0.02745285     14.924621      743.31776     -44.08347       699.23429    
   3880000   306.98937      0.02745285     15.994993      761.64908     -46.395357      715.25372    
   3881000   302.9748       0.02745285     14.128195      751.68882     -47.987463      703.70136    
   3882000   286.22104      0.02745285     13.736419      710.12228     -46.315761      663.80652    
   3883000   301.67456      0.02745285     17.894578      748.4629      -51.266879      697.19602    
   3884000   302.78734      0.02745285     15.513152      751.22373     -45.325269      705.89846    
   3885000   300.86192      0.02745285     15.646817      746.44672     -47.586425      698.86029    
   3886000   298.12973      0.02745285     13.361311      739.66808     -44.890202      694.77787    
   3887000   296.8886       0.02745285     10.759301      736.5888      -45.322939      691.26586    
   3888000   303.72648      0.02745285     12.431857      753.55378     -39.975295      713.57848    
   3889000   296.66051      0.02745285     19.332819      736.02291     -46.494504      689.52841    
   3890000   305.35514      0.02745285     12.907857      757.59453     -43.481308      714.11322    
   3891000   296.74307      0.02745285     11.814344      736.22774     -48.115659      688.11208    
   3892000   314.91918      0.02745285     15.910686      781.32316     -43.767247      737.55592    
   3893000   303.87516      0.02745285     14.213243      753.92265     -43.192984      710.72967    
   3894000   280.24462      0.02745285     11.367005      695.29462     -36.867748      658.42687    
   3895000   298.3065       0.02745285     12.356143      740.10665     -37.484977      702.62167    
   3896000   302.87336      0.02745285     6.4342586      751.43716     -40.097647      711.33952    
   3897000   306.6424       0.02745285     14.040784      760.78826     -40.997251      719.79101    
   3898000   302.37242      0.02745285     17.230894      750.1943      -42.103392      708.09091    
   3899000   285.98898      0.02745285     10.637365      709.54655     -41.046045      668.50051    
   3900000   292.78803      0.02745285     10.251388      726.41516     -36.310006      690.10516    
   3901000   309.48374      0.02745285     14.612683      767.83768     -40.931864      726.90582    
   3902000   301.17268      0.02745285     14.624791      747.21771     -40.104957      707.11275    
   3903000   290.00994      0.02745285     14.169531      719.52266     -36.795561      682.7271     
   3904000   306.22232      0.02745285     14.261951      759.74601     -44.08183       715.66418    
   3905000   305.34581      0.02745285     14.377326      757.57137     -40.58414       716.98723    
   3906000   292.42563      0.02745285     19.036524      725.51605     -43.670393      681.84566    
   3907000   294.36051      0.02745285    -4.5553031      730.31654     -42.250634      688.0659     
   3908000   309.63882      0.02745285     12.362561      768.22246     -44.792378      723.43008    
   3909000   298.6114       0.02745285     28.619529      740.86311     -47.450446      693.41267    
   3910000   290.81873      0.02745285     11.464353      721.52927     -53.245181      668.28409    
   3911000   295.91305      0.02745285     12.996181      734.16844     -46.901777      687.26667    
   3912000   315.8627       0.02745285     7.4535764      783.66407     -45.471873      738.19219    
   3913000   293.59343      0.02745285     20.50049       728.41339     -37.146149      691.26724    
   3914000   302.97891      0.02745285     16.507366      751.69903     -36.840179      714.85885    
   3915000   300.17825      0.02745285     14.109466      744.75052     -38.661533      706.08899    
   3916000   296.72349      0.02745285     14.30582       736.17916     -38.030183      698.14898    
   3917000   319.50693      0.02745285     14.256428      792.70551     -41.332356      751.37315    
   3918000   305.59006      0.02745285     15.156691      758.17735     -46.572553      711.6048     
   3919000   296.63942      0.02745285     15.767212      735.97059     -48.605665      687.36492    
   3920000   291.87789      0.02745285     13.672578      724.15708     -47.725992      676.43109    
   3921000   315.84775      0.02745285     15.25744       783.62696     -51.894973      731.73199    
   3922000   305.6619       0.02745285     13.864404      758.3556      -50.467886      707.88771    
   3923000   293.47262      0.02745285     17.000995      728.11366     -48.890714      679.22294    
   3924000   297.98776      0.02745285     16.164332      739.31586     -50.782439      688.53342    
   3925000   306.51701      0.02745285     16.211966      760.47716     -41.483214      718.99395    
   3926000   298.88181      0.02745285     8.5922475      741.53401     -46.786178      694.74783    
   3927000   296.07723      0.02745285     14.807955      734.57578     -47.2304        687.34538    
   3928000   285.1373       0.02745285     17.896816      707.4335      -41.977356      665.45615    
   3929000   301.25998      0.02745285     14.523668      747.43431     -46.983984      700.45033    
   3930000   312.13172      0.02745285     15.371086      774.40741     -45.373629      729.03378    
   3931000   302.16201      0.02745285     15.664113      749.67227     -42.909698      706.76257    
   3932000   309.16082      0.02745285     11.99902       767.03652     -40.549813      726.48671    
   3933000   302.25559      0.02745285     5.600938       749.90445     -38.571311      711.33314    
   3934000   298.61594      0.02745285     14.874344      740.87437     -34.706734      706.16764    
   3935000   303.35848      0.02745285     14.263876      752.64075     -39.996673      712.64407    
   3936000   303.68873      0.02745285     13.261445      753.4601      -47.00825       706.45185    
   3937000   314.28382      0.02745285     17.903552      779.74682     -42.892119      736.8547     
   3938000   302.3693       0.02745285     14.947138      750.18657     -50.766717      699.41985    
   3939000   283.00389      0.02745285     13.420994      702.14045     -51.108893      651.03156    
   3940000   303.78543      0.02745285     15.362162      753.70004     -52.793626      700.90641    
   3941000   310.89447      0.02745285     14.729188      771.33775     -45.597076      725.74067    
   3942000   304.97425      0.02745285     13.372026      756.64953     -47.122493      709.52704    
   3943000   287.04796      0.02745285     13.245547      712.17389     -44.769539      667.40436    
   3944000   298.41675      0.02745285     14.415098      740.38018     -50.357901      690.02228    
   3945000   307.32794      0.02745285     14.958229      762.4891      -52.400073      710.08903    
   3946000   293.64366      0.02745285     9.3270332      728.53802     -50.020397      678.51762    
   3947000   291.60158      0.02745285     17.616243      723.47155     -55.069805      668.40175    
   3948000   308.19876      0.02745285     28.504381      764.64963     -56.330655      708.31897    
   3949000   302.41139      0.02745285     11.615792      750.29098     -55.760512      694.53047    
   3950000   288.40322      0.02745285     11.915711      715.53633     -50.339901      665.19643    
   3951000   285.92291      0.02745285     13.532394      709.38263     -54.263273      655.11936    
   3952000   299.34223      0.02745285     16.843937      742.67632     -57.304074      685.37224    
   3953000   285.79918      0.02745285     10.095753      709.07564     -55.411511      653.66413    
   3954000   291.62912      0.02745285     14.40161       723.5399      -49.163556      674.37634    
   3955000   300.24792      0.02745285     14.860537      744.92336     -49.712738      695.21063    
   3956000   320.76553      0.02745285     15.316163      795.82813     -44.571283      751.25685    
   3957000   297.53478      0.02745285     12.703617      738.192       -46.600527      691.59147    
   3958000   291.73168      0.02745285     14.025859      723.79434     -46.944222      676.85012    
   3959000   302.5492       0.02745285     16.7563        750.63289     -45.205896      705.427      
   3960000   305.34821      0.02745285     7.8818367      757.57733     -43.243857      714.33347    
   3961000   298.78747      0.02745285     18.634463      741.29995     -39.131579      702.16837    
   3962000   314.0808       0.02745285     11.296546      779.24311     -47.967634      731.27548    
   3963000   284.79503      0.02745285     9.1565685      706.58431     -44.164384      662.41992    
   3964000   302.07328      0.02745285     19.160119      749.45214     -44.583686      704.86845    
   3965000   303.45485      0.02745285     18.435321      752.87986     -50.919536      701.96032    
   3966000   300.8913       0.02745285     4.0513883      746.51961     -45.287072      701.23254    
   3967000   290.68101      0.02745285     15.381497      721.18761     -54.314374      666.87323    
   3968000   313.97903      0.02745285     17.962783      778.99062     -48.789139      730.20148    
   3969000   299.41423      0.02745285     13.314366      742.85497     -42.724188      700.13078    
   3970000   291.31798      0.02745285     4.3543091      722.76793     -43.378464      679.38947    
   3971000   310.28802      0.02745285     23.780949      769.83314     -42.463658      727.36948    
   3972000   306.40581      0.02745285     35.585226      760.20126     -45.541644      714.65962    
   3973000   302.31791      0.02745285     16.634041      750.05906     -43.42032       706.63874    
   3974000   308.47428      0.02745285    -5.9309555      765.33318     -49.804807      715.52837    
   3975000   298.99726      0.02745285     14.429989      741.82044     -46.414344      695.40609    
   3976000   290.64046      0.02745285     26.242949      721.08698     -49.887056      671.19993    
   3977000   308.81922      0.02745285     21.154576      766.18901     -48.117762      718.07125    
   3978000   311.49181      0.02745285     7.059205       772.81978     -40.138969      732.68081    
   3979000   288.51679      0.02745285     16.310954      715.8181      -42.137569      673.68053    
   3980000   301.99056      0.02745285     19.318107      749.24689     -44.622906      704.62399    
   3981000   312.51791      0.02745285     8.6792617      775.36556     -42.643075      732.72248    
   3982000   291.45221      0.02745285     11.749494      723.10096     -46.362817      676.73814    
   3983000   287.84229      0.02745285     40.058391      714.14465     -46.706984      667.43767    
   3984000   301.78627      0.02745285    -7.0130334      748.74005     -48.344061      700.39599    
   3985000   307.44074      0.02745285     7.4450278      762.76896     -47.388578      715.38038    
   3986000   300.52287      0.02745285     18.065433      745.60552     -47.931601      697.67392    
   3987000   302.7742       0.02745285     17.796124      751.19113     -45.181551      706.00958    
   3988000   300.59914      0.02745285     16.841793      745.79474     -45.320067      700.47468    
   3989000   300.79942      0.02745285     11.165427      746.29165     -39.951921      706.33973    
   3990000   295.81012      0.02745285     17.990822      733.91307     -46.492798      687.42027    
   3991000   313.82982      0.02745285     17.53066       778.62044     -44.473926      734.14651    
   3992000   300.26137      0.02745285     5.9033272      744.95674     -42.34396       702.61278    
   3993000   296.23681      0.02745285     11.199685      734.97168     -45.601823      689.36986    
   3994000   310.74389      0.02745285     22.607363      770.96415     -46.255368      724.70879    
   3995000   308.30388      0.02745285     18.755979      764.91042     -45.618235      719.29219    
   3996000   303.3066       0.02745285     12.896419      752.51204     -39.938902      712.57314    
   3997000   306.96783      0.02745285     11.594041      761.59564     -41.79164       719.804      
   3998000   304.24979      0.02745285     28.427848      754.85213     -45.367282      709.48484    
   3999000   298.96204      0.02745285     7.2928558      741.73306     -33.377359      708.3557     
   4000000   293.0466       0.02745285     12.304653      727.05669     -36.026387      691.0303     
Loop time of 5384.21 on 1 procs for 4000000 steps with 1500 atoms

Performance: 16.047 ns/day, 1.496 hours/ns, 742.913 timesteps/s, 1.114 Matom-step/s
100.0% CPU use with 1 MPI tasks x 1 OpenMP threads

MPI task timing breakdown:
Section |  min time  |  avg time  |  max time  |%varavg| %total
---------------------------------------------------------------
Pair    | 493.16     | 493.16     | 493.16     |   0.0 |  9.16
Bond    | 103.4      | 103.4      | 103.4      |   0.0 |  1.92
Kspace  | 4204.7     | 4204.7     | 4204.7     |   0.0 | 78.09
Neigh   | 0.029965   | 0.029965   | 0.029965   |   0.0 |  0.00
Comm    | 25.968     | 25.968     | 25.968     |   0.0 |  0.48
Output  | 0.10506    | 0.10506    | 0.10506    |   0.0 |  0.00
Modify  | 542.18     | 542.18     | 542.18     |   0.0 | 10.07
Other   |            | 14.69      |            |       |  0.27

Nlocal:           1500 ave        1500 max        1500 min
Histogram: 1 0 0 0 0 0 0 0 0 0
Nghost:           1557 ave        1557 max        1557 min
Histogram: 1 0 0 0 0 0 0 0 0 0
Neighs:              0 ave           0 max           0 min
Histogram: 1 0 0 0 0 0 0 0 0 0

Total # of neighbors = 0
Ave neighs/atom = 0
Ave special neighs/atom = 2
Neighbor list builds = 15530
Dangerous builds = 0
write_data	last_conf.data pair ij
System init for write_data ...
PPPM initialization ...
  using 12-bit tables for long-range coulomb (src/kspace.cpp:342)
  G vector (1/distance) = 0.16792325
  grid = 24 24 24
  stencil order = 5
  estimated absolute RMS force accuracy = 0.038443853
  estimated relative force accuracy = 0.00011577252
  using double precision FFTW3
  3d grid and FFT values/proc = 24389 13824
Generated 1 of 1 mixed pair_coeff terms from arithmetic mixing rule
Total wall time: 1:29:44
