LAMMPS (29 Aug 2024 - Update 1)
  using 1 OpenMP thread(s) per MPI task
package gpu 1 gpuID 0
# GCMC for CO2 molecular fluid, rigid/small/nvt dynamics
# Rigid CO2 TraPPE model
# [Potoff and J.I. Siepmann, Vapor-liquid equilibria of
# mixtures containing alkanes, carbon dioxide and
# nitrogen AIChE J., 47,1676-1682 (2001)].

# global model settings

units           real
atom_style      full
boundary        p p p
pair_style      lj/cut/coul/long  12
pair_modify     mix arithmetic shift yes
kspace_style    pppm 1.0e-4
bond_style      harmonic
angle_style     harmonic
neigh_modify    one 4000

# box, start molecules on simple cubic lattice
region          mbox block 0 ${lbox} 0 ${lbox} 0 ${lbox} units box
region          mbox block 0 95 0 ${lbox} 0 ${lbox} units box
region          mbox block 0 95 0 95 0 ${lbox} units box
region          mbox block 0 95 0 95 0 95 units box
create_box      2 mbox                                       bond/types 1                                angle/types 1                               extra/bond/per/atom 2                       extra/angle/per/atom 1                      extra/special/per/atom 2
Created orthogonal box = (0 0 0) to (95 95 95)
  1 by 1 by 1 MPI processor grid
molecule        co2mol ../CO2.txt
Read molecule template co2mol:
# CO2 molecule file. TraPPE model.
  1 molecules
  0 fragments
  3 atoms with max type 2
  2 bonds with max type 1
  1 angles with max type 1
  0 dihedrals with max type 0
  0 impropers with max type 0
create_atoms   	0 random ${nmols} 34578 mbox mol co2mol 464563 overlap 1.2
create_atoms   	0 random 500 34578 mbox mol co2mol 464563 overlap 1.2
Created 1500 atoms
  using lattice units in orthogonal box = (0 0 0) to (95 95 95)
  create_atoms CPU = 0.013 seconds

# rigid CO2 TraPPE model

pair_coeff      1   1  0.053649   2.800
pair_coeff      2   2  0.156973   3.050
bond_coeff      1       0       1.16
angle_coeff     1       0       180

# masses

mass 1 12.0107
mass 2 15.9994

write_data init_conf.data  pair ij
System init for write_data ...
PPPM initialization ...
  using 12-bit tables for long-range coulomb (src/kspace.cpp:342)
  G vector (1/distance) = 0.17959966
  grid = 24 24 24
  stencil order = 5
  estimated absolute RMS force accuracy = 0.02669929
  estimated relative force accuracy = 8.0404118e-05
  using double precision FFTW3
  3d grid and FFT values/proc = 24389 13824
Generated 1 of 1 mixed pair_coeff terms from arithmetic mixing rule

# MD settings

group           co2 type 1 2
1500 atoms in group co2
velocity       	all create 300 54654
timestep        0.25

# rigid constraints with thermostat
fix             myrigidnvt co2 rigid/nvt molecule temp 300 300 $(100*dt)
fix             myrigidnvt co2 rigid/nvt molecule temp 300 300 25
  500 rigid bodies with 1500 atoms

thermo 1000
thermo_style custom step temp density press ke pe etotal


variable    mvol equal vol
variable    mden equal density
variable	mtmp equal temp
variable    mpre equal press

fix mydat all ave/time 1 4000 4000 v_mtmp v_mden v_mpre file statistics.dat ## every 1ps

run 8000000 ## 1ns

CITE-CITE-CITE-CITE-CITE-CITE-CITE-CITE-CITE-CITE-CITE-CITE-CITE

Your simulation uses code contributions which should be cited:

- GPU package (short-range, long-range and three-body potentials): doi:10.1016/j.cpc.2010.12.021, doi:10.1016/j.cpc.2011.10.012, doi:10.1016/j.cpc.2013.08.002, doi:10.1016/j.commatsci.2014.10.068, doi:10.1016/j.cpc.2016.10.020, doi:10.3233/APC200086

@Article{Brown11,
 author = {W. M. Brown and P. Wang and S. J. Plimpton and A. N. Tharrington},
 title = {Implementing Molecular Dynamics on Hybrid High Performance Computers---Short Range Forces},
 journal = {Comput.\ Phys.\ Commun.},
 year =    2011,
 volume =  182,
 pages =   {898--911},
 doi =     {10.1016/j.cpc.2010.12.021}
}

@Article{Brown12,
 author = {W. M. Brown and A. Kohlmeyer and S. J. Plimpton and A. N. Tharrington},
 title = {Implementing Molecular Dynamics on Hybrid High Performance Computers - Particle-Particle Particle-Mesh},
 journal = {Comput.\ Phys.\ Commun.},
 year =    2012,
 volume =  183,
 doi =     {10.1016/j.cpc.2011.10.012},
 pages =   {449--459}
}

@Article{Brown13,
 author = {W. M. Brown and Y. Masako},
 title = {Implementing Molecular Dynamics on Hybrid High Performance Computers---Three-Body Potentials},
 journal = {Comput.\ Phys.\ Commun.},
 year =    2013,
 volume =  184,
 pages =   {2785--2793},
 doi =     {10.1016/j.cpc.2013.08.002},
}

@Article{Trung15,
 author = {T. D. Nguyen and S. J. Plimpton},
 title = {Accelerating Dissipative Particle Dynamics Simulations for Soft Matter Systems},
 journal = {Comput.\ Mater.\ Sci.},
 year =    2015,
 doi =     {10.1016/j.commatsci.2014.10.068},
 volume =  100,
 pages =   {173--180}
}

@Article{Trung17,
 author = {T. D. Nguyen},
 title = {{GPU}-Accelerated {T}ersoff Potentials for Massively Parallel
    Molecular Dynamics Simulations},
 journal = {Comput.\ Phys.\ Commun.},
 year =    2017,
 doi =     {10.1016/j.cpc.2016.10.020},
 volume =  212,
 pages =   {113--122}
}

@inproceedings{Nikolskiy19,
 author = {V. Nikolskiy and V. Stegailov},
 title = {{GPU} Acceleration of Four-Site Water Models in {LAMMPS}},
 booktitle = {Proceedings of the International Conference on Parallel
    Computing (ParCo 2019), Prague, Czech Republic},
 doi =     {10.3233/APC200086},
 year =    2019
}

CITE-CITE-CITE-CITE-CITE-CITE-CITE-CITE-CITE-CITE-CITE-CITE-CITE

PPPM initialization ...
  using 12-bit tables for long-range coulomb (src/kspace.cpp:342)
  G vector (1/distance) = 0.17959966
  grid = 24 24 24
  stencil order = 5
  estimated absolute RMS force accuracy = 0.02669929
  estimated relative force accuracy = 8.0404118e-05
  using double precision FFTW3
  3d grid and FFT values/proc = 24389 13824
Generated 1 of 1 mixed pair_coeff terms from arithmetic mixing rule
Per MPI rank memory allocation (min/avg/max) = 9.625 | 9.625 | 9.625 Mbytes
   Step          Temp         Density         Press          KinEng         PotEng         TotEng    
         0   305.66621      0.042618159   -1419.5542      758.3663       36949.057      37707.423    
      1000   306.68734      0.042618159    14.966728      760.89974     -56.343694      704.55605    
      2000   312.37512      0.042618159    29.353709      775.01128     -77.696185      697.31509    
      3000   300.53093      0.042618159    25.031307      745.62551     -90.311819      655.31369    
      4000   297.39004      0.042618159    15.918711      737.83288     -94.873038      642.95985    
      5000   292.07924      0.042618159    25.555174      724.65665     -107.41432      617.24233    
      6000   301.28759      0.042618159    26.355003      747.50282     -116.09965      631.40317    
      7000   315.54027      0.042618159    21.643576      782.86411     -124.45507      658.40904    
      8000   294.90233      0.042618159    46.007906      731.6608      -133.42038      598.24043    
      9000   292.97002      0.042618159    21.576482      726.86669     -132.59875      594.26794    
     10000   288.10976      0.042618159    21.998757      714.80826     -135.24076      579.5675     
     11000   309.49812      0.042618159    20.184305      767.87337     -136.44095      631.43242    
     12000   297.64989      0.042618159    25.730582      738.47759     -137.31917      601.15842    
     13000   290.55614      0.042618159    12.327036      720.87779     -142.13327      578.74452    
     14000   299.31745      0.042618159    21.864344      742.61485     -147.81908      594.79576    
     15000   305.24212      0.042618159    22.468999      757.3141      -150.76765      606.54645    
     16000   299.14604      0.042618159    11.516146      742.18958     -148.75018      593.4394     
     17000   306.25807      0.042618159    21.287997      759.83472     -158.62417      601.21055    
     18000   301.05409      0.042618159    24.709752      746.9235      -162.41219      584.51131    
     19000   293.10037      0.042618159    16.434541      727.1901      -164.11905      563.07104    
     20000   302.22783      0.042618159    20.024226      749.83558     -163.11629      586.71929    
     21000   300.8313       0.042618159    22.688037      746.37074     -165.76416      580.60658    
     22000   317.02651      0.042618159    27.689047      786.5515      -166.59263      619.95888    
     23000   298.51995      0.042618159    17.874292      740.63621     -172.18202      568.45419    
     24000   307.72305      0.042618159    20.450895      763.46936     -172.22343      591.24594    
     25000   318.97598      0.042618159    24.040996      791.38819     -169.53342      621.85477    
     26000   300.95283      0.042618159    19.995943      746.67227     -177.77568      568.89659    
     27000   281.47913      0.042618159    17.248373      698.35747     -176.59816      521.75931    
     28000   308.61814      0.042618159    14.515633      765.69012     -181.32571      584.36441    
     29000   291.06385      0.042618159    21.137286      722.13744     -176.99155      545.14588    
     30000   314.52258      0.042618159    22.96169       780.33919     -182.06267      598.27652    
     31000   296.5561       0.042618159    14.049778      735.76387     -187.74117      548.02269    
     32000   302.67098      0.042618159    32.927494      750.93504     -188.27642      562.65863    
     33000   298.68512      0.042618159    19.607962      741.04603     -184.04123      557.0048     
     34000   312.79281      0.042618159    19.377653      776.04758     -187.94557      588.10201    
     35000   295.21602      0.042618159    19.636937      732.43909     -191.6472       540.79189    
     36000   291.5879       0.042618159    23.276717      723.43761     -187.16835      536.26926    
     37000   287.78067      0.042618159    34.733906      713.99177     -178.24233      535.74944    
     38000   296.12173      0.042618159   -14.521336      734.68617     -188.07259      546.61358    
     39000   304.73606      0.042618159    16.630464      756.05857     -188.18638      567.87219    
     40000   297.84601      0.042618159    22.579402      738.96415     -187.00023      551.96393    
     41000   306.33349      0.042618159    29.444978      760.02184     -197.04549      562.97635    
     42000   288.88344      0.042618159    11.14033       716.72777     -195.55271      521.17506    
     43000   300.17249      0.042618159    3.2449757      744.73623     -200.64743      544.08881    
     44000   301.895        0.042618159    48.825004      749.00983     -189.44792      559.5619     
     45000   294.86152      0.042618159    15.535399      731.55956     -193.73347      537.82609    
     46000   293.85474      0.042618159    19.972937      729.06172     -193.5924       535.46932    
     47000   294.86581      0.042618159    22.379955      731.5702      -190.52791      541.04229    
     48000   310.34502      0.042618159    6.2945165      769.97454     -192.36914      577.6054     
     49000   295.90274      0.042618159    55.204889      734.14287     -194.09201      540.05086    
     50000   288.5306       0.042618159    5.4546698      715.85237     -191.80459      524.04778    
     51000   292.86142      0.042618159   -2.3491786      726.59725     -196.93573      529.66153    
     52000   308.71197      0.042618159    11.176363      765.9229      -198.74838      567.17452    
     53000   303.29003      0.042618159    43.953474      752.47092     -204.60009      547.87083    
     54000   299.28559      0.042618159    3.0043022      742.5358      -206.5671       535.96869    
     55000   312.27461      0.042618159    1.5711445      774.76193     -203.45658      571.30535    
     56000   297.16657      0.042618159    41.259725      737.27845     -193.01368      544.26477    
     57000   291.8303       0.042618159   -3.396539       724.03901     -198.58453      525.45448    
     58000   314.37042      0.042618159    29.440573      779.96169     -198.75165      581.21004    
     59000   299.82576      0.042618159    41.750499      743.87598     -189.74184      554.13414    
     60000   292.19931      0.042618159    16.035543      724.95454     -197.23318      527.72136    
     61000   288.93287      0.042618159   -0.91751286     716.85042     -191.21296      525.63746    
     62000   306.08913      0.042618159    5.1065793      759.41558     -182.17089      577.24468    
     63000   292.01883      0.042618159    27.255089      724.50677     -182.16215      542.34462    
     64000   289.43745      0.042618159    33.577729      718.10229     -186.81596      531.28633    
     65000   302.51795      0.042618159    8.8395581      750.55538     -177.8709       572.68448    
     66000   301.23906      0.042618159    18.291591      747.38242     -176.19986      571.18256    
     67000   302.42304      0.042618159    25.213336      750.3199      -167.6954       582.6245     
     68000   301.5288       0.042618159    16.368711      748.10127     -179.28213      568.81914    
     69000   302.68384      0.042618159    13.620653      750.96694     -170.31697      580.64997    
     70000   301.7395       0.042618159    19.087976      748.62403     -174.86548      573.75855    
     71000   291.61608      0.042618159    20.867026      723.50754     -173.25367      550.25387    
     72000   297.08568      0.042618159    20.965033      737.07777     -172.60835      564.46942    
     73000   305.95394      0.042618159    18.699214      759.08015     -187.0511       572.02905    
     74000   303.65911      0.042618159    22.116634      753.38661     -184.199        569.18762    
     75000   298.36625      0.042618159    22.768743      740.2549      -184.08488      556.17002    
     76000   293.44522      0.042618159    21.29611       728.04567     -176.94032      551.10535    
     77000   303.12527      0.042618159    31.316409      752.06215     -180.67816      571.38399    
     78000   292.9806       0.042618159    16.901806      726.89293     -169.83761      557.05533    
     79000   290.43031      0.042618159    16.610875      720.56559     -168.10613      552.45946    
     80000   310.87795      0.042618159    13.841291      771.29678     -172.95049      598.34628    
     81000   296.70726      0.042618159    24.062491      736.13889     -173.69186      562.44703    
     82000   291.50291      0.042618159    21.321532      723.22675     -173.15674      550.07001    
     83000   296.33636      0.042618159    12.954679      735.21868     -177.18384      558.03484    
     84000   305.00139      0.042618159    11.61479       756.71686     -174.21996      582.4969     
     85000   302.37529      0.042618159    18.848945      750.20142     -166.14202      584.0594     
     86000   290.5466       0.042618159    12.242919      720.85412     -165.36239      555.49173    
     87000   308.87058      0.042618159    23.18707       766.31642     -163.82013      602.49629    
     88000   301.67168      0.042618159    20.70275       748.45576     -161.93134      586.52442    
     89000   306.70766      0.042618159    19.374115      760.95015     -166.17104      594.77911    
     90000   289.52053      0.042618159    19.070159      718.30841     -158.35949      559.94891    
     91000   311.16046      0.042618159    18.431763      771.99767     -153.01058      618.98709    
     92000   286.70179      0.042618159    34.582264      711.31504     -146.77779      564.53725    
     93000   306.07508      0.042618159    6.2062936      759.38072     -156.36192      603.01879    
     94000   310.5425       0.042618159    20.009985      770.4645      -151.72214      618.74235    
     95000   312.38354      0.042618159    23.767948      775.03217     -151.36956      623.66261    
     96000   288.11361      0.042618159    16.33186       714.8178      -155.29629      559.52151    
     97000   303.26285      0.042618159    18.91648       752.40349     -164.57104      587.83246    
     98000   301.9165       0.042618159    19.012459      749.06316     -170.62724      578.43592    
     99000   311.54628      0.042618159    25.369386      772.95491     -167.67332      605.28159    
    100000   304.45214      0.042618159    21.528277      755.35415     -160.50288      594.85127    
    101000   293.8356       0.042618159    25.025317      729.01423     -168.99276      560.02147    
    102000   291.1601       0.042618159    4.5048294      722.37625     -163.4211       558.95514    
    103000   313.26347      0.042618159    43.134686      777.2153      -174.98654      602.22876    
    104000   300.12435      0.042618159    31.118532      744.61679     -179.61971      564.99709    
    105000   294.97209      0.042618159    18.950603      731.83389     -172.92432      558.90957    
    106000   297.01579      0.042618159    18.271967      736.90436     -169.17705      567.72731    
    107000   312.84767      0.042618159    15.668853      776.1837      -170.16775      606.01595    
    108000   291.00766      0.042618159    23.418345      721.99801     -166.71047      555.28754    
    109000   291.87416      0.042618159    15.985456      724.14783     -169.45917      554.68865    
    110000   315.22637      0.042618159    4.7546393      782.08531     -160.37406      621.71125    
    111000   312.18101      0.042618159    26.678204      774.52969     -157.51095      617.01874    
    112000   286.4404       0.042618159    37.552146      710.66653     -159.63119      551.03534    
    113000   299.01611      0.042618159    7.3773471      741.86722     -154.20419      587.66303    
    114000   310.695        0.042618159    20.839559      770.84286     -157.31557      613.52729    
    115000   293.42472      0.042618159    20.046283      727.99483     -159.25906      568.73577    
    116000   303.69192      0.042618159    8.0892854      753.46803     -152.74689      600.72114    
    117000   309.47475      0.042618159    22.741837      767.81539     -152.70593      615.10946    
    118000   294.1203       0.042618159    24.473237      729.72057     -158.5635       571.15708    
    119000   291.86798      0.042618159    16.562101      724.13251     -154.02121      570.1113     
    120000   326.7436       0.042618159    20.850223      810.65989     -159.60591      651.05398    
    121000   299.05036      0.042618159    17.841124      741.95219     -153.53358      588.41861    
    122000   291.10681      0.042618159    17.41142       722.24403     -156.94907      565.29496    
    123000   302.85727      0.042618159    20.016557      751.39724     -151.44082      599.95642    
    124000   316.69465      0.042618159    20.830549      785.72815     -152.96267      632.76548    
    125000   304.62698      0.042618159    18.7759        755.78793     -158.9599       596.82802    
    126000   283.20433      0.042618159    14.216178      702.63776     -167.53833      535.09943    
    127000   293.18745      0.042618159    14.458736      727.40613     -165.60533      561.80081    
    128000   308.76613      0.042618159    20.641576      766.05728     -162.15217      603.90511    
    129000   286.18046      0.042618159    20.160853      710.0216      -157.45549      552.56611    
    130000   301.79577      0.042618159    21.53757       748.76362     -158.77239      589.99123    
    131000   297.22466      0.042618159    16.550026      737.42257     -155.17074      582.25183    
    132000   299.47392      0.042618159    18.791376      743.00305     -150.41508      592.58797    
    133000   299.14835      0.042618159    20.770128      742.1953      -145.11178      597.08352    
    134000   300.7752       0.042618159    24.591344      746.23155     -150.31795      595.9136     
    135000   296.71982      0.042618159    15.9574        736.17006     -148.97355      587.19651    
    136000   299.42687      0.042618159    21.354956      742.88632     -149.98258      592.90374    
    137000   304.01423      0.042618159    19.911687      754.26768     -154.61525      599.65243    
    138000   308.90087      0.042618159    20.669936      766.39158     -149.78746      616.60412    
    139000   287.41873      0.042618159    19.158417      713.09379     -157.84436      555.24943    
    140000   307.73832      0.042618159    20.600895      763.50726     -156.72508      606.78218    
    141000   314.12266      0.042618159    18.088805      779.34698     -148.44539      630.9016     
    142000   296.88165      0.042618159    8.4815707      736.57155     -142.40766      594.1639     
    143000   284.65216      0.042618159    16.301319      706.22987     -146.76262      559.46725    
    144000   313.80225      0.042618159    26.01132       778.55203     -135.09004      643.46199    
    145000   315.18012      0.042618159    20.988991      781.97058     -130.49105      651.47953    
    146000   305.3354       0.042618159    11.096034      757.54555     -129.42818      628.11737    
    147000   284.8917       0.042618159    20.183259      706.82415     -135.74177      571.08238    
    148000   290.9313       0.042618159    28.440236      721.80858     -142.0347       579.77388    
    149000   304.69824      0.042618159    28.952523      755.96473     -124.12529      631.83944    
    150000   313.45681      0.042618159   -1.4727547      777.69499     -125.18256      652.51243    
    151000   287.45369      0.042618159    15.284897      713.18053     -124.47981      588.70072    
    152000   304.02349      0.042618159    29.113861      754.29065     -123.65237      630.63828    
    153000   306.38366      0.042618159   -28.049355      760.1463      -130.40737      629.73894    
    154000   299.71304      0.042618159    25.346722      743.59633     -120.09623      623.5001     
    155000   309.3096       0.042618159    45.979652      767.40563     -123.92737      643.47826    
    156000   304.54725      0.042618159    25.423424      755.59012     -130.14155      625.44856    
    157000   300.46035      0.042618159    7.0862599      745.4504      -131.21715      614.23324    
    158000   294.73469      0.042618159    30.396052      731.24488     -121.18019      610.06469    
    159000   301.35448      0.042618159    35.153899      747.66877     -112.23159      635.43718    
    160000   302.26315      0.042618159    19.354076      749.92321     -127.37742      622.54578    
    161000   297.79125      0.042618159    20.052692      738.8283      -117.88108      620.94722    
    162000   299.22455      0.042618159    18.93146       742.38436     -124.26042      618.12394    
    163000   304.59415      0.042618159    25.880006      755.70649     -127.7955       627.91099    
    164000   304.23802      0.042618159    23.028225      754.82292     -125.72064      629.10228    
    165000   301.59378      0.042618159   -1.1221771      748.26249     -130.78467      617.47783    
    166000   302.57787      0.042618159    23.812974      750.70404     -124.10657      626.59747    
    167000   309.96495      0.042618159    25.424648      769.03157     -113.77846      655.25311    
    168000   292.89773      0.042618159    23.237597      726.68733     -119.47038      607.21696    
    169000   300.82372      0.042618159    13.764276      746.35194     -119.45936      626.89258    
    170000   309.72939      0.042618159    23.791883      768.44716     -118.36461      650.08256    
    171000   292.54379      0.042618159    13.490255      725.80921     -116.53444      609.27477    
    172000   284.53297      0.042618159    29.034305      705.93413     -110.32388      595.61025    
    173000   311.74727      0.042618159    15.002417      773.45357     -103.21909      670.23449    
    174000   287.12469      0.042618159    12.446801      712.36426     -102.72607      609.63819    
    175000   311.65832      0.042618159    27.715841      773.23287     -106.87425      666.35862    
    176000   300.85665      0.042618159    19.931327      746.43363     -104.58343      641.8502     
    177000   286.79481      0.042618159    16.437669      711.54582     -109.96299      601.58283    
    178000   298.47229      0.042618159    29.852672      740.51797     -111.63176      628.88621    
    179000   297.26199      0.042618159    30.682718      737.51518     -108.77634      628.73884    
    180000   311.74376      0.042618159    17.917178      773.44485     -105.80762      667.63723    
    181000   284.78261      0.042618159    7.1873573      706.5535      -97.755156      608.79835    
    182000   285.60638      0.042618159    23.780999      708.59731     -100.39925      608.19806    
    183000   288.69899      0.042618159    23.786256      716.27016     -102.45113      613.81903    
    184000   294.34395      0.042618159    33.800533      730.27544     -96.529762      633.74568    
    185000   309.81201      0.042618159    1.7186209      768.65214     -92.107604      676.54453    
    186000   296.81486      0.042618159    10.981068      736.40585     -95.920281      640.48557    
    187000   300.02717      0.042618159    41.228897      744.37567     -91.574063      652.80161    
    188000   303.3092       0.042618159    20.925135      752.5185      -87.929689      664.58881    
    189000   306.25291      0.042618159    20.045072      759.8219      -91.453306      668.3686     
    190000   301.21316      0.042618159    18.784729      747.31814     -91.057335      656.26081    
    191000   291.35889      0.042618159    25.974074      722.86945     -88.657537      634.21191    
    192000   304.33411      0.042618159    39.840812      755.06132     -93.839604      661.22172    
    193000   308.54948      0.042618159    17.696488      765.51976     -93.768173      671.75159    
    194000   284.20303      0.042618159    1.6919088      705.11555     -89.76828       615.34727    
    195000   290.0119       0.042618159    26.412523      719.52752     -94.384143      625.14337    
    196000   303.7972       0.042618159    31.812279      753.72922     -94.971177      658.75805    
    197000   300.69572      0.042618159    20.295697      746.03438     -98.44633       647.58805    
    198000   294.23941      0.042618159    12.192661      730.01609     -94.010923      636.00517    
    199000   300.59978      0.042618159    27.841498      745.79635     -86.448499      659.34785    
    200000   302.25526      0.042618159    28.999768      749.90362     -94.651548      655.25207    
    201000   308.77555      0.042618159    16.218171      766.08065     -90.500197      675.58046    
    202000   304.32138      0.042618159    17.305792      755.02973     -90.760502      664.26923    
    203000   296.21083      0.042618159    26.178091      734.90723     -86.893395      648.01383    
    204000   296.30321      0.042618159    20.305572      735.13643     -85.939537      649.19689    
    205000   306.13475      0.042618159    15.994472      759.52876     -83.505833      676.02293    
    206000   294.72368      0.042618159    14.216498      731.21758     -88.88293       642.33465    
    207000   293.35987      0.042618159    20.765976      727.83393     -85.612911      642.22102    
    208000   307.45789      0.042618159    22.881703      762.81151     -88.994938      673.81657    
    209000   302.39683      0.042618159    18.532957      750.25487     -91.90783       658.34703    
    210000   302.41899      0.042618159    20.226217      750.30986     -83.895114      666.41475    
    211000   298.3957       0.042618159    21.045214      740.32795     -85.757156      654.5708     
    212000   295.57332      0.042618159    30.161689      733.32556     -81.336699      651.98886    
    213000   305.37853      0.042618159    22.819882      757.65254     -83.965777      673.68677    
    214000   309.57386      0.042618159    27.954043      768.06129     -74.593185      693.4681     
    215000   307.68284      0.042618159    19.848831      763.3696      -83.208943      680.16065    
    216000   288.67396      0.042618159    8.0867145      716.20804     -87.836432      628.37161    
    217000   299.31569      0.042618159    12.764008      742.61048     -88.934679      653.6758     
    218000   298.64124      0.042618159    25.984477      740.93715     -85.695136      655.24201    
    219000   295.03547      0.042618159    31.047547      731.99114     -80.306852      651.68429    
    220000   301.99124      0.042618159    25.917262      749.24859     -78.797707      670.45088    
    221000   314.01087      0.042618159    16.007105      779.06962     -81.621619      697.448      
    222000   304.65685      0.042618159    5.402823       755.86204     -75.711268      680.15077    
    223000   294.91893      0.042618159    24.526563      731.702       -75.300116      656.40189    
    224000   296.11992      0.042618159    27.874726      734.68167     -76.274048      658.40763    
    225000   304.10449      0.042618159    20.470485      754.49161     -78.281302      676.21031    
    226000   311.91791      0.042618159    17.161076      773.87693     -77.756457      696.12047    
    227000   301.19242      0.042618159    14.255438      747.2667      -81.970916      665.29579    
    228000   292.02599      0.042618159    20.188853      724.52452     -79.558788      644.96573    
    229000   301.98717      0.042618159    28.935946      749.23848     -79.711502      669.52698    
    230000   308.282        0.042618159    26.307156      764.85613     -79.799837      685.05629    
    231000   315.31592      0.042618159    3.6163934      782.30749     -82.187955      700.11953    
    232000   291.50678      0.042618159    16.44994       723.23636     -81.099932      642.13643    
    233000   295.90199      0.042618159    25.241539      734.14101     -89.729572      644.41143    
    234000   308.0895       0.042618159    29.409757      764.37855     -93.221996      671.15655    
    235000   290.831        0.042618159    3.6538675      721.55973     -86.904834      634.6549     
    236000   286.44719      0.042618159    29.64903       710.68337     -85.499346      625.18402    
    237000   309.85178      0.042618159    19.338361      768.7508      -84.050902      684.6999     
    238000   302.69949      0.042618159    12.359812      751.00577     -86.522635      664.48314    
    239000   296.24272      0.042618159    20.916731      734.98634     -82.856331      652.13001    
    240000   297.25648      0.042618159    26.718363      737.50151     -82.058115      655.4434     
    241000   309.44028      0.042618159    15.636835      767.72987     -81.473049      686.25682    
    242000   295.60687      0.042618159    11.727937      733.4088      -82.602819      650.80598    
    243000   299.18093      0.042618159    23.643599      742.27614     -82.36475       659.91139    
    244000   307.60721      0.042618159    20.503974      763.18196     -67.233214      695.94874    
    245000   286.70001      0.042618159    22.638876      711.31062     -69.327214      641.98341    
    246000   296.58927      0.042618159    20.760678      735.84614     -77.550552      658.29559    
    247000   313.65296      0.042618159    20.13154       778.18163     -70.915644      707.26599    
    248000   295.55538      0.042618159    34.630799      733.28106     -73.10309       660.17797    
    249000   298.1072       0.042618159    20.56454       739.61219     -79.994807      659.61738    
    250000   301.07635      0.042618159    14.811502      746.97872     -78.921754      668.05697    
    251000   302.67017      0.042618159    24.539863      750.93303     -77.18954       673.74349    
    252000   280.80426      0.042618159    31.515706      696.6831      -72.356283      624.32682    
    253000   292.324        0.042618159    18.121409      725.26391     -75.214936      650.04897    
    254000   304.71403      0.042618159    27.461444      756.00392     -67.330437      688.67348    
    255000   304.0243       0.042618159    25.073642      754.29267     -76.936438      677.35623    
    256000   296.75821      0.042618159    24.351726      736.2653      -66.973037      669.29227    
    257000   290.838        0.042618159    19.960116      721.5771      -72.904146      648.67295    
    258000   299.83819      0.042618159    26.740723      743.90681     -78.342496      665.56432    
    259000   298.36167      0.042618159    36.464433      740.24353     -81.320537      658.92299    
    260000   293.49692      0.042618159    24.626186      728.17395     -80.266575      647.90738    
    261000   302.15797      0.042618159    20.223459      749.66226     -77.663542      671.99872    
    262000   305.49438      0.042618159    22.069528      757.93997     -76.880334      681.05964    
    263000   299.26477      0.042618159    20.596814      742.48415     -76.939013      665.54514    
    264000   291.45682      0.042618159    18.326585      723.11239     -70.883611      652.22878    
    265000   299.64014      0.042618159    24.388824      743.41545     -69.637426      673.77803    
    266000   312.42133      0.042618159    25.201246      775.12594     -66.191634      708.93431    
    267000   290.33086      0.042618159    21.79297       720.31886     -69.696445      650.62241    
    268000   294.48684      0.042618159    22.377795      730.62997     -72.332625      658.29735    
    269000   303.92445      0.042618159    17.669541      754.04495     -71.863267      682.18168    
    270000   304.93371      0.042618159    15.770501      756.54894     -79.720523      676.82842    
    271000   298.17541      0.042618159    19.832768      739.78142     -79.576336      660.20509    
    272000   302.32383      0.042618159    25.544487      750.07376     -74.795315      675.27844    
    273000   302.32691      0.042618159    26.414158      750.0814      -74.104702      675.9767     
    274000   296.81999      0.042618159    15.060111      736.41858     -71.888511      664.53007    
    275000   300.9692       0.042618159    18.599469      746.71288     -80.965218      665.74767    
    276000   304.85655      0.042618159    22.441204      756.35749     -76.890548      679.46694    
    277000   297.71443      0.042618159    39.124971      738.6377      -73.35604       665.28166    
    278000   292.39628      0.042618159    34.001042      725.44322     -80.770999      644.67222    
    279000   291.87285      0.042618159    8.600351       724.14457     -85.763615      638.38096    
    280000   306.0604       0.042618159   -9.33462        759.34429     -83.686386      675.65791    
    281000   299.99688      0.042618159    20.84072       744.30053     -80.87422       663.42631    
    282000   305.33039      0.042618159    29.055404      757.53312     -82.198732      675.33439    
    283000   298.44673      0.042618159    19.744227      740.45455     -74.374394      666.08016    
    284000   311.25731      0.042618159    19.007891      772.23796     -77.615929      694.62203    
    285000   302.62347      0.042618159    21.120963      750.81717     -74.327951      676.48922    
    286000   293.42282      0.042618159    22.575026      727.99011     -78.541219      649.44889    
    287000   298.51197      0.042618159    28.319123      740.61641     -84.626751      655.98966    
    288000   316.56818      0.042618159    23.85277       785.41438     -74.125936      711.28844    
    289000   301.57865      0.042618159    20.017396      748.22494     -70.540314      677.68463    
    290000   293.6508       0.042618159    28.611155      728.55572     -74.211413      654.34431    
    291000   317.31986      0.042618159    23.01607       787.27933     -71.808471      715.47085    
    292000   293.16376      0.042618159    19.800754      727.34738     -73.697512      653.64987    
    293000   280.80844      0.042618159    21.37776       696.69349     -77.629085      619.06441    
    294000   303.57123      0.042618159    24.811783      753.16859     -83.164713      670.00388    
    295000   288.48656      0.042618159    22.414553      715.74311     -84.564779      631.17833    
    296000   290.48481      0.042618159    21.686542      720.70081     -85.779962      634.92085    
    297000   311.93366      0.042618159    21.175466      773.91602     -88.792986      685.12303    
    298000   300.25282      0.042618159    19.453449      744.93551     -89.003895      655.93162    
    299000   297.99366      0.042618159    22.146571      739.33049     -80.47364       658.85685    
    300000   300.00486      0.042618159    19.391577      744.32034     -80.008175      664.31216    
    301000   315.53331      0.042618159    19.465752      782.84683     -84.951856      697.89497    
    302000   300.56893      0.042618159    20.288722      745.71981     -81.511278      664.20853    
    303000   293.2082       0.042618159    19.363567      727.45763     -76.17073       651.2869     
    304000   306.1157       0.042618159    21.949285      759.48148     -74.941664      684.53982    
    305000   304.90274      0.042618159    20.736488      756.47211     -83.816527      672.65558    
    306000   299.80486      0.042618159    21.964107      743.82412     -81.675831      662.14829    
    307000   284.92899      0.042618159    19.431493      706.91667     -71.857611      635.05906    
    308000   294.09426      0.042618159    24.328107      729.65597     -70.663135      658.99283    
    309000   309.06177      0.042618159    27.748474      766.79077     -75.392317      691.39846    
    310000   324.25605      0.042618159    20.494158      804.48819     -77.59123       726.89696    
    311000   293.38529      0.042618159    24.662938      727.89699     -81.64666       646.25033    
    312000   312.02269      0.042618159    29.298784      774.13691     -89.59849       684.53842    
    313000   302.64895      0.042618159    14.897606      750.88038     -88.306904      662.57347    
    314000   292.97939      0.042618159    21.210156      726.88994     -76.141866      650.74807    
    315000   291.05102      0.042618159    17.738394      722.1056      -88.628079      633.47752    
    316000   311.83089      0.042618159    21.383328      773.66105     -86.255044      687.406      
    317000   299.91119      0.042618159    20.646507      744.08793     -78.174343      665.91359    
    318000   300.4063       0.042618159    22.15846       745.31632     -82.708989      662.60733    
    319000   301.7384       0.042618159    19.347197      748.6213      -79.573187      669.04811    
    320000   293.3644       0.042618159    25.942054      727.84516     -76.109165      651.736      
    321000   298.41273      0.042618159    26.479824      740.3702      -82.816598      657.55361    
    322000   302.03604      0.042618159    23.340852      749.35975     -76.526601      672.83315    
    323000   294.86718      0.042618159    16.293558      731.5736      -78.337185      653.23642    
    324000   297.24641      0.042618159    22.264901      737.47654     -78.293868      659.18267    
    325000   302.07691      0.042618159    19.569867      749.46114     -83.990807      665.47033    
    326000   303.94432      0.042618159    21.403735      754.09425     -81.236459      672.85779    
    327000   293.96779      0.042618159    22.020615      729.3422      -79.312497      650.0297     
    328000   303.97743      0.042618159    19.796826      754.17638     -71.472376      682.70401    
    329000   306.98257      0.042618159    24.672764      761.63222     -77.325162      684.30705    
    330000   284.35211      0.042618159    24.063442      705.48542     -82.979033      622.50639    
    331000   297.40043      0.042618159    18.102304      737.85867     -79.788686      658.06998    
    332000   294.87676      0.042618159    14.544448      731.59738     -79.607329      651.99005    
    333000   300.21235      0.042618159    20.393079      744.83511     -77.522633      667.31247    
    334000   291.38227      0.042618159    21.524594      722.92743     -75.96633       646.9611     
    335000   299.19815      0.042618159    18.691908      742.31886     -84.460677      657.85818    
    336000   288.07427      0.042618159    17.388597      714.72021     -82.664283      632.05593    
    337000   307.08593      0.042618159    14.016616      761.88866     -80.323953      681.56471    
    338000   304.34584      0.042618159    23.901849      755.09041     -77.979083      677.11133    
    339000   294.19249      0.042618159    19.195396      729.89968     -74.185769      655.71391    
    340000   312.88441      0.042618159    21.957108      776.27484     -71.603101      704.67174    
    341000   306.71549      0.042618159    29.143034      760.96959     -61.34971       699.61988    
    342000   293.16847      0.042618159    19.07969       727.35905     -69.490387      657.86866    
    343000   309.59044      0.042618159    21.478434      768.10241     -65.578292      702.52411    
    344000   301.86275      0.042618159    26.131556      748.92981     -68.438214      680.49159    
    345000   289.70928      0.042618159    30.449606      718.77672     -67.209862      651.56686    
    346000   302.67421      0.042618159    17.605744      750.94306     -72.138065      678.805      
    347000   310.66636      0.042618159    27.98546       770.77179     -76.1209        694.65089    
    348000   294.47986      0.042618159    22.178521      730.61266     -68.682925      661.92973    
    349000   292.49331      0.042618159    23.802299      725.68395     -67.714932      657.96902    
    350000   304.9718       0.042618159    23.781564      756.64344     -69.476584      687.16686    
    351000   316.06132      0.042618159    19.381399      784.15684     -75.530214      708.62663    
    352000   295.46339      0.042618159    14.153527      733.05281     -67.071976      665.98084    
    353000   282.27776      0.042618159    20.347158      700.33891     -65.957975      634.38094    
    354000   299.5453       0.042618159    25.361358      743.18014     -65.691259      677.48888    
    355000   307.89196      0.042618159    23.828122      763.88844     -65.096276      698.79217    
    356000   307.98071      0.042618159   -1.8293793      764.10863     -63.415399      700.69324    
    357000   284.14922      0.042618159    18.897723      704.98204     -59.992366      644.98967    
    358000   297.65137      0.042618159    31.58254       738.48127     -64.888168      673.5931     
    359000   306.35865      0.042618159    19.528852      760.08426     -65.495693      694.58857    
    360000   303.69891      0.042618159    13.159386      753.48536     -70.868145      682.61722    
    361000   302.9375       0.042618159    21.546366      751.59629     -68.615741      682.98055    
    362000   298.8205       0.042618159    29.279145      741.38189     -73.035697      668.34619    
    363000   296.2674       0.042618159    20.108089      735.04759     -71.540898      663.50669    
    364000   301.93388      0.042618159    3.9456016      749.10627     -68.873114      680.23316    
    365000   288.46835      0.042618159    22.959338      715.69792     -69.434766      646.26316    
    366000   301.24635      0.042618159    38.860703      747.4005      -66.554281      680.84622    
    367000   319.24689      0.042618159    22.602753      792.06032     -64.347813      727.71251    
    368000   312.42713      0.042618159    30.634732      775.14031     -62.139671      713.00064    
    369000   288.92152      0.042618159    18.438376      716.82226     -59.668239      657.15402    
    370000   297.35495      0.042618159    52.888698      737.74584     -62.686948      675.05889    
    371000   305.63582      0.042618159    20.780033      758.29089     -58.064058      700.22683    
    372000   300.41207      0.042618159    11.652748      745.33063     -69.15559       676.17504    
    373000   289.75487      0.042618159    22.359448      718.88983     -64.846621      654.04321    
    374000   300.82793      0.042618159    24.879732      746.36238     -64.251683      682.1107     
    375000   309.32761      0.042618159    20.798534      767.45032     -67.171244      700.27908    
    376000   313.95166      0.042618159    12.350749      778.92271     -74.998885      703.92383    
    377000   274.8905       0.042618159    9.772845       682.01091     -70.468217      611.5427     
    378000   293.80394      0.042618159    32.10689       728.93568     -75.757025      653.17866    
    379000   299.95244      0.042618159    22.431814      744.19028     -71.42241       672.76787    
    380000   306.05142      0.042618159    19.64456       759.32201     -74.340776      684.98124    
    381000   304.82247      0.042618159    22.116029      756.27295     -71.185353      685.08759    
    382000   301.48685      0.042618159    27.414821      747.99718     -69.946755      678.05042    
    383000   302.64518      0.042618159    20.352057      750.87103     -69.12807       681.74296    
    384000   292.67432      0.042618159    19.506658      726.13305     -63.70873       662.42432    
    385000   302.35456      0.042618159    30.599801      750.15        -58.637592      691.51241    
    386000   310.58321      0.042618159    12.63053       770.5655      -69.64894       700.91656    
    387000   290.46371      0.042618159    9.9569791      720.64847     -70.209879      650.43859    
    388000   294.57853      0.042618159    22.865221      730.85746     -64.977989      665.87947    
    389000   298.96657      0.042618159    21.138333      741.74429     -71.56584       670.17845    
    390000   300.51634      0.042618159    29.456046      745.58933     -60.880596      684.70874    
    391000   315.92343      0.042618159    23.790611      783.81474     -54.748048      729.06669    
    392000   292.84557      0.042618159    19.646408      726.55793     -65.880176      660.67776    
    393000   305.90701      0.042618159    24.681644      758.96372     -56.467296      702.49642    
    394000   294.76946      0.042618159    21.441132      731.33115     -68.60544       662.72571    
    395000   293.87271      0.042618159    21.584762      729.10629     -68.627329      660.47896    
    396000   318.37959      0.042618159    22.483286      789.90854     -66.844955      723.06358    
    397000   300.05465      0.042618159    21.324412      744.44386     -64.354323      680.08954    
    398000   305.95695      0.042618159    16.777244      759.08763     -62.465598      696.62203    
    399000   297.44647      0.042618159    5.2513575      737.97288     -62.960466      675.01242    
    400000   302.10309      0.042618159    15.116927      749.52609     -69.026665      680.49943    
    401000   296.78201      0.042618159    40.468231      736.32434     -65.517962      670.80638    
    402000   303.58217      0.042618159    25.934456      753.19572     -69.221697      683.97402    
    403000   305.74468      0.042618159    10.076007      758.56097     -71.345986      687.21498    
    404000   296.39528      0.042618159    23.41481       735.36487     -64.827151      670.53772    
    405000   298.16817      0.042618159    28.613179      739.76344     -70.210547      669.55289    
    406000   317.47952      0.042618159    6.8405603      787.67545     -69.742429      717.93302    
    407000   289.34822      0.042618159    16.935384      717.8809      -77.510606      640.3703     
    408000   283.57502      0.042618159    21.916894      703.55745     -72.880598      630.67685    
    409000   299.82497      0.042618159    28.236593      743.87401     -73.414292      670.45972    
    410000   315.71861      0.042618159    31.506935      783.30658     -73.032146      710.27444    
    411000   303.62722      0.042618159    19.634724      753.3075      -60.223647      693.08385    
    412000   290.48662      0.042618159    12.089583      720.70532     -63.088389      657.61693    
    413000   294.37735      0.042618159    21.352839      730.35831     -61.524396      668.83392    
    414000   293.70454      0.042618159    31.819532      728.68906     -60.452749      668.23631    
    415000   320.2941       0.042618159    21.259936      794.6585      -67.296218      727.36228    
    416000   303.60447      0.042618159    16.674219      753.25107     -70.396617      682.85445    
    417000   292.48369      0.042618159    31.989556      725.66011     -70.219857      655.44025    
    418000   308.00733      0.042618159    24.927263      764.17467     -69.365851      694.80882    
    419000   314.56058      0.042618159    14.703794      780.43346     -69.697733      710.73573    
    420000   304.46529      0.042618159    20.546956      755.38677     -70.244203      685.14256    
    421000   281.25154      0.042618159    19.041593      697.79283     -71.15415       626.63868    
    422000   289.07306      0.042618159    22.578395      717.19823     -68.580726      648.6175     
    423000   301.70625      0.042618159    31.909346      748.54152     -66.441785      682.09973    
    424000   324.21461      0.042618159    21.646295      804.38538     -66.052832      738.33255    
    425000   294.36668      0.042618159    17.603101      730.33186     -71.080445      659.25141    
    426000   290.85327      0.042618159    27.563991      721.61499     -70.389789      651.2252     
    427000   312.73391      0.042618159    26.056146      775.90146     -72.505635      703.39583    
    428000   307.70903      0.042618159    20.680594      763.43458     -68.719542      694.71504    
    429000   287.28116      0.042618159    18.018402      712.75249     -75.588426      637.16406    
    430000   288.18066      0.042618159    19.78295       714.98417     -69.782219      645.20195    
    431000   305.15984      0.042618159    21.332422      757.10997     -74.242731      682.86724    
    432000   297.16811      0.042618159    20.424843      737.28228     -63.570717      673.71156    
    433000   298.01691      0.042618159    10.039194      739.38816     -65.770977      673.61719    
    434000   307.0901       0.042618159    26.294778      761.89899     -65.455211      696.44378    
    435000   283.52328      0.042618159    20.307843      703.42906     -64.371087      639.05798    
    436000   308.6009       0.042618159    21.08799       765.64734     -60.987597      704.65975    
    437000   309.14067      0.042618159    19.667353      766.98651     -57.730551      709.25596    
    438000   290.73638      0.042618159    20.830407      721.32497     -61.328679      659.99629    
    439000   299.04909      0.042618159    25.44575       741.94904     -68.681194      673.26785    
    440000   321.07801      0.042618159    26.883329      796.6034      -60.137634      736.46576    
    441000   289.71258      0.042618159    18.675614      718.78489     -64.175524      654.60937    
    442000   292.91694      0.042618159    20.126785      726.73499     -67.220413      659.51458    
    443000   320.98449      0.042618159    23.987305      796.37136     -69.928241      726.44312    
    444000   303.23248      0.042618159    22.606208      752.32813     -68.253297      684.07483    
    445000   306.10515      0.042618159    21.107822      759.45533     -67.212558      692.24277    
    446000   290.61336      0.042618159    20.606135      721.01975     -68.813642      652.20611    
    447000   299.78439      0.042618159    20.306402      743.77334     -73.345135      670.42821    
    448000   298.03268      0.042618159    22.795863      739.42731     -76.453783      662.97352    
    449000   300.47098      0.042618159    30.074515      745.47677     -74.348444      671.12833    
    450000   299.67971      0.042618159    20.175947      743.51362     -76.410687      667.10293    
    451000   302.90248      0.042618159    19.100576      751.50939     -71.407411      680.10198    
    452000   295.5544       0.042618159    24.335899      733.2786      -73.69219       659.58641    
    453000   292.15654      0.042618159    30.886831      724.84844     -72.100699      652.74774    
    454000   299.57931      0.042618159    16.105888      743.26452     -66.889571      676.37495    
    455000   296.2862       0.042618159    25.407782      735.09423     -65.891935      669.20229    
    456000   299.14162      0.042618159    20.301694      742.1786      -66.517518      675.66108    
    457000   316.75609      0.042618159    21.685811      785.88059     -65.396181      720.4844     
    458000   296.5611       0.042618159    22.63365       735.77627     -66.249362      669.52691    
    459000   300.45827      0.042618159    18.155691      745.44524     -66.872383      678.57286    
    460000   303.44794      0.042618159    21.059478      752.8627      -68.25389       684.60881    
    461000   295.21634      0.042618159    25.748318      732.43988     -67.604442      664.83544    
    462000   302.82886      0.042618159    22.140536      751.32676     -75.837214      675.48955    
    463000   303.58719      0.042618159    24.470585      753.20819     -78.850843      674.35734    
    464000   292.86822      0.042618159    19.223545      726.61413     -78.02683       648.5873     
    465000   296.91792      0.042618159    18.530497      736.66153     -80.789235      655.8723     
    466000   298.22066      0.042618159    18.769295      739.89368     -74.715704      665.17798    
    467000   291.0973       0.042618159    22.188244      722.22043     -85.540923      636.6795     
    468000   287.19349      0.042618159    7.920913       712.53497     -84.656342      627.87862    
    469000   304.05322      0.042618159    22.189838      754.36441     -82.650069      671.71434    
    470000   297.73701      0.042618159    22.661222      738.69372     -73.013855      665.67987    
    471000   302.99079      0.042618159    21.163041      751.72851     -78.625945      673.10257    
    472000   287.14987      0.042618159    19.450335      712.42674     -82.530604      629.89614    
    473000   310.47686      0.042618159    21.831418      770.30165     -83.716129      686.58552    
    474000   292.30617      0.042618159    18.381641      725.21967     -83.361097      641.85857    
    475000   292.29909      0.042618159    17.740809      725.2021      -78.310858      646.89124    
    476000   304.83863      0.042618159    24.613965      756.31303     -75.096963      681.21607    
    477000   298.30852      0.042618159    21.850865      740.11165     -77.645322      662.46633    
    478000   300.08321      0.042618159    21.87295       744.5147      -76.925914      667.58879    
    479000   313.03033      0.042618159    24.16512       776.63689     -73.694611      702.94228    
    480000   298.99791      0.042618159    19.572248      741.82205     -74.935558      666.88649    
    481000   301.22097      0.042618159    17.69152       747.33753     -73.557798      673.77974    
    482000   281.43873      0.042618159    22.35699       698.25725     -68.432408      629.82485    
    483000   308.8595       0.042618159    25.340597      766.28893     -65.85691       700.43202    
    484000   310.39786      0.042618159    21.269731      770.10564     -67.853404      702.25223    
    485000   291.30796      0.042618159    24.739342      722.74308     -75.172683      647.5704     
    486000   293.88228      0.042618159    0.92849619     729.13004     -71.808991      657.32105    
    487000   299.64003      0.042618159    22.900268      743.41517     -71.319637      672.09553    
    488000   311.06509      0.042618159    35.257358      771.76105     -74.747295      697.01376    
    489000   303.66599      0.042618159    20.154761      753.40368     -69.779101      683.62458    
    490000   288.81439      0.042618159    27.119274      716.55646     -71.543685      645.01278    
    491000   293.33541      0.042618159    13.040967      727.77324     -79.457941      648.3153     
    492000   305.69895      0.042618159    14.957382      758.44751     -71.027838      687.41968    
    493000   291.53708      0.042618159    31.161808      723.31153     -67.103964      656.20757    
    494000   296.06546      0.042618159    11.729599      734.54656     -63.624731      670.92183    
    495000   296.65335      0.042618159    0.34500722     736.00513     -64.113873      671.89126    
    496000   306.43002      0.042618159    19.388818      760.26134     -60.801358      699.45998    
    497000   288.77345      0.042618159    39.14325       716.45488     -66.388778      650.0661     
    498000   310.24047      0.042618159    8.2449202      769.71517     -63.387027      706.32814    
    499000   310.19591      0.042618159    12.730834      769.6046      -64.552417      705.05218    
    500000   300.38256      0.042618159    21.656347      745.25741     -68.728353      676.52905    
    501000   285.75396      0.042618159    28.35821       708.96345     -75.457286      633.50616    
    502000   286.15605      0.042618159    26.03039       709.96106     -74.896823      635.06423    
    503000   313.61749      0.042618159    16.734839      778.09364     -76.957321      701.13632    
    504000   307.65134      0.042618159    24.850284      763.29145     -75.247432      688.04402    
    505000   291.28982      0.042618159    20.893411      722.69806     -72.474265      650.2238     
    506000   301.13509      0.042618159    16.324006      747.12445     -73.491989      673.63246    
    507000   304.1891       0.042618159    24.375         754.70153     -66.001123      688.70041    
    508000   296.17414      0.042618159    17.160996      734.81621     -78.107207      656.709      
    509000   299.14378      0.042618159    22.553852      742.18395     -68.755167      673.42879    
    510000   298.74411      0.042618159    20.307161      741.19236     -67.242008      673.95036    
    511000   297.12069      0.042618159    23.462746      737.16461     -66.041513      671.1231     
    512000   310.07867      0.042618159    27.119652      769.31372     -68.923651      700.39007    
    513000   296.08013      0.042618159    23.603781      734.58295     -63.661278      670.92167    
    514000   292.34079      0.042618159    21.573962      725.30557     -61.467262      663.83831    
    515000   300.73724      0.042618159    21.386834      746.13738     -64.32287       681.81451    
    516000   315.27069      0.042618159    22.000515      782.19528     -72.298834      709.89645    
    517000   299.01226      0.042618159    21.818624      741.85765     -64.952604      676.90505    
    518000   284.40326      0.042618159    19.439818      705.61233     -65.124143      640.48819    
    519000   294.34058      0.042618159    20.95697       730.2671      -63.175061      667.09204    
    520000   301.93959      0.042618159    21.554163      749.12045     -67.949795      681.17066    
    521000   287.69266      0.042618159    17.207574      713.77342     -66.903956      646.86946    
    522000   311.12303      0.042618159    24.863673      771.90481     -71.093251      700.81155    
    523000   300.08278      0.042618159    20.811685      744.51364     -76.344405      668.16924    
    524000   293.94629      0.042618159    19.255598      729.28886     -78.027097      651.26176    
    525000   304.20595      0.042618159    23.859167      754.74335     -70.621367      684.12198    
    526000   307.03809      0.042618159    26.255691      761.76997     -72.242171      689.5278     
    527000   298.77411      0.042618159    17.800759      741.26679     -77.151282      664.11551    
    528000   300.584        0.042618159    13.668271      745.7572      -70.385216      675.37198    
    529000   300.35532      0.042618159    21.313768      745.18984     -74.898108      670.29173    
    530000   294.34351      0.042618159    21.718209      730.27436     -80.4849        649.78946    
    531000   316.41088      0.042618159    22.062636      785.02413     -81.922051      703.10208    
    532000   291.77829      0.042618159    20.070627      723.90997     -75.594151      648.31582    
    533000   294.39796      0.042618159    19.169234      730.40945     -74.271582      656.13786    
    534000   306.41749      0.042618159    25.37426       760.23024     -79.102304      681.12794    
    535000   310.35035      0.042618159    20.720713      769.98777     -76.022409      693.96536    
    536000   303.27812      0.042618159    15.866024      752.44137     -74.462781      677.97859    
    537000   295.58629      0.042618159    27.49555       733.35774     -73.25384       660.1039     
    538000   302.53472      0.042618159    18.899686      750.59697     -78.877226      671.71975    
    539000   299.37242      0.042618159    14.259704      742.75121     -83.419884      659.33133    
    540000   298.74431      0.042618159    23.655593      741.19286     -78.581192      662.61167    
    541000   296.8105       0.042618159    28.169371      736.39503     -76.560835      659.8342     
    542000   311.212        0.042618159    8.5657766      772.12556     -69.28602       702.83954    
    543000   304.09068      0.042618159    7.8013531      754.45737     -76.543667      677.9137     
    544000   297.01169      0.042618159    17.73485       736.89419     -73.498441      663.39575    
    545000   293.80344      0.042618159    48.637392      728.93442     -74.249318      654.6851     
    546000   304.89301      0.042618159   -6.5218375      756.44797     -72.211221      684.23675    
    547000   296.82264      0.042618159    26.494595      736.42515     -68.275981      668.14917    
    548000   302.31416      0.042618159    23.051742      750.04976     -63.361865      686.68789    
    549000   287.93743      0.042618159    7.235895       714.3807      -59.089349      655.29135    
    550000   289.30393      0.042618159    19.053677      717.77103     -59.369745      658.40128    
    551000   305.16666      0.042618159    28.562944      757.12688     -66.723305      690.40358    
    552000   312.53303      0.042618159    22.123661      775.40306     -77.711714      697.69135    
    553000   312.13756      0.042618159    23.564198      774.42189     -73.020792      701.4011     
    554000   302.93336      0.042618159    17.533491      751.58602     -71.831159      679.75486    
    555000   287.995        0.042618159    20.635925      714.52354     -73.56206       640.96148    
    556000   290.22416      0.042618159    12.361322      720.05414     -78.335744      641.7184     
    557000   310.18963      0.042618159    20.601233      769.58903     -77.267831      692.3212     
    558000   305.31173      0.042618159    24.195509      757.48683     -72.585495      684.90133    
    559000   278.48484      0.042618159    21.946306      690.92856     -78.695554      612.23301    
    560000   300.46274      0.042618159    20.299988      745.45633     -72.132084      673.32425    
    561000   310.14606      0.042618159    22.008138      769.48093     -78.431513      691.04942    
    562000   291.16849      0.042618159    17.848472      722.39704     -74.187345      648.2097     
    563000   313.13127      0.042618159    24.003547      776.88732     -73.477786      703.40954    
    564000   318.54404      0.042618159    22.963297      790.31653     -76.720625      713.59591    
    565000   294.35678      0.042618159    17.457082      730.30728     -75.303332      655.00395    
    566000   300.15908      0.042618159    6.4753304      744.70296     -68.604577      676.09838    
    567000   299.50779      0.042618159    24.665003      743.08709     -68.80089       674.2862     
    568000   294.93093      0.042618159    22.516034      731.73176     -67.563818      664.16795    
    569000   298.74454      0.042618159    22.874784      741.19344     -72.403263      668.79018    
    570000   303.29677      0.042618159    20.531123      752.48764     -72.247717      680.23992    
    571000   307.42121      0.042618159    19.353074      762.72051     -71.968893      690.75161    
    572000   305.11356      0.042618159    20.293616      756.99515     -69.007363      687.98778    
    573000   280.27483      0.042618159    21.879063      695.36959     -70.446887      624.9227     
    574000   296.97078      0.042618159    22.782471      736.79269     -68.903694      667.889      
    575000   315.758        0.042618159    12.966772      783.40431     -68.906631      714.49768    
    576000   301.56053      0.042618159    16.071369      748.17999     -74.191771      673.98821    
    577000   280.44148      0.042618159    24.041807      695.78305     -80.651359      615.13169    
    578000   308.58611      0.042618159    31.013451      765.61063     -75.631227      689.97941    
    579000   308.54709      0.042618159    8.8158095      765.51382     -76.120211      689.39361    
    580000   298.13815      0.042618159    11.35499       739.68898     -70.575299      669.11368    
    581000   292.18474      0.042618159    22.174689      724.9184      -80.533643      644.38476    
    582000   316.02293      0.042618159    22.446193      784.06161     -83.305212      700.7564     
    583000   298.16334      0.042618159    20.805858      739.75147     -85.112153      654.63931    
    584000   308.80829      0.042618159    22.609605      766.16187     -85.539756      680.62212    
    585000   291.88275      0.042618159    18.808743      724.16915     -81.351056      642.81809    
    586000   300.56626      0.042618159    12.390021      745.71318     -80.56005       665.15313    
    587000   317.85077      0.042618159    12.384555      788.59651     -81.281835      707.31468    
    588000   301.14875      0.042618159    41.723161      747.15835     -82.505657      664.65269    
    589000   294.30808      0.042618159    24.011101      730.18647     -75.330219      654.85625    
    590000   308.22007      0.042618159    18.929765      764.70248     -73.444912      691.25757    
    591000   303.78225      0.042618159    23.442874      753.69214     -75.572177      678.11996    
    592000   279.66328      0.042618159    28.041926      693.85232     -74.921322      618.93099    
    593000   303.0655       0.042618159    21.974061      751.91387     -77.334293      674.57957    
    594000   305.33464      0.042618159    21.958024      757.54366     -75.530309      682.01335    
    595000   299.66544      0.042618159    22.471282      743.47822     -70.684647      672.79357    
    596000   288.66545      0.042618159    21.316878      716.18694     -72.247876      643.93906    
    597000   289.72623      0.042618159    19.723121      718.81875     -65.490399      653.32835    
    598000   307.86049      0.042618159    19.280132      763.81036     -69.084599      694.72576    
    599000   304.10419      0.042618159    29.52117       754.49089     -63.736927      690.75396    
    600000   295.58297      0.042618159    18.23116       733.34949     -64.576311      668.77318    
    601000   287.31856      0.042618159    18.880339      712.84526     -67.237691      645.60757    
    602000   304.92368      0.042618159    19.583532      756.52405     -71.860365      684.66369    
    603000   315.53606      0.042618159    18.909472      782.85367     -73.849737      709.00394    
    604000   291.81215      0.042618159    20.837998      723.994       -69.03424       654.95976    
    605000   298.41713      0.042618159    23.87298       740.38113     -69.190446      671.19069    
    606000   306.5735       0.042618159    20.13145       760.6173      -63.619113      696.99819    
    607000   296.31812      0.042618159    20.302227      735.17342     -60.030436      675.14299    
    608000   314.10164      0.042618159    17.819003      779.29482     -71.498031      707.79679    
    609000   303.23465      0.042618159    22.713692      752.33351     -67.135977      685.19754    
    610000   291.29262      0.042618159    26.239405      722.70502     -66.220007      656.48501    
    611000   301.67749      0.042618159    15.834482      748.47017     -67.241142      681.22903    
    612000   311.7243       0.042618159    23.059776      773.39658     -63.188247      710.20834    
    613000   295.07336      0.042618159    28.993151      732.08513     -66.40909       665.67604    
    614000   283.43834      0.042618159    6.8196         703.21834     -67.169059      636.04928    
    615000   320.20661      0.042618159    12.240582      794.44143     -63.912505      730.52892    
    616000   307.71215      0.042618159    31.043023      763.44234     -60.036063      703.40628    
    617000   287.28047      0.042618159    18.547559      712.75078     -60.926788      651.82399    
    618000   301.05499      0.042618159    5.7467066      746.92574     -65.746879      681.17886    
    619000   320.77961      0.042618159    15.293543      795.86306     -62.329287      733.53378    
    620000   300.45253      0.042618159    25.236772      745.43101     -65.347121      680.08389    
    621000   295.79379      0.042618159    30.322693      733.87256     -66.86015       667.01241    
    622000   302.29428      0.042618159    23.890765      750.00045     -70.476045      679.5244     
    623000   301.18798      0.042618159   -0.58888988     747.25567     -71.093486      676.16219    
    624000   308.87835      0.042618159    34.382472      766.3357      -59.429435      706.90626    
    625000   303.73567      0.042618159    23.442576      753.57658     -67.376867      686.19971    
    626000   307.59684      0.042618159    6.2076649      763.15623     -59.867451      703.28878    
    627000   301.62043      0.042618159    4.1345396      748.3286      -57.922906      690.40569    
    628000   300.35734      0.042618159    22.138586      745.19485     -58.686827      686.50802    
    629000   302.56437      0.042618159    31.180293      750.67055     -57.57418       693.09636    
    630000   311.70375      0.042618159   -3.1689627      773.34559     -56.49723       716.84836    
    631000   305.11447      0.042618159    35.650906      756.9974      -58.786344      698.21106    
    632000   293.40013      0.042618159    27.511059      727.93382     -60.605755      667.32806    
    633000   299.53017      0.042618159    25.050692      743.14261     -59.27613       683.86648    
    634000   296.27742      0.042618159    12.609255      735.07246     -57.613561      677.45889    
    635000   300.30916      0.042618159    20.854739      745.0753      -65.452257      679.62304    
    636000   299.36058      0.042618159    14.680523      742.72185     -64.164893      678.55695    
    637000   303.66077      0.042618159    21.910896      753.39075     -62.880651      690.5101     
    638000   295.29268      0.042618159    26.468228      732.62927     -66.226707      666.40257    
    639000   310.64833      0.042618159    30.516972      770.72706     -66.342348      704.38471    
    640000   303.16227      0.042618159    20.004957      752.15395     -69.36702       682.78693    
    641000   299.82324      0.042618159    37.202466      743.86972     -66.239664      677.63006    
    642000   304.04666      0.042618159    17.313704      754.34816     -65.748168      688.59999    
    643000   302.25312      0.042618159    8.0058411      749.89832     -65.355597      684.54273    
    644000   295.45056      0.042618159    16.572733      733.02099     -66.481392      666.5396     
    645000   308.43129      0.042618159    44.487399      765.22654     -66.731328      698.49522    
    646000   304.36106      0.042618159    24.725601      755.12818     -64.614769      690.51341    
    647000   302.63207      0.042618159   -2.8465365      750.83852     -68.837432      682.00108    
    648000   294.10662      0.042618159    30.906107      729.68662     -63.101465      666.58515    
    649000   316.50694      0.042618159    36.361586      785.26244     -73.683861      711.57858    
    650000   307.12092      0.042618159    9.2395955      761.97548     -72.769341      689.20614    
    651000   296.88666      0.042618159    3.0534164      736.58399     -74.044433      662.53955    
    652000   277.93536      0.042618159    11.165568      689.56528     -62.606977      626.9583     
    653000   304.79582      0.042618159    36.679461      756.20684     -67.291948      688.91489    
    654000   315.72439      0.042618159    16.418014      783.32091     -65.098935      718.22197    
    655000   282.12243      0.042618159    5.7232274      699.95353     -60.415126      639.53841    
    656000   288.69746      0.042618159    12.033426      716.26636     -60.212936      656.05343    
    657000   301.1235       0.042618159    19.66718       747.09571     -63.554343      683.54136    
    658000   300.18897      0.042618159    28.105451      744.77711     -66.351687      678.42542    
    659000   302.36386      0.042618159    20.529225      750.17308     -66.609956      683.56312    
    660000   293.14994      0.042618159    20.904456      727.31309     -65.649627      661.66346    
    661000   299.06697      0.042618159    22.86479       741.9934      -66.39299       675.60041    
    662000   314.69224      0.042618159    21.231045      780.76013     -73.47719       707.28294    
    663000   290.53703      0.042618159    19.887255      720.83038     -71.87235       648.95803    
    664000   296.94826      0.042618159    18.563989      736.73683     -68.132943      668.60388    
    665000   318.0033       0.042618159    22.465866      788.97495     -63.368691      725.60625    
    666000   308.57756      0.042618159    24.249062      765.58944     -62.213787      703.37565    
    667000   299.94785      0.042618159    22.54516       744.17887     -65.653515      678.52536    
    668000   295.11363      0.042618159    19.782267      732.18505     -66.741285      665.44377    
    669000   292.58508      0.042618159    15.036716      725.91166     -60.083866      665.82779    
    670000   323.25606      0.042618159    20.346407      802.00719     -67.887677      734.11952    
    671000   299.53029      0.042618159    24.345177      743.14291     -69.562372      673.58054    
    672000   287.23613      0.042618159    17.059201      712.64075     -67.206273      645.43448    
    673000   310.91385      0.042618159    9.8339953      771.38583     -64.473171      706.91266    
    674000   309.26529      0.042618159    25.717176      767.29571     -65.463271      701.83244    
    675000   297.5556       0.042618159    32.806829      738.24366     -67.667937      670.57572    
    676000   298.89566      0.042618159    22.068742      741.56838     -69.37135       672.19703    
    677000   305.393        0.042618159   -2.9011201      757.68844     -68.858669      688.82977    
    678000   305.13933      0.042618159    27.149281      757.05909     -66.206447      690.85264    
    679000   302.91843      0.042618159    41.246171      751.54897     -65.078595      686.47038    
    680000   305.15892      0.042618159    22.300362      757.10769     -65.792717      691.31497    
    681000   299.97401      0.042618159    13.338924      744.24379     -66.685377      677.55841    
    682000   298.86254      0.042618159    21.769091      741.4862      -62.21106       679.27514    
    683000   306.59651      0.042618159    23.648169      760.6744      -65.455503      695.2189     
    684000   308.9943       0.042618159    30.763305      766.62337     -62.806146      703.81723    
    685000   285.86705      0.042618159    28.532669      709.24404     -71.330658      637.91338    
    686000   290.00309      0.042618159    14.538319      719.50566     -76.293145      643.21252    
    687000   315.08823      0.042618159    18.061322      781.74258     -67.238412      714.50417    
    688000   309.56056      0.042618159    27.148567      768.02829     -75.957962      692.07033    
    689000   291.34118      0.042618159    20.064575      722.82551     -71.435326      651.39018    
    690000   298.00708      0.042618159    14.858433      739.36379     -73.723384      665.64041    
    691000   300.42812      0.042618159    23.144019      745.37045     -69.760814      675.60964    
    692000   297.47573      0.042618159    18.286746      738.0455      -74.757623      663.28787    
    693000   304.83338      0.042618159    22.639858      756.30003     -75.335961      680.96406    
    694000   285.64208      0.042618159    26.925859      708.68586     -71.406329      637.27954    
    695000   294.22738      0.042618159    16.739414      729.98623     -77.436392      652.54984    
    696000   313.04298      0.042618159    23.905899      776.66825     -75.838645      700.8296     
    697000   299.12707      0.042618159    22.011494      742.14251     -71.139224      671.00328    
    698000   282.52091      0.042618159    22.139808      700.94217     -69.46952       631.47265    
    699000   295.79681      0.042618159    25.080327      733.88003     -64.629455      669.25058    
    700000   313.35114      0.042618159    24.559004      777.43281     -69.898912      707.5339     
    701000   301.02382      0.042618159    22.989015      746.84839     -74.347742      672.50064    
    702000   294.68839      0.042618159    20.524642      731.13001     -76.342025      654.78798    
    703000   288.99957      0.042618159    24.596662      717.0159      -78.165372      638.85053    
    704000   306.70992      0.042618159    22.815381      760.95577     -75.511827      685.44394    
    705000   309.4414       0.042618159    18.581006      767.73263     -71.139285      696.59335    
    706000   295.32557      0.042618159    15.043433      732.71089     -72.145502      660.56539    
    707000   295.97437      0.042618159    33.649042      734.32058     -68.08064       666.23994    
    708000   308.85098      0.042618159    27.996605      766.26778     -76.943989      689.3238     
    709000   298.16727      0.042618159    19.215741      739.7612      -75.052347      664.70886    
    710000   293.16144      0.042618159    22.210814      727.34161     -78.584558      648.75705    
    711000   316.31058      0.042618159    25.511822      784.77528     -75.589868      709.18541    
    712000   316.16871      0.042618159    12.656424      784.42328     -75.398013      709.02527    
    713000   296.06197      0.042618159    20.072968      734.53792     -67.867616      666.6703     
    714000   300.17348      0.042618159    36.78559       744.73868     -71.995189      672.74349    
    715000   306.78072      0.042618159    32.511842      761.13142     -65.04461       696.08681    
    716000   317.47568      0.042618159    18.988658      787.66591     -71.58825       716.07766    
    717000   290.47591      0.042618159    9.6850547      720.67873     -76.492493      644.18624    
    718000   290.83399      0.042618159    12.540085      721.56714     -77.665491      643.90164    
    719000   296.07747      0.042618159    21.233301      734.57636     -75.38858       659.18778    
    720000   309.10628      0.042618159    25.573744      766.9012      -72.058325      694.84288    
    721000   294.64627      0.042618159    32.638918      731.02551     -80.106107      650.9194     
    722000   305.06208      0.042618159    18.268217      756.86744     -77.266368      679.60107    
    723000   298.51686      0.042618159    8.2465107      740.62855     -77.593277      663.03527    
    724000   294.83021      0.042618159    30.43669       731.48188     -80.164153      651.31773    
    725000   307.17795      0.042618159    28.358426      762.11696     -75.166944      686.95002    
    726000   290.19455      0.042618159    20.855179      719.98067     -80.93158       639.04909    
    727000   295.15451      0.042618159    26.253668      732.28648     -80.061495      652.22498    
    728000   311.80066      0.042618159    21.988462      773.58604     -80.144451      693.44159    
    729000   295.55826      0.042618159    17.965454      733.2882      -83.948628      649.33957    
    730000   291.01342      0.042618159    27.92753       722.01232     -79.103015      642.9093     
    731000   301.09074      0.042618159    21.164994      747.01443     -78.818794      668.19564    
    732000   292.34276      0.042618159    21.551155      725.31044     -75.341478      649.96896    
    733000   295.85854      0.042618159    22.273472      734.0332      -73.115344      660.91785    
    734000   299.95646      0.042618159    21.655042      744.20025     -70.893709      673.30654    
    735000   314.30352      0.042618159    22.461536      779.7957      -73.461958      706.33374    
    736000   293.88846      0.042618159    20.404962      729.14536     -74.199022      654.94634    
    737000   287.69894      0.042618159    21.631879      713.78899     -75.60322       638.18577    
    738000   312.55972      0.042618159    20.9658        775.46927     -84.084498      691.38477    
    739000   302.63375      0.042618159    25.530427      750.84269     -81.981076      668.86161    
    740000   283.67128      0.042618159    19.754403      703.79626     -80.625834      623.17042    
    741000   301.33066      0.042618159    21.41217       747.60968     -76.566777      671.0429     
    742000   319.48052      0.042618159    20.280702      792.63999     -74.159704      718.48028    
    743000   298.90012      0.042618159    21.323672      741.57943     -72.445165      669.13426    
    744000   298.82789      0.042618159    21.62661       741.40023     -63.755226      677.64501    
    745000   298.41161      0.042618159    17.434143      740.36742     -69.562647      670.80478    
    746000   299.71974      0.042618159    20.771893      743.61294     -67.617939      675.995      
    747000   299.29964      0.042618159    28.698055      742.57067     -71.026849      671.54382    
    748000   292.43636      0.042618159    22.318216      725.54267     -75.022853      650.51982    
    749000   300.46486      0.042618159    12.530542      745.46159     -79.587018      665.87458    
    750000   296.7635       0.042618159    14.066155      736.27843     -79.944771      656.33366    
    751000   305.17864      0.042618159    24.16726       757.15663     -78.558326      678.5983     
    752000   302.3141       0.042618159    23.563307      750.04962     -80.292432      669.75719    
    753000   297.497        0.042618159    22.100282      738.09825     -72.995418      665.10283    
    754000   293.56872      0.042618159    17.265495      728.35209     -68.968234      659.38386    
    755000   303.727        0.042618159    20.036092      753.55507     -73.292723      680.26234    
    756000   300.80974      0.042618159    24.142088      746.31726     -74.641524      671.67573    
    757000   296.09523      0.042618159    18.244364      734.62043     -79.887089      654.73334    
    758000   307.5662       0.042618159    31.028243      763.08021     -80.942306      682.13791    
    759000   305.15681      0.042618159    20.414619      757.10245     -77.279634      679.82282    
    760000   293.13447      0.042618159    19.234409      727.2747      -80.665002      646.6097     
    761000   292.28969      0.042618159    22.250454      725.17877     -77.235035      647.94374    
    762000   301.47086      0.042618159    26.114918      747.95752     -74.999386      672.95814    
    763000   302.85707      0.042618159    24.169187      751.39674     -74.772375      676.62436    
    764000   310.0897       0.042618159    18.255299      769.34109     -74.467485      694.8736     
    765000   304.30401      0.042618159    19.918473      754.98663     -78.843363      676.14327    
    766000   287.50477      0.042618159    20.694882      713.30726     -73.291351      640.01591    
    767000   298.14499      0.042618159    26.070162      739.70594     -71.121741      668.5842     
    768000   311.5986       0.042618159    23.393875      773.08471     -72.795108      700.2896     
    769000   295.01872      0.042618159    16.556844      731.94957     -67.382772      664.5668     
    770000   309.76418      0.042618159    29.779776      768.53346     -72.266813      696.26665    
    771000   315.14983      0.042618159    24.002875      781.89542     -80.410567      701.48485    
    772000   297.7011       0.042618159    19.164201      738.60465     -74.266706      664.33794    
    773000   291.14076      0.042618159    23.662932      722.32825     -71.638558      650.6897     
    774000   302.07418      0.042618159    24.077925      749.45438     -74.642013      674.81236    
    775000   307.16831      0.042618159    21.27263       762.09305     -79.805672      682.28738    
    776000   291.25347      0.042618159    19.579761      722.60788     -72.704342      649.90354    
    777000   288.44063      0.042618159    20.905258      715.62915     -77.790589      637.83856    
    778000   305.55498      0.042618159    33.481236      758.09033     -73.933685      684.15665    
    779000   305.75527      0.042618159    16.257896      758.58726     -76.869578      681.71768    
    780000   285.84652      0.042618159    25.503991      709.1931      -74.540863      634.65223    
    781000   292.26467      0.042618159    29.916785      725.11671     -76.845122      648.27159    
    782000   306.68405      0.042618159    25.797068      760.89157     -78.309676      682.5819     
    783000   304.98737      0.042618159    17.25585       756.68206     -74.368164      682.3139     
    784000   297.69177      0.042618159    30.458385      738.58148     -83.456627      655.12486    
    785000   295.98966      0.042618159    34.61889       734.3585      -75.572323      658.78617    
    786000   305.93848      0.042618159    22.450271      759.0418      -80.272063      678.76974    
    787000   307.90771      0.042618159    33.670712      763.92752     -78.695646      685.23188    
    788000   315.22686      0.042618159    17.940375      782.08652     -83.678741      698.40778    
    789000   295.35453      0.042618159    15.371495      732.78273     -84.032123      648.7506     
    790000   290.84224      0.042618159    22.365389      721.58761     -81.445785      640.14182    
    791000   289.78243      0.042618159    12.27463       718.9582      -85.783949      633.17425    
    792000   320.33827      0.042618159    20.680554      794.76808     -76.379154      718.38893    
    793000   297.73523      0.042618159    23.335351      738.68932     -80.938233      657.75108    
    794000   289.3647       0.042618159    17.044268      717.92181     -77.187033      640.73477    
    795000   304.11073      0.042618159    21.381863      754.5071      -79.694334      674.81277    
    796000   298.45511      0.042618159    24.696786      740.47534     -81.25274       659.2226     
    797000   290.69094      0.042618159    25.347694      721.21223     -80.583584      640.62865    
    798000   297.70897      0.042618159    16.548181      738.62415     -78.456675      660.16748    
    799000   305.26254      0.042618159    27.312325      757.36479     -72.995997      684.36879    
    800000   295.5233       0.042618159    19.864303      733.20147     -70.161551      663.03991    
    801000   297.40336      0.042618159    16.294672      737.86594     -75.689303      662.17664    
    802000   300.2239       0.042618159    19.398799      744.86377     -73.348069      671.5157     
    803000   304.45073      0.042618159    20.422458      755.35066     -88.38991       666.96075    
    804000   298.01836      0.042618159    23.825884      739.39177     -80.851978      658.53979    
    805000   303.97552      0.042618159    22.667118      754.17164     -76.507441      677.6642     
    806000   315.02598      0.042618159    19.905739      781.58814     -82.722634      698.86551    
    807000   297.58589      0.042618159    17.451529      738.3188      -75.619998      662.69881    
    808000   280.48848      0.042618159    24.098513      695.89965     -75.154279      620.74537    
    809000   292.16904      0.042618159    23.38778       724.87945     -77.500634      647.37882    
    810000   306.76248      0.042618159    15.686711      761.08616     -81.210434      679.87573    
    811000   301.05572      0.042618159    25.851567      746.92753     -78.953135      667.9744     
    812000   290.50459      0.042618159    21.843807      720.7499      -83.457837      637.29206    
    813000   293.20673      0.042618159    21.95107       727.45398     -80.493153      646.96082    
    814000   302.49412      0.042618159    11.564149      750.49624     -79.823235      670.67301    
    815000   283.53259      0.042618159    6.4197397      703.45217     -76.628502      626.82367    
    816000   278.85975      0.042618159    24.698691      691.85872     -70.792761      621.06596    
    817000   304.75836      0.042618159    17.808473      756.11389     -74.031554      682.08233    
    818000   298.52744      0.042618159    22.618402      740.65482     -75.951359      664.70346    
    819000   290.89631      0.042618159    24.173953      721.72176     -76.659018      645.06274    
    820000   300.9041       0.042618159    16.259628      746.55136     -75.254811      671.29655    
    821000   295.5276       0.042618159    15.270853      733.21213     -81.054762      652.15737    
    822000   309.71936      0.042618159    22.337683      768.42227     -83.395633      685.02664    
    823000   302.58551      0.042618159    30.798178      750.72299     -82.358122      668.36486    
    824000   310.30867      0.042618159    26.104897      769.88437     -75.612523      694.27185    
    825000   278.12568      0.042618159    18.558661      690.03749     -71.993081      618.0444     
    826000   300.77995      0.042618159    15.6106        746.24335     -67.412132      678.83122    
    827000   320.58343      0.042618159    24.249732      795.37632     -70.776859      724.59946    
    828000   297.7445       0.042618159    18.922689      738.71232     -75.68902       663.0233     
    829000   297.81787      0.042618159    27.483011      738.89436     -75.952015      662.94234    
    830000   309.3939       0.042618159    19.160706      767.6148      -80.031464      687.58334    
    831000   308.34838      0.042618159    20.107009      765.02084     -81.419943      683.60089    
    832000   297.16127      0.042618159    27.82441       737.2653      -73.192746      664.07255    
    833000   300.63621      0.042618159    18.780076      745.88672     -73.292441      672.59428    
    834000   321.45771      0.042618159    16.902038      797.54545     -75.816163      721.72929    
    835000   302.04397      0.042618159    26.256483      749.37941     -74.620227      674.75918    
    836000   297.39184      0.042618159    31.999569      737.83736     -72.17048       665.66688    
    837000   292.39539      0.042618159    22.308701      725.44103     -67.362944      658.07808    
    838000   310.42891      0.042618159    20.539335      770.18268     -76.647599      693.53508    
    839000   303.57307      0.042618159    24.00256       753.17315     -71.235899      681.93725    
    840000   300.96361      0.042618159    22.736274      746.69901     -74.367203      672.33181    
    841000   291.08767      0.042618159    18.094247      722.19654     -72.986492      649.21005    
    842000   300.63996      0.042618159    22.400691      745.89602     -77.357566      668.53846    
    843000   305.36776      0.042618159    28.242934      757.62582     -76.675439      680.95038    
    844000   298.94787      0.042618159    8.8204712      741.69791     -77.927051      663.77086    
    845000   305.90742      0.042618159    17.324588      758.96474     -77.358081      681.60666    
    846000   304.71864      0.042618159    26.024127      756.01534     -79.078658      676.93668    
    847000   299.85692      0.042618159    30.026042      743.95329     -79.566765      664.38652    
    848000   300.69725      0.042618159    19.599143      746.03818     -76.973891      669.06429    
    849000   300.37871      0.042618159    18.202423      745.24786     -82.799944      662.44791    
    850000   277.81287      0.042618159    15.046962      689.2614      -83.371047      605.89035    
    851000   304.08522      0.042618159    26.052664      754.44381     -78.830493      675.61332    
    852000   326.21178      0.042618159    23.914686      809.34042     -74.529944      734.81048    
    853000   299.47801      0.042618159    16.865871      743.0132      -78.95111       664.06209    
    854000   304.68136      0.042618159    24.12398       755.92285     -83.715201      672.20765    
    855000   287.70535      0.042618159    28.439705      713.80491     -78.280455      635.52445    
    856000   301.31014      0.042618159    18.551567      747.55876     -75.901493      671.65726    
    857000   297.31545      0.042618159    3.793677       737.64783     -72.060057      665.58777    
    858000   292.89853      0.042618159    15.607862      726.68933     -67.465289      659.22404    
    859000   297.08694      0.042618159    25.780989      737.08088     -74.667812      662.41306    
    860000   309.39472      0.042618159    23.830105      767.61683     -83.465609      684.15123    
    861000   310.96244      0.042618159    22.512912      771.50638     -85.04285       686.46353    
    862000   307.03772      0.042618159    1.774391       761.76904     -84.739857      677.02918    
    863000   296.71484      0.042618159    13.71372       736.15769     -76.487246      659.67045    
    864000   297.08206      0.042618159    20.718104      737.06878     -76.757789      660.31099    
    865000   290.6229       0.042618159    28.367253      721.04343     -74.609481      646.43395    
    866000   302.52432      0.042618159    26.274384      750.57117     -67.72857       682.8426     
    867000   299.98928      0.042618159    21.292917      744.28166     -74.367961      669.9137     
    868000   308.68501      0.042618159    22.131018      765.85602     -78.034408      687.82161    
    869000   297.0643       0.042618159    21.474971      737.02473     -79.53399       657.49074    
    870000   311.84602      0.042618159    30.344015      773.69857     -78.541343      695.15722    
    871000   317.48472      0.042618159    8.0946776      787.68835     -70.432087      717.25626    
    872000   285.81035      0.042618159    21.640652      709.10336     -74.027571      635.07578    
    873000   290.92229      0.042618159    33.566817      721.78621     -72.226524      649.55969    
    874000   310.47767      0.042618159    20.106368      770.30366     -69.269599      701.03407    
    875000   294.63083      0.042618159    15.965385      730.98721     -69.852856      661.13435    
    876000   295.92189      0.042618159    31.92295       734.19037     -69.100305      665.09006    
    877000   302.89365      0.042618159    34.989903      751.4875      -67.36613       684.12137    
    878000   307.18056      0.042618159    18.328773      762.12343     -73.016844      689.10659    
    879000   293.56492      0.042618159    12.014871      728.34267     -70.252097      658.09057    
    880000   298.93559      0.042618159    25.171698      741.66743     -71.960029      669.7074     
    881000   300.14729      0.042618159    11.863152      744.67369     -71.401201      673.27249    
    882000   307.78489      0.042618159   -6.804403       763.62278     -68.423691      695.19909    
    883000   291.54665      0.042618159    12.682407      723.33527     -75.358835      647.97644    
    884000   296.06206      0.042618159    33.859885      734.53814     -69.114609      665.42353    
    885000   309.77851      0.042618159    19.202867      768.56901     -69.768594      698.80042    
    886000   298.21458      0.042618159    22.016223      739.87861     -73.067029      666.81158    
    887000   294.97835      0.042618159    21.424606      731.84943     -70.174694      661.67473    
    888000   307.4479       0.042618159    27.93552       762.78673     -67.329091      695.45763    
    889000   310.34239      0.042618159    13.314246      769.96803     -74.859922      695.10811    
    890000   300.5526       0.042618159    20.32734       745.67928     -73.500519      672.17876    
    891000   299.64447      0.042618159    31.972966      743.42619     -67.249109      676.17708    
    892000   308.96949      0.042618159    23.654117      766.56181     -64.346517      702.2153     
    893000   299.76752      0.042618159    24.929143      743.73148     -58.800921      684.93056    
    894000   289.21887      0.042618159    19.066027      717.56        -63.048473      654.51152    
    895000   292.18094      0.042618159    20.516326      724.90897     -63.511607      661.39736    
    896000   319.70349      0.042618159    21.78095       793.19318     -68.343727      724.84945    
    897000   296.47168      0.042618159    21.207524      735.55442     -67.709947      667.84447    
    898000   302.91186      0.042618159    16.163273      751.53267     -75.665222      675.86744    
    899000   298.64402      0.042618159    19.973821      740.94405     -70.635077      670.30897    
    900000   303.14052      0.042618159    23.589371      752.09998     -74.101758      677.99823    
    901000   306.8498       0.042618159    26.009899      761.30281     -74.535331      686.76748    
    902000   298.98798      0.042618159    19.463987      741.79743     -71.459192      670.33823    
    903000   291.66605      0.042618159    17.646825      723.63151     -65.851698      657.77982    
    904000   296.02045      0.042618159    15.975718      734.4349      -63.899968      670.53494    
    905000   303.37594      0.042618159    21.593968      752.68407     -68.544354      684.13972    
    906000   305.10328      0.042618159    21.207413      756.96965     -69.222422      687.74723    
    907000   283.27288      0.042618159    22.520388      702.80782     -69.243236      633.56459    
    908000   290.82477      0.042618159    22.786883      721.54426     -69.125581      652.41868    
    909000   315.72834      0.042618159    19.99533       783.3307      -66.388269      716.94243    
    910000   293.44154      0.042618159    24.865985      728.03655     -68.575432      659.46112    
    911000   293.3738       0.042618159    15.910563      727.86849     -70.16816       657.70033    
    912000   311.69301      0.042618159    40.605471      773.31896     -66.199035      707.11993    
    913000   300.35239      0.042618159    20.673995      745.18256     -66.131301      679.05125    
    914000   285.63686      0.042618159    16.6958        708.67293     -66.767256      641.90568    
    915000   302.61719      0.042618159    22.482992      750.80159     -60.940704      689.86089    
    916000   308.84714      0.042618159    22.81843       766.25826     -61.929476      704.32878    
    917000   300.40614      0.042618159    22.18032       745.31591     -60.060149      685.25576    
    918000   295.71097      0.042618159    20.975738      733.66706     -61.505962      672.1611     
    919000   302.80544      0.042618159    20.931175      751.26865     -61.362383      689.90627    
    920000   303.4094       0.042618159    19.733247      752.76707     -60.88007       691.887      
    921000   290.98172      0.042618159    20.929316      721.93366     -61.395204      660.53846    
    922000   295.27326      0.042618159    25.149853      732.5811      -65.071362      667.50973    
    923000   306.01743      0.042618159    24.080634      759.23768     -62.589861      696.64782    
    924000   302.27957      0.042618159    22.196904      749.96395     -60.389051      689.5749     
    925000   303.22773      0.042618159    20.468294      752.31636     -62.650319      689.66604    
    926000   307.30712      0.042618159    21.83177       762.43745     -64.767902      697.66954    
    927000   298.50919      0.042618159    22.412597      740.60954     -59.548827      681.06071    
    928000   293.08609      0.042618159    18.994323      727.15468     -72.530283      654.62439    
    929000   310.44982      0.042618159    19.917636      770.23457     -75.904244      694.33032    
    930000   299.63168      0.042618159    26.392358      743.39446     -68.775659      674.6188     
    931000   302.89692      0.042618159    26.836121      751.49562     -73.092405      678.40321    
    932000   297.5106       0.042618159    20.007062      738.132       -72.586078      665.54592    
    933000   304.34474      0.042618159    23.988286      755.08768     -66.600288      688.48739    
    934000   305.63492      0.042618159    17.818777      758.28866     -60.836765      697.45189    
    935000   305.23786      0.042618159    18.195745      757.30353     -67.574077      689.72946    
    936000   283.73719      0.042618159    19.109041      703.95979     -71.473068      632.48672    
    937000   308.19965      0.042618159    24.493005      764.65183     -65.384301      699.26753    
    938000   309.43234      0.042618159    16.773963      767.71016     -64.940872      702.76928    
    939000   301.90313      0.042618159    20.637796      749.02998     -69.841298      679.18869    
    940000   294.7403       0.042618159    22.474214      731.25881     -60.337544      670.92126    
    941000   301.99403      0.042618159    36.862774      749.25551     -64.912587      684.34292    
    942000   304.48562      0.042618159    16.357745      755.43722     -67.995674      687.44154    
    943000   295.736        0.042618159    11.212183      733.72918     -64.474473      669.2547     
    944000   295.12464      0.042618159    31.816832      732.21237     -65.51183       666.70054    
    945000   292.98181      0.042618159    33.687912      726.89594     -65.507225      661.38871    
    946000   301.08156      0.042618159    23.138326      746.99164     -63.623547      683.36809    
    947000   311.32083      0.042618159    6.4965288      772.39555     -67.173889      705.22166    
    948000   299.06131      0.042618159    17.806541      741.97936     -69.562717      672.41664    
    949000   296.09757      0.042618159    44.096839      734.62622     -66.408914      668.21731    
    950000   295.09889      0.042618159    25.468083      732.14848     -62.908846      669.23964    
    951000   301.2792       0.042618159    5.2728381      747.48201     -66.396518      681.08549    
    952000   288.8747       0.042618159   -9.8919586      716.70609     -72.583704      644.12238    
    953000   296.74739      0.042618159    25.647212      736.23846     -70.199307      666.03915    
    954000   310.80631      0.042618159    38.618417      771.11903     -76.073668      695.04536    
    955000   301.85709      0.042618159    4.1958773      748.91577     -72.912809      676.00296    
    956000   279.84827      0.042618159    19.289526      694.31127     -75.226368      619.08491    
    957000   305.8536       0.042618159    24.959911      758.83121     -67.549863      691.28134    
    958000   304.41571      0.042618159    21.087489      755.26376     -65.916114      689.34765    
    959000   297.48667      0.042618159    20.23212       738.07264     -65.856766      672.21587    
    960000   301.63238      0.042618159    13.374826      748.35824     -64.181545      684.17669    
    961000   293.19281      0.042618159    19.502387      727.41945     -71.654754      655.76469    
    962000   292.69164      0.042618159    18.359462      726.17603     -71.324508      654.85152    
    963000   297.24283      0.042618159    25.689812      737.46766     -70.554636      666.91302    
    964000   301.14071      0.042618159    27.875252      747.1384      -70.636954      676.50144    
    965000   296.05084      0.042618159    18.931974      734.51031     -70.611928      663.89838    
    966000   312.47879      0.042618159    17.351971      775.26849     -74.751515      700.51698    
    967000   282.01708      0.042618159    36.482095      699.69216     -74.806952      624.8852     
    968000   298.44031      0.042618159   -31.23206       740.43863     -68.109385      672.32925    
    969000   308.73986      0.042618159    28.830605      765.99211     -62.688148      703.30396    
    970000   300.20733      0.042618159    27.542357      744.82265     -64.770827      680.05182    
    971000   275.66885      0.042618159    6.1012133      683.94202     -67.09675       616.84527    
    972000   306.58298      0.042618159    21.642455      760.64081     -70.83018       689.81063    
    973000   302.47479      0.042618159    28.401838      750.44829     -70.973781      679.47451    
    974000   281.4391       0.042618159    25.251321      698.25815     -64.427891      633.83026    
    975000   296.8934       0.042618159   -12.377313      736.60072     -72.724399      663.87632    
    976000   311.88561      0.042618159    26.938285      773.79679     -76.567103      697.22968    
    977000   291.39506      0.042618159    31.238977      722.95917     -70.94308       652.01609    
    978000   286.60801      0.042618159    16.511338      711.08236     -71.911572      639.17079    
    979000   306.96652      0.042618159    15.574473      761.59239     -75.035407      686.55699    
    980000   315.75298      0.042618159    22.750966      783.39184     -70.040628      713.35121    
    981000   284.44965      0.042618159    17.863678      705.72742     -69.823851      635.90357    
    982000   294.37822      0.042618159    20.996523      730.36048     -70.630321      659.73016    
    983000   310.37238      0.042618159    24.455779      770.04243     -68.864991      701.17743    
    984000   298.14307      0.042618159    22.529086      739.70118     -73.64181       666.05937    
    985000   294.76929      0.042618159    18.743169      731.33074     -66.982619      664.34812    
    986000   307.03094      0.042618159    25.203313      761.75222     -66.868794      694.88343    
    987000   296.39671      0.042618159    17.714174      735.36842     -66.583066      668.78535    
    988000   290.47481      0.042618159    20.332402      720.67601     -66.318022      654.35799    
    989000   300.95718      0.042618159    21.539938      746.68307     -69.553081      677.12999    
    990000   303.71752      0.042618159    25.705097      753.53155     -66.271081      687.26047    
    991000   298.06531      0.042618159    21.976625      739.50826     -71.879402      667.62886    
    992000   304.90478      0.042618159    21.778379      756.47716     -70.617006      685.86016    
    993000   297.47597      0.042618159    22.433492      738.04608     -76.153994      661.89209    
    994000   283.14978      0.042618159    15.159972      702.50241     -71.97318       630.52923    
    995000   309.2638       0.042618159    19.456991      767.29201     -70.108288      697.18372    
    996000   297.03601      0.042618159    25.448322      736.95454     -73.921693      663.03284    
    997000   289.14172      0.042618159    23.215552      717.36857     -77.406136      639.96244    
    998000   307.08144      0.042618159    16.030295      761.87753     -71.232704      690.64482    
    999000   312.06837      0.042618159    24.834464      774.25024     -69.362069      704.88817    
   1000000   283.89739      0.042618159    21.680894      704.35724     -73.276432      631.08081    
   1001000   294.08434      0.042618159    27.961974      729.63135     -72.387379      657.24397    
   1002000   306.14098      0.042618159    19.735781      759.54421     -76.773628      682.77058    
   1003000   303.84754      0.042618159    21.434966      753.85413     -74.11345       679.74068    
   1004000   289.1031       0.042618159    23.444634      717.27277     -70.485341      646.78743    
   1005000   302.35569      0.042618159    21.56317       750.15281     -64.013092      686.13972    
   1006000   307.53808      0.042618159    20.924416      763.01046     -69.13184       693.87862    
   1007000   304.14899      0.042618159    18.193323      754.60203     -65.933289      688.66874    
   1008000   288.20286      0.042618159    19.400132      715.03925     -59.70776       655.33149    
   1009000   288.0792       0.042618159    17.225875      714.73244     -66.540291      648.19215    
   1010000   305.04157      0.042618159    25.707192      756.81653     -72.223715      684.59282    
   1011000   309.81776      0.042618159    23.87996       768.66641     -68.926961      699.73945    
   1012000   309.36141      0.042618159    24.098371      767.53419     -70.669089      696.8651     
   1013000   293.94307      0.042618159    21.031547      729.28087     -69.525686      659.75518    
   1014000   286.64926      0.042618159    14.205927      711.18472     -68.721767      642.46296    
   1015000   301.77442      0.042618159    17.099507      748.71065     -72.262867      676.44778    
   1016000   310.02185      0.042618159    24.641836      769.17276     -69.725591      699.44717    
   1017000   296.22666      0.042618159    24.781631      734.94651     -71.631903      663.31461    
   1018000   279.0517       0.042618159    2.0565248      692.33495     -64.346946      627.988      
   1019000   300.29238      0.042618159    14.346658      745.03366     -72.192382      672.84128    
   1020000   310.27118      0.042618159    18.348204      769.79134     -67.675737      702.11561    
   1021000   307.98408      0.042618159    19.247443      764.117       -67.086335      697.03066    
   1022000   294.6078       0.042618159    27.759011      730.93007     -64.823722      666.10634    
   1023000   303.57397      0.042618159    22.341276      753.17539     -59.852384      693.32301    
   1024000   302.12059      0.042618159    19.233816      749.56952     -65.854349      683.71517    
   1025000   308.26926      0.042618159    20.368174      764.82453     -62.050465      702.77407    
   1026000   295.90188      0.042618159    19.225759      734.14072     -69.003493      665.13723    
   1027000   294.22967      0.042618159    22.006815      729.99192     -73.020705      656.97121    
   1028000   286.32881      0.042618159    21.670281      710.38966     -67.489932      642.89973    
   1029000   318.27911      0.042618159    26.788349      789.65924     -61.947632      727.71161    
   1030000   311.51833      0.042618159    21.439064      772.88555     -72.065701      700.81985    
   1031000   302.3615       0.042618159    18.130975      750.1672      -68.282018      681.88519    
   1032000   296.8374       0.042618159    22.681917      736.46178     -68.20748       668.2543     
   1033000   309.65766      0.042618159    16.946146      768.26919     -63.516389      704.7528     
   1034000   298.86539      0.042618159    16.850786      741.49327     -61.716885      679.77638    
   1035000   296.42573      0.042618159    28.155065      735.44042     -63.785328      671.65509    
   1036000   304.42462      0.042618159    34.261719      755.28587     -60.911968      694.3739     
   1037000   310.39758      0.042618159    23.660789      770.10495     -66.38158       703.72337    
   1038000   313.22057      0.042618159    25.302757      777.10887     -65.783776      711.3251     
   1039000   291.38041      0.042618159    16.901927      722.92283     -66.893405      656.02942    
   1040000   291.05625      0.042618159    18.066516      722.11858     -69.779823      652.33875    
   1041000   306.32446      0.042618159    25.422846      759.99944     -63.901544      696.09789    
   1042000   301.68873      0.042618159    20.471102      748.49806     -63.602296      684.89576    
   1043000   282.42944      0.042618159    21.418413      700.71523     -61.487551      639.22768    
   1044000   292.4841       0.042618159    18.720535      725.66111     -66.178406      659.48271    
   1045000   309.22643      0.042618159    22.708462      767.19929     -68.455266      698.74402    
   1046000   295.09343      0.042618159    18.988171      732.13494     -66.826017      665.30892    
   1047000   301.06816      0.042618159    24.547129      746.95841     -76.870671      670.08774    
   1048000   301.29893      0.042618159    25.923832      747.53096     -68.019749      679.51121    
   1049000   310.99514      0.042618159    26.042805      771.58752     -76.988623      694.5989     
   1050000   291.74685      0.042618159    19.978806      723.83199     -68.197929      655.63406    
   1051000   310.23657      0.042618159    5.483944       769.70547     -69.451424      700.25405    
   1052000   294.08697      0.042618159    19.522254      729.63788     -74.889171      654.7487     
   1053000   302.36194      0.042618159    32.110398      750.1683      -77.848952      672.31935    
   1054000   310.65379      0.042618159    11.541581      770.74061     -78.767537      691.97307    
   1055000   312.28758      0.042618159    9.9471713      774.79408     -78.162441      696.63164    
   1056000   290.34711      0.042618159    18.934371      720.35918     -75.655342      644.70383    
   1057000   291.70337      0.042618159    28.578889      723.7241      -71.121377      652.60272    
   1058000   320.52719      0.042618159    18.362663      795.2368      -73.188478      722.04832    
   1059000   296.7798       0.042618159    21.982616      736.31887     -62.202647      674.11622    
   1060000   300.64276      0.042618159    17.464203      745.90298     -68.155118      677.74786    
   1061000   293.84849      0.042618159    16.394865      729.0462      -72.066285      656.97991    
   1062000   308.26999      0.042618159    19.16044       764.82633     -76.723263      688.10307    
   1063000   286.92516      0.042618159    24.708361      711.86922     -87.247748      624.62147    
   1064000   287.38432      0.042618159    27.664204      713.00843     -81.117625      631.8908     
   1065000   314.90863      0.042618159    26.818132      781.297       -81.043275      700.25372    
   1066000   296.60713      0.042618159    5.9240081      735.89046     -82.460649      653.42981    
   1067000   288.29478      0.042618159    23.516273      715.26729     -76.896081      638.3712     
   1068000   310.55229      0.042618159    33.456603      770.4888      -68.127462      702.36134    
   1069000   299.66809      0.042618159    17.257994      743.48479     -69.31264       674.17215    
   1070000   286.24975      0.042618159    6.4374592      710.19351     -72.44531       637.7482     
   1071000   304.96271      0.042618159    23.653399      756.6209      -75.105274      681.51562    
   1072000   312.53367      0.042618159    26.950236      775.40466     -76.27943       699.12523    
   1073000   294.47662      0.042618159    18.716438      730.60461     -70.496839      660.10778    
   1074000   296.2573       0.042618159    25.308686      735.02252     -71.358456      663.66406    
   1075000   313.14433      0.042618159    60.217412      776.91972     -67.224722      709.695      
   1076000   302.43022      0.042618159    12.061773      750.33772     -71.337547      679.00018    
   1077000   287.12127      0.042618159    25.483619      712.35579     -74.333279      638.02251    
   1078000   302.03262      0.042618159    42.305636      749.35125     -71.263581      678.08767    
   1079000   308.58724      0.042618159    30.230338      765.61345     -88.57356       677.03989    
   1080000   294.88131      0.042618159    15.392209      731.60865     -76.054728      655.55392    
   1081000   296.23762      0.042618159    28.987014      734.9737      -73.095852      661.87785    
   1082000   307.33901      0.042618159    28.623587      762.51655     -76.473009      686.04354    
   1083000   312.11255      0.042618159    22.502255      774.35984     -74.369195      699.99064    
   1084000   297.29926      0.042618159    20.603223      737.60765     -73.653289      663.95436    
   1085000   286.26137      0.042618159    23.532401      710.22234     -74.859891      635.36245    
   1086000   306.35193      0.042618159    27.306283      760.06759     -66.230229      693.83737    
   1087000   294.48745      0.042618159    11.551257      730.63148     -77.726457      652.90502    
   1088000   303.34692      0.042618159    23.357343      752.61207     -80.804133      671.80794    
   1089000   310.42887      0.042618159    26.405572      770.18258     -78.766662      691.41592    
   1090000   293.16192      0.042618159    23.64087       727.3428      -78.875687      648.46712    
   1091000   295.0752       0.042618159    21.692809      732.0897      -72.960834      659.12887    
   1092000   297.93426      0.042618159    24.62684       739.18311     -75.343159      663.83995    
   1093000   295.71665      0.042618159    20.620639      733.68115     -69.945816      663.73534    
   1094000   293.85412      0.042618159    17.29402       729.06016     -72.237658      656.8225     
   1095000   317.37743      0.042618159    19.227104      787.42214     -64.645331      722.77681    
   1096000   303.33515      0.042618159    20.739429      752.58288     -73.047447      679.53543    
   1097000   283.79921      0.042618159    20.757348      704.11366     -70.757634      633.35602    
   1098000   294.37849      0.042618159    17.691597      730.36115     -67.604713      662.75644    
   1099000   321.56531      0.042618159    27.693265      797.8124      -71.432172      726.38022    
   1100000   283.55182      0.042618159    33.47174       703.49989     -67.647348      635.85254    
   1101000   295.86832      0.042618159    12.8494        734.05746     -70.942547      663.11491    
   1102000   311.24229      0.042618159    9.8815481      772.20071     -75.167961      697.03274    
   1103000   313.22537      0.042618159    25.143563      777.12077     -67.296053      709.82471    
   1104000   298.16951      0.042618159    26.074354      739.76679     -73.644929      666.12186    
   1105000   277.33484      0.042618159    23.433802      688.07538     -68.194597      619.88079    
   1106000   298.39587      0.042618159    24.112889      740.32838     -72.349536      667.97884    
   1107000   304.55044      0.042618159    17.474912      755.59805     -72.876113      682.72194    
   1108000   301.83733      0.042618159    19.91647       748.86674     -82.233523      666.63322    
   1109000   304.28675      0.042618159    22.782597      754.94381     -80.182502      674.76131    
   1110000   287.06236      0.042618159    23.627615      712.20963     -73.88729       638.32234    
   1111000   288.83822      0.042618159    15.089454      716.61559     -78.026382      638.58921    
   1112000   286.99705      0.042618159    27.338266      712.0476      -76.905939      635.14166    
   1113000   294.37181      0.042618159    21.367751      730.34457     -69.777479      660.56709    
   1114000   309.8195       0.042618159    26.86963       768.67071     -70.580161      698.09055    
   1115000   306.19468      0.042618159    29.194356      759.67745     -78.685416      680.99203    
   1116000   300.4723       0.042618159    22.781273      745.48005     -77.486632      667.99342    
   1117000   300.87496      0.042618159    7.3732748      746.47908     -81.407622      665.07146    
   1118000   296.69814      0.042618159    25.578137      736.11626     -74.751978      661.36428    
   1119000   285.42387      0.042618159    21.547587      708.14448     -69.496787      638.64769    
   1120000   307.26276      0.042618159    13.374649      762.32738     -74.930173      687.39721    
   1121000   317.53107      0.042618159    16.590031      787.80333     -77.22571       710.57762    
   1122000   308.24189      0.042618159    27.505651      764.75661     -74.637007      690.11961    
   1123000   292.29565      0.042618159    30.570402      725.19357     -74.895432      650.29814    
   1124000   300.31413      0.042618159    13.595714      745.08763     -77.101776      667.98586    
   1125000   301.35562      0.042618159    23.963928      747.6716      -72.51165       675.15995    
   1126000   294.11068      0.042618159    21.492253      729.6967      -73.900722      655.79598    
   1127000   299.75025      0.042618159    23.82318       743.68864     -71.436215      672.25243    
   1128000   299.37009      0.042618159    23.322392      742.74545     -78.585248      664.1602     
   1129000   295.47013      0.042618159    17.038713      733.06954     -79.028056      654.04148    
   1130000   312.63157      0.042618159    23.826958      775.64755     -69.339085      706.30846    
   1131000   307.67527      0.042618159    29.347617      763.35083     -78.968457      684.38238    
   1132000   284.9654       0.042618159    17.091905      707.00702     -76.870069      630.13695    
   1133000   289.01895      0.042618159    25.290602      717.06397     -71.151913      645.91206    
   1134000   300.52764      0.042618159    18.711012      745.61736     -79.123524      666.49384    
   1135000   307.11788      0.042618159    20.12398       761.96793     -76.701949      685.26598    
   1136000   310.43899      0.042618159    22.162431      770.2077      -77.780541      692.42716    
   1137000   297.27056      0.042618159    19.976263      737.53645     -74.359029      663.17742    
   1138000   294.47319      0.042618159    23.454557      730.5961      -66.812951      663.78315    
   1139000   299.44158      0.042618159    20.573322      742.92281     -74.007599      668.91521    
   1140000   305.60052      0.042618159    9.9696713      758.20332     -79.998994      678.20432    
   1141000   291.75924      0.042618159    20.795595      723.86271     -73.434149      650.42856    
   1142000   303.34909      0.042618159    22.739195      752.61746     -80.256431      672.36103    
   1143000   313.79504      0.042618159    24.480729      778.53415     -81.881278      696.65287    
   1144000   300.14179      0.042618159    20.344595      744.66005     -80.541298      664.11875    
   1145000   299.92369      0.042618159    16.20897       744.11894     -83.137836      660.9811     
   1146000   303.40309      0.042618159    34.944578      752.75143     -81.4367        671.31473    
   1147000   303.86534      0.042618159    22.323517      753.89829     -79.00193       674.89636    
   1148000   282.7177       0.042618159    11.045829      701.4304      -72.10663       629.32377    
   1149000   302.58852      0.042618159    23.681011      750.73045     -78.058132      672.67232    
   1150000   315.56464      0.042618159    26.769417      782.92457     -78.530223      704.39435    
   1151000   299.9282       0.042618159    14.358393      744.13014     -81.371239      662.7589     
   1152000   295.00804      0.042618159    8.0160733      731.92309     -85.019402      646.90369    
   1153000   294.77692      0.042618159    20.653344      731.34966     -86.12391       645.22575    
   1154000   300.70244      0.042618159    35.804884      746.05103     -71.572977      674.47806    
   1155000   307.7398       0.042618159    5.7077901      763.51093     -74.315535      689.19539    
   1156000   302.45363      0.042618159    9.4525473      750.39578     -66.48601       683.90977    
   1157000   290.06025      0.042618159    28.205567      719.64748     -78.342116      641.30537    
   1158000   290.46469      0.042618159    20.01291       720.65091     -74.15237       646.49854    
   1159000   304.44489      0.042618159    27.691277      755.33617     -73.92356       681.41261    
   1160000   301.79932      0.042618159    26.73233       748.77244     -74.915354      673.85709    
   1161000   296.49476      0.042618159    19.056336      735.61168     -71.249295      664.36238    
   1162000   297.22906      0.042618159    18.876971      737.43349     -77.688751      659.74474    
   1163000   310.85884      0.042618159    26.366475      771.24934     -69.741645      701.5077     
   1164000   301.63427      0.042618159    25.256375      748.36294     -71.266885      677.09605    
   1165000   291.06007      0.042618159    18.026773      722.12806     -78.39585       643.73221    
   1166000   292.18188      0.042618159    24.061132      724.91131     -73.085277      651.82603    
   1167000   302.07875      0.042618159    21.594637      749.4657      -73.198937      676.26677    
   1168000   303.7087       0.042618159    20.494353      753.50966     -77.704386      675.80527    
   1169000   299.82146      0.042618159    24.322383      743.8653      -80.325804      663.5395     
   1170000   292.035        0.042618159    21.492373      724.54687     -87.938888      636.60798    
   1171000   293.0019       0.042618159    22.666239      726.94579     -83.812618      643.13317    
   1172000   311.91862      0.042618159    26.930953      773.8787      -76.793975      697.08472    
   1173000   306.14256      0.042618159    22.219925      759.54814     -71.414493      688.13365    
   1174000   298.29162      0.042618159    17.718312      740.06974     -72.430222      667.63952    
   1175000   292.30692      0.042618159    30.743008      725.22154     -75.922549      649.29899    
   1176000   305.94905      0.042618159    23.42051       759.06803     -76.583266      682.48477    
   1177000   290.37135      0.042618159    6.7628075      720.41932     -67.156769      653.26255    
   1178000   283.01118      0.042618159    23.736821      702.15855     -75.169399      626.98915    
   1179000   300.56348      0.042618159    29.801866      745.70629     -76.1753        669.53099    
   1180000   307.61328      0.042618159    21.18382       763.19704     -75.802715      687.39432    
   1181000   287.61513      0.042618159    21.189036      713.58106     -70.523153      643.05791    
   1182000   299.77948      0.042618159    22.206115      743.76116     -68.760435      675.00073    
   1183000   308.35142      0.042618159    20.298673      765.02836     -65.655013      699.37335    
   1184000   299.17885      0.042618159    26.38765       742.27097     -75.037129      667.23384    
   1185000   295.33418      0.042618159    19.384221      732.73225     -75.97409       656.75816    
   1186000   296.15899      0.042618159    19.495716      734.77862     -71.292646      663.48597    
   1187000   320.84554      0.042618159    25.684285      796.02663     -70.608278      725.41835    
   1188000   303.64776      0.042618159    27.136437      753.35845     -69.302374      684.05608    
   1189000   288.51425      0.042618159    19.063515      715.81181     -74.180139      641.63167    
   1190000   294.47949      0.042618159    9.3436622      730.61174     -72.460049      658.15169    
   1191000   308.93339      0.042618159    25.281707      766.47225     -73.98787       692.48438    
   1192000   301.48968      0.042618159    26.189867      748.00421     -68.780268      679.22395    
   1193000   294.33319      0.042618159    13.886148      730.24876     -71.165576      659.08319    
   1194000   298.20583      0.042618159    23.462253      739.85689     -73.423473      666.43342    
   1195000   301.78382      0.042618159    23.402766      748.73399     -72.731795      676.00219    
   1196000   298.08952      0.042618159    16.372531      739.56832     -76.42027       663.14805    
   1197000   290.16756      0.042618159    19.309183      719.91371     -80.254022      639.65969    
   1198000   304.74889      0.042618159    22.762805      756.09041     -82.245974      673.84443    
   1199000   300.02537      0.042618159    22.130939      744.37122     -80.085027      664.2862     
   1200000   301.30868      0.042618159    22.600969      747.55514     -81.506834      666.04831    
   1201000   307.71889      0.042618159    23.93787       763.45904     -82.032937      681.42611    
   1202000   299.61978      0.042618159    20.9891        743.36494     -77.576716      665.78822    
   1203000   283.7826       0.042618159    21.507496      704.07246     -71.023587      633.04887    
   1204000   300.88272      0.042618159    11.984392      746.49831     -74.989197      671.50911    
   1205000   325.77174      0.042618159    30.938113      808.24867     -74.486795      733.76188    
   1206000   295.14775      0.042618159    19.488168      732.26971     -75.068883      657.20082    
   1207000   280.13028      0.042618159    22.826761      695.01096     -74.880836      620.13012    
   1208000   296.55357      0.042618159    22.874093      735.75759     -77.286781      658.47081    
   1209000   307.67444      0.042618159    20.218886      763.34876     -71.421677      691.92709    
   1210000   305.18989      0.042618159    22.4151        757.18453     -75.615441      681.56909    
   1211000   284.93533      0.042618159    19.120677      706.93242     -73.115398      633.81702    
   1212000   301.03672      0.042618159    19.336993      746.8804      -66.969699      679.9107     
   1213000   305.28891      0.042618159    17.092539      757.4302      -73.584437      683.84576    
   1214000   305.00742      0.042618159    28.574535      756.73181     -69.927481      686.80433    
   1215000   287.93844      0.042618159    21.139572      714.38321     -74.059589      640.32363    
   1216000   296.10302      0.042618159    26.279673      734.63976     -73.113566      661.5262     
   1217000   297.50198      0.042618159    22.359618      738.11062     -73.425877      664.68474    
   1218000   302.99252      0.042618159    18.089723      751.7328      -71.051323      680.68148    
   1219000   295.53597      0.042618159    23.866018      733.23288     -63.920336      669.31254    
   1220000   301.60328      0.042618159    32.238627      748.28606     -71.499071      676.78699    
   1221000   287.88259      0.042618159   -1.6916549      714.24464     -70.714473      643.53017    
   1222000   297.66637      0.042618159    23.345188      738.51848     -68.10562       670.41286    
   1223000   292.02839      0.042618159    25.190608      724.53048     -78.694801      645.83568    
   1224000   304.73671      0.042618159    19.406829      756.06018     -79.445227      676.61495    
   1225000   300.5515       0.042618159    18.000082      745.67656     -83.677993      661.99857    
   1226000   295.31232      0.042618159    26.789777      732.678       -75.516716      657.16128    
   1227000   301.72565      0.042618159    19.091296      748.58966     -70.498392      678.09127    
   1228000   308.87864      0.042618159    5.0073604      766.33641     -63.26056       703.07585    
   1229000   303.18901      0.042618159    26.038572      752.22029     -61.631125      690.58917    
   1230000   294.0319       0.042618159    24.422264      729.50126     -64.309423      665.19184    
   1231000   296.82856      0.042618159    18.284782      736.43985     -61.914033      674.52581    
   1232000   320.90182      0.042618159    23.971708      796.16626     -61.793933      734.37233    
   1233000   285.49025      0.042618159    20.887873      708.30918     -65.112314      643.19686    
   1234000   289.99588      0.042618159    25.391718      719.48778     -67.612983      651.8748     
   1235000   304.14732      0.042618159    30.264613      754.59789     -73.640775      680.95711    
   1236000   305.53873      0.042618159   -1.2913806      758.05002     -65.610107      692.43991    
   1237000   294.16094      0.042618159    22.045934      729.82139     -64.465067      665.35632    
   1238000   314.89158      0.042618159    49.299091      781.2547      -62.845122      718.40958    
   1239000   313.83498      0.042618159    15.262992      778.63323     -62.180666      716.45256    
   1240000   300.19758      0.042618159    10.505295      744.79847     -66.41132       678.38715    
   1241000   296.37459      0.042618159    48.511522      735.31353     -68.644542      666.66899    
   1242000   298.07282      0.042618159    18.061641      739.52688     -71.057794      668.46909    
   1243000   299.50837      0.042618159    12.554771      743.08851     -71.414387      671.67412    
   1244000   294.65619      0.042618159    51.320629      731.05013     -73.936441      657.11369    
   1245000   304.6329       0.042618159    29.561593      755.80262     -70.814575      684.98805    
   1246000   290.88323      0.042618159   -20.649536      721.68931     -67.937871      653.75144    
   1247000   300.95853      0.042618159    24.782852      746.68641     -69.039329      677.64708    
   1248000   305.85397      0.042618159    21.267875      758.83213     -72.009918      686.82222    
   1249000   308.2646       0.042618159    8.0622237      764.81298     -76.357374      688.45561    
   1250000   293.11395      0.042618159    1.4001076      727.22378     -79.593411      647.63037    
   1251000   306.17327      0.042618159    30.747676      759.62433     -77.136655      682.48768    
   1252000   311.43036      0.042618159    45.76187       772.6673      -75.468903      697.19839    
   1253000   294.89306      0.042618159    4.0846844      731.63781     -69.441609      662.1962     
   1254000   297.92512      0.042618159    2.1745025      739.16043     -62.604683      676.55574    
   1255000   304.16939      0.042618159    39.057031      754.65263     -64.628852      690.02378    
   1256000   299.28874      0.042618159    36.216025      742.54361     -61.803255      680.74035    
   1257000   319.52008      0.042618159    31.609813      792.73813     -66.822361      725.91577    
   1258000   299.94316      0.042618159    15.436649      744.16724     -65.643288      678.52395    
   1259000   299.32122      0.042618159    5.6557438      742.62419     -67.304489      675.3197     
   1260000   311.97861      0.042618159    25.550022      774.02753     -69.301553      704.72598    
   1261000   310.36556      0.042618159    8.5546356      770.02551     -70.106879      699.91864    
   1262000   286.03236      0.042618159    21.829297      709.65418     -67.123098      642.53108    
   1263000   293.73824      0.042618159    39.677629      728.77267     -67.980981      660.79169    
   1264000   315.72504      0.042618159    17.254586      783.32253     -65.929492      717.39304    
   1265000   304.7377       0.042618159    22.276949      756.06263     -70.70343       685.3592     
   1266000   296.03826      0.042618159    10.258722      734.47907     -68.904959      665.57411    
   1267000   303.27234      0.042618159    19.332648      752.42702     -75.587477      676.83955    
   1268000   301.47391      0.042618159    33.625424      747.96508     -72.784111      675.18097    
   1269000   299.76883      0.042618159    14.646054      743.73474     -77.782353      665.95239    
   1270000   293.8716       0.042618159    10.701741      729.10355     -76.335505      652.76805    
   1271000   292.24472      0.042618159    19.85729       725.0672      -77.643532      647.42367    
   1272000   306.06562      0.042618159    25.884968      759.35723     -73.600866      685.75637    
   1273000   302.08326      0.042618159    21.721395      749.47688     -74.011994      675.46489    
   1274000   296.37706      0.042618159    18.232613      735.31966     -72.334824      662.98483    
   1275000   292.66822      0.042618159    25.548443      726.11793     -69.318845      656.79909    
   1276000   312.86023      0.042618159    26.505855      776.21486     -67.607797      708.60706    
   1277000   300.90836      0.042618159    19.713155      746.56195     -64.649781      681.91216    
   1278000   286.02475      0.042618159    10.085092      709.63529     -64.481991      645.1533     
   1279000   292.81877      0.042618159    20.551199      726.49144     -58.359019      668.13242    
   1280000   314.04545      0.042618159    20.373501      779.15542     -65.275852      713.87957    
   1281000   299.03505      0.042618159    22.69375       741.91421     -60.115683      681.79852    
   1282000   300.12365      0.042618159    23.759876      744.61505     -69.871178      674.74387    
   1283000   300.35847      0.042618159    20.407493      745.19763     -78.659195      666.53844    
   1284000   306.43592      0.042618159    13.838027      760.27597     -66.877979      693.39799    
   1285000   305.36575      0.042618159    20.858474      757.62085     -62.844778      694.77607    
   1286000   294.07678      0.042618159    31.669206      729.6126      -62.925103      666.68749    
   1287000   294.44483      0.042618159    23.632598      730.52574     -65.06092       665.46482    
   1288000   289.56607      0.042618159    18.784394      718.42139     -65.337296      653.0841     
   1289000   303.24005      0.042618159    15.564996      752.34693     -70.054753      682.29218    
   1290000   308.72423      0.042618159    34.464974      765.95331     -71.479128      694.47418    
   1291000   299.74639      0.042618159    21.829075      743.67906     -72.035576      671.64349    
   1292000   301.08417      0.042618159    18.011936      746.99813     -72.370532      674.6276     
   1293000   297.08788      0.042618159    16.109306      737.08321     -70.227431      666.85578    
   1294000   293.49224      0.042618159    28.034705      728.16233     -74.907361      653.25497    
   1295000   295.55903      0.042618159    18.865462      733.2901      -72.371271      660.91882    
   1296000   306.01783      0.042618159    8.9595863      759.23868     -81.148505      678.09017    
   1297000   299.30442      0.042618159    20.594925      742.58252     -77.957029      664.6255     
   1298000   289.68073      0.042618159    33.450627      718.70587     -80.383075      638.32279    
   1299000   299.63974      0.042618159    12.711943      743.41445     -83.05177       660.36268    
   1300000   306.07084      0.042618159    17.750372      759.37019     -79.402406      679.96779    
   1301000   298.89985      0.042618159    31.413911      741.57877     -72.863564      668.7152     
   1302000   309.28726      0.042618159    30.320022      767.35022     -75.16007       692.19015    
   1303000   297.86941      0.042618159    20.483852      739.02222     -78.544885      660.47734    
   1304000   300.38924      0.042618159    0.22663856     745.27399     -79.245969      666.02802    
   1305000   299.97819      0.042618159    29.01331       744.25417     -74.210829      670.04334    
   1306000   295.397        0.042618159    32.547726      732.8881      -80.165678      652.72242    
   1307000   287.99778      0.042618159   -23.127058      714.53044     -76.226453      638.30399    
   1308000   295.89232      0.042618159    19.511733      734.11701     -70.937441      663.17957    
   1309000   308.25913      0.042618159    37.798506      764.79939     -77.318754      687.48063    
   1310000   300.09147      0.042618159    26.440116      744.53522     -74.819044      669.71617    
   1311000   298.1093       0.042618159    7.2961428      739.6174      -78.163975      661.45342    
   1312000   308.82752      0.042618159    24.287337      766.20959     -81.521289      684.6883     
   1313000   293.18175      0.042618159    28.400088      727.39199     -82.444678      644.94731    
   1314000   304.55272      0.042618159    14.183683      755.60369     -78.61077       676.99292    
   1315000   304.88221      0.042618159    15.046333      756.42116     -73.335332      683.08583    
   1316000   289.232        0.042618159    26.645275      717.59256     -74.711065      642.88149    
   1317000   305.94513      0.042618159    25.074088      759.05829     -75.346127      683.71217    
   1318000   310.30877      0.042618159    11.654158      769.88462     -68.783347      701.10127    
   1319000   301.36273      0.042618159    26.488143      747.68924     -62.207908      685.48133    
   1320000   299.64185      0.042618159    22.274516      743.41968     -65.82718       677.5925     
   1321000   305.40244      0.042618159    21.983902      757.71188     -66.131981      691.57989    
   1322000   279.0162       0.042618159    18.767881      692.24689     -65.110063      627.13682    
   1323000   295.89195      0.042618159    11.712274      734.11608     -74.971053      659.14503    
   1324000   313.22758      0.042618159    19.977181      777.12625     -72.186417      704.93984    
   1325000   292.64223      0.042618159    25.970965      726.05345     -70.217037      655.83641    
   1326000   291.40695      0.042618159    16.391714      722.98867     -63.737173      659.2515     
   1327000   309.64371      0.042618159    19.512542      768.23458     -69.167469      699.06711    
   1328000   307.05907      0.042618159    24.82933       761.82201     -64.157626      697.66438    
   1329000   289.79579      0.042618159    20.272704      718.99134     -67.764308      651.22703    
   1330000   306.46541      0.042618159    30.807582      760.34912     -60.833264      699.51586    
   1331000   301.80432      0.042618159    11.679203      748.78484     -66.695396      682.08944    
   1332000   298.28747      0.042618159    23.658756      740.05943     -63.574786      676.48465    
   1333000   293.44369      0.042618159    24.106204      728.04187     -63.156578      664.8853     
   1334000   292.09864      0.042618159    14.875043      724.70477     -67.656665      657.04811    
   1335000   305.41673      0.042618159    21.188961      757.74732     -65.346574      692.40074    
   1336000   292.53079      0.042618159    20.625702      725.77696     -72.66793       653.10903    
   1337000   292.30327      0.042618159    26.729689      725.21247     -67.958625      657.25384    
   1338000   304.12123      0.042618159    19.009166      754.53316     -69.738727      684.79444    
   1339000   303.59397      0.042618159    21.0605        753.22502     -72.522297      680.70272    
   1340000   306.02169      0.042618159    27.605873      759.24825     -73.126242      686.12201    
   1341000   290.80968      0.042618159    20.648798      721.50683     -81.532068      639.97476    
   1342000   292.64552      0.042618159    21.013902      726.06161     -77.434041      648.62757    
   1343000   298.10934      0.042618159    23.888278      739.6175      -80.41388       659.20362    
   1344000   283.21416      0.042618159    18.844348      702.66214     -74.579276      628.08287    
   1345000   308.99067      0.042618159    22.132941      766.61437     -68.585271      698.02909    
   1346000   311.84229      0.042618159    19.528172      773.68932     -74.04453       699.64479    
   1347000   296.729        0.042618159    17.125477      736.19282     -85.141015      651.05181    
   1348000   293.16268      0.042618159    27.61087       727.34469     -79.589036      647.75565    
   1349000   303.37703      0.042618159    18.76299       752.68677     -80.262603      672.42417    
   1350000   297.70463      0.042618159    13.329894      738.61339     -82.47581       656.13758    
   1351000   293.39864      0.042618159    21.78615       727.93011     -78.973291      648.95682    
   1352000   300.12435      0.042618159    29.170278      744.61679     -86.869831      657.74696    
   1353000   313.66071      0.042618159    12.680937      778.20086     -77.639773      700.56109    
   1354000   307.85834      0.042618159    19.469912      763.80503     -82.230741      681.57429    
   1355000   295.62834      0.042618159    23.673867      733.46206     -75.989928      657.47214    
   1356000   305.63964      0.042618159    36.753265      758.30038     -71.232723      687.06766    
   1357000   303.98587      0.042618159    3.0876998      754.19731     -64.836982      689.36033    
   1358000   301.20775      0.042618159    26.076123      747.30473     -69.965309      677.33942    
   1359000   305.01112      0.042618159    22.917855      756.741       -67.572744      689.16826    
   1360000   302.18137      0.042618159    15.622785      749.72032     -76.20339       673.51693    
   1361000   287.23467      0.042618159    17.936636      712.63714     -81.609076      631.02806    
   1362000   311.78283      0.042618159    20.770148      773.5418      -83.731066      689.81073    
   1363000   302.99004      0.042618159    35.620812      751.72664     -76.319293      675.40735    
   1364000   303.17696      0.042618159    27.357679      752.19038     -74.42044       677.76994    
   1365000   299.61626      0.042618159    13.725169      743.35621     -74.383374      668.97284    
   1366000   295.23178      0.042618159    23.215952      732.47818     -75.974251      656.50393    
   1367000   298.68426      0.042618159    30.810957      741.04388     -68.58064       672.46324    
   1368000   291.52066      0.042618159    23.15765       723.27079     -72.655627      650.61516    
   1369000   301.24016      0.042618159    12.587151      747.38514     -76.235422      671.14972    
   1370000   294.89462      0.042618159    27.082193      731.64169     -77.187755      654.45393    
   1371000   314.71709      0.042618159    38.389063      780.82178     -82.478936      698.34284    
   1372000   304.72484      0.042618159    6.2896813      756.03072     -74.505235      681.52548    
   1373000   290.40592      0.042618159    9.1970497      720.50509     -74.834562      645.67053    
   1374000   299.92685      0.042618159    47.96293       744.12679     -76.870632      667.25616    
   1375000   310.6529       0.042618159    15.065356      770.73841     -76.843109      693.8953     
   1376000   289.89714      0.042618159    16.178304      719.2428      -79.850804      639.39199    
   1377000   290.85779      0.042618159    17.628788      721.6262      -75.372605      646.2536     
   1378000   308.4744       0.042618159    26.524635      765.33349     -79.647063      685.68642    
   1379000   307.40616      0.042618159    5.1432253      762.68315     -75.446059      687.23709    
   1380000   297.99132      0.042618159    17.350797      739.32469     -78.007688      661.317      
   1381000   298.4533       0.042618159    43.924414      740.47086     -78.349208      662.12165    
   1382000   305.98677      0.042618159    34.617886      759.1616      -70.716023      688.44558    
   1383000   298.46934      0.042618159    20.271761      740.51066     -74.537209      665.97345    
   1384000   294.38068      0.042618159    20.471941      730.36657     -65.260619      665.10595    
   1385000   289.68199      0.042618159    18.514565      718.70901     -72.128698      646.58032    
   1386000   297.18908      0.042618159    26.634931      737.33429     -70.685648      666.64864    
   1387000   310.62906      0.042618159    17.758137      770.67927     -76.681979      693.99729    
   1388000   301.58203      0.042618159    22.644757      748.23333     -75.701042      672.53229    
   1389000   303.9988       0.042618159    21.849047      754.22941     -76.118542      678.11087    
   1390000   296.16654      0.042618159    22.886893      734.79734     -67.493999      667.30334    
   1391000   308.01971      0.042618159    25.206727      764.2054      -66.452276      697.75313    
   1392000   295.9147       0.042618159    18.404991      734.17253     -72.108669      662.06386    
   1393000   294.99229      0.042618159    18.123982      731.88401     -72.655646      659.22837    
   1394000   302.27544      0.042618159    24.404955      749.95371     -67.771478      682.18223    
   1395000   308.6775       0.042618159    21.587154      765.83737     -73.980038      691.85734    
   1396000   298.95014      0.042618159    18.239168      741.70354     -73.87418       667.82936    
   1397000   302.09653      0.042618159    22.420034      749.50982     -76.63429       672.87553    
   1398000   305.10116      0.042618159    21.80704       756.9644      -75.364359      681.60004    
   1399000   315.39493      0.042618159    24.500381      782.50351     -74.421742      708.08177    
   1400000   292.76543      0.042618159    25.339135      726.35911     -69.908435      656.45067    
   1401000   291.13757      0.042618159    20.129556      722.32034     -71.409458      650.91088    
   1402000   296.60495      0.042618159    25.010444      735.88506     -75.415623      660.46944    
   1403000   302.5601       0.042618159    21.693451      750.65995     -78.789028      671.87092    
   1404000   295.47085      0.042618159    10.941163      733.07132     -70.68644       662.38488    
   1405000   307.62259      0.042618159    15.562142      763.22014     -69.399181      693.82096    
   1406000   299.76808      0.042618159    24.584169      743.73287     -73.404285      670.32859    
   1407000   287.46942      0.042618159    16.552392      713.21955     -74.308509      638.91104    
   1408000   311.07982      0.042618159    21.967908      771.79762     -72.544249      699.25337    
   1409000   301.45196      0.042618159    25.56851       747.91063     -67.887877      680.02275    
   1410000   294.40345      0.042618159    22.958303      730.42308     -63.634119      666.78896    
   1411000   323.66653      0.042618159    21.247707      803.02559     -70.027588      732.99801    
   1412000   303.3106       0.042618159    23.19154       752.52197     -77.587052      674.93491    
   1413000   283.7918       0.042618159    21.55347       704.09528     -69.523978      634.5713     
   1414000   310.34449      0.042618159    0.64282485     769.97322     -68.508172      701.46505    
   1415000   306.55932      0.042618159    28.849154      760.58212     -71.609899      688.97222    
   1416000   294.46349      0.042618159    21.663584      730.57204     -77.719086      652.85295    
   1417000   291.39225      0.042618159    3.1631271      722.95219     -71.277767      651.67443    
   1418000   300.79554      0.042618159    7.172614       746.28202     -84.130188      662.15183    
   1419000   311.51078      0.042618159    20.106985      772.86684     -80.908878      691.95797    
   1420000   290.01324      0.042618159    26.035155      719.53085     -81.107836      638.42302    
   1421000   296.45941      0.042618159    20.986972      735.52396     -75.930702      659.59326    
   1422000   318.87881      0.042618159    21.446956      791.14712     -83.490906      707.65621    
   1423000   298.97684      0.042618159    29.662333      741.76978     -76.233307      665.53647    
   1424000   288.76391      0.042618159    22.067862      716.43123     -71.012021      645.41921    
   1425000   311.17318      0.042618159    19.973553      772.02923     -71.301825      700.7274     
   1426000   311.41249      0.042618159    20.278037      772.62297     -69.830841      702.79213    
   1427000   281.78986      0.042618159    19.635025      699.12841     -70.631961      628.49645    
   1428000   306.60695      0.042618159    22.328448      760.7003      -72.321607      688.37869    
   1429000   313.18945      0.042618159    16.255288      777.03165     -65.527559      711.50409    
   1430000   295.05871      0.042618159    16.528994      732.04879     -60.092263      671.95652    
   1431000   294.90982      0.042618159    26.605827      731.67939     -60.21829       671.4611     
   1432000   315.16506      0.042618159    19.212016      781.9332      -64.008978      717.92422    
   1433000   299.11971      0.042618159    21.326669      742.12426     -67.312581      674.81167    
   1434000   295.86147      0.042618159    25.153856      734.04045     -69.520826      664.51963    
   1435000   324.34146      0.042618159    30.607853      804.7001      -70.371321      734.32878    
   1436000   309.22352      0.042618159    17.65054       767.19209     -68.071645      699.12044    
   1437000   290.35573      0.042618159    20.060586      720.38057     -66.619199      653.76137    
   1438000   295.20152      0.042618159    20.306901      732.40311     -73.209458      659.19365    
   1439000   316.93197      0.042618159    29.200114      786.31696     -73.151551      713.16541    
   1440000   301.69243      0.042618159    19.291597      748.50723     -75.601919      672.90531    
   1441000   291.31145      0.042618159    12.417078      722.75174     -68.230466      654.52127    
   1442000   295.35568      0.042618159    24.131458      732.78559     -66.901272      665.88432    
   1443000   303.43882      0.042618159    21.56902       752.84007     -64.173779      688.66629    
   1444000   295.68398      0.042618159    13.523863      733.60011     -70.606157      662.99396    
   1445000   293.59245      0.042618159    18.192699      728.41097     -72.533891      655.87708    
   1446000   302.87589      0.042618159    21.696099      751.44342     -72.08366       679.35976    
   1447000   301.54983      0.042618159    26.214097      748.15344     -71.357044      676.7964     
   1448000   305.16447      0.042618159    20.952576      757.12145     -69.722546      687.39891    
   1449000   309.43998      0.042618159    13.96586       767.72911     -79.741459      687.98765    
   1450000   291.00052      0.042618159    23.322153      721.98031     -73.314638      648.66567    
   1451000   296.35001      0.042618159    32.996203      735.25255     -75.905575      659.34698    
   1452000   311.07072      0.042618159    26.386555      771.77502     -80.14276       691.63226    
   1453000   296.45861      0.042618159    16.934628      735.52199     -75.297644      660.22435    
   1454000   286.16042      0.042618159    14.197468      709.9719      -67.012372      642.95953    
   1455000   310.20012      0.042618159    27.716782      769.61505     -63.832154      705.78289    
   1456000   310.89373      0.042618159    18.452157      771.33593     -72.031581      699.30434    
   1457000   303.79954      0.042618159    15.014355      753.73504     -69.354195      684.38084    
   1458000   287.29953      0.042618159    18.928632      712.79806     -70.45041       642.34765    
   1459000   300.72486      0.042618159    21.275777      746.10666     -69.82274       676.28392    
   1460000   311.90514      0.042618159    22.720412      773.84524     -72.019248      701.82599    
   1461000   299.97726      0.042618159    24.922138      744.25184     -73.865974      670.38587    
   1462000   297.83219      0.042618159    20.8603        738.92986     -71.487683      667.44218    
   1463000   295.86841      0.042618159    21.640618      734.05768     -73.763991      660.29369    
   1464000   314.48628      0.042618159    21.741198      780.24913     -68.584518      711.66462    
   1465000   303.21003      0.042618159    22.854784      752.27243     -71.847562      680.42487    
   1466000   287.78124      0.042618159    18.898818      713.99319     -67.652847      646.34034    
   1467000   307.2764       0.042618159    17.198711      762.36121     -74.297222      688.06399    
   1468000   300.74666      0.042618159    20.187879      746.16074     -74.994128      671.16661    
   1469000   310.59338      0.042618159    24.93115       770.59073     -76.5833        694.00743    
   1470000   287.12632      0.042618159    17.193175      712.36831     -81.343133      631.02517    
   1471000   304.15343      0.042618159    25.016729      754.61304     -82.9266        671.68644    
   1472000   297.88338      0.042618159    24.277085      739.05689     -90.064991      648.9919     
   1473000   298.40077      0.042618159    20.475804      740.34055     -89.633818      650.70673    
   1474000   296.00309      0.042618159    16.018417      734.39182     -94.145283      640.24654    
   1475000   301.60554      0.042618159    22.061009      748.29166     -90.657527      657.63414    
   1476000   298.24646      0.042618159    25.963876      739.95768     -83.090548      656.86714    
   1477000   307.88773      0.042618159    26.537504      763.87793     -82.695536      681.1824     
   1478000   309.55817      0.042618159    14.504387      768.02234     -79.607556      688.41479    
   1479000   289.90395      0.042618159    17.681171      719.25969     -76.734559      642.52513    
   1480000   299.45185      0.042618159    23.135142      742.94831     -80.290247      662.65806    
   1481000   312.38371      0.042618159    24.05568       775.03259     -74.465383      700.56721    
   1482000   298.55925      0.042618159    20.895094      740.73372     -80.073178      660.66054    
   1483000   288.1859       0.042618159    22.292328      714.99715     -75.429625      639.56753    
   1484000   298.58803      0.042618159    24.731859      740.80512     -70.609747      670.19538    
   1485000   308.82254      0.042618159    21.074104      766.19724     -70.206546      695.9907     
   1486000   304.74064      0.042618159    23.544432      756.06993     -67.606049      688.46388    
   1487000   289.13188      0.042618159    22.27088       717.34416     -68.761182      648.58297    
   1488000   292.50458      0.042618159    27.06466       725.71192     -61.599413      664.11251    
   1489000   307.63034      0.042618159    24.04673       763.23935     -71.589288      691.65006    
   1490000   295.62536      0.042618159    17.270507      733.45467     -73.146235      660.30843    
   1491000   291.52449      0.042618159    20.662867      723.28029     -77.889685      645.39061    
   1492000   301.63368      0.042618159    19.828058      748.36148     -78.933473      669.42801    
   1493000   306.49892      0.042618159    28.12569       760.43226     -80.113595      680.31867    
   1494000   297.36622      0.042618159    22.930764      737.7738      -76.894518      660.87928    
   1495000   291.44146      0.042618159    18.71244       723.07429     -74.822         648.25229    
   1496000   303.35417      0.042618159    22.043263      752.63005     -74.747973      677.88208    
   1497000   310.52034      0.042618159    33.331054      770.40953     -77.018921      693.39061    
   1498000   313.38546      0.042618159    25.105783      777.51795     -77.228207      700.28975    
   1499000   277.02617      0.042618159    19.083608      687.30956     -68.845229      618.46433    
   1500000   303.90214      0.042618159    20.308355      753.98958     -74.321623      679.66796    
   1501000   315.14772      0.042618159    27.848046      781.89018     -72.040331      709.84985    
   1502000   303.36304      0.042618159    36.771922      752.65207     -66.968046      685.68403    
   1503000   291.50367      0.042618159    19.187029      723.22865     -67.82983       655.39882    
   1504000   306.52226      0.042618159    18.175117      760.49019     -71.53999       688.9502     
   1505000   305.53312      0.042618159    20.186727      758.0361      -68.858133      689.17797    
   1506000   291.6782       0.042618159    28.759551      723.66166     -72.531504      651.13015    
   1507000   288.28633      0.042618159    13.804965      715.24633     -75.55793       639.6884     
   1508000   308.39339      0.042618159    18.612701      765.1325      -68.481338      696.65116    
   1509000   312.45787      0.042618159    21.747357      775.21659     -71.270862      703.94573    
   1510000   292.87842      0.042618159    19.270851      726.63944     -70.532621      656.10682    
   1511000   292.2366       0.042618159    22.215663      725.04706     -69.409747      655.63732    
   1512000   295.98476      0.042618159    13.023635      734.34634     -69.997912      664.34843    
   1513000   305.07724      0.042618159    24.265787      756.90503     -73.690985      683.21405    
   1514000   304.25526      0.042618159    34.335788      754.86569     -68.528557      686.33714    
   1515000   299.07035      0.042618159    21.328165      742.00179     -75.526816      666.47498    
   1516000   304.8972       0.042618159    5.8052677      756.45835     -71.617352      684.841      
   1517000   311.68117      0.042618159    20.794182      773.28956     -73.890833      699.39873    
   1518000   298.11698      0.042618159    27.27969       739.63644     -75.64386       663.99258    
   1519000   285.42489      0.042618159    44.548628      708.14701     -70.030806      638.1162     
   1520000   288.39542      0.042618159    18.007645      715.51698     -74.07401       641.44296    
   1521000   311.12693      0.042618159    28.589276      771.91449     -70.826292      701.08819    
   1522000   284.5082       0.042618159    24.145175      705.87268     -72.84008       633.0326     
   1523000   287.88519      0.042618159    21.110505      714.2511      -82.386928      631.86418    
   1524000   297.42699      0.042618159    19.925986      737.92457     -79.63282       658.29175    
   1525000   312.15625      0.042618159    13.895695      774.46826     -70.244872      704.22339    
   1526000   301.68963      0.042618159    23.443669      748.50029     -67.247774      681.25251    
   1527000   295.99546      0.042618159    29.909068      734.3729      -68.371166      666.00173    
   1528000   303.6118       0.042618159    24.46697       753.26924     -72.274679      680.99456    
   1529000   287.70678      0.042618159    20.025807      713.80846     -72.86264       640.94582    
   1530000   306.46036      0.042618159    19.292814      760.3366      -75.347554      684.98905    
   1531000   305.175        0.042618159    22.292754      757.14759     -69.901184      687.2464     
   1532000   295.65555      0.042618159    19.320182      733.52957     -74.367933      659.16163    
   1533000   295.52714      0.042618159    22.504523      733.21098     -81.035346      652.17563    
   1534000   308.38411      0.042618159    22.867972      765.10949     -73.409968      691.69952    
   1535000   294.01023      0.042618159    22.298951      729.4475      -78.156475      651.29102    
   1536000   291.52251      0.042618159    19.291441      723.27538     -72.95274       650.32264    
   1537000   297.48253      0.042618159    18.063791      738.06235     -82.706132      655.35622    
   1538000   305.7766       0.042618159    24.46511       758.64017     -77.584097      681.05608    
   1539000   306.78079      0.042618159    25.99059       761.13159     -76.436007      684.69559    
   1540000   297.305        0.042618159    16.55608       737.6219      -74.863828      662.75807    
   1541000   301.31742      0.042618159    21.76798       747.57681     -67.032287      680.54453    
   1542000   288.61134      0.042618159    24.398355      716.05269     -62.117402      653.93529    
   1543000   284.62379      0.042618159    13.028166      706.15946     -62.740494      643.41896    
   1544000   308.38192      0.042618159    20.32075       765.10405     -58.910153      706.1939     
   1545000   295.09426      0.042618159    31.95389       732.137       -65.082605      667.05439    
   1546000   283.68956      0.042618159    15.485218      703.84162     -62.631247      641.21037    
   1547000   290.1309       0.042618159    19.455556      719.82277     -67.199998      652.62277    
   1548000   302.83874      0.042618159    18.455747      751.35127     -66.839206      684.51207    
   1549000   301.57861      0.042618159    29.313704      748.22484     -66.212644      682.01219    
   1550000   296.03547      0.042618159    33.544343      734.47217     -67.645401      666.82677    
   1551000   282.16023      0.042618159    22.085682      700.04732     -67.803579      632.24374    
   1552000   308.08539      0.042618159    22.059276      764.36835     -62.059924      702.30842    
   1553000   304.16203      0.042618159    29.273766      754.63437     -62.699127      691.93524    
   1554000   287.61607      0.042618159    20.025888      713.5834      -65.907489      647.67591    
   1555000   302.86779      0.042618159    17.555203      751.42335     -63.806138      687.61721    
   1556000   306.90063      0.042618159    27.6714        761.42892     -62.108714      699.32021    
   1557000   289.20177      0.042618159    21.088999      717.51757     -67.717846      649.79972    
   1558000   318.03166      0.042618159    17.467457      789.04531     -59.826919      729.2184     
   1559000   305.60181      0.042618159    23.099729      758.20653     -65.12276       693.08377    
   1560000   299.57649      0.042618159    21.707003      743.25754     -64.200516      679.05702    
   1561000   293.98079      0.042618159    22.457829      729.37445     -66.088804      663.28565    
   1562000   304.79151      0.042618159    23.652387      756.19614     -60.198573      695.99757    
   1563000   315.04204      0.042618159    20.892448      781.62798     -64.758698      716.86928    
   1564000   295.84817      0.042618159    16.657651      734.00746     -67.925905      666.08156    
   1565000   297.4651       0.042618159    32.540517      738.01912     -70.510992      667.50813    
   1566000   304.99019      0.042618159    21.141497      756.68907     -70.229034      686.46003    
   1567000   298.84989      0.042618159    17.508729      741.45483     -68.34994       673.10489    
   1568000   288.54132      0.042618159    21.12478       715.87896     -63.451665      652.4273     
   1569000   305.5547       0.042618159    32.276617      758.08962     -62.138913      695.95071    
   1570000   305.15591      0.042618159    12.735817      757.10021     -59.856319      697.24389    
   1571000   288.63972      0.042618159    25.230953      716.12311     -65.688414      650.43469    
   1572000   295.8116       0.042618159    22.164939      733.91672     -62.961501      670.95522    
   1573000   301.75495      0.042618159    19.315644      748.66234     -65.097667      683.56467    
   1574000   308.26303      0.042618159    17.010522      764.80908     -66.27944       698.52964    
   1575000   284.06815      0.042618159    10.607658      704.7809      -65.861069      638.91983    
   1576000   298.05993      0.042618159    21.848182      739.49489     -68.942819      670.55208    
   1577000   310.2444       0.042618159    26.938994      769.72491     -66.027869      703.69704    
   1578000   310.51422      0.042618159    25.625128      770.39435     -66.940443      703.45391    
   1579000   305.20394      0.042618159    24.120281      757.2194      -66.814779      690.40462    
   1580000   288.57714      0.042618159    17.601434      715.96783     -71.736126      644.2317     
   1581000   297.58691      0.042618159    29.960805      738.32132     -68.695961      669.62536    
   1582000   294.10069      0.042618159    38.563058      729.67192     -69.165798      660.50612    
   1583000   303.97341      0.042618159    22.503739      754.1664      -62.082453      692.08395    
   1584000   296.60328      0.042618159    13.508838      735.88091     -64.961951      670.91896    
   1585000   297.66889      0.042618159    13.378212      738.52472     -61.930796      676.59392    
   1586000   295.9383       0.042618159    25.090933      734.23107     -63.848924      670.38214    
   1587000   300.92092      0.042618159    25.329744      746.5931      -71.23769       675.35541    
   1588000   306.11267      0.042618159    18.978399      759.47398     -68.963459      690.51053    
   1589000   298.41816      0.042618159    19.553992      740.38368     -63.951978      676.4317     
   1590000   297.78462      0.042618159    18.980149      738.81184     -65.512324      673.29952    
   1591000   287.13768      0.042618159    33.073311      712.39649     -64.373599      648.0229     
   1592000   311.39214      0.042618159    24.101531      772.57249     -64.130796      708.44169    
   1593000   316.96605      0.042618159    21.109291      786.4015      -66.466241      719.93526    
   1594000   286.68609      0.042618159    20.175954      711.27609     -62.97142       648.30467    
   1595000   296.28123      0.042618159    24.112391      735.0819      -69.012588      666.06931    
   1596000   313.53312      0.042618159    23.950603      777.88431     -69.21808       708.66623    
   1597000   302.9751       0.042618159    22.866315      751.68957     -66.274954      685.41462    
   1598000   298.64641      0.042618159    22.850856      740.94998     -68.570257      672.37972    
   1599000   301.85155      0.042618159    24.005403      748.90202     -69.340589      679.56143    
   1600000   297.78362      0.042618159    20.460696      738.80938     -64.074704      674.73467    
   1601000   307.33629      0.042618159    22.612554      762.50982     -62.257246      700.25257    
   1602000   313.30697      0.042618159    28.894001      777.32323     -63.431723      713.89151    
   1603000   301.02778      0.042618159    22.537823      746.85823     -58.773712      688.08452    
   1604000   286.51274      0.042618159    18.187553      710.84601     -57.807844      653.03816    
   1605000   307.79892      0.042618159    21.295453      763.65759     -57.807358      705.85024    
   1606000   312.39829      0.042618159    24.414097      775.06877     -62.626827      712.44194    
   1607000   299.02001      0.042618159    22.639294      741.87688     -62.931882      678.94499    
   1608000   312.05178      0.042618159    21.997098      774.20907     -63.2796        710.92947    
   1609000   290.08441      0.042618159    18.775698      719.70741     -61.885461      657.82195    
   1610000   307.21027      0.042618159    22.670302      762.19714     -61.707022      700.49012    
   1611000   310.41716      0.042618159    29.537627      770.15354     -63.492455      706.66109    
   1612000   296.94739      0.042618159    19.999106      736.73465     -63.195634      673.53902    
   1613000   290.92417      0.042618159    26.565632      721.79088     -69.878994      651.91189    
   1614000   308.16418      0.042618159    25.833735      764.56382     -69.957142      694.60668    
   1615000   305.69185      0.042618159    10.962826      758.4299      -71.567795      686.8621     
   1616000   291.85042      0.042618159    27.104982      724.08894     -73.449019      650.63992    
   1617000   303.17771      0.042618159    34.291551      752.19226     -73.954327      678.23794    
   1618000   309.43519      0.042618159    24.467298      767.71725     -69.358481      698.35877    
   1619000   288.02233      0.042618159   -1.9780552      714.59133     -64.227861      650.36347    
   1620000   286.48777      0.042618159    27.171518      710.78406     -67.660414      643.12365    
   1621000   296.80563      0.042618159    26.109342      736.38295     -69.339883      667.04306    
   1622000   306.77619      0.042618159    26.161309      761.12019     -66.983979      694.13621    
   1623000   293.78626      0.042618159    0.24098654     728.89181     -65.123435      663.76837    
   1624000   297.4025       0.042618159    37.657285      737.8638      -53.829326      684.03448    
   1625000   312.65703      0.042618159    10.987527      775.7107      -55.504517      720.20619    
   1626000   299.40577      0.042618159    19.36899       742.83398     -53.517784      689.31619    
   1627000   295.62114      0.042618159    23.178581      733.44419     -65.948545      667.49565    
   1628000   299.32277      0.042618159    28.667158      742.62805     -54.789845      687.8382     
   1629000   318.59551      0.042618159    17.659555      790.44425     -62.109193      728.33505    
   1630000   305.80058      0.042618159    20.199643      758.69967     -65.74336       692.95631    
   1631000   284.39829      0.042618159    21.379813      705.6         -61.297748      644.30225    
   1632000   294.67904      0.042618159    25.806398      731.10683     -57.219232      673.8876     
   1633000   315.23406      0.042618159    26.985174      782.10439     -59.828437      722.27595    
   1634000   302.96011      0.042618159    18.237738      751.65237     -63.538739      688.11364    
   1635000   289.08386      0.042618159    21.975996      717.22502     -65.354329      651.87069    
   1636000   297.75203      0.042618159    18.775781      738.73099     -68.780678      669.95031    
   1637000   312.282        0.042618159    22.309329      774.78024     -67.374548      707.40569    
   1638000   306.22043      0.042618159    20.264633      759.74134     -63.510391      696.23095    
   1639000   303.24206      0.042618159    25.344836      752.35192     -63.169356      689.18256    
   1640000   298.71507      0.042618159    22.323053      741.12032     -66.788599      674.33172    
   1641000   300.95871      0.042618159    20.586373      746.68685     -72.684854      674.002      
   1642000   306.75849      0.042618159    12.211535      761.07627     -73.249776      687.82649    
   1643000   299.06452      0.042618159    30.274648      741.98733     -67.146377      674.84095    
   1644000   294.0925       0.042618159    24.640338      729.65161     -76.917442      652.73417    
   1645000   304.63559      0.042618159    14.594588      755.8093      -70.918623      684.89068    
   1646000   301.89146      0.042618159    35.825875      749.00103     -72.866532      676.1345     
   1647000   298.31796      0.042618159    20.399609      740.13507     -82.783849      657.35122    
   1648000   289.77381      0.042618159    9.9756572      718.9368      -75.897184      643.03961    
   1649000   298.53313      0.042618159    16.827947      740.66892     -65.46413       675.20479    
   1650000   309.29573      0.042618159    18.012626      767.37124     -70.453729      696.91751    
   1651000   314.6299       0.042618159    40.408091      780.60545     -70.050635      710.55482    
   1652000   297.55264      0.042618159    24.814496      738.23631     -70.898787      667.33753    
   1653000   290.62737      0.042618159    20.616487      721.05451     -72.475274      648.57924    
   1654000   291.50686      0.042618159    16.839902      723.23656     -71.321817      651.91474    
   1655000   298.27382      0.042618159    15.815126      740.02558     -68.903596      671.12198    
   1656000   300.13054      0.042618159    22.986579      744.63213     -64.336463      680.29567    
   1657000   300.91628      0.042618159    22.362896      746.58159     -65.252633      681.32896    
   1658000   298.85643      0.042618159    22.382816      741.47104     -69.738415      671.73263    
   1659000   302.87776      0.042618159    19.44787       751.44808     -71.627159      679.82092    
   1660000   303.27641      0.042618159    20.550981      752.43713     -76.563318      675.87382    
   1661000   310.26256      0.042618159    28.139436      769.76996     -70.623365      699.1466     
   1662000   291.49509      0.042618159    23.842146      723.20735     -79.84831       643.35904    
   1663000   302.08811      0.042618159    20.230869      749.48893     -83.391955      666.09697    
   1664000   290.11441      0.042618159    11.783567      719.78185     -89.334766      630.44708    
   1665000   306.1842       0.042618159    26.851848      759.65144     -78.867736      680.78371    
   1666000   300.81599      0.042618159    18.979897      746.33277     -86.244138      660.08864    
   1667000   300.85194      0.042618159    21.293286      746.42196     -81.691846      664.73011    
   1668000   306.31761      0.042618159    24.588509      759.98243     -78.452409      681.53002    
   1669000   299.89149      0.042618159    18.247258      744.03905     -82.113283      661.92577    
   1670000   300.39812      0.042618159    21.592088      745.29602     -80.518349      664.77767    
   1671000   297.95931      0.042618159    24.582863      739.24525     -75.429895      663.81536    
   1672000   296.55714      0.042618159    25.347312      735.76643     -91.824307      643.94213    
   1673000   306.09519      0.042618159    18.458885      759.43059     -78.869349      680.56124    
   1674000   301.74433      0.042618159    21.886419      748.63601     -70.306733      678.32927    
   1675000   299.96357      0.042618159    18.93634       744.21789     -78.351312      665.86657    
   1676000   306.81247      0.042618159    20.488955      761.2102      -70.955535      690.25467    
   1677000   296.77747      0.042618159    23.54414       736.31309     -68.204138      668.10895    
   1678000   298.27577      0.042618159    21.407085      740.03041     -71.03927       668.99114    
   1679000   305.04509      0.042618159    22.631643      756.82527     -67.087676      689.7376     
   1680000   310.97422      0.042618159    24.023569      771.53562     -63.190235      708.34538    
   1681000   294.74063      0.042618159    21.216049      731.25962     -64.229656      667.02996    
   1682000   297.37584      0.042618159    22.256092      737.79765     -59.183987      678.61367    
   1683000   314.9348       0.042618159    24.535444      781.36193     -61.986841      719.37509    
   1684000   295.23689      0.042618159    21.248019      732.49087     -59.543663      672.94721    
   1685000   293.30296      0.042618159    18.644021      727.69273     -70.789438      656.90329    
   1686000   307.82797      0.042618159    21.043577      763.72968     -71.870674      691.85901    
   1687000   309.28132      0.042618159    25.624536      767.33547     -62.839038      704.49643    
   1688000   291.60439      0.042618159    19.804463      723.47853     -67.305991      656.17254    
   1689000   302.46732      0.042618159    20.426345      750.42976     -71.29682       679.13294    
   1690000   295.25303      0.042618159    24.976312      732.5309      -73.310679      659.22022    
   1691000   300.30126      0.042618159    20.579466      745.05572     -68.541299      676.51442    
   1692000   309.66398      0.042618159    19.27477       768.28486     -66.210744      702.07411    
   1693000   298.72963      0.042618159    24.149722      741.15644     -67.020279      674.13616    
   1694000   290.352        0.042618159    22.10122       720.37132     -67.991766      652.37955    
   1695000   301.48794      0.042618159    20.829765      747.99988     -67.271424      680.72846    
   1696000   303.66786      0.042618159    26.228519      753.40833     -62.165515      691.24282    
   1697000   285.439        0.042618159    12.61648       708.18204     -64.825949      643.35609    
   1698000   302.10966      0.042618159    23.212652      749.54239     -68.2804        681.26199    
   1699000   303.91573      0.042618159    20.253923      754.02331     -70.578569      683.44475    
   1700000   296.64785      0.042618159    21.556421      735.99148     -74.098103      661.89338    
   1701000   305.59664      0.042618159    16.679062      758.19369     -69.787549      688.40614    
   1702000   310.52765      0.042618159    25.346986      770.42765     -73.235555      697.1921     
   1703000   304.82524      0.042618159    20.00812       756.27981     -73.108373      683.17144    
   1704000   302.66763      0.042618159    19.710281      750.92674     -65.788001      685.13874    
   1705000   297.48462      0.042618159    23.672778      738.06754     -69.696532      668.37101    
   1706000   285.35492      0.042618159    26.620563      707.97342     -70.993538      636.97988    
   1707000   298.62407      0.042618159    17.831756      740.89455     -65.163539      675.73101    
   1708000   303.25794      0.042618159    22.032722      752.39131     -70.054713      682.3366     
   1709000   309.10979      0.042618159    25.800032      766.90992     -74.26456       692.64536    
   1710000   304.66686      0.042618159    22.061776      755.88687     -72.423405      683.46346    
   1711000   298.12377      0.042618159    18.692475      739.65328     -72.124592      667.52869    
   1712000   286.16052      0.042618159    21.232389      709.97213     -70.18011       639.79202    
   1713000   295.14674      0.042618159    22.299759      732.26719     -75.665811      656.60138    
   1714000   300.73293      0.042618159    19.655589      746.12669     -74.61614       671.51055    
   1715000   302.08897      0.042618159    22.620657      749.49106     -72.094524      677.39654    
   1716000   326.60072      0.042618159    26.353031      810.30538     -68.899635      741.40574    
   1717000   294.6708       0.042618159    19.044283      731.08639     -70.578917      660.50747    
   1718000   287.23358      0.042618159    25.263708      712.63443     -72.448455      640.18597    
   1719000   297.05727      0.042618159    25.722566      737.00728     -68.221746      668.78553    
   1720000   327.11246      0.042618159    2.2869786      811.57502     -67.890434      743.68459    
   1721000   292.67551      0.042618159    21.76034       726.136       -68.308473      657.82753    
   1722000   306.40632      0.042618159    24.099308      760.20251     -68.857109      691.34541    
   1723000   299.58758      0.042618159    18.255197      743.28505     -63.43912       679.84593    
   1724000   293.80374      0.042618159    22.916923      728.93517     -65.246214      663.68896    
   1725000   300.02184      0.042618159    18.391677      744.36246     -66.383166      677.97929    
   1726000   305.79024      0.042618159    20.823969      758.67402     -68.403165      690.27086    
   1727000   299.33868      0.042618159    17.919606      742.66752     -73.761936      668.90559    
   1728000   305.05219      0.042618159    24.23957       756.84289     -77.00207       679.84082    
   1729000   306.55145      0.042618159    24.594003      760.5626      -73.802413      686.76019    
   1730000   304.6025       0.042618159    19.144518      755.72719     -74.153386      681.5738     
   1731000   295.45886      0.042618159    18.786618      733.04156     -76.609002      656.43256    
   1732000   305.09082      0.042618159    20.986973      756.93875     -82.375513      674.56323    
   1733000   292.20014      0.042618159    17.208494      724.9566      -82.504206      642.4524     
   1734000   295.48526      0.042618159    28.130858      733.10709     -75.438462      657.66863    
   1735000   316.10595      0.042618159    25.192625      784.26758     -79.009692      705.25789    
   1736000   290.93522      0.042618159    2.3795056      721.81831     -74.500675      647.31763    
   1737000   296.57396      0.042618159    36.621757      735.80818     -73.799733      662.00844    
   1738000   307.85384      0.042618159    21.501603      763.79387     -82.207231      681.58664    
   1739000   303.68054      0.042618159    15.704264      753.4398      -77.940101      675.4997     
   1740000   300.25309      0.042618159    16.541961      744.9362      -70.203241      674.73296    
   1741000   298.18781      0.042618159    36.350485      739.81217     -78.436803      661.37537    
   1742000   319.3842       0.042618159    30.945584      792.40101     -78.328776      714.07223    
   1743000   305.60402      0.042618159    25.197612      758.21201     -75.009706      683.2023     
   1744000   292.71493      0.042618159    17.47719       726.23381     -68.325719      657.90809    
   1745000   301.33218      0.042618159    30.212123      747.61343     -74.043628      673.56981    
   1746000   312.79769      0.042618159    27.894453      776.05968     -67.996557      708.06313    
   1747000   298.34016      0.042618159    14.077767      740.19017     -72.78414       667.40603    
   1748000   278.22924      0.042618159    10.01046       690.29441     -72.800169      617.49424    
   1749000   311.55768      0.042618159    53.01909       772.9832      -79.634936      693.34826    
   1750000   300.49937      0.042618159    12.228217      745.54721     -86.073417      659.4738     
   1751000   295.82293      0.042618159    25.599213      733.94485     -88.880066      645.06478    
   1752000   310.00743      0.042618159    40.357378      769.13699     -86.268493      682.8685     
   1753000   300.27507      0.042618159    8.9995169      744.99071     -81.901667      663.08905    
   1754000   284.85365      0.042618159    13.502905      706.72976     -77.023597      629.70617    
   1755000   295.99153      0.042618159    24.146272      734.36314     -82.912042      651.4511     
   1756000   299.0054       0.042618159    46.178127      741.84063     -82.993412      658.84722    
   1757000   308.51733      0.042618159    34.165852      765.44001     -76.383057      689.05695    
   1758000   301.63045      0.042618159    18.080107      748.35346     -75.798153      672.55531    
   1759000   297.40723      0.042618159    8.8943257      737.87553     -81.681081      656.19445    
   1760000   298.75195      0.042618159    23.368956      741.21183     -72.638229      668.5736     
   1761000   300.48239      0.042618159    22.191548      745.50509     -75.549835      669.95526    
   1762000   303.51674      0.042618159    23.454799      753.0334      -78.004575      675.02882    
   1763000   303.24777      0.042618159    24.358751      752.36608     -77.783636      674.58244    
   1764000   304.43614      0.042618159    20.422073      755.31445     -82.378383      672.93607    
   1765000   306.23043      0.042618159    27.276797      759.76613     -66.295006      693.47113    
   1766000   304.3391       0.042618159    22.562881      755.0737      -66.095786      688.97792    
   1767000   301.84394      0.042618159    23.680952      748.88314     -65.589926      683.29322    
   1768000   304.09206      0.042618159    20.519595      754.46079     -74.808106      679.65268    
   1769000   300.18747      0.042618159    22.189224      744.77338     -66.386672      678.3867     
   1770000   299.01546      0.042618159    22.40032       741.8656      -73.180443      668.68516    
   1771000   311.68361      0.042618159    20.740441      773.29563     -67.587251      705.70837    
   1772000   305.36051      0.042618159    21.896852      757.60783     -65.683909      691.92392    
   1773000   294.54585      0.042618159    20.309308      730.77637     -62.468527      668.30785    
   1774000   308.74911      0.042618159    19.21443       766.01505     -61.183351      704.8317     
   1775000   320.78135      0.042618159    20.243231      795.86738     -60.064708      735.80267    
   1776000   295.07024      0.042618159    25.828544      732.0774      -58.550275      673.52712    
   1777000   294.68076      0.042618159    20.946764      731.11109     -67.828598      663.28249    
   1778000   295.947        0.042618159    14.517095      734.25267     -67.448644      666.80402    
   1779000   300.39247      0.042618159    9.1251871      745.28201     -64.508582      680.77342    
   1780000   303.97868      0.042618159    20.345909      754.17948     -69.528202      684.65128    
   1781000   297.00554      0.042618159    19.449891      736.87892     -64.971626      671.90729    
   1782000   312.70471      0.042618159    32.033453      775.829       -64.701993      711.12701    
   1783000   306.04171      0.042618159    20.60369       759.29793     -66.345186      692.95274    
   1784000   277.09871      0.042618159    15.690937      687.48953     -62.392736      625.09679    
   1785000   298.24721      0.042618159    26.958668      739.95955     -62.114796      677.84476    
   1786000   307.19795      0.042618159    21.536991      762.16659     -58.624895      703.5417     
   1787000   292.37766      0.042618159    18.019368      725.39702     -68.381139      657.01588    
   1788000   279.34327      0.042618159    18.486132      693.05835     -64.369247      628.68911    
   1789000   295.84536      0.042618159    24.608334      734.0005      -67.466258      666.53424    
   1790000   313.80499      0.042618159    15.190553      778.55883     -69.372478      709.18635    
   1791000   304.57598      0.042618159    4.3420867      755.66141     -77.631916      678.02949    
   1792000   288.72228      0.042618159    21.743837      716.32794     -68.333389      647.99455    
   1793000   302.86592      0.042618159    28.022263      751.41871     -73.628552      677.79015    
   1794000   304.07102      0.042618159    8.8920343      754.40859     -70.504698      683.90389    
   1795000   295.34991      0.042618159    18.610987      732.77127     -66.602332      666.16893    
   1796000   291.80001      0.042618159    30.354359      723.96387     -66.431293      657.53258    
   1797000   307.13675      0.042618159    23.52039       762.01475     -62.927195      699.08755    
   1798000   289.41765      0.042618159    10.383233      718.05318     -64.815359      653.23782    
   1799000   304.89392      0.042618159    26.46668       756.45023     -64.673138      691.77709    
   1800000   307.32788      0.042618159    19.7327        762.48894     -65.205481      697.28346    
   1801000   292.80175      0.042618159    21.344944      726.44922     -63.06303       663.38619    
   1802000   295.93165      0.042618159    25.174493      734.21458     -59.678561      674.53602    
   1803000   308.41911      0.042618159    22.521077      765.19632     -62.207172      702.98915    
   1804000   307.13695      0.042618159    18.601006      762.01525     -53.958991      708.05626    
   1805000   290.53578      0.042618159    21.000477      720.82728     -58.259607      662.56768    
   1806000   287.1684       0.042618159    18.483856      712.47271     -66.318683      646.15403    
   1807000   305.27195      0.042618159    18.001316      757.38811     -70.748477      686.63964    
   1808000   316.16406      0.042618159    24.647815      784.41176     -66.955185      717.45657    
   1809000   299.69836      0.042618159    24.397039      743.5599      -63.612467      679.94743    
   1810000   282.44959      0.042618159    17.517452      700.76522     -63.3142        637.45102    
   1811000   306.63375      0.042618159    26.299964      760.76678     -70.418342      690.34844    
   1812000   302.07314      0.042618159    25.077342      749.45179     -72.530033      676.92176    
   1813000   301.55302      0.042618159    19.061938      748.16136     -76.672267      671.48909    
   1814000   295.68221      0.042618159    23.897784      733.59572     -73.442222      660.15349    
   1815000   288.28231      0.042618159    19.583684      715.23635     -70.093084      645.14327    
   1816000   293.49629      0.042618159    20.246913      728.17238     -69.675614      658.49677    
   1817000   308.10753      0.042618159    16.516186      764.42327     -67.770553      696.65272    
   1818000   298.9572       0.042618159    22.855425      741.72105     -66.991131      674.72992    
   1819000   296.17591      0.042618159    19.563807      734.82059     -63.843331      670.97726    
   1820000   307.65791      0.042618159    21.970501      763.30775     -65.121944      698.1858     
   1821000   305.23368      0.042618159    23.203701      757.29317     -64.250357      693.04282    
   1822000   297.6305       0.042618159    25.585438      738.42947     -63.879371      674.5501     
   1823000   284.58089      0.042618159    18.324331      706.05304     -61.884735      644.16831    
   1824000   301.94651      0.042618159    19.265317      749.13762     -61.809612      687.32801    
   1825000   308.45638      0.042618159    22.375748      765.28878     -59.186313      706.10247    
   1826000   295.45819      0.042618159    21.102273      733.03992     -69.65317       663.38675    
   1827000   300.00221      0.042618159    21.517285      744.31375     -72.129044      672.18471    
   1828000   305.9388       0.042618159    20.591759      759.04261     -73.952528      685.09008    
   1829000   297.45502      0.042618159    24.814804      737.9941      -71.846537      666.14757    
   1830000   285.46794      0.042618159    19.636086      708.25384     -77.381159      630.87268    
   1831000   303.24246      0.042618159    20.632361      752.35291     -81.587935      670.76497    
   1832000   303.57476      0.042618159    22.523736      753.17735     -69.464222      683.71313    
   1833000   301.10153      0.042618159    21.73976       747.04119     -75.055085      671.98611    
   1834000   308.12627      0.042618159    21.35458       764.46976     -72.66553       691.80423    
   1835000   300.63479      0.042618159    22.690744      745.88319     -73.10192       672.78127    
   1836000   297.45228      0.042618159    15.190064      737.9873      -74.120787      663.86652    
   1837000   299.84586      0.042618159    30.190187      743.92584     -75.460498      668.46534    
   1838000   296.01955      0.042618159    18.161421      734.43266     -72.568578      661.86408    
   1839000   307.88188      0.042618159    15.389076      763.86343     -82.483021      681.38041    
   1840000   299.84542      0.042618159    22.033222      743.92476     -78.425219      665.49954    
   1841000   295.09173      0.042618159    30.068013      732.13072     -82.800976      649.32974    
   1842000   304.30293      0.042618159    7.2896556      754.98397     -75.625201      679.35877    
   1843000   307.57386      0.042618159    26.420697      763.09922     -75.285965      687.81325    
   1844000   292.05416      0.042618159    27.820392      724.59442     -69.237771      655.35665    
   1845000   297.17233      0.042618159    15.421992      737.29273     -69.375467      667.91727    
   1846000   314.56464      0.042618159    32.541337      780.44353     -75.403097      705.04043    
   1847000   299.42444      0.042618159    32.636263      742.88028     -79.122338      663.75794    
   1848000   288.6282       0.042618159   -2.2819604      716.09451     -76.23773       639.85678    
   1849000   310.70175      0.042618159   -14.828491      770.8596      -74.503203      696.3564     
   1850000   309.32525      0.042618159    33.036547      767.44446     -72.636446      694.80801    
   1851000   293.07988      0.042618159    18.774076      727.13926     -74.028643      653.11062    
   1852000   300.58702      0.042618159    14.238993      745.76467     -72.664918      673.09976    
   1853000   311.86121      0.042618159   -2.9858599      773.73625     -74.940439      698.79581    
   1854000   306.99145      0.042618159    49.272904      761.65425     -73.487985      688.16626    
   1855000   285.26494      0.042618159    22.82529       707.75019     -68.196886      639.5533     
   1856000   287.28288      0.042618159    30.517263      712.75674     -66.902248      645.85449    
   1857000   303.05075      0.042618159    7.6643361      751.87728     -67.207751      684.66953    
   1858000   307.10233      0.042618159    54.45437       761.92933     -70.884484      691.04485    
   1859000   289.38869      0.042618159    57.397224      717.98131     -68.315305      649.66601    
   1860000   290.86408      0.042618159    60.349752      721.6418      -72.285797      649.356      
   1861000   304.62363      0.042618159    13.524942      755.77963     -80.226392      675.55324    
   1862000   296.73594      0.042618159    12.690689      736.21004     -80.405312      655.80473    
   1863000   297.88247      0.042618159    33.32317       739.05463     -76.306982      662.74765    
   1864000   299.61026      0.042618159    29.95447       743.34132     -76.339729      667.00159    
   1865000   291.25466      0.042618159   -8.7690088      722.61083     -69.986136      652.62469    
   1866000   309.80857      0.042618159    13.464222      768.6436      -73.802394      694.84121    
   1867000   294.27198      0.042618159    26.731757      730.09689     -77.215465      652.88143    
   1868000   299.06336      0.042618159    2.3745098      741.98443     -79.11237       662.87206    
   1869000   312.67284      0.042618159    23.560994      775.74993     -80.11646       695.63347    
   1870000   300.53014      0.042618159    28.886301      745.62356     -79.411913      666.21165    
   1871000   289.31892      0.042618159    18.247756      717.80822     -76.844064      640.96416    
   1872000   315.24031      0.042618159    19.115728      782.11991     -88.695803      693.4241     
   1873000   297.06315      0.042618159    21.369517      737.02185     -85.055505      651.96635    
   1874000   297.94237      0.042618159    25.29089       739.20323     -78.947501      660.25573    
   1875000   300.34712      0.042618159    20.155221      745.16948     -73.687622      671.48185    
   1876000   294.38685      0.042618159    14.46811       730.38189     -77.204263      653.17763    
   1877000   312.13313      0.042618159    27.62256       774.41091     -71.207638      703.20327    
   1878000   294.91354      0.042618159    26.601569      731.68863     -73.725182      657.96345    
   1879000   297.03354      0.042618159    19.72729       736.94841     -70.21221       666.7362     
   1880000   294.27393      0.042618159    21.427054      730.10173     -72.522707      657.57902    
   1881000   300.99706      0.042618159    20.882187      746.78201     -67.4254        679.3566     
   1882000   288.39245      0.042618159    16.935478      715.50962     -70.770738      644.73889    
   1883000   299.64565      0.042618159    25.860753      743.42912     -68.631182      674.79794    
   1884000   295.57282      0.042618159    21.171553      733.32431     -67.237934      666.08637    
   1885000   304.51393      0.042618159    20.405142      755.50746     -71.177514      684.32994    
   1886000   298.25902      0.042618159    22.471794      739.98885     -64.247036      675.74181    
   1887000   317.80066      0.042618159    25.49878       788.4722      -66.309243      722.16295    
   1888000   300.59849      0.042618159    21.900761      745.79315     -56.550619      689.24253    
   1889000   296.2061       0.042618159    22.477613      734.89551     -52.61996       682.27555    
   1890000   306.01619      0.042618159    20.067183      759.2346      -52.539382      706.69522    
   1891000   302.23631      0.042618159    23.464944      749.85662     -57.915452      691.94117    
   1892000   289.87711      0.042618159    19.087694      719.19311     -60.390147      658.80296    
   1893000   294.11969      0.042618159    26.88622       729.71906     -63.020167      666.69889    
   1894000   321.78989      0.042618159    25.513869      798.36959     -59.032485      739.3371     
   1895000   307.10823      0.042618159    19.743983      761.94399     -61.35677       700.58722    
   1896000   311.09825      0.042618159    13.72871       771.84334     -63.452658      708.39068    
   1897000   300.77115      0.042618159    19.889176      746.22152     -70.445618      675.7759     
   1898000   290.31186      0.042618159    10.434579      720.27172     -73.711842      646.55988    
   1899000   292.72092      0.042618159    21.810951      726.24868     -73.280874      652.9678     
   1900000   313.29157      0.042618159    34.383311      777.28501     -72.704474      704.58054    
   1901000   305.75014      0.042618159    21.874883      758.57453     -67.741719      690.83281    
   1902000   281.6007       0.042618159    5.6597911      698.6591      -64.517837      634.14126    
   1903000   294.45898      0.042618159    28.479596      730.56084     -61.030851      669.52998    
   1904000   315.88867      0.042618159    29.318393      783.72849     -64.261734      719.46676    
   1905000   300.14865      0.042618159    14.782059      744.67708     -66.771881      677.9052     
   1906000   304.12942      0.042618159    11.421143      754.55347     -64.752977      689.80049    
   1907000   302.02351      0.042618159    18.002868      749.32867     -67.044869      682.2838     
   1908000   306.98307      0.042618159    30.655401      761.63347     -67.40351       694.22996    
   1909000   299.5819       0.042618159    11.153439      743.27094     -66.686856      676.58409    
   1910000   293.61029      0.042618159    6.5755707      728.45523     -73.689309      654.76592    
   1911000   309.21802      0.042618159    46.238524      767.17843     -67.237793      699.94064    
   1912000   298.84935      0.042618159    24.224828      741.45347     -67.615342      673.83813    
   1913000   298.4339       0.042618159    0.17944897     740.42273     -65.087014      675.33572    
   1914000   302.73795      0.042618159    36.271723      751.10121     -70.596647      680.50456    
   1915000   298.57823      0.042618159    1.0419263      740.78081     -69.090985      671.68982    
   1916000   296.94846      0.042618159   -18.005092      736.73733     -69.951993      666.78533    
   1917000   308.88259      0.042618159    26.094123      766.34623     -66.034195      700.31204    
   1918000   294.30267      0.042618159    40.958488      730.17302     -69.39541       660.77761    
   1919000   297.70052      0.042618159   -3.6896966      738.6032      -64.537851      674.06535    
   1920000   292.21051      0.042618159    25.581183      724.98234     -67.242662      657.73968    
   1921000   310.17723      0.042618159    53.76798       769.55826     -66.318678      703.23958    
   1922000   302.96102      0.042618159    17.424169      751.65464     -64.156736      687.4979     
   1923000   289.57442      0.042618159    14.026748      718.44211     -67.60354       650.83857    
   1924000   299.91702      0.042618159    49.08578       744.10238     -62.747118      681.35527    
   1925000   301.6756       0.042618159    27.85185       748.46548     -69.114804      679.35067    
   1926000   313.90427      0.042618159    27.982275      778.80515     -70.22961       708.57554    
   1927000   297.8396       0.042618159   -4.4943445      738.94825     -72.062374      666.88588    
   1928000   300.31938      0.042618159    29.708364      745.10067     -70.543957      674.55672    
   1929000   308.53884      0.042618159    40.414931      765.49336     -68.558942      696.93441    
   1930000   308.87133      0.042618159    7.0557891      766.31829     -66.666057      699.65223    
   1931000   293.20785      0.042618159    13.236093      727.45675     -74.857086      652.59966    
   1932000   298.89863      0.042618159    42.932102      741.57573     -67.936359      673.63937    
   1933000   308.773        0.042618159    3.397524       766.07432     -69.289424      696.7849     
   1934000   288.42687      0.042618159    30.606888      715.59502     -72.735144      642.85988    
   1935000   286.30479      0.042618159    21.471161      710.33007     -71.204841      639.12523    
   1936000   311.4372       0.042618159    32.38697       772.68427     -71.1969        701.48737    
   1937000   298.78221      0.042618159   -20.991366      741.2869      -74.84935       666.43755    
   1938000   284.30692      0.042618159    15.399948      705.3733      -73.490254      631.88305    
   1939000   305.54371      0.042618159    32.090224      758.06236     -76.908234      681.15413    
   1940000   320.97815      0.042618159    16.238515      796.35563     -77.374641      718.98099    
   1941000   288.38883      0.042618159    11.450125      715.50064     -80.497261      635.00338    
   1942000   301.14746      0.042618159    29.265622      747.15516     -75.863515      671.29164    
   1943000   292.99733      0.042618159    3.5829267      726.93445     -72.328744      654.6057     
   1944000   292.87728      0.042618159    27.625921      726.63661     -75.680885      650.95573    
   1945000   305.88187      0.042618159    21.116347      758.90135     -74.482592      684.41876    
   1946000   302.0693       0.042618159    8.752013       749.44227     -71.490536      677.95173    
   1947000   288.36693      0.042618159    20.087602      715.44629     -69.477029      645.96927    
   1948000   292.25341      0.042618159    20.125501      725.08877     -69.739628      655.34914    
   1949000   299.60029      0.042618159    31.835873      743.31659     -73.961954      669.35463    
   1950000   295.99683      0.042618159    22.494596      734.3763      -77.862154      656.51415    
   1951000   295.94416      0.042618159    18.63989       734.24561     -79.796409      654.44921    
   1952000   303.20776      0.042618159    21.976218      752.2668      -82.636833      669.62997    
   1953000   305.81857      0.042618159    21.291974      758.74431     -73.101665      685.64264    
   1954000   296.63269      0.042618159    27.89075       735.95388     -75.146174      660.8077     
   1955000   300.43701      0.042618159    21.731112      745.3925      -76.350689      669.04181    
   1956000   292.67148      0.042618159    17.983119      726.12602     -72.114147      654.01187    
   1957000   301.89024      0.042618159    11.226408      748.99801     -76.688848      672.30916    
   1958000   292.08925      0.042618159    23.708282      724.68149     -74.207537      650.47395    
   1959000   299.57968      0.042618159    29.514186      743.26545     -70.361739      672.90371    
   1960000   301.95548      0.042618159    13.601234      749.15988     -71.05441       678.10547    
   1961000   297.36832      0.042618159    19.245715      737.77899     -69.906672      667.87232    
   1962000   303.81789      0.042618159    29.618588      753.78056     -66.916512      686.86404    
   1963000   303.72305      0.042618159    20.585474      753.54527     -72.368785      681.17648    
   1964000   296.66289      0.042618159    19.419325      736.0288      -73.760236      662.26856    
   1965000   305.08843      0.042618159    13.516986      756.93281     -71.899844      685.03296    
   1966000   298.51709      0.042618159    11.621033      740.62914     -72.620153      668.00898    
   1967000   307.92685      0.042618159    24.300019      763.975       -64.532991      699.44201    
   1968000   308.47426      0.042618159    29.394741      765.33314     -65.974648      699.35849    
   1969000   290.66781      0.042618159    20.785585      721.15485     -72.671446      648.48341    
   1970000   300.21495      0.042618159    1.3454359      744.84156     -69.787958      675.0536     
   1971000   321.03418      0.042618159    9.414597       796.49465     -71.182975      725.31168    
   1972000   302.90732      0.042618159    35.425896      751.52141     -72.424567      679.09685    
   1973000   287.16225      0.042618159    20.931881      712.45747     -74.922457      637.53501    
   1974000   297.12992      0.042618159    21.621417      737.18753     -72.827729      664.3598     
   1975000   307.79637      0.042618159    20.20597       763.65128     -79.259459      684.39182    
   1976000   290.96989      0.042618159    21.932322      721.90432     -71.622475      650.28185    
   1977000   294.04431      0.042618159    20.015129      729.53203     -74.107172      655.42486    
   1978000   306.42759      0.042618159    20.242336      760.25531     -75.931558      684.32375    
   1979000   297.6351       0.042618159    23.916178      738.44088     -73.850352      664.59053    
   1980000   295.73412      0.042618159    27.380034      733.72449     -69.29961       664.42488    
   1981000   303.87018      0.042618159    21.621957      753.91029     -70.244158      683.66613    
   1982000   307.12612      0.042618159    20.082983      761.98838     -61.564268      700.42411    
   1983000   305.64191      0.042618159    20.42478       758.306       -69.865491      688.4405     
   1984000   293.17185      0.042618159    18.584818      727.36744     -68.653501      658.71394    
   1985000   302.38037      0.042618159    22.532021      750.21403     -63.772832      686.4412     
   1986000   301.13042      0.042618159    27.023425      747.11287     -77.653544      669.45933    
   1987000   302.19605      0.042618159    23.801768      749.75673     -72.803528      676.9532     
   1988000   297.44463      0.042618159    23.055242      737.96832     -69.680111      668.2882     
   1989000   301.78316      0.042618159    22.139592      748.73235     -70.036514      678.69583    
   1990000   306.68805      0.042618159    26.714512      760.90151     -67.286388      693.61513    
   1991000   301.23506      0.042618159    19.487313      747.3725      -67.602295      679.7702     
   1992000   301.43588      0.042618159    6.1104941      747.87072     -73.494772      674.37595    
   1993000   301.82716      0.042618159    24.22279       748.84151     -70.574138      678.26737    
   1994000   317.71562      0.042618159    27.544484      788.26121     -69.355275      718.90593    
   1995000   311.29286      0.042618159    32.887411      772.32616     -75.804478      696.52169    
   1996000   282.62095      0.042618159    28.057058      701.19037     -75.527701      625.66266    
   1997000   297.1859       0.042618159    13.762792      737.3264      -77.812736      659.51366    
   1998000   310.78992      0.042618159    16.837129      771.07837     -78.056101      693.02226    
   1999000   305.78576      0.042618159    25.130874      758.6629      -73.721434      684.94147    
   2000000   275.03662      0.042618159    16.493376      682.37344     -75.288635      607.0848     
   2001000   283.76339      0.042618159    24.104166      704.0248      -71.961241      632.06356    
   2002000   311.44386      0.042618159    18.499046      772.70079     -75.851939      696.84885    
   2003000   301.30917      0.042618159    28.360486      747.55636     -67.362602      680.19376    
   2004000   282.17328      0.042618159    18.705466      700.0797      -76.674352      623.40534    
   2005000   304.80721      0.042618159    19.562234      756.23509     -64.842107      691.39298    
   2006000   314.35214      0.042618159    20.730272      779.91633     -66.99529       712.92104    
   2007000   309.42003      0.042618159    21.873977      767.67962     -71.328014      696.3516     
   2008000   289.98574      0.042618159    21.599534      719.46261     -65.292274      654.17033    
   2009000   291.0305       0.042618159    23.750541      722.0547      -66.56383       655.49087    
   2010000   315.58978      0.042618159    25.660194      782.98694     -74.212312      708.77463    
   2011000   306.28415      0.042618159    19.725401      759.89941     -69.662671      690.23674    
   2012000   294.82656      0.042618159    18.649699      731.47281     -70.46246       661.01035    
   2013000   305.09061      0.042618159    24.215568      756.93822     -66.547583      690.39064    
   2014000   299.33934      0.042618159    19.661173      742.66917     -69.61809       673.05108    
   2015000   298.1337       0.042618159    21.889633      739.67793     -71.167443      668.51048    
   2016000   302.77245      0.042618159    24.180459      751.18678     -73.07111       678.11567    
   2017000   293.11053      0.042618159    24.320605      727.21532     -68.115762      659.09955    
   2018000   299.51612      0.042618159    18.659497      743.10775     -67.735149      675.3726     
   2019000   294.9568       0.042618159    18.635763      731.79594     -75.979519      655.81642    
   2020000   303.97232      0.042618159    22.592497      754.1637      -71.080958      683.08274    
   2021000   298.09648      0.042618159    30.223075      739.58559     -68.638854      670.94674    
   2022000   296.35448      0.042618159    18.107831      735.26364     -71.871898      663.39174    
   2023000   305.61868      0.042618159    16.849389      758.24836     -63.792097      694.45626    
   2024000   296.23107      0.042618159    36.786093      734.95744     -64.055305      670.90214    
   2025000   303.09463      0.042618159    19.955123      751.98614     -62.554413      689.43172    
   2026000   304.17866      0.042618159    21.248956      754.67565     -65.510534      689.16512    
   2027000   304.10809      0.042618159    13.926717      754.50055     -67.87861       686.62194    
   2028000   301.90548      0.042618159    24.420073      749.03581     -66.024056      683.01176    
   2029000   303.44396      0.042618159    23.547         752.85283     -67.730695      685.12213    
   2030000   300.36475      0.042618159    15.535013      745.21322     -65.297227      679.916      
   2031000   303.56952      0.042618159    23.688855      753.16434     -63.390043      689.7743     
   2032000   302.99808      0.042618159    22.169181      751.74658     -61.648809      690.09777    
   2033000   302.9517       0.042618159    19.050733      751.63153     -66.345741      685.28579    
   2034000   293.26815      0.042618159    21.333618      727.60638     -71.274335      656.33204    
   2035000   307.03628      0.042618159    22.906312      761.76548     -70.096119      691.66936    
   2036000   300.48699      0.042618159    27.297213      745.51649     -72.891681      672.62481    
   2037000   299.42024      0.042618159    18.440351      742.86986     -73.997965      668.87189    
   2038000   291.0538       0.042618159    20.460779      722.11249     -73.457872      648.65462    
   2039000   302.54988      0.042618159    23.074902      750.63459     -83.867585      666.76701    
   2040000   289.90417      0.042618159    20.802719      719.26023     -74.746448      644.51378    
   2041000   305.07192      0.042618159    20.090756      756.89184     -75.505993      681.38585    
   2042000   297.9079       0.042618159    28.597256      739.11772     -75.428816      663.6889     
   2043000   318.9495       0.042618159    29.470407      791.32251     -64.773613      726.54889    
   2044000   297.91483      0.042618159    22.181047      739.13491     -69.371241      669.76367    
   2045000   293.77485      0.042618159    17.384221      728.8635      -63.760354      665.10315    
   2046000   303.92249      0.042618159    24.289636      754.04009     -68.549617      685.49047    
   2047000   298.9532       0.042618159    17.725853      741.71112     -71.877924      669.8332     
   2048000   307.40687      0.042618159    18.106249      762.68491     -74.049478      688.63544    
   2049000   303.83584      0.042618159    30.487121      753.8251      -76.654241      677.17086    
   2050000   305.37251      0.042618159    21.421808      757.63761     -70.215871      687.42174    
   2051000   300.01089      0.042618159    18.656944      744.33529     -73.191305      671.14398    
   2052000   304.59022      0.042618159    38.35649       755.69674     -71.202049      684.49469    
   2053000   314.39911      0.042618159    23.125379      780.03286     -67.566476      712.46638    
   2054000   304.2573       0.042618159    21.601102      754.87075     -67.441494      687.42926    
   2055000   298.01815      0.042618159    4.6888805      739.39123     -68.905506      670.48573    
   2056000   301.31223      0.042618159    23.853136      747.56395     -74.467126      673.09682    
   2057000   319.83404      0.042618159    26.048744      793.51708     -69.898864      723.61821    
   2058000   299.03356      0.042618159    9.8283791      741.91051     -66.304073      675.60644    
   2059000   295.8438       0.042618159    44.7777        733.99662     -69.102506      664.89411    
   2060000   309.23369      0.042618159    18.498424      767.2173      -72.385649      694.83166    
   2061000   293.33593      0.042618159    10.08568       727.77453     -71.220226      656.5543     
   2062000   287.00702      0.042618159    28.107581      712.07233     -71.253795      640.81854    
   2063000   301.31948      0.042618159    43.764769      747.58195     -74.362575      673.21937    
   2064000   308.9302       0.042618159    16.429318      766.46434     -68.453087      698.01126    
   2065000   290.19302      0.042618159   -2.6716713      719.97687     -62.136862      657.84001    
   2066000   298.64709      0.042618159    14.329799      740.95167     -65.96079       674.99088    
   2067000   304.76284      0.042618159    27.721345      756.12502     -72.559336      683.56568    
   2068000   305.13181      0.042618159    33.482333      757.04042     -71.925259      685.11516    
   2069000   297.43327      0.042618159    18.468317      737.94015     -66.474005      671.46614    
   2070000   292.89731      0.042618159    20.40305       726.6863      -75.324267      651.36203    
   2071000   299.15363      0.042618159    21.972891      742.2084      -67.360414      674.84799    
   2072000   307.30819      0.042618159    23.015231      762.44008     -72.41696       690.02312    
   2073000   304.71501      0.042618159    24.504778      756.00633     -64.356243      691.65009    
   2074000   293.52544      0.042618159    23.210758      728.24471     -66.147751      662.09696    
   2075000   303.97771      0.042618159    17.291736      754.17707     -72.108202      682.06887    
   2076000   301.81411      0.042618159    23.709347      748.80912     -74.53639       674.27273    
   2077000   307.40574      0.042618159    19.648275      762.68212     -76.030442      686.65168    
   2078000   313.81015      0.042618159    18.459263      778.57164     -68.78059       709.79105    
   2079000   295.11309      0.042618159    17.80463       732.18371     -64.196537      667.98717    
   2080000   295.20118      0.042618159    25.092651      732.40226     -70.112016      662.29024    
   2081000   312.32574      0.042618159    21.765579      774.88878     -67.296935      707.59184    
   2082000   285.63422      0.042618159    14.823769      708.66637     -63.539849      645.12652    
   2083000   290.11359      0.042618159    23.780639      719.77981     -63.546458      656.23335    
   2084000   308.70644      0.042618159    25.073611      765.90918     -60.776776      705.1324     
   2085000   303.93517      0.042618159    22.456927      754.07153     -55.961385      698.11015    
   2086000   303.93333      0.042618159    21.36819       754.06697     -62.103725      691.96325    
   2087000   302.20365      0.042618159    22.094345      749.77559     -58.341743      691.43384    
   2088000   301.60939      0.042618159    20.286144      748.3012      -65.959464      682.34174    
   2089000   291.31473      0.042618159    23.676171      722.75987     -67.452879      655.30699    
   2090000   293.63544      0.042618159    20.296196      728.51762     -70.196858      658.32076    
   2091000   310.8049       0.042618159    21.104788      771.11553     -70.275281      700.84025    
   2092000   292.88559      0.042618159    28.591645      726.65722     -69.713473      656.94374    
   2093000   289.19355      0.042618159    19.139631      717.49717     -69.601922      647.89524    
   2094000   313.93425      0.042618159    21.860753      778.87953     -72.328539      706.55099    
   2095000   309.50577      0.042618159    20.826318      767.89235     -72.484339      695.40801    
   2096000   298.58514      0.042618159    36.445691      740.79796     -67.266532      673.53142    
   2097000   301.04722      0.042618159    22.917121      746.90644     -67.785643      679.1208     
   2098000   306.95675      0.042618159    6.1518805      761.56817     -58.506875      703.06129    
   2099000   305.35283      0.042618159    26.601913      757.58879     -62.550342      695.03845    
   2100000   299.47145      0.042618159    50.393445      742.99693     -66.618157      676.37877    
   2101000   290.45111      0.042618159    21.491022      720.61721     -67.253913      653.36329    
   2102000   308.02336      0.042618159    18.546604      764.21444     -65.610461      698.60398    
   2103000   310.64282      0.042618159    19.776448      770.71339     -65.848792      704.8646     
   2104000   308.15285      0.042618159    29.716002      764.53571     -67.335296      697.20041    
   2105000   278.59339      0.042618159    14.718312      691.19787     -68.759465      622.43841    
   2106000   290.03705      0.042618159    14.048331      719.58992     -71.607975      647.98194    
   2107000   303.80786      0.042618159    13.589654      753.75568     -67.211817      686.54386    
   2108000   305.4469       0.042618159    23.889767      757.82218     -71.113122      686.70906    
   2109000   280.27749      0.042618159    36.280742      695.37617     -73.991306      621.38486    
   2110000   297.27031      0.042618159    17.954758      737.53582     -68.979906      668.55592    
   2111000   314.6767       0.042618159    20.781274      780.72158     -75.485705      705.23587    
   2112000   309.44032      0.042618159    20.835395      767.72996     -73.338824      694.39114    
   2113000   299.14243      0.042618159    18.506095      742.18061     -64.888592      677.29202    
   2114000   295.40866      0.042618159    19.599301      732.91703     -70.756456      662.16057    
   2115000   311.1903       0.042618159    25.883911      772.0717      -69.093217      702.97848    
   2116000   302.04135      0.042618159    17.147351      749.37291     -69.638294      679.73462    
   2117000   281.7081       0.042618159    20.266376      698.92557     -69.127948      629.79763    
   2118000   296.85275      0.042618159    18.260533      736.49986     -70.351856      666.148      
   2119000   306.21596      0.042618159    27.510389      759.73024     -70.474716      689.25553    
   2120000   300.65049      0.042618159    24.507994      745.92217     -74.217107      671.70506    
   2121000   295.79448      0.042618159    22.284326      733.87427     -68.355093      665.51918    
   2122000   300.68573      0.042618159    14.226178      746.00959     -63.251026      682.75856    
   2123000   301.453        0.042618159    23.402691      747.91321     -55.927301      691.98591    
   2124000   310.53717      0.042618159    28.904671      770.45128     -61.914134      708.53715    
   2125000   297.46508      0.042618159    20.019175      738.01906     -65.042951      672.97611    
   2126000   295.09322      0.042618159    23.213975      732.13442     -70.734211      661.40021    
   2127000   298.8751       0.042618159    31.146318      741.51735     -67.740254      673.7771     
   2128000   307.51511      0.042618159    39.453275      762.95345     -63.322692      699.63076    
   2129000   296.69088      0.042618159    16.880539      736.09826     -53.962661      682.1356     
   2130000   302.76142      0.042618159    20.469395      751.15942     -55.492729      695.66669    
   2131000   300.9935       0.042618159    26.160244      746.77317     -48.10356       698.66961    
   2132000   309.06976      0.042618159    35.211286      766.81059     -51.324916      715.48568    
   2133000   284.44894      0.042618159    16.028412      705.72566     -57.704378      648.02129    
   2134000   299.29167      0.042618159    17.060462      742.55089     -58.783124      683.76777    
   2135000   302.29272      0.042618159    24.438363      749.99656     -61.312168      688.68439    
   2136000   308.10021      0.042618159    19.748684      764.4051      -57.855813      706.54929    
   2137000   289.79906      0.042618159    15.718609      718.99946     -57.016376      661.98308    
   2138000   294.97698      0.042618159    23.129123      731.84601     -72.020368      659.82565    
   2139000   308.49105      0.042618159    23.0403        765.37479     -72.362486      693.0123     
   2140000   309.06072      0.042618159    15.096671      766.78817     -77.147792      689.64038    
   2141000   288.67348      0.042618159    34.385257      716.20685     -72.98894       643.21791    
   2142000   311.68966      0.042618159    21.579196      773.31064     -73.781217      699.52942    
   2143000   311.52083      0.042618159    16.683996      772.89177     -69.933654      702.95812    
   2144000   292.67611      0.042618159    20.558662      726.1375      -62.281001      663.8565     
   2145000   283.63288      0.042618159    23.296427      703.70099     -63.663029      640.03796    
   2146000   311.10878      0.042618159    30.459679      771.86947     -65.71767       706.1518     
   2147000   315.83163      0.042618159    20.798003      783.58698     -67.782147      715.80483    
   2148000   296.67055      0.042618159    19.61342       736.04781     -62.426393      673.62142    
   2149000   294.77683      0.042618159    19.619402      731.34943     -65.955083      665.39435    
   2150000   297.5026       0.042618159    22.678652      738.11214     -65.376667      672.73547    
   2151000   304.85913      0.042618159    21.181093      756.3639      -69.916284      686.44761    
   2152000   310.61669      0.042618159    18.600854      770.64858     -71.319806      699.32877    
   2153000   289.42048      0.042618159    21.707021      718.06018     -77.068932      640.99125    
   2154000   302.97983      0.042618159    24.718821      751.70131     -70.281609      681.4197     
   2155000   306.85204      0.042618159    18.432386      761.30837     -70.623874      690.6845     
   2156000   283.04488      0.042618159    19.750419      702.24216     -75.883144      626.35901    
   2157000   294.17309      0.042618159    19.137001      729.85153     -69.657991      660.19354    
   2158000   314.24563      0.042618159    24.776054      779.65208     -73.312617      706.33946    
   2159000   311.9392       0.042618159    22.591979      773.92975     -69.35688       704.57287    
   2160000   304.28048      0.042618159    20.787649      754.92825     -61.586188      693.34206    
   2161000   292.92468      0.042618159    18.917086      726.7542      -62.718145      664.03605    
   2162000   306.23387      0.042618159    25.653983      759.77468     -65.931288      693.84339    
   2163000   298.13614      0.042618159    25.446818      739.68398     -67.117711      672.56627    
   2164000   289.88011      0.042618159    21.211517      719.20056     -72.261784      646.93877    
   2165000   301.59721      0.042618159    23.162896      748.27099     -70.106526      678.16447    
   2166000   291.31043      0.042618159    22.413285      722.74922     -66.692507      656.05671    
   2167000   289.00898      0.042618159    18.572133      717.03926     -66.63746       650.4018     
   2168000   298.16895      0.042618159    20.883811      739.76539     -72.844945      666.92045    
   2169000   314.48916      0.042618159    22.436936      780.25628     -74.414606      705.84167    
   2170000   307.17136      0.042618159    20.098678      762.10061     -78.579825      683.52079    
   2171000   307.27631      0.042618159    22.301452      762.361       -76.203569      686.15743    
   2172000   301.93343      0.042618159    19.526847      749.10517     -71.257426      677.84775    
   2173000   287.76727      0.042618159    23.417344      713.95853     -74.574035      639.38449    
   2174000   297.12436      0.042618159    21.798042      737.17373     -77.477075      659.69665    
   2175000   314.15855      0.042618159    24.687576      779.43603     -76.966933      702.4691     
   2176000   288.91782      0.042618159    19.09808       716.81308     -77.954407      638.85867    
   2177000   302.35509      0.042618159    20.449944      750.15132     -69.804321      680.347      
   2178000   309.36513      0.042618159    25.338402      767.54342     -73.105082      694.43834    
   2179000   283.46075      0.042618159    18.258785      703.27395     -73.491796      629.78215    
   2180000   296.92828      0.042618159    23.543458      736.68725     -81.242874      655.44437    
   2181000   311.97042      0.042618159    21.019649      774.00722     -82.012798      691.99442    
   2182000   310.40131      0.042618159    35.892011      770.1142      -79.277256      690.83694    
   2183000   285.87147      0.042618159    18.887936      709.255       -80.416219      628.83878    
   2184000   300.5095       0.042618159    7.563469       745.57234     -76.18391       669.38843    
   2185000   308.80063      0.042618159    31.529182      766.14288     -76.043395      690.09948    
   2186000   300.99138      0.042618159    32.170759      746.76791     -67.306529      679.46138    
   2187000   285.4152       0.042618159    37.814238      708.12298     -64.93594       643.18704    
   2188000   293.34739      0.042618159    16.99826       727.80297     -74.547552      653.25541    
   2189000   296.50774      0.042618159    11.057667      735.64388     -67.444529      668.19935    
   2190000   309.37851      0.042618159    23.805182      767.57661     -66.388796      701.18782    
   2191000   303.33049      0.042618159    24.361681      752.5713      -68.569677      684.00163    
   2192000   297.78021      0.042618159    22.37149       738.80092     -67.661637      671.13928    
   2193000   298.25797      0.042618159    20.193787      739.98625     -65.764453      674.2218     
   2194000   302.93016      0.042618159    19.965951      751.57808     -63.528533      688.04954    
   2195000   320.00178      0.042618159    21.636887      793.93324     -68.356361      725.57688    
   2196000   303.12512      0.042618159    25.693522      752.06178     -74.845311      677.21647    
   2197000   285.79939      0.042618159    17.120818      709.07617     -80.965969      628.1102     
   2198000   297.73451      0.042618159    24.294425      738.68752     -76.20132       662.4862     
   2199000   319.43849      0.042618159    24.539278      792.53571     -79.421591      713.11412    
   2200000   307.42086      0.042618159    19.940664      762.71964     -72.959243      689.76039    
   2201000   288.037        0.042618159    18.356416      714.62775     -70.459196      644.16855    
   2202000   299.82415      0.042618159    22.720962      743.87199     -67.354704      676.51728    
   2203000   308.01024      0.042618159    25.336735      764.18189     -65.342465      698.83942    
   2204000   315.25621      0.042618159    22.198028      782.15934     -68.492971      713.66637    
   2205000   281.95874      0.042618159    21.679578      699.54742     -68.423905      631.12351    
   2206000   280.65483      0.042618159    20.852209      696.31236     -72.23825       624.07411    
   2207000   299.78427      0.042618159    23.752636      743.77305     -71.31554       672.45751    
   2208000   299.49308      0.042618159    38.116884      743.05059     -68.582314      674.46828    
   2209000   296.54277      0.042618159    19.603035      735.73079     -66.660087      669.0707     
   2210000   296.35371      0.042618159    14.787113      735.26173     -76.077669      659.18407    
   2211000   300.48542      0.042618159    22.182559      745.5126      -75.219273      670.29333    
   2212000   308.8045       0.042618159    26.102328      766.15247     -78.534445      687.61802    
   2213000   306.78171      0.042618159    20.347891      761.13388     -77.003681      684.1302     
   2214000   293.59274      0.042618159    19.886833      728.41167     -79.962509      648.44916    
   2215000   299.32216      0.042618159    22.002969      742.62652     -76.137648      666.48887    
   2216000   312.69231      0.042618159    13.970701      775.79824     -75.898324      699.89991    
   2217000   307.9811       0.042618159    25.344864      764.10961     -70.476769      693.63284    
   2218000   275.88154      0.042618159    21.989511      684.46971     -65.085563      619.38414    
   2219000   299.7731       0.042618159    21.271193      743.74532     -68.085798      675.65952    
   2220000   310.87882      0.042618159    28.96862       771.29893     -70.623948      700.67498    
   2221000   307.01633      0.042618159    53.136674      761.71599     -70.112709      691.60328    
   2222000   295.42458      0.042618159    23.635802      732.95651     -69.683098      663.27342    
   2223000   305.88338      0.042618159    25.11098       758.90509     -73.083959      685.82113    
   2224000   302.32792      0.042618159    27.717662      750.08391     -60.069868      690.01404    
   2225000   302.21785      0.042618159    19.767232      749.81082     -58.850808      690.96001    
   2226000   307.76861      0.042618159    0.84210204     763.5824      -59.382214      704.20018    
   2227000   302.17543      0.042618159    37.394294      749.70557     -58.524764      691.1808     
   2228000   300.95678      0.042618159    51.095245      746.68205     -68.683065      677.99899    
   2229000   295.64569      0.042618159    14.890332      733.50509     -71.770569      661.73453    
   2230000   294.52693      0.042618159    21.038515      730.72943     -68.620906      662.10852    
   2231000   306.10824      0.042618159    21.882485      759.46298     -75.399108      684.06387    
   2232000   292.67553      0.042618159    18.609121      726.13606     -65.820602      660.31546    
   2233000   298.96141      0.042618159    16.879725      741.73149     -71.662719      670.06877    
   2234000   303.6821       0.042618159    29.031554      753.44367     -73.528404      679.91526    
   2235000   297.05171      0.042618159    11.827576      736.99348     -74.867114      662.12636    
   2236000   306.35202      0.042618159    18.79622       760.0678      -67.764432      692.30337    
   2237000   295.86842      0.042618159    38.66171       734.05769     -66.612121      667.44557    
   2238000   294.52292      0.042618159    21.574396      730.71947     -72.060509      658.65896    
   2239000   301.73534      0.042618159    20.652751      748.6137      -67.462763      681.15094    
   2240000   304.16649      0.042618159    24.10668       754.64544     -73.273899      681.37154    
   2241000   306.57323      0.042618159    26.485607      760.61663     -67.535113      693.08151    
   2242000   298.84909      0.042618159    20.979738      741.45283     -67.032754      674.42008    
   2243000   306.92504      0.042618159    20.690226      761.48948     -65.521059      695.96843    
   2244000   301.99881      0.042618159    23.708666      749.26736     -64.525289      684.74207    
   2245000   297.01491      0.042618159    21.067937      736.90217     -74.667158      662.23501    
   2246000   298.25762      0.042618159    23.870198      739.98537     -69.071846      670.91352    
   2247000   308.95057      0.042618159    21.22946       766.51488     -66.467831      700.04705    
   2248000   303.20579      0.042618159    21.669951      752.26192     -69.620228      682.6417     
   2249000   300.99246      0.042618159    21.481696      746.7706      -69.825756      676.94484    
   2250000   290.96482      0.042618159    21.83236       721.89173     -71.893749      649.99798    
   2251000   292.72882      0.042618159    29.652208      726.26828     -67.202944      659.06533    
   2252000   299.03132      0.042618159    27.160626      741.90495     -73.500899      668.40405    
   2253000   308.58171      0.042618159    23.239406      765.59972     -74.910527      690.6892     
   2254000   296.22702      0.042618159    18.581106      734.9474      -68.70213       666.24527    
   2255000   296.09017      0.042618159    18.040116      734.60787     -64.436066      670.17181    
   2256000   295.45358      0.042618159    22.496308      733.02848     -69.250816      663.77766    
   2257000   300.72548      0.042618159    22.302354      746.1082      -61.78338       684.32482    
   2258000   292.92555      0.042618159    22.615954      726.75635     -69.425159      657.33119    
   2259000   299.98905      0.042618159    17.375683      744.2811      -67.056826      677.22427    
   2260000   294.07927      0.042618159    22.534861      729.61877     -72.66188       656.95689    
   2261000   309.94191      0.042618159    28.559797      768.97442     -72.442249      696.53217    
   2262000   297.33952      0.042618159    16.382055      737.70754     -72.605073      665.10246    
   2263000   307.75454      0.042618159    11.344817      763.5475      -68.3951        695.1524     
   2264000   302.30182      0.042618159    32.093794      750.01915     -63.889388      686.12977    
   2265000   293.89388      0.042618159    33.016527      729.15882     -69.762797      659.39603    
   2266000   305.36045      0.042618159   -1.1697564      757.60768     -62.567832      695.03985    
   2267000   298.39934      0.042618159    11.748584      740.337       -63.798808      676.53819    
   2268000   284.38521      0.042618159    31.022918      705.56756     -67.891317      637.67624    
   2269000   299.92892      0.042618159    25.337767      744.13191     -70.976998      673.15491    
   2270000   303.9159       0.042618159    23.120382      754.02373     -70.557687      683.46604    
   2271000   294.83327      0.042618159    12.877453      731.48947     -63.087997      668.40147    
   2272000   304.32281      0.042618159    41.418218      755.03327     -76.135832      678.89744    
   2273000   307.17634      0.042618159    31.545978      762.11295     -71.665861      690.44709    
   2274000   306.57614      0.042618159    29.677047      760.62386     -75.390736      685.23312    
   2275000   312.24024      0.042618159    5.9158039      774.67664     -72.863154      701.81349    
   2276000   297.55025      0.042618159    14.974106      738.23038     -78.349378      659.88101    
   2277000   285.59533      0.042618159    39.757311      708.56989     -73.9186        634.65129    
   2278000   300.2054       0.042618159    26.534598      744.81787     -73.277601      671.54027    
   2279000   310.66609      0.042618159    3.3136167      770.77114     -72.840422      697.93072    
   2280000   303.37806      0.042618159    19.679757      752.68934     -74.927304      677.76204    
   2281000   299.02148      0.042618159    24.722822      741.88054     -75.020655      666.85988    
   2282000   292.76376      0.042618159    17.885645      726.35495     -73.987053      652.3679     
   2283000   313.78058      0.042618159    22.905044      778.49826     -65.081661      713.4166     
   2284000   310.26224      0.042618159    27.549418      769.76916     -59.177819      710.59134    
   2285000   290.96711      0.042618159    17.851422      721.89742     -66.477603      655.41982    
   2286000   293.29322      0.042618159    25.778428      727.66857     -69.034829      658.63374    
   2287000   303.62516      0.042618159    22.43871       753.30239     -64.141593      689.1608     
   2288000   305.49854      0.042618159    19.115895      757.95029     -73.281571      684.66872    
   2289000   300.61877      0.042618159    22.838477      745.84346     -69.155508      676.68795    
   2290000   295.98173      0.042618159    18.51258       734.33883     -73.075024      661.26381    
   2291000   289.31479      0.042618159    13.734123      717.79797     -74.31234       643.48563    
   2292000   300.77312      0.042618159    13.881911      746.22641     -83.424345      662.80206    
   2293000   315.04651      0.042618159    18.121915      781.63908     -74.520501      707.11857    
   2294000   305.27191      0.042618159    20.442395      757.38803     -72.157153      685.23087    
   2295000   295.28343      0.042618159    23.098519      732.60633     -69.075702      663.53063    
   2296000   287.77836      0.042618159    29.538553      713.98604     -70.541663      643.44438    
   2297000   302.09677      0.042618159    15.532301      749.51043     -73.172864      676.33756    
   2298000   305.62191      0.042618159    19.376365      758.25638     -77.229916      681.02647    
   2299000   300.4978       0.042618159    21.244014      745.54333     -72.768676      672.77466    
   2300000   302.96101      0.042618159    23.661784      751.65463     -70.618142      681.03648    
   2301000   300.92859      0.042618159    20.177308      746.61213     -80.593309      666.01882    
   2302000   298.72481      0.042618159    21.713541      741.14448     -79.903274      661.24121    
   2303000   317.06523      0.042618159    25.420142      786.64758     -82.448777      704.1988     
   2304000   303.26709      0.042618159    21.276678      752.41401     -75.790014      676.624      
   2305000   291.26319      0.042618159    21.299159      722.632       -73.486874      649.14512    
   2306000   303.65481      0.042618159    19.984001      753.37594     -70.177027      683.19892    
   2307000   312.81457      0.042618159    23.470397      776.10156     -64.238471      711.86309    
   2308000   311.90114      0.042618159    19.082386      773.83532     -71.399733      702.43559    
   2309000   295.08362      0.042618159    22.221259      732.11058     -65.82979       666.28079    
   2310000   300.98567      0.042618159    21.81233       746.75373     -73.056527      673.69721    
   2311000   295.1967       0.042618159    19.426195      732.39115     -65.020245      667.37091    
   2312000   301.01356      0.042618159    15.822737      746.82294     -68.971081      677.85186    
   2313000   312.79686      0.042618159    21.903143      776.05764     -69.570484      706.48716    
   2314000   314.51602      0.042618159    22.451651      780.32292     -75.077199      705.24572    
   2315000   305.08051      0.042618159    26.057828      756.91316     -71.017247      685.89592    
   2316000   285.1472       0.042618159    19.779947      707.45807     -71.498632      635.95944    
   2317000   300.61713      0.042618159    20.056883      745.83939     -72.081012      673.75837    
   2318000   307.72426      0.042618159    21.482115      763.47238     -76.948453      686.52393    
   2319000   290.72118      0.042618159    18.414238      721.28727     -77.800613      643.48666    
   2320000   298.76269      0.042618159    20.477469      741.23846     -75.807933      665.43053    
   2321000   314.03897      0.042618159    20.455465      779.13933     -84.665054      694.47428    
   2322000   299.62222      0.042618159    19.514777      743.37098     -83.721507      659.64948    
   2323000   288.24671      0.042618159    24.869329      715.14803     -78.535224      636.61281    
   2324000   294.27732      0.042618159    21.154653      730.11015     -83.425863      646.68428    
   2325000   297.33115      0.042618159    19.407935      737.68679     -81.657272      656.02952    
   2326000   315.51134      0.042618159    22.208912      782.79232     -72.974784      709.81754    
   2327000   303.1861       0.042618159    23.033196      752.21308     -74.704571      677.50851    
   2328000   292.87669      0.042618159    23.122175      726.63514     -68.327419      658.30772    
   2329000   305.87896      0.042618159    31.073122      758.89413     -68.385756      690.50837    
   2330000   309.84299      0.042618159    18.120809      768.729       -67.707629      701.02137    
   2331000   282.7367       0.042618159    19.732652      701.47754     -65.854518      635.62302    
   2332000   303.69315      0.042618159    25.731131      753.47108     -68.234674      685.23641    
   2333000   314.45939      0.042618159    26.719482      780.18241     -70.227049      709.95536    
   2334000   299.59703      0.042618159    24.875606      743.30848     -71.144209      672.16428    
   2335000   293.48358      0.042618159    19.511045      728.14085     -72.825715      655.31513    
   2336000   303.72631      0.042618159    26.616672      753.55336     -66.591735      686.96162    
   2337000   308.72762      0.042618159    21.908371      765.96173     -69.034059      696.92767    
   2338000   294.21015      0.042618159    17.592774      729.94348     -69.114266      660.82922    
   2339000   286.10447      0.042618159    16.127477      709.83308     -70.224264      639.60882    
   2340000   298.15843      0.042618159    28.050607      739.73929     -72.09797       667.64132    
   2341000   309.93999      0.042618159    26.551182      768.96967     -76.791863      692.17781    
   2342000   303.53376      0.042618159    22.545587      753.07562     -77.103172      675.97245    
   2343000   292.44471      0.042618159    17.056526      725.5634      -73.276551      652.28685    
   2344000   297.39543      0.042618159    15.760148      737.84626     -70.301115      667.54515    
   2345000   313.05881      0.042618159    20.845198      776.70754     -69.373661      707.33388    
   2346000   308.23801      0.042618159    35.250624      764.747       -72.17429       692.57271    
   2347000   291.49998      0.042618159    19.693763      723.21948     -68.848309      654.37117    
   2348000   297.97026      0.042618159    14.231672      739.27243     -67.096771      672.17566    
   2349000   310.21376      0.042618159    24.409205      769.64888     -77.402768      692.24611    
   2350000   302.40036      0.042618159    24.337194      750.26362     -79.991866      670.27176    
   2351000   288.12643      0.042618159    32.9858        714.84962     -69.962297      644.88732    
   2352000   296.8153       0.042618159    0.52466884     736.40694     -71.697653      664.70929    
   2353000   308.20682      0.042618159    23.54873       764.66961     -73.978681      690.69093    
   2354000   283.85799      0.042618159    25.952958      704.2595      -74.021884      630.23762    
   2355000   284.41006      0.042618159    15.295574      705.62919     -64.997275      640.63191    
   2356000   303.83955      0.042618159    15.85683       753.8343      -67.248181      686.58612    
   2357000   316.03483      0.042618159    24.597807      784.09112     -74.3072        709.78392    
   2358000   298.04161      0.042618159    35.131154      739.44946     -70.260335      669.18913    
   2359000   291.38318      0.042618159    25.697566      722.92969     -71.713527      651.21617    
   2360000   307.41808      0.042618159    10.724791      762.71274     -68.798554      693.91419    
   2361000   305.15714      0.042618159    21.22978       757.10329     -75.203652      681.89963    
   2362000   296.46241      0.042618159    26.992832      735.53141     -61.769838      673.76158    
   2363000   304.66594      0.042618159    19.090364      755.8846      -69.376822      686.50778    
   2364000   303.41893      0.042618159    26.904548      752.79072     -69.758072      683.03265    
   2365000   305.94344      0.042618159    22.27055       759.0541      -62.663899      696.3902     
   2366000   289.64781      0.042618159    22.660358      718.62421     -60.778186      657.84602    
   2367000   309.3162       0.042618159    16.783848      767.42202     -70.431083      696.99094    
   2368000   318.3256       0.042618159    20.396518      789.77459     -69.322223      720.45237    
   2369000   307.8121       0.042618159    33.847436      763.69031     -74.745903      688.94441    
   2370000   294.12454      0.042618159    27.534749      729.73108     -73.123785      656.6073     
   2371000   291.77795      0.042618159    17.428017      723.90915     -80.256136      643.65301    
   2372000   306.40831      0.042618159    23.895718      760.20747     -78.934458      681.27301    
   2373000   299.62679      0.042618159    24.985533      743.38232     -77.14613       666.23619    
   2374000   297.93182      0.042618159    21.30242       739.17705     -82.173364      657.00368    
   2375000   304.38831      0.042618159    18.914602      755.19578     -80.857661      674.33812    
   2376000   280.27712      0.042618159    18.714338      695.37526     -84.679367      610.69589    
   2377000   300.34272      0.042618159    21.602734      745.15857     -81.403381      663.75519    
   2378000   305.88165      0.042618159    20.362649      758.9008      -71.173315      687.72749    
   2379000   290.22251      0.042618159    16.477092      720.05004     -75.513284      644.53675    
   2380000   298.62177      0.042618159    24.280428      740.88883     -75.413869      665.47496    
   2381000   311.07202      0.042618159    26.687721      771.77827     -74.332492      697.44577    
   2382000   313.71308      0.042618159    22.986967      778.3308      -77.511363      700.81944    
   2383000   297.02698      0.042618159    19.339843      736.93213     -80.714814      656.21732    
   2384000   289.66283      0.042618159    17.456498      718.66147     -73.202963      645.45851    
   2385000   306.93615      0.042618159    26.186831      761.51706     -74.013469      687.50359    
   2386000   312.07267      0.042618159    22.441096      774.26089     -72.779312      701.48157    
   2387000   285.6774       0.042618159    16.569055      708.77351     -72.894705      635.8788     
   2388000   295.66659      0.042618159    25.222421      733.55697     -85.910853      647.64612    
   2389000   316.51652      0.042618159    24.253939      785.28622     -74.359991      710.92623    
   2390000   301.46513      0.042618159    16.847875      747.94331     -74.098606      673.8447     
   2391000   288.04427      0.042618159    22.229735      714.64578     -76.20405       638.44173    
   2392000   296.05182      0.042618159    23.833666      734.51272     -79.924489      654.58823    
   2393000   295.43495      0.042618159    19.033258      732.98224     -78.845835      654.13641    
   2394000   299.24327      0.042618159    19.702177      742.43079     -71.249408      671.18138    
   2395000   287.63262      0.042618159    20.329524      713.62446     -67.888069      645.73639    
   2396000   314.23064      0.042618159    21.490939      779.61489     -72.611271      707.00362    
   2397000   287.77365      0.042618159    21.952862      713.97436     -67.952935      646.02143    
   2398000   301.34842      0.042618159    24.156307      747.65374     -68.763605      678.89013    
   2399000   304.49358      0.042618159    22.729794      755.45697     -69.826719      685.63025    
   2400000   308.36038      0.042618159    25.717452      765.0506      -73.871476      691.17912    
   2401000   295.98524      0.042618159    19.640431      734.34754     -72.040377      662.30717    
   2402000   299.8414       0.042618159    20.767667      743.91477     -72.715913      671.19886    
   2403000   298.36696      0.042618159    19.066859      740.25665     -72.813042      667.4436     
   2404000   290.3585       0.042618159    17.508584      720.38744     -67.761054      652.62638    
   2405000   294.98458      0.042618159    19.955347      731.86487     -71.769913      660.09496    
   2406000   298.70365      0.042618159    22.346255      741.092       -69.772157      671.31984    
   2407000   306.43166      0.042618159    24.560519      760.2654      -68.664759      691.60064    
   2408000   310.26578      0.042618159    24.131142      769.77796     -66.60667       703.17129    
   2409000   305.45397      0.042618159    17.631266      757.83971     -64.233576      693.60614    
   2410000   288.83595      0.042618159    19.067171      716.60996     -60.29527       656.31469    
   2411000   298.95476      0.042618159    26.576798      741.715       -62.468622      679.24638    
   2412000   304.04214      0.042618159    20.962197      754.33694     -66.830652      687.50629    
   2413000   301.00941      0.042618159    18.687524      746.81263     -62.686615      684.12602    
   2414000   303.76072      0.042618159    24.259242      753.63872     -60.166921      693.4718     
   2415000   291.05686      0.042618159    20.574598      722.12009     -59.834016      662.28608    
   2416000   292.33765      0.042618159    17.492918      725.29776     -61.170419      664.12734    
   2417000   300.24331      0.042618159    21.597282      744.91193     -63.639319      681.27261    
   2418000   314.289        0.042618159    34.029825      779.75966     -63.55471       716.20495    
   2419000   308.28703      0.042618159    24.731595      764.86862     -71.443991      693.42463    
   2420000   325.65747      0.042618159    10.404796      807.96515     -66.353979      741.61117    
   2421000   297.56766      0.042618159    15.395399      738.27356     -60.774762      677.4988     
   2422000   298.24856      0.042618159    28.396615      739.9629      -64.874097      675.0888     
   2423000   299.67015      0.042618159    25.495716      743.4899      -67.429256      676.06064    
   2424000   314.95363      0.042618159   -10.017234      781.40864     -67.62057       713.78807    
   2425000   286.4258       0.042618159    16.84494       710.63031     -68.378823      642.25149    
   2426000   296.21028      0.042618159    27.714728      734.90586     -64.715247      670.19061    
   2427000   299.56878      0.042618159    48.544183      743.2384      -70.556501      672.6819     
   2428000   321.38703      0.042618159    19.269666      797.37008     -71.732918      725.63716    
   2429000   305.78368      0.042618159    11.898008      758.65775     -72.399036      686.25871    
   2430000   295.64831      0.042618159    22.382459      733.5116      -68.497844      665.01375    
   2431000   294.52215      0.042618159    17.600614      730.71757     -71.018429      659.69914    
   2432000   312.72416      0.042618159    21.273138      775.87726     -69.877426      705.99983    
   2433000   302.64765      0.042618159    22.244406      750.87716     -73.201356      677.67581    
   2434000   279.7228       0.042618159    17.727368      693.99999     -66.484463      627.51552    
   2435000   301.14505      0.042618159    9.8356854      747.14918     -67.241696      679.90748    
   2436000   312.69706      0.042618159    20.947843      775.81002     -73.162663      702.64736    
   2437000   301.17714      0.042618159    38.410063      747.22878     -68.280895      678.94789    
   2438000   301.50201      0.042618159    18.87048       748.03479     -61.046676      686.98811    
   2439000   310.78673      0.042618159    14.150894      771.07044     -55.39786       715.67258    
   2440000   308.90108      0.042618159    22.587582      766.39209     -61.125262      705.26683    
   2441000   298.09831      0.042618159    39.105822      739.59012     -62.466124      677.124      
   2442000   290.90144      0.042618159    12.235563      721.73449     -66.516204      655.21829    
   2443000   301.68037      0.042618159    19.335577      748.47731     -66.879384      681.59792    
   2444000   312.96033      0.042618159    29.123327      776.46321     -70.471255      705.99195    
   2445000   329.4293       0.042618159    29.498349      817.32317     -75.859761      741.46341    
   2446000   294.41577      0.042618159    22.449425      730.45364     -81.888433      648.56521    
   2447000   294.84744      0.042618159    25.658537      731.52463     -76.281172      655.24346    
   2448000   298.84435      0.042618159    26.366899      741.44107     -66.970985      674.47008    
   2449000   303.07596      0.042618159    22.194877      751.9398      -65.230475      686.70932    
   2450000   315.45311      0.042618159    25.921854      782.64786     -62.17294       720.47492    
   2451000   293.29148      0.042618159    21.848515      727.66424     -58.121894      669.54235    
   2452000   292.49918      0.042618159    17.237529      725.69852     -60.848731      664.84979    
   2453000   301.71057      0.042618159    13.856963      748.55224     -60.021987      688.53025    
   2454000   301.85443      0.042618159    23.761256      748.90916     -63.665894      685.24327    
   2455000   302.37078      0.042618159    23.907425      750.19023     -76.243666      673.94657    
   2456000   298.4388       0.042618159    27.478659      740.43489     -67.649606      672.78528    
   2457000   306.96659      0.042618159    6.7270097      761.59257     -65.4876        696.10497    
   2458000   292.81003      0.042618159    22.058476      726.46976     -66.013441      660.45631    
   2459000   297.80037      0.042618159    26.97264       738.85093     -59.215212      679.63572    
   2460000   309.01825      0.042618159    23.890046      766.6828      -61.552375      705.13043    
   2461000   306.20809      0.042618159    17.227662      759.7107      -67.246489      692.46421    
   2462000   297.11416      0.042618159    18.3613        737.14841     -70.183105      666.96531    
   2463000   297.26677      0.042618159    7.6020034      737.52704     -64.533545      672.9935     
   2464000   292.01356      0.042618159    28.610922      724.4937      -73.559996      650.93371    
   2465000   314.18411      0.042618159    20.404633      779.49944     -74.025832      705.47361    
   2466000   288.27463      0.042618159    14.634211      715.21731     -74.796509      640.4208     
   2467000   286.27426      0.042618159    27.240428      710.25433     -67.435125      642.8192     
   2468000   306.64135      0.042618159    30.789238      760.78565     -72.538856      688.24679    
   2469000   314.86416      0.042618159    19.134454      781.18665     -72.077705      709.10894    
   2470000   290.93046      0.042618159    17.637209      721.8065      -76.872997      644.9335     
   2471000   289.64745      0.042618159    21.81606       718.6233      -70.694626      647.92867    
   2472000   312.35896      0.042618159    43.016224      774.97119     -68.787719      706.18347    
   2473000   326.46664      0.042618159    23.675347      809.97272     -68.971724      741.001      
   2474000   295.19297      0.042618159    18.397807      732.3819      -71.036742      661.34516    
   2475000   294.83547      0.042618159    20.796199      731.49493     -69.370387      662.12455    
   2476000   303.06033      0.042618159    43.292916      751.90103     -65.522006      686.37902    
   2477000   315.8087       0.042618159    26.333373      783.5301      -66.730662      716.79944    
   2478000   301.68564      0.042618159   -23.450926      748.49038     -74.083164      674.40722    
   2479000   286.35003      0.042618159    20.038818      710.44232     -69.04452       641.3978     
   2480000   308.78923      0.042618159    47.891942      766.1146      -75.431754      690.68284    
   2481000   303.45402      0.042618159    10.233649      752.8778      -78.761606      674.11619    
   2482000   293.03116      0.042618159    21.487107      727.01839     -76.774319      650.24407    
   2483000   311.07764      0.042618159    27.638683      771.79221     -62.616225      709.17599    
   2484000   305.37786      0.042618159    36.194467      757.65089     -64.736093      692.9148     
   2485000   308.55445      0.042618159    22.11906       765.53209     -63.367974      702.16412    
   2486000   308.92131      0.042618159    5.8026035      766.44228     -69.35615       697.08613    
   2487000   296.04202      0.042618159   -11.204747      734.4884      -65.135119      669.35328    
   2488000   285.1118       0.042618159    10.320495      707.37023     -57.697317      649.67291    
   2489000   297.97913      0.042618159    13.884251      739.29444     -57.413181      681.88126    
   2490000   306.31993      0.042618159    21.752493      759.98818     -53.141236      706.84695    
   2491000   297.34266      0.042618159    21.440932      737.71533     -60.674053      677.04128    
   2492000   299.55698      0.042618159    21.750554      743.20913     -64.979309      678.22982    
   2493000   300.13716      0.042618159    29.150664      744.64857     -64.382175      680.26639    
   2494000   296.59104      0.042618159    18.856646      735.85056     -67.591141      668.25942    
   2495000   306.69116      0.042618159    19.134465      760.90921     -67.150907      693.7583     
   2496000   303.63745      0.042618159    21.137991      753.33288     -63.335235      689.99765    
   2497000   290.06977      0.042618159    19.619899      719.6711      -59.357475      660.31362    
   2498000   306.47239      0.042618159    33.85168       760.36644     -71.041762      689.32468    
   2499000   302.65677      0.042618159    20.737939      750.89978     -65.830534      685.06925    
   2500000   292.14842      0.042618159    22.152271      724.82829     -67.078627      657.74966    
   2501000   313.37498      0.042618159    19.737853      777.49197     -74.88654       702.60543    
   2502000   307.45278      0.042618159    25.335198      762.79883     -76.36646       686.43237    
   2503000   297.60808      0.042618159    21.224749      738.37384     -76.198122      662.17572    
   2504000   291.90337      0.042618159    20.688207      724.22032     -72.598337      651.62198    
   2505000   310.37424      0.042618159    22.507268      770.04704     -63.572968      706.47408    
   2506000   305.96901      0.042618159    23.663028      759.11754     -60.133653      698.98389    
   2507000   283.27311      0.042618159    19.92938       702.80839     -70.765915      632.04248    
   2508000   296.88085      0.042618159    24.302686      736.56956     -62.009185      674.56038    
   2509000   298.44053      0.042618159    22.77888       740.43917     -69.309383      671.12979    
   2510000   306.60456      0.042618159    24.166392      760.69437     -61.45327       699.2411     
   2511000   298.34461      0.042618159    22.481146      740.20121     -69.181964      671.01925    
   2512000   290.8445       0.042618159    16.090373      721.59321     -72.437156      649.15605    
   2513000   293.44907      0.042618159    9.5214546      728.05524     -76.887272      651.16797    
   2514000   294.58044      0.042618159    16.895055      730.8622      -74.109888      656.75231    
   2515000   307.547        0.042618159    28.380927      763.0326      -76.702098      686.3305     
   2516000   303.02068      0.042618159    19.020302      751.80266     -71.421517      680.38114    
   2517000   308.1265       0.042618159    16.972267      764.47034     -66.453509      698.01683    
   2518000   312.92103      0.042618159    18.930234      776.36569     -72.075165      704.29053    
   2519000   292.9049       0.042618159    38.2567        726.70513     -71.367964      655.33716    
   2520000   288.73717      0.042618159    17.684283      716.36489     -73.211519      643.15337    
   2521000   308.49113      0.042618159    18.839164      765.37501     -83.515094      681.85991    
   2522000   308.84033      0.042618159    18.102478      766.24137     -78.183637      688.05773    
   2523000   314.10131      0.042618159    29.783298      779.294       -78.436769      700.85723    
   2524000   288.20382      0.042618159    23.563329      715.04163     -81.398204      633.64343    
   2525000   287.64684      0.042618159    18.823841      713.65974     -79.373359      634.28638    
   2526000   305.18789      0.042618159    21.204162      757.17958     -82.439416      674.74016    
   2527000   313.38965      0.042618159    22.3815        777.52836     -77.868303      699.66006    
   2528000   294.02647      0.042618159    26.130312      729.48779     -82.17501       647.31278    
   2529000   293.8074       0.042618159    2.7754624      728.94427     -84.897731      644.04654    
   2530000   303.38077      0.042618159    25.554247      752.69605     -80.489969      672.20609    
   2531000   294.15145      0.042618159    22.742877      729.79787     -84.164986      645.63288    
   2532000   297.6405       0.042618159    19.992831      738.45427     -78.118799      660.33547    
   2533000   303.05882      0.042618159    17.672383      751.89729     -84.238222      667.65907    
   2534000   308.56496      0.042618159    21.574834      765.55817     -79.421545      686.13663    
   2535000   296.58244      0.042618159    20.037066      735.8292      -81.450626      654.37858    
   2536000   293.59176      0.042618159    18.396803      728.40924     -81.728385      646.68085    
   2537000   306.26789      0.042618159    20.254544      759.85908     -80.874111      678.98496    
   2538000   306.29261      0.042618159    22.897962      759.92041     -81.600622      678.31979    
   2539000   301.72174      0.042618159    20.563313      748.57995     -74.326774      674.25317    
   2540000   288.29442      0.042618159    26.473894      715.26641     -65.006208      650.2602     
   2541000   295.35132      0.042618159    20.914533      732.77477     -72.08679       660.68798    
   2542000   306.22859      0.042618159    20.982198      759.76157     -70.521307      689.24026    
   2543000   295.31263      0.042618159    23.690664      732.67878     -69.609097      663.06968    
   2544000   303.42043      0.042618159    18.601361      752.79444     -78.622819      674.17162    
   2545000   301.91088      0.042618159    22.209816      749.04922     -72.98107       676.06815    
   2546000   320.89014      0.042618159    11.534652      796.13728     -73.842         722.29528    
   2547000   290.47214      0.042618159    21.100722      720.66938     -69.645206      651.02418    
   2548000   295.46414      0.042618159    22.260238      733.05469     -77.371336      655.68335    
   2549000   320.31138      0.042618159    10.110593      794.70135     -78.971779      715.72957    
   2550000   297.64717      0.042618159    42.748156      738.47084     -71.709283      666.76155    
   2551000   287.87488      0.042618159    21.238175      714.22551     -71.386716      642.83879    
   2552000   316.82257      0.042618159    13.51146       786.04553     -62.792032      723.2535     
   2553000   303.56923      0.042618159    30.243906      753.16364     -66.109772      687.05386    
   2554000   280.71227      0.042618159    13.775004      696.45489     -69.531634      626.92326    
   2555000   302.53057      0.042618159    14.86258       750.58669     -75.315161      675.27153    
   2556000   305.10668      0.042618159    49.798879      756.97808     -74.658946      682.31913    
   2557000   292.35873      0.042618159    9.4225929      725.35007     -71.792286      653.55778    
   2558000   307.12317      0.042618159    21.015346      761.98105     -72.485234      689.49582    
   2559000   298.36589      0.042618159    29.955462      740.25401     -72.641046      667.61296    
   2560000   301.06396      0.042618159    10.959195      746.94799     -73.788815      673.15918    
   2561000   301.29957      0.042618159    13.115795      747.53254     -71.352042      676.1805     
   2562000   297.11877      0.042618159    27.317572      737.15985     -66.63556       670.52429    
   2563000   305.12562      0.042618159    21.58128       757.02506     -71.604663      685.4204     
   2564000   302.54879      0.042618159    0.83989202     750.63189     -69.45062       681.18127    
   2565000   305.23279      0.042618159    10.5313        757.29097     -76.839156      680.45182    
   2566000   304.09212      0.042618159    49.358709      754.46092     -72.154278      682.30664    
   2567000   292.49605      0.042618159    24.974731      725.69076     -70.068349      655.62241    
   2568000   291.47111      0.042618159    32.001494      723.14787     -75.406856      647.74101    
   2569000   299.72464      0.042618159    15.603749      743.6251      -62.95081       680.67429    
   2570000   301.77091      0.042618159    20.768658      748.70195     -56.915451      691.7865     
   2571000   296.25062      0.042618159    36.824708      735.00596     -59.408778      675.59718    
   2572000   306.6226       0.042618159    9.8970256      760.73913     -73.023405      687.71572    
   2573000   302.46514      0.042618159    6.6545027      750.42435     -79.211756      671.2126     
   2574000   305.26158      0.042618159    31.543406      757.36239     -63.605086      693.75731    
   2575000   287.62859      0.042618159    22.589429      713.61446     -73.881157      639.7333     
   2576000   312.84167      0.042618159    18.513578      776.16882     -68.068357      708.10046    
   2577000   319.95342      0.042618159    16.999002      793.81325     -73.99909       719.81416    
   2578000   297.87224      0.042618159    29.904322      739.02923     -69.482496      669.54673    
   2579000   289.44082      0.042618159    14.456782      718.11065     -70.280851      647.8298     
   2580000   303.24209      0.042618159    13.739389      752.35198     -66.040629      686.31135    
   2581000   306.30542      0.042618159    19.528101      759.95218     -69.441673      690.51051    
   2582000   297.0793       0.042618159    21.19813       737.06194     -71.112298      665.94964    
   2583000   293.07937      0.042618159    24.652368      727.13799     -68.746759      658.39124    
   2584000   293.3886       0.042618159    19.333276      727.9052      -69.714008      658.19119    
   2585000   292.63886      0.042618159    18.99668       726.04508     -67.760372      658.28471    
   2586000   302.98616      0.042618159    25.942138      751.71702     -70.670689      681.04633    
   2587000   296.88974      0.042618159    18.284332      736.59162     -77.187733      659.40389    
   2588000   298.65657      0.042618159    16.431111      740.97519     -70.090659      670.88453    
   2589000   284.77958      0.042618159    21.953319      706.546       -75.143861      631.40214    
   2590000   300.89948      0.042618159    22.476961      746.5399      -78.122132      668.41777    
   2591000   302.66452      0.042618159    18.116667      750.91902     -68.318767      682.60025    
   2592000   310.66774      0.042618159    19.541986      770.77524     -73.985243      696.79       
   2593000   289.57419      0.042618159    25.613684      718.44156     -66.928324      651.51323    
   2594000   301.37032      0.042618159    39.772352      747.70808     -61.985461      685.72262    
   2595000   305.88312      0.042618159    13.348         758.90446     -60.851434      698.05303    
   2596000   283.22989      0.042618159    15.000665      702.70117     -63.945649      638.75552    
   2597000   304.97272      0.042618159    39.610346      756.64573     -62.628013      694.01772    
   2598000   309.28676      0.042618159    30.10208       767.34898     -67.989431      699.35955    
   2599000   296.85065      0.042618159    19.376882      736.49466     -67.257505      669.23715    
   2600000   295.52953      0.042618159    26.028855      733.21691     -74.459716      658.75719    
   2601000   312.33852      0.042618159    27.324727      774.92047     -67.618719      707.30175    
   2602000   302.46664      0.042618159    25.361505      750.42806     -69.288837      681.13922    
   2603000   301.65972      0.042618159    18.448614      748.42608     -68.939468      679.48661    
   2604000   285.22606      0.042618159    23.355289      707.65371     -68.161539      639.49217    
   2605000   300.35405      0.042618159    23.554504      745.18668     -71.25848       673.92821    
   2606000   286.50911      0.042618159    19.383372      710.83701     -70.571153      640.26586    
   2607000   301.16994      0.042618159    20.700377      747.21092     -74.393445      672.81747    
   2608000   306.42216      0.042618159    27.321324      760.24183     -73.669757      686.57207    
   2609000   295.11174      0.042618159    11.376895      732.18037     -66.503624      665.67674    
   2610000   295.78596      0.042618159    26.299008      733.85312     -70.663044      663.19007    
   2611000   305.72022      0.042618159    32.248751      758.50028     -68.885019      689.61526    
   2612000   306.79132      0.042618159    23.104056      761.15771     -73.313653      687.84406    
   2613000   292.27996      0.042618159    5.0673152      725.15463     -76.319324      648.83531    
   2614000   301.18244      0.042618159    32.673275      747.24193     -72.824009      674.41792    
   2615000   308.83174      0.042618159    24.341765      766.22007     -76.545575      689.67449    
   2616000   302.08162      0.042618159    20.515272      749.47283     -72.76516       676.70767    
   2617000   305.97606      0.042618159    4.4804721      759.13504     -70.019208      689.11583    
   2618000   298.26081      0.042618159    24.708658      739.99328     -70.825485      669.1678     
   2619000   306.80761      0.042618159    31.763057      761.19814     -73.838362      687.35977    
   2620000   302.29245      0.042618159    14.941295      749.99589     -76.492631      673.50326    
   2621000   292.98488      0.042618159    14.495487      726.90356     -75.357327      651.54623    
   2622000   287.09649      0.042618159    23.774573      712.29431     -69.42433       642.86998    
   2623000   307.68425      0.042618159    26.338831      763.37311     -76.521558      686.85155    
   2624000   313.95521      0.042618159    15.403445      778.93152     -69.353819      709.5777     
   2625000   302.99914      0.042618159    3.3899458      751.74923     -69.073088      682.67614    
   2626000   288.45391      0.042618159    13.06163       715.6621      -73.699418      641.96268    
   2627000   302.87862      0.042618159    29.874359      751.45021     -78.204658      673.24555    
   2628000   316.09358      0.042618159    12.439474      784.23688     -86.266896      697.96999    
   2629000   292.91034      0.042618159    4.523065       726.71863     -87.268109      639.45052    
   2630000   294.85277      0.042618159    29.028811      731.53784     -70.53379       661.00405    
   2631000   311.42985      0.042618159    21.774235      772.66605     -81.873032      690.79302    
   2632000   292.95571      0.042618159    18.603         726.83119     -80.427046      646.40414    
   2633000   284.27656      0.042618159    16.21876       705.29798     -80.892371      624.40561    
   2634000   310.60285      0.042618159    23.931272      770.61422     -80.379134      690.23509    
   2635000   296.93799      0.042618159   -0.68052604     736.71133     -71.366623      665.34471    
   2636000   290.82531      0.042618159    23.457397      721.5456      -66.950904      654.5947     
   2637000   301.86555      0.042618159    30.552155      748.93676     -71.640377      677.29638    
   2638000   307.81145      0.042618159    20.359652      763.6887      -68.223316      695.46538    
   2639000   285.68014      0.042618159    23.410767      708.78031     -71.678219      637.10209    
   2640000   298.50939      0.042618159    27.336935      740.61002     -73.835184      666.77484    
   2641000   322.48745      0.042618159    20.187958      800.10025     -70.343166      729.75709    
   2642000   302.34268      0.042618159    16.62408       750.12053     -67.554683      682.56585    
   2643000   292.38144      0.042618159    21.548548      725.40641     -71.158133      654.24827    
   2644000   291.83024      0.042618159    22.738047      724.03888     -72.347767      651.69111    
   2645000   302.30782      0.042618159    28.154059      750.03404     -74.158769      675.87527    
   2646000   311.03485      0.042618159    12.47552       771.68603     -73.34863       698.3374     
   2647000   309.47075      0.042618159    15.83853       767.80547     -73.938624      693.86684    
   2648000   293.73418      0.042618159    19.232228      728.76259     -69.992412      658.77017    
   2649000   288.75348      0.042618159    28.971263      716.40535     -67.717373      648.68797    
   2650000   299.8274       0.042618159    27.271651      743.88004     -70.719829      673.16021    
   2651000   310.35257      0.042618159    29.783068      769.99329     -70.852318      699.14097    
   2652000   299.03016      0.042618159    15.239528      741.90208     -70.729869      671.17221    
   2653000   284.55976      0.042618159    14.984109      706.0006      -69.742699      636.2579     
   2654000   302.01936      0.042618159    27.416565      749.31835     -71.329262      677.98909    
   2655000   311.53254      0.042618159    30.204499      772.92081     -66.187757      706.73305    
   2656000   302.95058      0.042618159   -8.3220356      751.62875     -68.583671      683.04508    
   2657000   296.09524      0.042618159    14.880779      734.62045     -67.998539      666.62191    
   2658000   303.19918      0.042618159    37.368959      752.24553     -65.556364      686.68916    
   2659000   306.22994      0.042618159    25.482874      759.76493     -63.336141      696.42878    
   2660000   301.73726      0.042618159    20.835575      748.61845     -67.038558      681.5799     
   2661000   300.76563      0.042618159    12.175493      746.20783     -69.779862      676.42797    
   2662000   285.37447      0.042618159    29.787055      708.02193     -63.844396      644.17753    
   2663000   303.34441      0.042618159    25.092859      752.60583     -63.353756      689.25208    
   2664000   311.48596      0.042618159    31.395069      772.80527     -66.923594      705.88167    
   2665000   295.29291      0.042618159    17.822048      732.62985     -67.26948       665.36037    
   2666000   297.45199      0.042618159    6.9629001      737.98659     -71.271292      666.7153     
   2667000   302.70161      0.042618159    24.62613       751.01103     -74.347779      676.66325    
   2668000   308.47741      0.042618159    22.285837      765.34096     -71.447022      693.89394    
   2669000   287.30608      0.042618159    22.633761      712.81431     -67.923621      644.89069    
   2670000   287.85483      0.042618159    17.96205       714.17578     -67.657092      646.51869    
   2671000   308.83817      0.042618159    20.148212      766.23601     -64.723235      701.51278    
   2672000   311.74202      0.042618159    19.972785      773.44055     -70.465525      702.97503    
   2673000   294.08386      0.042618159    24.817926      729.63016     -72.963823      656.66634    
   2674000   283.74667      0.042618159    22.519748      703.98331     -70.132677      633.85063    
   2675000   298.2926       0.042618159    15.259624      740.07216     -73.025198      667.04696    
   2676000   305.46799      0.042618159    16.485542      757.87449     -68.11963       689.75486    
   2677000   305.53714      0.042618159    20.841084      758.04607     -74.874639      683.17143    
   2678000   285.23711      0.042618159    25.799811      707.68114     -80.191655      627.48948    
   2679000   292.96292      0.042618159    17.67406       726.84908     -80.822473      646.02661    
   2680000   313.14308      0.042618159    20.490739      776.91662     -84.099242      692.81738    
   2681000   315.27591      0.042618159    27.023486      782.20822     -83.136218      699.07201    
   2682000   288.77017      0.042618159    16.889172      716.44676     -73.652156      642.79461    
   2683000   309.51152      0.042618159    14.884742      767.9066      -69.460078      698.44653    
   2684000   308.53741      0.042618159    21.189694      765.48982     -65.501777      699.98804    
   2685000   292.91008      0.042618159    27.825166      726.71797     -67.596174      659.1218     
   2686000   299.11806      0.042618159    19.322671      742.12015     -77.778018      664.34213    
   2687000   297.62068      0.042618159    11.013299      738.40511     -75.937503      662.46761    
   2688000   304.60857      0.042618159    26.833064      755.74226     -80.503142      675.23912    
   2689000   288.98642      0.042618159    18.885441      716.98328     -73.825285      643.158      
   2690000   295.10458      0.042618159    9.8525097      732.16259     -71.632099      660.53049    
   2691000   309.91319      0.042618159    20.385047      768.90318     -74.05908       694.8441     
   2692000   294.15914      0.042618159    23.548697      729.81694     -81.008515      648.80842    
   2693000   292.96754      0.042618159    22.896219      726.86054     -78.608945      648.25159    
   2694000   306.43919      0.042618159    20.136513      760.28408     -90.470666      669.81341    
   2695000   296.73651      0.042618159    22.460927      736.21145     -82.767742      653.44371    
   2696000   296.03859      0.042618159    19.768029      734.47991     -79.454398      655.02551    
   2697000   296.49548      0.042618159    24.995         735.61346     -76.296189      659.31727    
   2698000   299.95324      0.042618159    20.619778      744.19225     -77.421728      666.77052    
   2699000   310.14685      0.042618159    22.937363      769.48288     -82.224271      687.25861    
   2700000   288.61178      0.042618159    22.69642       716.05378     -85.9402        630.11358    
   2701000   309.95956      0.042618159    18.084955      769.01821     -81.415837      687.60237    
   2702000   294.66299      0.042618159    17.823423      731.06699     -77.002383      654.06461    
   2703000   301.26616      0.042618159    23.677194      747.44966     -74.022799      673.42686    
   2704000   284.47408      0.042618159    24.028341      705.78803     -76.358497      629.42953    
   2705000   307.61252      0.042618159    22.882005      763.19515     -69.549802      693.64534    
   2706000   319.04645      0.042618159    23.294969      791.56303     -73.78668       717.77635    
   2707000   291.78517      0.042618159    20.574609      723.92705     -77.681042      646.24601    
   2708000   294.73703      0.042618159    19.800239      731.25069     -83.595226      647.65546    
   2709000   314.17735      0.042618159    21.13005       779.48267     -74.640479      704.84219    
   2710000   302.01093      0.042618159    22.863178      749.29745     -73.404315      675.89313    
   2711000   281.04779      0.042618159    20.081083      697.2873      -73.721428      623.56588    
   2712000   316.16644      0.042618159    17.158095      784.41766     -72.997116      711.42054    
   2713000   293.31323      0.042618159    35.918589      727.71821     -74.564846      653.15337    
   2714000   287.46982      0.042618159    30.036652      713.22055     -75.598393      637.62215    
   2715000   297.9652       0.042618159   -5.7425116      739.25988     -78.635774      660.62411    
   2716000   308.57103      0.042618159    22.549728      765.57324     -76.400103      689.17314    
   2717000   297.4409       0.042618159    43.865629      737.95908     -74.31741       663.64167    
   2718000   290.80825      0.042618159   -1.2221551      721.50329     -78.525498      642.97779    
   2719000   312.88748      0.042618159    20.902289      776.28246     -81.486344      694.79612    
   2720000   300.17373      0.042618159    23.310723      744.73929     -78.17692       666.56237    
   2721000   297.25529      0.042618159    24.789092      737.49857     -71.653489      665.84508    
   2722000   298.76994      0.042618159    20.281563      741.25646     -70.043094      671.21337    
   2723000   295.40485      0.042618159    16.962317      732.90757     -76.456774      656.4508     
   2724000   298.44614      0.042618159    22.844009      740.45309     -73.259916      667.19317    
   2725000   307.63038      0.042618159    28.296832      763.23945     -74.469784      688.76966    
   2726000   307.36624      0.042618159    25.023517      762.58412     -74.98538       687.59874    
   2727000   301.37127      0.042618159    17.751106      747.71044     -70.251781      677.45866    
   2728000   304.85008      0.042618159    16.141413      756.34146     -71.001977      685.33949    
   2729000   314.37819      0.042618159    22.036554      779.98096     -71.80936       708.1716     
   2730000   305.08947      0.042618159    23.989073      756.93537     -69.706772      687.2286     
   2731000   285.38523      0.042618159    21.549294      708.04862     -72.75859       635.29004    
   2732000   302.65061      0.042618159    12.479948      750.88451     -79.519259      671.36525    
   2733000   307.4821       0.042618159    24.562638      762.87156     -82.87134       680.00022    
   2734000   290.17449      0.042618159    19.978183      719.93091     -86.604158      633.32675    
   2735000   305.35369      0.042618159    25.020911      757.59093     -82.917667      674.67326    
   2736000   304.51704      0.042618159    20.905078      755.51516     -82.735795      672.77937    
   2737000   307.77191      0.042618159    11.103398      763.5906      -77.275356      686.31524    
   2738000   275.46784      0.042618159    13.044891      683.44331     -74.24753       609.19578    
   2739000   299.56716      0.042618159    33.278384      743.23438     -67.537751      675.69663    
   2740000   303.25128      0.042618159    32.422247      752.37478     -73.248418      679.12636    
   2741000   315.11658      0.042618159    29.553474      781.81292     -70.677873      711.13505    
   2742000   293.92079      0.042618159    7.6922618      729.22559     -66.413793      662.81179    
   2743000   293.60064      0.042618159    42.810182      728.43129     -70.855412      657.57588    
   2744000   306.14086      0.042618159    27.68979       759.54392     -75.251157      684.29276    
   2745000   303.46315      0.042618159    19.512078      752.90044     -74.874163      678.02628    
   2746000   290.14146      0.042618159    11.147778      719.84895     -77.344606      642.50435    
   2747000   285.39892      0.042618159    17.136696      708.08258     -72.366936      635.71565    
   2748000   289.87464      0.042618159    20.116536      719.18696     -73.324328      645.86264    
   2749000   297.14683      0.042618159    22.365447      737.22948     -78.183613      659.04586    
   2750000   315.94039      0.042618159    19.060316      783.85681     -76.908304      706.94851    
   2751000   296.76164      0.042618159    22.938116      736.2738      -74.847719      661.42608    
   2752000   292.58118      0.042618159    20.385174      725.90197     -68.644353      657.25762    
   2753000   296.51093      0.042618159    20.821009      735.65178     -64.677904      670.97388    
   2754000   316.32252      0.042618159    25.420684      784.80488     -72.102059      712.70282    
   2755000   300.32106      0.042618159    25.173267      745.10482     -76.974036      668.13079    
   2756000   298.5837       0.042618159    21.031168      740.79439     -80.273631      660.52076    
   2757000   313.93112      0.042618159    23.980684      778.87176     -71.273898      707.59786    
   2758000   314.06034      0.042618159    27.382875      779.19237     -67.763763      711.4286     
   2759000   298.59461      0.042618159    19.544015      740.82145     -69.393372      671.42808    
   2760000   289.08202      0.042618159    22.906281      717.22046     -62.866849      654.35361    
   2761000   317.92477      0.042618159    25.506739      788.78011     -64.853025      723.92708    
   2762000   314.71753      0.042618159    21.432904      780.82287     -63.516284      717.30659    
   2763000   296.10734      0.042618159    20.720704      734.65047     -69.610095      665.04037    
   2764000   299.29029      0.042618159    25.716581      742.54746     -75.686352      666.86111    
   2765000   318.61331      0.042618159    22.052195      790.48839     -70.989656      719.49874    
   2766000   300.08619      0.042618159    22.329838      744.52212     -73.314259      671.20786    
   2767000   278.94955      0.042618159    19.313598      692.08153     -71.282336      620.7992     
   2768000   309.77577      0.042618159    19.057229      768.56223     -74.105048      694.45718    
   2769000   305.74194      0.042618159    20.322432      758.55417     -71.012579      687.54159    
   2770000   304.94739      0.042618159    23.972361      756.58287     -67.424588      689.15829    
   2771000   294.71659      0.042618159    19.214303      731.19999     -74.685519      656.51447    
   2772000   294.7654       0.042618159    19.695976      731.32109     -80.453814      650.86728    
   2773000   292.7251       0.042618159    24.19605       726.25904     -77.720588      648.53846    
   2774000   296.91883      0.042618159    19.570556      736.6638      -77.027323      659.63648    
   2775000   290.03751      0.042618159    17.340227      719.59105     -80.86228       638.72877    
   2776000   296.32438      0.042618159    22.530994      735.18896     -76.516545      658.67242    
   2777000   297.79666      0.042618159    23.66517       738.84173     -80.366378      658.47535    
   2778000   319.04042      0.042618159    25.680142      791.54809     -75.053902      716.49418    
   2779000   290.01957      0.042618159    17.395546      719.54654     -65.396815      654.14973    
   2780000   296.81504      0.042618159    18.909698      736.40629     -71.658837      664.74745    
   2781000   306.87042      0.042618159    20.810335      761.35397     -76.473442      684.88052    
   2782000   294.25249      0.042618159    15.956005      730.04855     -68.231793      661.81676    
   2783000   305.15452      0.042618159    23.705244      757.09678     -76.144894      680.95188    
   2784000   301.22674      0.042618159    23.040914      747.35185     -79.744383      667.60747    
   2785000   298.25324      0.042618159    19.781744      739.97452     -78.613737      661.36078    
   2786000   309.03964      0.042618159    17.392492      766.73585     -77.502921      689.23293    
   2787000   295.39204      0.042618159    26.764792      732.8758      -76.883721      655.99207    
   2788000   301.28429      0.042618159    24.542736      747.49463     -79.98439       667.51024    
   2789000   303.14007      0.042618159    24.877182      752.09887     -87.002826      665.09605    
   2790000   282.28978      0.042618159    19.271253      700.36873     -79.182011      621.18672    
   2791000   305.43131      0.042618159    22.800719      757.78349     -83.527759      674.25573    
   2792000   304.07595      0.042618159    25.497441      754.42082     -77.393306      677.02752    
   2793000   293.08693      0.042618159    20.355302      727.15676     -75.719408      651.43735    
   2794000   302.69751      0.042618159    15.809671      751.00086     -79.202518      671.79834    
   2795000   300.55624      0.042618159    24.361669      745.6883      -69.678565      676.00974    
   2796000   316.01349      0.042618159    28.967194      784.03818     -74.458697      709.57948    
   2797000   293.48701      0.042618159    26.276322      728.14935     -76.41084       651.73851    
   2798000   291.53764      0.042618159    21.986401      723.31292     -74.445858      648.86706    
   2799000   300.01388      0.042618159    24.232874      744.34271     -85.799595      658.54311    
   2800000   298.62536      0.042618159    18.010209      740.89774     -85.155805      655.74193    
   2801000   308.21263      0.042618159    14.839655      764.68402     -80.110939      684.57308    
   2802000   305.785        0.042618159    23.687932      758.661       -92.552258      666.10875    
   2803000   297.48712      0.042618159    21.892521      738.07375     -84.804908      653.26885    
   2804000   302.99977      0.042618159    20.696215      751.75078     -83.604999      668.14579    
   2805000   309.2917       0.042618159    21.127636      767.36122     -81.095931      686.26529    
   2806000   306.50188      0.042618159    21.323807      760.43962     -92.453551      667.98607    
   2807000   304.27318      0.042618159    19.232377      754.91014     -94.385927      660.52421    
   2808000   300.35184      0.042618159    21.145881      745.1812      -87.942133      657.23906    
   2809000   304.83515      0.042618159    23.423623      756.30441     -93.706346      662.59806    
   2810000   298.28691      0.042618159    24.031239      740.05806     -86.082699      653.97536    
   2811000   300.74714      0.042618159    23.746599      746.16194     -89.685225      656.47671    
   2812000   290.06423      0.042618159    18.314865      719.65736     -85.060694      634.59667    
   2813000   313.38102      0.042618159    22.109261      777.50695     -81.071984      696.43497    
   2814000   297.57245      0.042618159    22.49012       738.28546     -76.895259      661.3902     
   2815000   296.65977      0.042618159    20.172504      736.02106     -78.225471      657.79559    
   2816000   296.34484      0.042618159    19.733901      735.23973     -82.765171      652.47455    
   2817000   292.48802      0.042618159    21.892562      725.67083     -74.530364      651.14047    
   2818000   310.23638      0.042618159    22.013038      769.70502     -78.190695      691.51432    
   2819000   306.69289      0.042618159    11.398289      760.91351     -72.008156      688.90536    
   2820000   288.21406      0.042618159    20.051209      715.06702     -70.238691      644.82833    
   2821000   295.68592      0.042618159    31.589858      733.60492     -73.303048      660.30188    
   2822000   304.55712      0.042618159    26.187006      755.61462     -74.358222      681.2564     
   2823000   300.51298      0.042618159    24.031497      745.58099     -72.888173      672.69282    
   2824000   298.77208      0.042618159    23.147537      741.26175     -73.282026      667.97973    
   2825000   305.27263      0.042618159    25.223423      757.38981     -70.555633      686.83418    
   2826000   313.92579      0.042618159    25.904315      778.85855     -72.537005      706.32154    
   2827000   290.2539       0.042618159    20.45195       720.12792     -72.422515      647.70541    
   2828000   301.03593      0.042618159    20.462576      746.87845     -68.376498      678.50195    
   2829000   291.4751       0.042618159    24.959487      723.15776     -70.86824       652.28952    
   2830000   306.46989      0.042618159    20.259706      760.36025     -71.19821       689.16204    
   2831000   293.48466      0.042618159    13.912974      728.14354     -65.561534      662.58201    
   2832000   293.09846      0.042618159    21.881417      727.18535     -71.092294      656.09305    
   2833000   313.18236      0.042618159    24.679568      777.01408     -62.691514      714.32256    
   2834000   292.61009      0.042618159    26.482644      725.9737      -60.099541      665.87416    
   2835000   297.74756      0.042618159    19.86135       738.7199      -67.372611      671.34728    
   2836000   302.34805      0.042618159    21.198529      750.13384     -68.413456      681.72039    
   2837000   306.94074      0.042618159    27.069445      761.52844     -62.515723      699.01271    
   2838000   287.43592      0.042618159    20.261609      713.13645     -61.130345      652.0061     
   2839000   299.25507      0.042618159    21.081979      742.46007     -62.415883      680.04418    
   2840000   312.53085      0.042618159    24.321572      775.39764     -63.850707      711.54694    
   2841000   288.53697      0.042618159    24.575157      715.86818     -75.137098      640.73109    
   2842000   291.1273       0.042618159    19.475234      722.29484     -71.810584      650.48426    
   2843000   310.94361      0.042618159    24.728825      771.45968     -64.519554      706.94013    
   2844000   308.44703      0.042618159    14.478225      765.26558     -67.028247      698.23734    
   2845000   296.62267      0.042618159    22.123252      735.92901     -62.487928      673.44108    
   2846000   306.35586      0.042618159    27.641743      760.07733     -65.268514      694.80882    
   2847000   301.70042      0.042618159    20.587986      748.52705     -71.416788      677.11026    
   2848000   303.1939       0.042618159    20.311778      752.23242     -71.121762      681.11065    
   2849000   296.17092      0.042618159    20.706845      734.80821     -67.165153      667.64305    
   2850000   305.75795      0.042618159    21.665751      758.59389     -71.714696      686.87919    
   2851000   313.71695      0.042618159    27.548072      778.3404      -78.316943      700.02346    
   2852000   301.62558      0.042618159    23.240589      748.34138     -71.976276      676.3651     
   2853000   291.29034      0.042618159    20.774717      722.69937     -71.749588      650.94978    
   2854000   305.244        0.042618159    24.075794      757.31879     -72.591709      684.72708    
   2855000   313.89782      0.042618159    22.032457      778.78913     -70.169804      708.61933    
   2856000   291.72945      0.042618159    19.058838      723.7888      -68.886218      654.90259    
   2857000   295.46831      0.042618159    21.109904      733.06501     -58.606739      674.45827    
   2858000   317.29953      0.042618159    22.000565      787.22887     -61.677789      725.55108    
   2859000   315.25042      0.042618159    20.868387      782.14498     -59.116631      723.02835    
   2860000   293.38084      0.042618159    19.162736      727.88595     -55.630599      672.25535    
   2861000   296.79992      0.042618159    40.110107      736.36879     -63.922873      672.44592    
   2862000   306.42628      0.042618159    16.632375      760.25205     -64.202557      696.0495     
   2863000   296.44535      0.042618159    21.528666      735.4891      -64.507903      670.98119    
   2864000   300.39701      0.042618159    16.535475      745.29326     -65.921857      679.3714     
   2865000   302.29871      0.042618159    23.973383      750.01142     -67.287791      682.72363    
   2866000   296.17142      0.042618159    26.728644      734.80945     -56.3227        678.48675    
   2867000   291.5921       0.042618159    14.32482       723.44805     -66.740858      656.70719    
   2868000   300.75648      0.042618159    21.401022      746.18512     -61.860382      684.32474    
   2869000   307.54287      0.042618159    27.812467      763.02234     -58.553135      704.46921    
   2870000   291.34309      0.042618159    21.536573      722.83024     -67.480229      655.35001    
   2871000   291.28717      0.042618159    7.3208279      722.6915      -65.599336      657.09216    
   2872000   317.64316      0.042618159    22.370273      788.08145     -67.07247       721.00898    
   2873000   293.88187      0.042618159    24.514667      729.12903     -69.208073      659.92095    
   2874000   303.07151      0.042618159    16.299058      751.92876     -68.871136      683.05762    
   2875000   305.39127      0.042618159    23.625716      757.68416     -68.930587      688.75357    
   2876000   297.44804      0.042618159    33.392321      737.97678     -69.410867      668.56591    
   2877000   295.92967      0.042618159    12.664829      734.20968     -64.961442      669.24824    
   2878000   308.11903      0.042618159   -5.7373858      764.45181     -68.947568      695.50424    
   2879000   312.01671      0.042618159    29.146814      774.12205     -67.540464      706.58158    
   2880000   304.26638      0.042618159    29.158047      754.89327     -64.875642      690.01763    
   2881000   293.97334      0.042618159    28.999684      729.35595     -70.356035      658.99991    
   2882000   288.27697      0.042618159    24.020716      715.22311     -69.681062      645.54205    
   2883000   290.11196      0.042618159    16.143965      719.77576     -64.751727      655.02403    
   2884000   314.90083      0.042618159    18.776705      781.27763     -66.898473      714.37916    
   2885000   311.58383      0.042618159    19.669373      773.04808     -66.980709      706.06737    
   2886000   302.59438      0.042618159    24.875721      750.745       -70.771811      679.97319    
   2887000   289.93226      0.042618159    23.063849      719.32993     -72.909765      646.42017    
   2888000   288.04665      0.042618159    21.700626      714.65167     -74.734445      639.91722    
   2889000   311.10308      0.042618159    21.675374      771.85532     -74.499323      697.356      
   2890000   299.56614      0.042618159    18.771505      743.23185     -71.690603      671.54125    
   2891000   296.96329      0.042618159    25.31952       736.7741      -70.50626       666.26784    
   2892000   299.97383      0.042618159    27.228368      744.24335     -73.21793       671.02542    
   2893000   296.49237      0.042618159    11.526985      735.60573     -74.432498      661.17323    
   2894000   297.1514       0.042618159    15.35538       737.24081     -64.36786       672.87295    
   2895000   304.04448      0.042618159    30.462927      754.34273     -67.80365       686.53908    
   2896000   293.87229      0.042618159    24.807996      729.10524     -73.110183      655.99506    
   2897000   312.14861      0.042618159    20.061554      774.44931     -68.952992      705.49632    
   2898000   303.77667      0.042618159    33.410263      753.67828     -69.310456      684.36783    
   2899000   307.8774       0.042618159    28.79258       763.85231     -70.586489      693.26582    
   2900000   303.87268      0.042618159    16.296294      753.91649     -69.281609      684.63488    
   2901000   295.28657      0.042618159    22.083066      732.61412     -67.997071      664.61705    
   2902000   300.98667      0.042618159    36.891537      746.75623     -67.311852      679.44438    
   2903000   306.45543      0.042618159    32.796091      760.32437     -61.120774      699.20359    
   2904000   297.76407      0.042618159    10.248378      738.76086     -63.431147      675.32972    
   2905000   298.77328      0.042618159    48.417306      741.26474     -64.682927      676.58181    
   2906000   294.33813      0.042618159    14.862889      730.26102     -62.545059      667.71596    
   2907000   308.06474      0.042618159    13.389169      764.31711     -63.202091      701.11502    
   2908000   306.58939      0.042618159    31.320826      760.65672     -61.016712      699.64001    
   2909000   308.99723      0.042618159    6.6312686      766.63064     -64.827004      701.80363    
   2910000   297.16952      0.042618159    8.8996518      737.28577     -71.412344      665.87343    
   2911000   302.02707      0.042618159    27.541616      749.33748     -64.559377      684.7781     
   2912000   303.42143      0.042618159    4.1979647      752.79694     -69.560841      683.2361     
   2913000   298.97403      0.042618159    24.714278      741.7628      -69.856491      671.90631    
   2914000   310.03293      0.042618159    26.68192       769.20024     -67.676041      701.5242     
   2915000   298.29835      0.042618159    16.970536      740.08644     -63.719671      676.36677    
   2916000   298.34184      0.042618159    18.742352      740.19433     -59.849452      680.34488    
   2917000   293.33051      0.042618159    24.310621      727.76107     -68.129302      659.63177    
   2918000   301.25489      0.042618159    23.738105      747.42169     -60.961554      686.46014    
   2919000   294.14793      0.042618159    21.958874      729.78912     -68.998591      660.79053    
   2920000   305.38093      0.042618159    21.075938      757.65851     -75.461724      682.19678    
   2921000   297.04492      0.042618159    25.891025      736.97665     -74.451382      662.52526    
   2922000   304.2175       0.042618159    22.355651      754.77199     -76.513431      678.25856    
   2923000   291.52767      0.042618159    22.027147      723.28818     -70.883573      652.4046     
   2924000   305.53835      0.042618159    23.900625      758.04906     -69.492461      688.5566     
   2925000   300.86658      0.042618159    22.910742      746.45827     -69.253111      677.20516    
   2926000   296.78992      0.042618159    24.966919      736.34398     -64.823276      671.5207     
   2927000   304.45326      0.042618159    19.388765      755.35692     -65.934205      689.42271    
   2928000   295.05169      0.042618159    17.229955      732.03138     -62.59284       669.43854    
   2929000   292.49875      0.042618159    24.29146       725.69746     -63.441285      662.25618    
   2930000   295.41496      0.042618159    27.185549      732.93266     -65.539059      667.3936     
   2931000   300.87629      0.042618159    20.175248      746.48236     -73.08636       673.396      
   2932000   288.68208      0.042618159    19.925103      716.22819     -73.360384      642.86781    
   2933000   294.19974      0.042618159    12.833322      729.91767     -74.221831      655.69584    
   2934000   290.91663      0.042618159    19.759883      721.77217     -85.888574      635.8836     
   2935000   303.20487      0.042618159    22.016006      752.25964     -73.193105      679.06654    
   2936000   297.87977      0.042618159    22.808133      739.04793     -68.053185      670.99474    
   2937000   297.70407      0.042618159    13.92875       738.61201     -66.435204      672.17681    
   2938000   313.10173      0.042618159    16.862534      776.81403     -62.712567      714.10147    
   2939000   303.70329      0.042618159    23.629243      753.49622     -72.843162      680.65306    
   2940000   298.66401      0.042618159    21.205218      740.99364     -69.633049      671.3606     
   2941000   307.47506      0.042618159   -4.7672154      762.8541      -62.819107      700.03499    
   2942000   298.04171      0.042618159    31.419269      739.44969     -65.757613      673.69208    
   2943000   297.92577      0.042618159    36.932389      739.16205     -63.661962      675.50009    
   2944000   298.27061      0.042618159    18.482101      740.0176      -67.274964      672.74263    
   2945000   305.28215      0.042618159    24.041486      757.41343     -61.990788      695.42264    
   2946000   298.71516      0.042618159    29.904065      741.12055     -65.049481      676.07107    
   2947000   287.84594      0.042618159    16.296496      714.15372     -61.642499      652.51122    
   2948000   315.78016      0.042618159    14.5908        783.45928     -66.827569      716.63171    
   2949000   300.33925      0.042618159    31.402786      745.14995     -66.647207      678.50274    
   2950000   300.87357      0.042618159    27.438189      746.47562     -63.504433      682.97119    
   2951000   306.99227      0.042618159    18.513019      761.65628     -68.958138      692.69814    
   2952000   300.86125      0.042618159    21.534249      746.44506     -68.186714      678.25835    
   2953000   300.47544      0.042618159    36.135917      745.48784     -60.041643      685.4462     
   2954000   301.47675      0.042618159    18.597441      747.97214     -71.652383      676.31975    
   2955000   291.72208      0.042618159    1.3937159      723.77052     -70.945523      652.825      
   2956000   306.47567      0.042618159    18.46552       760.37458     -69.994039      690.38054    
   2957000   292.90011      0.042618159    27.168655      726.69326     -65.933128      660.76013    
   2958000   291.19706      0.042618159    8.4313648      722.46792     -68.368452      654.09947    
   2959000   304.31564      0.042618159    21.858577      755.01549     -71.502267      683.51323    
   2960000   300.49663      0.042618159    30.579934      745.54042     -62.435458      683.10496    
   2961000   309.35548      0.042618159    21.501803      767.51948     -69.72013       697.79935    
   2962000   302.24221      0.042618159    21.926733      749.87125     -72.689052      677.1822     
   2963000   309.02708      0.042618159    25.642969      766.70471     -69.61547       697.08924    
   2964000   294.12041      0.042618159    22.535803      729.72086     -72.210201      657.51066    
   2965000   309.08369      0.042618159    22.021539      766.84516     -71.181628      695.66354    
   2966000   293.85639      0.042618159    24.662638      729.0658      -75.340662      653.72514    
   2967000   307.45612      0.042618159    14.22115       762.80711     -76.857861      685.94925    
   2968000   309.52707      0.042618159    7.8001201      767.94518     -71.186887      696.75829    
   2969000   294.42722      0.042618159    26.202667      730.48205     -71.563891      658.91815    
   2970000   290.62286      0.042618159    25.596892      721.04333     -76.594548      644.44878    
   2971000   314.28232      0.042618159    27.503735      779.7431      -69.326573      710.41653    
   2972000   314.46483      0.042618159    25.953742      780.19591     -76.530123      703.66578    
   2973000   295.97747      0.042618159    16.260113      734.32827     -77.738566      656.58971    
   2974000   299.38722      0.042618159    23.926463      742.78795     -81.400294      661.38766    
   2975000   314.72576      0.042618159    23.140795      780.8433      -74.47326       706.37004    
   2976000   309.48399      0.042618159    15.457555      767.83831     -72.749565      695.08875    
   2977000   284.04016      0.042618159    12.08957       704.71146     -70.4273        634.28416    
   2978000   293.03131      0.042618159    24.22578       727.01876     -74.612068      652.40669    
   2979000   307.80562      0.042618159    29.904734      763.67422     -79.220603      684.45362    
   2980000   307.74732      0.042618159   -7.1653865      763.5296      -73.620236      689.90936    
   2981000   294.44614      0.042618159    30.295258      730.529       -69.876909      660.65209    
   2982000   301.78181      0.042618159    25.828858      748.72899     -74.519984      674.20901    
   2983000   307.73339      0.042618159    13.788433      763.49502     -71.206122      692.2889     
   2984000   301.30043      0.042618159    13.973546      747.53467     -68.017306      679.51736    
   2985000   287.44411      0.042618159    19.971243      713.15676     -65.65804       647.49872    
   2986000   297.66942      0.042618159    35.767861      738.52603     -65.222399      673.30363    
   2987000   315.66845      0.042618159    19.105116      783.18214     -64.828684      718.35345    
   2988000   292.12841      0.042618159    4.4122613      724.77865     -72.295562      652.48309    
   2989000   299.456        0.042618159    22.908541      742.95858     -67.973624      674.98496    
   2990000   304.92573      0.042618159    20.736534      756.52914     -69.931519      686.59762    
   2991000   303.3779       0.042618159    24.122921      752.68894     -73.422787      679.26615    
   2992000   297.28035      0.042618159    28.93407       737.56075     -73.23265       664.3281     
   2993000   291.95088      0.042618159    17.913018      724.33818     -68.939425      655.39875    
   2994000   301.08246      0.042618159    3.8144794      746.99388     -69.677554      677.31632    
   2995000   306.54105      0.042618159    22.665835      760.53679     -65.144516      695.39228    
   2996000   300.30202      0.042618159    33.305422      745.05758     -68.400895      676.65668    
   2997000   295.23039      0.042618159    21.906673      732.47473     -70.654914      661.81982    
   2998000   301.88104      0.042618159    7.9508468      748.97517     -67.627782      681.34739    
   2999000   305.28577      0.042618159    21.866236      757.42241     -61.043255      696.37916    
   3000000   301.78222      0.042618159    39.095442      748.73001     -62.167113      686.56289    
   3001000   299.19968      0.042618159    10.476264      742.32266     -70.796446      671.52621    
   3002000   300.89882      0.042618159    20.104504      746.53828     -70.40181       676.13647    
   3003000   297.29076      0.042618159    35.484119      737.58657     -74.690337      662.89623    
   3004000   304.75002      0.042618159    15.522157      756.09319     -73.570343      682.52285    
   3005000   302.27958      0.042618159    19.402008      749.96396     -67.707678      682.25628    
   3006000   299.46351      0.042618159    27.486779      742.97722     -68.443917      674.53331    
   3007000   277.50968      0.042618159    14.298769      688.50917     -66.140045      622.36913    
   3008000   293.37661      0.042618159    16.86155       727.87545     -69.967514      657.90793    
   3009000   309.86542      0.042618159    23.464902      768.78464     -64.73811       704.04653    
   3010000   292.21907      0.042618159    34.751057      725.00357     -72.948733      652.05484    
   3011000   298.61104      0.042618159    20.595872      740.86223     -72.77548       668.08675    
   3012000   300.98222      0.042618159    23.19515       746.74519     -75.734598      671.01059    
   3013000   307.58312      0.042618159    23.256614      763.1222      -73.248571      689.87363    
   3014000   308.09341      0.042618159    22.798225      764.38823     -71.084026      693.3042     
   3015000   298.54626      0.042618159    25.901509      740.70149     -79.628908      661.07258    
   3016000   292.57739      0.042618159    20.386113      725.89256     -73.378594      652.51397    
   3017000   292.98889      0.042618159    21.340815      726.91351     -72.806324      654.10718    
   3018000   302.74685      0.042618159    21.774527      751.12327     -73.034103      678.08917    
   3019000   303.59002      0.042618159    21.541341      753.21521     -75.748717      677.46649    
   3020000   295.18266      0.042618159    19.695788      732.35632     -75.581485      656.77483    
   3021000   300.95227      0.042618159    21.163071      746.67088     -80.420304      666.25058    
   3022000   309.32855      0.042618159    23.03467       767.45266     -75.601227      691.85143    
   3023000   294.58802      0.042618159    18.641721      730.88101     -76.984927      653.89608    
   3024000   294.2446       0.042618159    22.168059      730.02897     -74.963593      655.06537    
   3025000   309.73691      0.042618159    21.026564      768.46582     -75.65948       692.80634    
   3026000   313.25402      0.042618159    23.520785      777.19187     -73.829401      703.36246    
   3027000   291.16177      0.042618159    21.535832      722.38039     -74.787065      647.59332    
   3028000   289.11926      0.042618159    23.616777      717.31286     -72.715151      644.5977     
   3029000   306.53824      0.042618159    18.079718      760.52983     -73.605046      686.92479    
   3030000   310.35716      0.042618159    25.407402      770.00468     -72.314922      697.68976    
   3031000   300.79584      0.042618159    22.429519      746.28276     -83.617813      662.66495    
   3032000   295.69694      0.042618159    20.697846      733.63226     -78.441631      655.19063    
   3033000   287.828        0.042618159    24.789418      714.1092      -87.761676      626.34752    
   3034000   310.19506      0.042618159    24.098605      769.6025      -76.023719      693.57878    
   3035000   291.03759      0.042618159    20.067757      722.07228     -78.784188      643.2881     
   3036000   290.35044      0.042618159    2.7637256      720.36744     -76.923845      643.4436     
   3037000   293.23178      0.042618159    26.634512      727.51613     -82.198982      645.31715    
   3038000   314.41202      0.042618159    24.763773      780.06489     -83.354104      696.71078    
   3039000   305.52928      0.042618159    15.817469      758.02657     -85.159385      672.86719    
   3040000   299.43743      0.042618159    18.591291      742.91252     -75.691813      667.22071    
   3041000   298.84822      0.042618159    17.824158      741.45068     -72.313375      669.13731    
   3042000   299.62777      0.042618159    24.544308      743.38476     -77.974176      665.41058    
   3043000   295.30258      0.042618159    24.891503      732.65385     -77.883455      654.77039    
   3044000   298.54811      0.042618159    17.933778      740.70608     -77.513741      663.19234    
   3045000   298.97854      0.042618159    33.184823      741.77401     -78.37442       663.39959    
   3046000   301.61245      0.042618159    16.204397      748.30881     -80.530195      667.77861    
   3047000   303.3529       0.042618159    1.8436466      752.62692     -85.671043      666.95587    
   3048000   299.33451      0.042618159    28.986237      742.65716     -87.717694      654.93947    
   3049000   302.40352      0.042618159    25.005997      750.27146     -87.882456      662.389      
   3050000   299.51712      0.042618159    18.105315      743.11023     -84.650785      658.45945    
   3051000   298.2401       0.042618159    22.832322      739.94191     -83.687926      656.25399    
   3052000   306.99681      0.042618159    20.514753      761.66754     -86.640911      675.02663    
   3053000   303.26934      0.042618159    21.723041      752.4196      -81.584065      670.83554    
   3054000   300.37725      0.042618159    17.425875      745.24423     -81.579212      663.66502    
   3055000   308.21648      0.042618159    23.632213      764.69358     -76.774415      687.91916    
   3056000   307.37953      0.042618159    22.422089      762.61709     -74.689326      687.92777    
   3057000   286.98672      0.042618159    11.833337      712.02197     -69.824977      642.19699    
   3058000   291.46424      0.042618159    20.93502       723.13081     -70.914433      652.21638    
   3059000   316.23359      0.042618159    31.318275      784.58425     -75.174593      709.40966    
   3060000   309.32786      0.042618159    17.347375      767.45094     -73.513406      693.93753    
   3061000   308.55623      0.042618159   -1.8777583      765.53652     -73.688639      691.84788    
   3062000   283.6919       0.042618159    15.9465        703.84741     -71.566017      632.2814     
   3063000   301.14404      0.042618159    27.76168       747.14667     -71.381188      675.76548    
   3064000   312.38915      0.042618159    16.385157      775.04608     -76.109516      698.93657    
   3065000   290.19         0.042618159    17.663027      719.96938     -74.226569      645.74281    
   3066000   300.72159      0.042618159    39.400471      746.09854     -74.965511      671.13303    
   3067000   309.04817      0.042618159    21.665423      766.75702     -79.096858      687.66016    
   3068000   289.20506      0.042618159    9.1204748      717.52572     -76.072308      641.45341    
   3069000   298.45283      0.042618159    30.01688       740.46969     -80.635383      659.83431    
   3070000   310.29454      0.042618159    22.543209      769.84932     -74.313513      695.5358     
   3071000   301.69949      0.042618159    17.448181      748.52475     -76.406386      672.11837    
   3072000   290.97744      0.042618159    19.541939      721.92304     -75.575677      646.34737    
   3073000   295.69714      0.042618159    14.466755      733.63274     -68.371802      665.26094    
   3074000   317.97359      0.042618159    21.972878      788.90124     -66.198873      722.70236    
   3075000   292.63501      0.042618159    20.905035      726.03552     -77.284529      648.75099    
   3076000   293.54927      0.042618159    10.730453      728.30383     -69.244769      659.05906    
   3077000   322.65966      0.042618159    12.61463       800.52751     -66.46054       734.06697    
   3078000   304.97822      0.042618159    35.628928      756.65937     -61.90584       694.75353    
   3079000   284.29909      0.042618159    15.088437      705.35388     -68.627066      636.72681    
   3080000   295.7702       0.042618159    29.320336      733.81401     -67.017283      666.79673    
   3081000   302.99468      0.042618159    23.184807      751.73815     -70.568137      681.17001    
   3082000   282.60384      0.042618159    9.0857083      701.14791     -71.927086      629.22083    
   3083000   301.64294      0.042618159    22.128612      748.38445     -74.111335      674.27311    
   3084000   290.79495      0.042618159    21.001125      721.47028     -74.849761      646.62052    
   3085000   302.37834      0.042618159    11.275319      750.209       -89.152978      661.05602    
   3086000   309.1965       0.042618159    25.868143      767.12503     -82.625831      684.4992     
   3087000   301.35129      0.042618159    21.858411      747.66085     -87.738323      659.92253    
   3088000   284.23842      0.042618159    18.658628      705.20334     -78.597286      626.60606    
   3089000   305.59938      0.042618159    22.025869      758.20049     -81.349744      676.85075    
   3090000   301.5715       0.042618159    19.291074      748.2072      -79.021275      669.18593    
   3091000   300.1459       0.042618159    26.983212      744.67024     -73.802264      670.86798    
   3092000   304.81583      0.042618159    25.762069      756.25648     -72.804383      683.4521     
   3093000   298.17975      0.042618159    18.686571      739.79217     -79.336196      660.45598    
   3094000   301.5402       0.042618159    17.383836      748.12956     -75.500195      672.62936    
   3095000   302.19166      0.042618159    20.473932      749.74585     -76.05713       673.68872    
   3096000   300.88911      0.042618159    26.522964      746.51418     -75.131424      671.38275    
   3097000   306.97126      0.042618159    1.0858602      761.60417     -76.498489      685.10568    
   3098000   304.50564      0.042618159    20.182706      755.48689     -73.205306      682.28158    
   3099000   306.99425      0.042618159    21.573796      761.66121     -82.87442       678.78679    
   3100000   310.5524       0.042618159    53.041107      770.48907     -78.13192       692.35715    
   3101000   294.19851      0.042618159    22.825612      729.9146      -78.691406      651.2232     
   3102000   281.34375      0.042618159    22.227259      698.0216      -86.607573      611.41402    
   3103000   308.90076      0.042618159    23.436447      766.39129     -77.338456      689.05283    
   3104000   300.87905      0.042618159    19.927769      746.48922     -78.19915       668.29007    
   3105000   302.22324      0.042618159   -12.013895      749.82419     -80.954744      668.86945    
   3106000   297.73893      0.042618159    11.246965      738.6985      -79.773264      658.92523    
   3107000   303.53265      0.042618159    42.059054      753.07288     -79.805776      673.26711    
   3108000   299.0531       0.042618159    14.500022      741.95899     -69.005727      672.95326    
   3109000   296.42771      0.042618159    19.830339      735.44532     -72.311621      663.1337     
   3110000   298.48447      0.042618159    30.538792      740.5482      -69.920457      670.62775    
   3111000   294.21484      0.042618159    10.377104      729.95512     -65.637659      664.31746    
   3112000   295.33269      0.042618159    15.157634      732.72855     -61.676578      671.05197    
   3113000   302.58133      0.042618159    21.042342      750.71262     -64.948692      685.76393    
   3114000   301.18864      0.042618159    14.891974      747.25732     -70.383467      676.87386    
   3115000   300.09632      0.042618159    15.871909      744.54725     -68.380114      676.16714    
   3116000   308.29352      0.042618159    22.015808      764.88472     -63.786302      701.09842    
   3117000   314.55181      0.042618159    33.289845      780.4117      -69.605169      710.80653    
   3118000   296.82973      0.042618159    13.074915      736.44275     -67.324606      669.11814    
   3119000   292.68905      0.042618159    21.426664      726.1696      -68.642984      657.52662    
   3120000   301.80199      0.042618159    20.890133      748.77906     -67.159626      681.61944    
   3121000   305.77587      0.042618159    20.841991      758.63837     -65.964435      692.67394    
   3122000   295.01618      0.042618159    20.061534      731.94329     -71.282594      660.66069    
   3123000   286.52612      0.042618159    23.227061      710.87919     -67.228049      643.65114    
   3124000   307.31595      0.042618159    24.823226      762.45935     -67.634811      694.82454    
   3125000   308.25308      0.042618159    20.436284      764.78439     -63.620394      701.164      
   3126000   291.91517      0.042618159    15.79542       724.24959     -62.355723      661.89387    
   3127000   296.81709      0.042618159    21.405613      736.41137     -56.136351      680.27502    
   3128000   306.12581      0.042618159    23.920713      759.50657     -61.293812      698.21276    
   3129000   305.46192      0.042618159    22.877466      757.85944     -67.142962      690.71648    
   3130000   285.88173      0.042618159    20.047513      709.28045     -63.267126      646.01332    
   3131000   290.35344      0.042618159    21.649905      720.37489     -60.850597      659.52429    
   3132000   305.10963      0.042618159    21.98436       756.98539     -63.464578      693.52081    
   3133000   308.41048      0.042618159    18.130123      765.1749      -60.93121       704.24369    
   3134000   290.53029      0.042618159    20.912369      720.81366     -64.531194      656.28246    
   3135000   298.87364      0.042618159    21.323554      741.51373     -67.481138      674.03259    
   3136000   310.63674      0.042618159    20.641787      770.69831     -68.094692      702.60361    
   3137000   300.76827      0.042618159    20.011292      746.21436     -69.95615       676.25821    
   3138000   299.98445      0.042618159    22.468823      744.2697      -71.711976      672.55772    
   3139000   302.38124      0.042618159    20.227817      750.21618     -61.042686      689.1735     
   3140000   291.13314      0.042618159    13.689652      722.30936     -66.929692      655.37966    
   3141000   302.83331      0.042618159    18.545452      751.33779     -59.170285      692.1675     
   3142000   316.8922       0.042618159    20.649853      786.21827     -62.808897      723.40938    
   3143000   293.17624      0.042618159    20.107505      727.37833     -67.843695      659.53463    
   3144000   303.06908      0.042618159    26.93052       751.92273     -73.956139      677.9666     
   3145000   297.46365      0.042618159    21.980916      738.01552     -63.862969      674.15255    
   3146000   293.29579      0.042618159    15.728752      727.67494     -58.38218       669.29276    
   3147000   300.32823      0.042618159    50.786856      745.12261     -64.502352      680.62026    
   3148000   298.49447      0.042618159    28.473485      740.57301     -69.506668      671.06635    
   3149000   303.41316      0.042618159   -7.8410815      752.77641     -63.944384      688.83202    
   3150000   305.75489      0.042618159    8.6902747      758.58632     -75.505992      683.08033    
   3151000   300.56152      0.042618159    26.218506      745.70142     -74.130412      671.57101    
   3152000   287.81884      0.042618159    25.135444      714.08648     -65.419756      648.66673    
   3153000   299.95384      0.042618159    12.678892      744.19374     -74.071151      670.12259    
   3154000   302.13494      0.042618159    18.596914      749.60512     -73.126834      676.47829    
   3155000   287.16142      0.042618159    14.450592      712.4554      -72.136905      640.3185     
   3156000   293.51781      0.042618159    15.941152      728.22578     -72.438494      655.78729    
   3157000   307.63975      0.042618159    20.106588      763.2627      -69.308912      693.95378    
   3158000   299.95364      0.042618159    38.605839      744.19325     -61.902578      682.29067    
   3159000   289.88636      0.042618159    9.9801608      719.21605     -61.847661      657.36839    
   3160000   308.59166      0.042618159    12.529073      765.6244      -67.013069      698.61134    
   3161000   300.04074      0.042618159    28.749298      744.40934     -65.746296      678.66304    
   3162000   288.10578      0.042618159    15.48814       714.79839     -70.193225      644.60517    
   3163000   308.64334      0.042618159    14.486675      765.75263     -69.949325      695.80331    
   3164000   304.21597      0.042618159    23.268953      754.7682      -60.94767       693.82053    
   3165000   293.42967      0.042618159    20.173619      728.00709     -69.686769      658.32032    
   3166000   300.73065      0.042618159    17.21987       746.12102     -70.586462      675.53456    
   3167000   302.05316      0.042618159    19.723061      749.40221     -63.812712      685.5895     
   3168000   294.70949      0.042618159    23.126109      731.18236     -69.657279      661.52509    
   3169000   302.92086      0.042618159    21.57205       751.555       -69.757822      681.79718    
   3170000   304.24325      0.042618159    20.27749       754.83589     -63.150246      691.68565    
   3171000   295.3912       0.042618159    20.608734      732.87372     -62.766923      670.10679    
   3172000   302.9079       0.042618159    24.341981      751.52285     -65.0945        686.42835    
   3173000   312.46994      0.042618159    27.59002       775.24653     -68.089856      707.15668    
   3174000   301.53885      0.042618159    26.564097      748.12619     -65.952911      682.17328    
   3175000   305.13067      0.042618159    20.500729      757.03759     -78.939623      678.09797    
   3176000   292.88539      0.042618159    21.193496      726.65672     -65.612369      661.04435    
   3177000   298.44627      0.042618159    21.273563      740.45343     -69.763957      670.68947    
   3178000   304.90729      0.042618159    22.581748      756.4834      -68.797247      687.68615    
   3179000   307.76242      0.042618159    14.181952      763.56705     -76.346517      687.22054    
   3180000   282.36151      0.042618159    14.31041       700.5467      -63.88514       636.66156    
   3181000   296.52912      0.042618159    27.908662      735.69693     -73.795899      661.90103    
   3182000   321.74847      0.042618159    19.440977      798.26683     -75.070301      723.19653    
   3183000   296.6857       0.042618159    15.545541      736.08541     -81.905354      654.18006    
   3184000   310.90377      0.042618159    29.156123      771.36083     -78.664448      692.69638    
   3185000   319.45949      0.042618159    17.727495      792.58779     -79.354357      713.23343    
   3186000   286.40683      0.042618159    19.024421      710.58325     -73.105591      637.47766    
   3187000   297.56187      0.042618159    27.775643      738.25921     -73.168121      665.09109    
   3188000   308.01929      0.042618159    29.444868      764.20434     -70.186368      694.01798    
   3189000   299.29426      0.042618159    20.825832      742.55731     -68.778029      673.77928    
   3190000   289.21668      0.042618159    17.401965      717.55456     -75.6907        641.86386    
   3191000   300.56697      0.042618159    22.502519      745.71495     -70.38083       675.33412    
   3192000   308.80042      0.042618159    16.416021      766.14236     -68.003818      698.13854    
   3193000   285.052        0.042618159    10.017998      707.22188     -71.147157      636.07472    
   3194000   302.68706      0.042618159    24.648608      750.97494     -65.648876      685.32607    
   3195000   319.11625      0.042618159    19.153412      791.73622     -64.037432      727.69879    
   3196000   292.95256      0.042618159    19.88325       726.82337     -65.970851      660.85252    
   3197000   294.34237      0.042618159    28.520346      730.27153     -61.615954      668.65557    
   3198000   305.21781      0.042618159    29.221722      757.25381     -69.228857      688.02495    
   3199000   302.23634      0.042618159    13.616832      749.85668     -65.263528      684.59315    
   3200000   290.12138      0.042618159    42.066117      719.79914     -62.793376      657.00576    
   3201000   300.82772      0.042618159    35.007478      746.36188     -60.79422       685.56766    
   3202000   311.27906      0.042618159    19.931369      772.29192     -68.665288      703.62663    
   3203000   296.66808      0.042618159    19.77301       736.04168     -73.712841      662.32883    
   3204000   305.58853      0.042618159    43.247788      758.17357     -67.0832        691.09037    
   3205000   318.00354      0.042618159    7.3249623      788.97554     -70.5875        718.38804    
   3206000   290.70178      0.042618159    22.34875       721.23912     -71.039996      650.19913    
   3207000   303.23535      0.042618159    21.262176      752.33527     -70.296116      682.03915    
   3208000   311.91341      0.042618159    25.983788      773.86576     -74.467124      699.39864    
   3209000   278.70852      0.042618159    6.8801333      691.48352     -68.278568      623.20495    
   3210000   283.94866      0.042618159    17.870201      704.48444     -72.518536      631.9659     
   3211000   316.01113      0.042618159    33.132936      784.03232     -68.241895      715.79042    
   3212000   304.36619      0.042618159    19.283644      755.14091     -72.020813      683.12009    
   3213000   294.06013      0.042618159    20.195296      729.5713      -75.347801      654.2235     
   3214000   295.58283      0.042618159    22.792452      733.34914     -69.981936      663.36721    
   3215000   304.85245      0.042618159    21.417283      756.34733     -67.846338      688.50099    
   3216000   294.2169       0.042618159    21.375064      729.96023     -67.053378      662.90686    
   3217000   298.51686      0.042618159    22.217554      740.62856     -60.964402      679.66416    
   3218000   297.49464      0.042618159    17.820459      738.09241     -63.136184      674.95622    
   3219000   310.61369      0.042618159    21.355986      770.64113     -65.284395      705.35673    
   3220000   307.75659      0.042618159    28.565493      763.55259     -71.398402      692.15419    
   3221000   294.18231      0.042618159    20.965023      729.87443     -60.728085      669.14634    
   3222000   295.77581      0.042618159    19.343099      733.82794     -66.095428      667.73251    
   3223000   304.11936      0.042618159    21.065407      754.52853     -57.140903      697.38762    
   3224000   320.00963      0.042618159    24.89461       793.95272     -50.894773      743.05794    
   3225000   290.99866      0.042618159    22.85268       721.97569     -58.706414      663.26927    
   3226000   300.64435      0.042618159    21.427663      745.90693     -62.314281      683.59265    
   3227000   303.73771      0.042618159    21.450697      753.58163     -62.642852      690.93877    
   3228000   295.3831       0.042618159    29.026327      732.8536      -58.22545       674.62815    
   3229000   299.5587       0.042618159    21.150977      743.2134      -61.868428      681.34497    
   3230000   296.80407      0.042618159    19.237242      736.37908     -60.605661      675.77342    
   3231000   313.7746       0.042618159    22.856109      778.48343     -64.377258      714.10617    
   3232000   300.41658      0.042618159    21.550209      745.34182     -58.75216       686.58966    
   3233000   292.05248      0.042618159    20.634058      724.59026     -64.268643      660.32162    
   3234000   303.50185      0.042618159    26.900997      752.99646     -65.754367      687.24209    
   3235000   312.77253      0.042618159    22.067462      775.99728     -62.686857      713.31042    
   3236000   305.48663      0.042618159    24.141661      757.92076     -55.213602      702.70716    
   3237000   294.98845      0.042618159    15.035751      731.87447     -64.690834      667.18363    
   3238000   300.33416      0.042618159    21.254436      745.13733     -65.43944       679.69789    
   3239000   299.83317      0.042618159    23.223777      743.89437     -65.361377      678.53299    
   3240000   311.05247      0.042618159    19.170513      771.72976     -63.79982       707.92994    
   3241000   300.83823      0.042618159    17.093236      746.38795     -67.033763      679.35418    
   3242000   295.88997      0.042618159    22.389815      734.11116     -69.994007      664.11715    
   3243000   294.80718      0.042618159    19.841011      731.42475     -69.313462      662.11129    
   3244000   315.6592       0.042618159    21.892576      783.15919     -65.434704      717.72448    
   3245000   288.7611       0.042618159    21.092958      716.42424     -69.227401      647.19684    
   3246000   288.09907      0.042618159    5.1763761      714.78174     -70.638646      644.14309    
   3247000   297.61434      0.042618159    17.525598      738.38937     -71.000891      667.38848    
   3248000   314.15596      0.042618159    35.733449      779.4296      -69.546704      709.88289    
   3249000   297.16493      0.042618159    23.802084      737.27438     -66.224017      671.05037    
   3250000   277.84166      0.042618159    17.253965      689.33282     -69.513281      619.81954    
   3251000   303.03834      0.042618159    21.154124      751.84648     -69.384729      682.46175    
   3252000   309.44255      0.042618159    37.513936      767.73549     -63.110879      704.62461    
   3253000   299.58052      0.042618159    37.735912      743.26753     -69.08793       674.1796     
   3254000   294.51479      0.042618159    24.735795      730.6993      -65.502374      665.19693    
   3255000   302.1263       0.042618159    14.325304      749.58369     -67.489548      682.09414    
   3256000   296.45658      0.042618159    23.015595      735.51694     -70.786403      664.73054    
   3257000   290.43672      0.042618159    20.686888      720.58151     -76.833849      643.74766    
   3258000   309.56087      0.042618159    23.685925      768.02905     -69.635763      698.39329    
   3259000   297.90391      0.042618159    16.659587      739.10782     -70.099592      669.00823    
   3260000   293.2194       0.042618159    18.02684       727.48542     -65.480601      662.00482    
   3261000   293.85544      0.042618159    22.395721      729.06344     -64.280049      664.78339    
   3262000   298.71135      0.042618159    22.369965      741.11108     -61.043319      680.06777    
   3263000   305.17479      0.042618159    23.298039      757.14708     -63.948815      693.19826    
   3264000   297.33725      0.042618159    23.030139      737.70192     -61.636798      676.06513    
   3265000   301.05452      0.042618159    15.68705       746.92456     -64.059862      682.8647     
   3266000   305.15859      0.042618159    31.494318      757.10687     -69.828197      687.27868    
   3267000   294.65979      0.042618159    21.687158      731.05907     -72.749579      658.30949    
   3268000   305.80993      0.042618159    7.0301035      758.72287     -76.679962      682.04291    
   3269000   307.13043      0.042618159    23.959073      761.99906     -64.379732      697.61933    
   3270000   296.86841      0.042618159    22.380272      736.53871     -69.244482      667.29423    
   3271000   292.25722      0.042618159    12.841496      725.09821     -69.963851      655.13436    
   3272000   296.66611      0.042618159    9.8154029      736.0368      -68.86127       667.17553    
   3273000   297.12906      0.042618159    22.401432      737.1854      -72.043409      665.14199    
   3274000   285.43744      0.042618159    24.787137      708.17816     -70.510269      637.66789    
   3275000   292.09037      0.042618159    19.32885       724.68425     -68.204779      656.47947    
   3276000   317.73335      0.042618159    19.76946       788.30521     -65.947362      722.35785    
   3277000   297.90543      0.042618159    20.889184      739.11159     -78.675019      660.43657    
   3278000   285.88658      0.042618159    17.501249      709.2925      -76.497477      632.79502    
   3279000   314.03249      0.042618159    23.719345      779.12328     -67.039317      712.08396    
   3280000   305.68894      0.042618159    22.003085      758.42269     -66.149735      692.27296    
   3281000   300.59813      0.042618159    16.46553       745.79225     -68.419879      677.37237    
   3282000   300.77045      0.042618159    28.99238       746.21977     -71.808854      674.41091    
   3283000   306.38699      0.042618159    24.469646      760.15458     -70.573034      689.58155    
   3284000   297.92894      0.042618159    20.365791      739.16992     -73.644906      665.52501    
   3285000   289.13597      0.042618159    8.2136006      717.35432     -79.839621      637.5147     
   3286000   288.57325      0.042618159    18.895525      715.95818     -67.931014      648.02717    
   3287000   304.21966      0.042618159    18.367157      754.77737     -76.478036      678.29934    
   3288000   302.86993      0.042618159    15.242469      751.42865     -79.971276      671.45737    
   3289000   303.83156      0.042618159    22.185535      753.81449     -77.067225      676.74726    
   3290000   283.80005      0.042618159    22.818929      704.11575     -69.804026      634.31172    
   3291000   299.74321      0.042618159    16.906249      743.67117     -71.035303      672.63587    
   3292000   314.71198      0.042618159    17.378376      780.80909     -80.022982      700.78611    
   3293000   292.46714      0.042618159    19.240435      725.61903     -76.943249      648.67578    
   3294000   295.70796      0.042618159    22.769495      733.6596      -69.953298      663.7063     
   3295000   307.39316      0.042618159    19.80099       762.65091     -71.141232      691.50968    
   3296000   289.02549      0.042618159    14.376874      717.0802      -69.001752      648.07845    
   3297000   286.30815      0.042618159    18.748848      710.3384      -74.473221      635.86518    
   3298000   307.40399      0.042618159    21.437006      762.67778     -79.362733      683.31505    
   3299000   305.11294      0.042618159    28.466612      756.9936      -78.942935      678.05067    
   3300000   307.39488      0.042618159    16.819383      762.65516     -83.149711      679.50545    
   3301000   297.31388      0.042618159    10.218063      737.64394     -83.164153      654.47979    
   3302000   291.4781       0.042618159    20.062788      723.16519     -78.226811      644.93838    
   3303000   308.60879      0.042618159    30.729536      765.6669      -73.122288      692.54462    
   3304000   295.45999      0.042618159   -2.9323381      733.04438     -80.794205      652.25018    
   3305000   294.68486      0.042618159    3.9180645      731.12126     -74.391237      656.73002    
   3306000   306.33136      0.042618159    50.096525      760.01654     -71.143514      688.87302    
   3307000   306.65461      0.042618159    24.28475       760.81854     -76.601169      684.21737    
   3308000   287.58046      0.042618159    14.169671      713.49504     -70.793156      642.70188    
   3309000   313.79435      0.042618159    31.915158      778.53243     -71.970156      706.56227    
   3310000   304.37812      0.042618159    26.874039      755.1705      -78.079925      677.09058    
   3311000   309.17158      0.042618159    14.195157      767.06322     -81.675853      685.38737    
   3312000   302.61462      0.042618159    1.9399168      750.79522     -75.668541      675.12667    
   3313000   288.27564      0.042618159    27.09388       715.2198      -71.481215      643.73858    
   3314000   295.2253       0.042618159    34.67455       732.4621      -73.077191      659.38491    
   3315000   308.69742      0.042618159    0.31521024     765.88681     -68.191138      697.69567    
   3316000   299.65922      0.042618159    9.5367924      743.46277     -69.497425      673.96535    
   3317000   289.43356      0.042618159    23.919502      718.09264     -71.426083      646.66656    
   3318000   315.60848      0.042618159    39.034737      783.03334     -74.094902      708.93844    
   3319000   309.36591      0.042618159    13.114263      767.54535     -70.358752      697.18659    
   3320000   290.41986      0.042618159    22.172194      720.53967     -64.517093      656.02258    
   3321000   301.17908      0.042618159    24.467456      747.23361     -69.46273       677.77088    
   3322000   297.58419      0.042618159    38.959821      738.31458     -67.60017       670.71441    
   3323000   307.38159      0.042618159    38.932781      762.6222      -71.326235      691.29596    
   3324000   310.22416      0.042618159    16.791358      769.6747      -68.209634      701.46507    
   3325000   286.57975      0.042618159    15.004452      711.01227     -63.990034      647.02223    
   3326000   296.58357      0.042618159    19.520054      735.83202     -71.39303       664.43899    
   3327000   314.2705       0.042618159    21.865832      779.71376     -67.499657      712.21411    
   3328000   300.30095      0.042618159    22.535028      745.05495     -68.77015       676.2848     
   3329000   293.21357      0.042618159    24.739088      727.47095     -67.990536      659.48041    
   3330000   303.09184      0.042618159    23.114041      751.97921     -67.56263       684.41659    
   3331000   289.20937      0.042618159    18.537074      717.53643     -64.173788      653.36264    
   3332000   295.05193      0.042618159    20.641263      732.03197     -60.630082      671.40189    
   3333000   305.66355      0.042618159    23.027153      758.3597      -61.813305      696.5464     
   3334000   318.70404      0.042618159    24.563319      790.71351     -61.1749        729.53861    
   3335000   288.80612      0.042618159    21.88178       716.53595     -63.402813      653.13313    
   3336000   296.03219      0.042618159    23.398882      734.46402     -67.375878      667.08814    
   3337000   307.9884       0.042618159    20.928803      764.12772     -68.463556      695.66417    
   3338000   289.78447      0.042618159    14.679188      718.96326     -68.459318      650.50394    
   3339000   296.29257      0.042618159    28.327912      735.11002     -61.747992      673.36203    
   3340000   317.05974      0.042618159    21.450272      786.63394     -68.996363      717.63758    
   3341000   302.52772      0.042618159    22.434093      750.57962     -70.546621      680.033      
   3342000   284.11684      0.042618159    14.903133      704.9017      -69.777462      635.12424    
   3343000   311.87149      0.042618159    12.86337       773.76176     -68.897997      704.86376    
   3344000   310.54534      0.042618159    20.590885      770.47156     -65.069695      705.40186    
   3345000   301.98644      0.042618159    23.451352      749.23669     -63.796914      685.43977    
   3346000   287.58404      0.042618159    22.500779      713.50393     -56.502928      657.00101    
   3347000   294.36149      0.042618159    9.8635087      730.31897     -63.882237      666.43673    
   3348000   306.84128      0.042618159    27.410385      761.28168     -53.719263      707.56242    
   3349000   295.05137      0.042618159    39.494839      732.03059     -67.387937      664.64266    
   3350000   289.31513      0.042618159    13.25745       717.79881     -66.026166      651.77264    
   3351000   309.91473      0.042618159    19.050124      768.907       -67.443235      701.46376    
   3352000   306.2481       0.042618159    25.970101      759.80997     -69.750867      690.0591     
   3353000   287.99349      0.042618159    27.155819      714.5198      -70.373416      644.14638    
   3354000   290.51616      0.042618159    4.8921539      720.77861     -76.352613      644.426      
   3355000   310.67699      0.042618159    25.953313      770.79818     -68.246268      702.55191    
   3356000   291.2798       0.042618159    37.092777      722.67322     -70.914859      651.75836    
   3357000   297.25358      0.042618159    18.034879      737.49432     -64.925595      672.56872    
   3358000   311.12869      0.042618159    10.643031      771.91886     -71.956495      699.96237    
   3359000   307.3665       0.042618159    25.37273       762.58476     -72.18296       690.4018     
   3360000   289.6583       0.042618159    32.667015      718.65024     -74.132402      644.51784    
   3361000   284.37947      0.042618159    5.9886333      705.55332     -74.056053      631.49726    
   3362000   304.06163      0.042618159    14.212544      754.38528     -80.678553      673.70673    
   3363000   312.18757      0.042618159    12.658896      774.54596     -76.825655      697.72031    
   3364000   306.19281      0.042618159    28.855732      759.6728      -76.989318      682.68348    
   3365000   289.94778      0.042618159    20.812663      719.36843     -74.978768      644.38966    
   3366000   300.59632      0.042618159    17.730443      745.78776     -81.803967      663.98379    
   3367000   319.27565      0.042618159    23.179493      792.13168     -76.402205      715.72948    
   3368000   298.19029      0.042618159    23.387954      739.81833     -73.341644      666.47669    
   3369000   286.21072      0.042618159    22.743842      710.09668     -80.361336      629.73534    
   3370000   301.00041      0.042618159    28.978642      746.79032     -79.568914      667.22141    
   3371000   317.26549      0.042618159    17.546975      787.14444     -80.700622      706.44382    
   3372000   298.91512      0.042618159    20.689946      741.61665     -72.086807      669.52985    
   3373000   289.68939      0.042618159    20.513155      718.72736     -72.741667      645.98569    
   3374000   301.66559      0.042618159    19.404715      748.44064     -73.245197      675.19545    
   3375000   303.02481      0.042618159    34.039729      751.81291     -76.512292      675.30061    
   3376000   302.43904      0.042618159    23.352322      750.3596      -77.263492      673.0961     
   3377000   289.42711      0.042618159    18.39893       718.07664     -69.740628      648.33601    
   3378000   316.45432      0.042618159    24.185271      785.1319      -68.321424      716.81048    
   3379000   298.62248      0.042618159    29.593311      740.89061     -68.42436       672.46625    
   3380000   291.36333      0.042618159    6.9209798      722.88045     -70.095261      652.78519    
   3381000   300.74176      0.042618159    21.073394      746.14859     -67.001697      679.1469     
   3382000   302.67066      0.042618159    38.953205      750.93424     -72.617298      678.31694    
   3383000   300.85986      0.042618159    25.4466        746.44161     -74.490106      671.9515     
   3384000   284.33214      0.042618159    8.836115       705.43588     -78.111119      627.32476    
   3385000   324.8123       0.042618159    29.031018      805.86826     -73.231913      732.63635    
   3386000   304.21673      0.042618159    32.057766      754.77009     -78.151233      676.61886    
   3387000   290.14254      0.042618159    24.759039      719.85165     -70.921306      648.93034    
   3388000   291.46897      0.042618159    18.110844      723.14254     -73.730247      649.4123     
   3389000   304.906        0.042618159    18.377766      756.48019     -80.074693      676.4055     
   3390000   309.56522      0.042618159    23.851676      768.03984     -71.029186      697.01066    
   3391000   294.8034       0.042618159    25.718855      731.41536     -74.712328      656.70303    
   3392000   290.10823      0.042618159    12.147491      719.76651     -78.732035      641.03448    
   3393000   314.39075      0.042618159    16.44861       780.01212     -79.81711       700.19501    
   3394000   303.53651      0.042618159    22.217673      753.08246     -79.715135      673.36732    
   3395000   301.33757      0.042618159    25.314782      747.62681     -83.568506      664.0583     
   3396000   309.01455      0.042618159    23.68351       766.67363     -80.209961      686.46366    
   3397000   316.68832      0.042618159    16.153411      785.71245     -77.694305      708.01815    
   3398000   295.55081      0.042618159    20.999252      733.2697      -73.044289      660.22541    
   3399000   285.2826       0.042618159    34.253053      707.79399     -62.246951      645.54703    
   3400000   304.4729       0.042618159    26.843089      755.40566     -64.384875      691.02078    
   3401000   316.52625      0.042618159    9.5837432      785.31035     -58.137105      727.17325    
   3402000   293.49319      0.042618159    12.651517      728.1647      -68.76448       659.40022    
   3403000   280.14776      0.042618159    35.235034      695.0543      -62.112937      632.94137    
   3404000   301.48767      0.042618159    27.495409      747.99923     -66.486631      681.5126     
   3405000   306.18424      0.042618159    23.061419      759.65154     -68.259757      691.39179    
   3406000   304.68326      0.042618159    20.522291      755.92756     -70.802447      685.12512    
   3407000   280.9759       0.042618159    18.827012      697.10896     -73.199199      623.90976    
   3408000   299.84279      0.042618159    29.93018       743.91823     -67.531911      676.38632    
   3409000   316.8314       0.042618159    24.477017      786.06743     -61.751598      724.31583    
   3410000   308.76525      0.042618159    11.835409      766.05509     -55.961458      710.09364    
   3411000   285.58908      0.042618159    20.01648       708.55439     -60.897345      647.65704    
   3412000   287.78584      0.042618159    34.803778      714.0046      -60.128112      653.87649    
   3413000   309.89612      0.042618159    19.488494      768.86081     -62.506257      706.35455    
   3414000   297.04172      0.042618159    14.61317       736.96869     -59.249755      677.71893    
   3415000   302.5465       0.042618159    26.59938       750.6262      -64.507226      686.11897    
   3416000   305.46307      0.042618159    34.382002      757.86229     -62.216123      695.64617    
   3417000   303.89946      0.042618159    23.783352      753.98294     -64.799936      689.183      
   3418000   306.8221       0.042618159    21.547539      761.2341      -59.912637      701.32146    
   3419000   304.77468      0.042618159    14.490993      756.15437     -68.317638      687.83674    
   3420000   282.36846      0.042618159    35.842438      700.56393     -63.460565      637.10337    
   3421000   303.70145      0.042618159    34.410652      753.49167     -59.325443      694.16623    
   3422000   323.87842      0.042618159    7.2419673      803.55129     -56.936342      746.61495    
   3423000   292.65593      0.042618159    19.959796      726.08744     -60.735247      665.35219    
   3424000   294.247        0.042618159    25.288049      730.03492     -62.398549      667.63637    
   3425000   315.40527      0.042618159    20.915261      782.52918     -62.365719      720.16346    
   3426000   310.89021      0.042618159    20.121434      771.32717     -63.379403      707.94777    
   3427000   297.33696      0.042618159    12.634908      737.70119     -60.494811      677.20638    
   3428000   293.54659      0.042618159    21.881107      728.29718     -63.337174      664.96001    
   3429000   305.33419      0.042618159    25.124163      757.54253     -68.27924       689.26329    
   3430000   312.09795      0.042618159    18.787691      774.32361     -65.174852      709.14876    
   3431000   291.84833      0.042618159    22.728229      724.08375     -66.758602      657.32515    
   3432000   305.21106      0.042618159    22.679625      757.23705     -60.762095      696.47495    
   3433000   306.75791      0.042618159    22.725279      761.07483     -61.71654       699.35829    
   3434000   305.62835      0.042618159    22.455824      758.27236     -64.437844      693.83452    
   3435000   287.98944      0.042618159    17.243181      714.50975     -60.245811      654.26394    
   3436000   289.59525      0.042618159    35.104736      718.49379     -62.268909      656.22488    
   3437000   308.59349      0.042618159    22.375423      765.62896     -58.829261      706.7997     
   3438000   308.64707      0.042618159    19.281831      765.76188     -62.083742      703.67814    
   3439000   296.78895      0.042618159   -0.56582925     736.34158     -64.482178      671.8594     
   3440000   287.24492      0.042618159    18.120158      712.66257     -71.535533      641.12704    
   3441000   306.18028      0.042618159    24.150596      759.64171     -72.072254      687.56945    
   3442000   307.18639      0.042618159    17.832542      762.13791     -71.347078      690.79083    
   3443000   286.22869      0.042618159    16.065741      710.14127     -76.015876      634.12539    
   3444000   285.08659      0.042618159    22.35672       707.30769     -70.296288      637.0114     
   3445000   316.15421      0.042618159    23.881334      784.38732     -74.07813       710.30919    
   3446000   311.33821      0.042618159    21.857074      772.43869     -65.08938       707.34931    
   3447000   287.79115      0.042618159    20.208923      714.01778     -66.300474      647.71731    
   3448000   285.70194      0.042618159    23.334371      708.8344      -66.843186      641.99121    
   3449000   306.1625       0.042618159    26.705534      759.59759     -68.484188      691.1134     
   3450000   317.7733       0.042618159    18.126464      788.40431     -71.057784      717.34653    
   3451000   292.71083      0.042618159    17.175945      726.22363     -73.373263      652.85036    
   3452000   295.2438       0.042618159    28.126391      732.50799     -68.570537      663.93746    
   3453000   315.61701      0.042618159    25.143281      783.0545      -71.628902      711.4256     
   3454000   307.61014      0.042618159    17.460032      763.18923     -77.491086      685.69814    
   3455000   298.12768      0.042618159    18.521332      739.663       -73.22657       666.43643    
   3456000   292.13207      0.042618159    21.649493      724.78771     -69.313097      655.47461    
   3457000   285.68244      0.042618159    20.144131      708.786       -72.434587      636.35141    
   3458000   298.86269      0.042618159    25.498089      741.48656     -60.334884      681.15168    
   3459000   325.28536      0.042618159    33.109738      807.04196     -65.466801      741.57516    
   3460000   303.33193      0.042618159    13.035677      752.57489     -57.234944      695.33995    
   3461000   294.9884       0.042618159    41.13563       731.87435     -58.184968      673.68938    
   3462000   301.69833      0.042618159    22.133009      748.52187     -63.068773      685.4531     
   3463000   312.51655      0.042618159   -21.995893      775.36218     -58.129496      717.23268    
   3464000   296.09424      0.042618159    27.358582      734.61796     -61.972731      672.64523    
   3465000   291.6275       0.042618159    26.942232      723.53586     -67.793121      655.74274    
   3466000   316.33876      0.042618159    25.17029       784.84517     -62.617497      722.22768    
   3467000   317.68484      0.042618159    38.034451      788.18483     -62.100669      726.08416    
   3468000   301.72848      0.042618159    15.611161      748.59669     -74.988813      673.60787    
   3469000   288.10261      0.042618159    13.201053      714.79051     -73.327088      641.46342    
   3470000   310.32496      0.042618159    33.748247      769.92479     -76.054942      693.86985    
   3471000   297.6737       0.042618159    34.149552      738.53665     -68.105452      670.43119    
   3472000   298.10405      0.042618159    20.626942      739.60435     -75.074243      664.53011    
   3473000   288.95729      0.042618159    19.560531      716.911       -74.099829      642.81118    
   3474000   291.1575       0.042618159    29.369304      722.36979     -74.657656      647.71213    
   3475000   308.85174      0.042618159    39.419248      766.26968     -71.117153      695.15252    
   3476000   302.91269      0.042618159   -4.207805       751.53475     -70.137759      681.39699    
   3477000   292.57819      0.042618159    24.967478      725.89456     -75.6694        650.22516    
   3478000   312.0692       0.042618159    24.665751      774.25229     -73.946375      700.30592    
   3479000   309.20403      0.042618159    28.10594       767.14372     -74.12104       693.02268    
   3480000   286.18954      0.042618159    0.6466194      710.04414     -72.411782      637.63236    
   3481000   294.34623      0.042618159    32.301975      730.28112     -72.639425      657.64169    
   3482000   320.51378      0.042618159    26.763806      795.20352     -74.025512      721.17801    
   3483000   300.24205      0.042618159    14.049496      744.9088      -77.170592      667.73821    
   3484000   289.35087      0.042618159    23.399117      717.88748     -72.849142      645.03834    
   3485000   296.5634       0.042618159    26.567927      735.78198     -69.01589       666.76609    
   3486000   310.16         0.042618159    17.146775      769.51552     -75.062402      694.45312    
   3487000   295.02782      0.042618159    24.248406      731.97215     -72.917558      659.05459    
   3488000   292.4378       0.042618159    22.881793      725.54623     -77.141676      648.40456    
   3489000   298.63322      0.042618159    23.868049      740.91726     -71.725029      669.19223    
   3490000   304.26326      0.042618159    21.566778      754.88553     -66.60722       688.27831    
   3491000   303.31047      0.042618159    22.417905      752.52163     -71.550599      680.97104    
   3492000   308.47598      0.042618159    26.284188      765.33741     -71.767582      693.56983    
   3493000   289.0521       0.042618159    26.278154      717.14622     -70.902373      646.24385    
   3494000   294.47963      0.042618159    23.934459      730.61208     -71.110064      659.50202    
   3495000   317.4197       0.042618159    25.262495      787.52702     -75.963376      711.56364    
   3496000   300.09398      0.042618159    32.423612      744.54143     -65.089067      679.45237    
   3497000   289.31375      0.042618159    17.445098      717.79538     -65.185727      652.60966    
   3498000   309.86421      0.042618159    29.643474      768.78165     -74.144034      694.63762    
   3499000   294.79595      0.042618159    20.635251      731.39687     -79.385079      652.01179    
   3500000   297.31344      0.042618159    9.7562177      737.64284     -79.047948      658.59489    
   3501000   301.67772      0.042618159    38.953232      748.47075     -80.363247      668.1075     
   3502000   295.7241       0.042618159    20.390455      733.69964     -73.671848      660.02779    
   3503000   301.15748      0.042618159    23.486611      747.18        -75.885013      671.29499    
   3504000   289.9683       0.042618159    11.354467      719.41934     -76.309327      643.11001    
   3505000   299.63241      0.042618159    19.435289      743.39626     -74.865354      668.5309     
   3506000   304.10677      0.042618159    22.201135      754.49728     -70.638015      683.85926    
   3507000   297.27785      0.042618159    27.581124      737.55453     -73.76754       663.787      
   3508000   293.45879      0.042618159    4.4900199      728.07934     -78.231323      649.84802    
   3509000   297.28288      0.042618159    30.132067      737.56702     -83.394784      654.17224    
   3510000   298.08489      0.042618159    21.916464      739.55683     -76.821352      662.73548    
   3511000   291.8378       0.042618159    8.6291999      724.05762     -74.458468      649.59915    
   3512000   293.29896      0.042618159    11.767182      727.68281     -73.070521      654.61229    
   3513000   307.09283      0.042618159    30.534255      761.90577     -73.771658      688.13411    
   3514000   301.53675      0.042618159    23.245013      748.121       -82.944776      665.17622    
   3515000   288.50747      0.042618159    24.699911      715.79499     -83.850873      631.94412    
   3516000   281.4393       0.042618159    9.5062891      698.25866     -84.184457      614.0742     
   3517000   299.56527      0.042618159    10.66121       743.2297      -86.080073      657.14963    
   3518000   307.9734       0.042618159    14.769063      764.0905      -80.931968      683.15853    
   3519000   293.28361      0.042618159    39.331967      727.64472     -83.440027      644.2047     
   3520000   301.26224      0.042618159    18.355981      747.43993     -81.011727      666.42821    
   3521000   303.46937      0.042618159    17.959874      752.91587     -74.880324      678.03555    
   3522000   307.25236      0.042618159    22.674316      762.30158     -77.493428      684.80815    
   3523000   295.50004      0.042618159    24.034564      733.14373     -77.137379      656.00635    
   3524000   288.85653      0.042618159    21.353007      716.66102     -81.236061      635.42496    
   3525000   304.31978      0.042618159    19.446838      755.02576     -81.29924       673.72652    
   3526000   321.61763      0.042618159    40.486004      797.9422      -84.472777      713.46942    
   3527000   295.38346      0.042618159    21.196149      732.85452     -85.610943      647.24357    
   3528000   286.50578      0.042618159    11.022357      710.82873     -77.531171      633.29756    
   3529000   304.83608      0.042618159    22.059579      756.30673     -82.548781      673.75795    
   3530000   309.14987      0.042618159    22.319486      767.00936     -80.8846        686.12476    
   3531000   307.47425      0.042618159    20.175708      762.85209     -83.945122      678.90697    
   3532000   289.76063      0.042618159    18.666516      718.90412     -70.873408      648.03071    
   3533000   299.37643      0.042618159    30.174846      742.76119     -71.71645       671.04474    
   3534000   301.41199      0.042618159    20.993806      747.81145     -70.84521       676.96624    
   3535000   291.3908       0.042618159    17.745959      722.94861     -72.156549      650.79206    
   3536000   294.49786      0.042618159    26.287328      730.6573      -69.126003      661.5313     
   3537000   320.21267      0.042618159    27.519347      794.45647     -72.250304      722.20616    
   3538000   299.67169      0.042618159    19.19728       743.49372     -72.521037      670.97268    
   3539000   294.95896      0.042618159    19.426071      731.80131     -69.509327      662.29199    
   3540000   306.55121      0.042618159    34.75213       760.56201     -75.676792      684.88522    
   3541000   318.67227      0.042618159    34.808757      790.63469     -72.666643      717.96805    
   3542000   299.82441      0.042618159    20.368679      743.87263     -68.915116      674.95752    
   3543000   295.12723      0.042618159    18.621015      732.2188      -80.545472      651.67333    
   3544000   298.41287      0.042618159    22.143669      740.37055     -82.444813      657.92574    
   3545000   297.86188      0.042618159    24.101577      739.00354     -72.721307      666.28223    
   3546000   299.91795      0.042618159    19.389399      744.10471     -70.783275      673.32144    
   3547000   302.42658      0.042618159    8.6409853      750.32869     -73.267724      677.06097    
   3548000   304.0596       0.042618159    35.345629      754.38026     -72.929124      681.45114    
   3549000   301.97202      0.042618159    34.429145      749.2009      -68.177328      681.02357    
   3550000   298.66192      0.042618159    29.142129      740.98846     -72.877353      668.11111    
   3551000   301.4522       0.042618159    15.406516      747.91121     -65.43343       682.47778    
   3552000   299.27108      0.042618159    8.0224448      742.4998      -63.714783      678.78502    
   3553000   300.12696      0.042618159    28.853324      744.62325     -67.597019      677.02623    
   3554000   301.9385       0.042618159    37.045016      749.11774     -64.507807      684.60994    
   3555000   306.8122       0.042618159    11.736493      761.20952     -63.927905      697.28161    
   3556000   303.72502      0.042618159   -5.7033317      753.55014     -68.58482       684.96532    
   3557000   297.351        0.042618159    15.681924      737.73604     -66.498096      671.23794    
   3558000   291.0866       0.042618159    21.306228      722.19389     -72.591858      649.60203    
   3559000   321.19588      0.042618159    22.630933      796.89582     -70.226539      726.66929    
   3560000   301.66097      0.042618159    23.017267      748.42918     -65.391099      683.03808    
   3561000   289.79836      0.042618159    21.044216      718.99771     -67.916061      651.08165    
   3562000   294.88457      0.042618159    20.171733      731.61674     -57.942271      673.67447    
   3563000   305.64187      0.042618159    19.622109      758.3059      -62.92132       695.38458    
   3564000   309.46179      0.042618159    20.719713      767.78322     -72.697349      695.08587    
   3565000   285.67269      0.042618159    18.393985      708.76183     -71.352346      637.40948    
   3566000   295.30622      0.042618159    21.733178      732.66286     -68.957459      663.70541    
   3567000   305.22207      0.042618159    26.503886      757.26436     -71.113355      686.15101    
   3568000   300.82133      0.042618159    23.627598      746.346       -76.780529      669.56547    
   3569000   299.83793      0.042618159    14.294441      743.90616     -67.988783      675.91738    
   3570000   305.64601      0.042618159    3.914258       758.31619     -69.107184      689.209      
   3571000   299.81776      0.042618159    35.892763      743.85614     -65.269275      678.58686    
   3572000   296.22273      0.042618159    34.540344      734.93677     -61.61696       673.31981    
   3573000   296.1016       0.042618159    18.914497      734.63624     -63.57175       671.06449    
   3574000   301.04506      0.042618159    16.304747      746.9011      -65.136881      681.76422    
   3575000   298.68048      0.042618159    25.488934      741.0345      -59.434242      681.60026    
   3576000   300.58598      0.042618159    27.462602      745.7621      -62.179291      683.5828     
   3577000   314.26996      0.042618159    17.669874      779.71243     -68.993837      710.71859    
   3578000   295.76113      0.042618159    20.035871      733.79151     -69.657684      664.13383    
   3579000   294.45717      0.042618159    20.880762      730.55636     -63.499753      667.05661    
   3580000   283.69426      0.042618159    17.565384      703.85328     -59.192359      644.66092    
   3581000   299.23201      0.042618159    24.469475      742.40286     -62.799445      679.60341    
   3582000   294.31583      0.042618159    18.510947      730.20568     -63.318222      666.88745    
   3583000   284.67101      0.042618159    24.595713      706.27661     -60.565674      645.71094    
   3584000   315.45273      0.042618159    22.976983      782.64692     -59.4549        723.19202    
   3585000   311.47814      0.042618159    22.453042      772.78584     -63.479361      709.30648    
   3586000   293.20927      0.042618159    20.483379      727.46027     -66.752889      660.70738    
   3587000   295.90655      0.042618159    21.843209      734.1523      -66.914984      667.23731    
   3588000   310.6216       0.042618159    19.016375      770.66076     -66.903774      703.75699    
   3589000   296.77042      0.042618159    20.379982      736.29559     -73.56193       662.73366    
   3590000   297.51823      0.042618159    23.953423      738.15092     -76.715688      661.43523    
   3591000   310.62724      0.042618159    22.283269      770.67474     -71.571016      699.10372    
   3592000   299.9709       0.042618159    20.751259      744.23606     -70.584682      673.65138    
   3593000   293.17114      0.042618159    20.160789      727.36568     -78.892319      648.47336    
   3594000   286.8412       0.042618159    21.115556      711.66091     -74.504055      637.15686    
   3595000   301.20806      0.042618159    23.954201      747.30551     -69.274671      678.03084    
   3596000   311.93089      0.042618159    19.172008      773.90913     -67.722235      706.18689    
   3597000   312.14759      0.042618159    21.573393      774.44678     -67.247914      707.19886    
   3598000   307.73453      0.042618159    24.638247      763.49786     -66.391662      697.1062     
   3599000   289.39135      0.042618159    24.471154      717.98793     -64.881744      653.10618    
   3600000   297.61822      0.042618159    4.3160582      738.39901     -65.221152      673.17786    
   3601000   310.45539      0.042618159    24.234324      770.24837     -61.213724      709.03465    
   3602000   305.03124      0.042618159    30.234008      756.79091     -59.649322      697.14159    
   3603000   287.60121      0.042618159    15.541002      713.54652     -62.007133      651.53939    
   3604000   308.21319      0.042618159    21.398665      764.68541     -60.155113      704.5303     
   3605000   293.30891      0.042618159    27.665319      727.7075      -53.718612      673.98888    
   3606000   289.50322      0.042618159    22.953312      718.26548     -60.790725      657.47475    
   3607000   294.74912      0.042618159    22.040778      731.28068     -60.562698      670.71799    
   3608000   309.45045      0.042618159    22.459473      767.75511     -58.500478      709.25463    
   3609000   295.79248      0.042618159    20.884603      733.86929     -61.130138      672.73916    
   3610000   290.15907      0.042618159    14.689099      719.89265     -61.613931      658.27871    
   3611000   294.64347      0.042618159    25.711942      731.01857     -64.587166      666.4314     
   3612000   319.52746      0.042618159    25.784422      792.75643     -62.315865      730.44057    
   3613000   299.15199      0.042618159    18.624169      742.20433     -64.700404      677.50393    
   3614000   294.90339      0.042618159    17.847409      731.66344     -67.918482      663.74496    
   3615000   298.70667      0.042618159    20.277514      741.09949     -75.806287      665.2932     
   3616000   313.09843      0.042618159    25.085453      776.80583     -67.085928      709.7199     
   3617000   302.55103      0.042618159    26.272203      750.63746     -75.566879      675.07058    
   3618000   299.81411      0.042618159    29.708849      743.84706     -72.98738       670.85968    
   3619000   298.2335       0.042618159    14.465924      739.92553     -77.774089      662.15144    
   3620000   290.76744      0.042618159    13.275713      721.40204     -76.77427       644.62777    
   3621000   295.12749      0.042618159    23.128462      732.21943     -76.944678      655.27475    
   3622000   300.96359      0.042618159    22.554676      746.69895     -72.512196      674.18676    
   3623000   302.90044      0.042618159    2.146074       751.50433     -70.401848      681.10249    
   3624000   296.66044      0.042618159    17.572762      736.02272     -67.893476      668.12925    
   3625000   287.8498       0.042618159    21.634763      714.16329     -64.456664      649.70663    
   3626000   315.25768      0.042618159    23.358961      782.163       -68.863545      713.29945    
   3627000   300.05882      0.042618159    20.156013      744.45421     -73.318396      671.13581    
   3628000   306.3679       0.042618159    20.644835      760.1072      -68.986033      691.12117    
   3629000   294.20777      0.042618159    13.97778       729.93758     -70.126888      659.8107     
   3630000   292.42515      0.042618159    18.818689      725.51486     -69.433083      656.08178    
   3631000   301.64009      0.042618159    38.330857      748.37737     -59.089304      689.28807    
   3632000   308.89835      0.042618159    15.540004      766.38531     -62.973317      703.41199    
   3633000   310.22916      0.042618159    8.3318808      769.6871      -61.342057      708.34505    
   3634000   299.67538      0.042618159    24.965034      743.50289     -56.757594      686.74529    
   3635000   301.81242      0.042618159    28.0139        748.80494     -62.095887      686.70905    
   3636000   305.11602      0.042618159    15.588008      757.00126     -62.298698      694.70257    
   3637000   296.85404      0.042618159    18.547752      736.50305     -57.945148      678.5579     
   3638000   305.16944      0.042618159    22.369721      757.13379     -62.398867      694.73492    
   3639000   299.45276      0.042618159    20.172044      742.95054     -59.972337      682.9782     
   3640000   299.1552       0.042618159    21.054507      742.21231     -62.452578      679.75973    
   3641000   328.40955      0.042618159    34.699273      814.79314     -61.694735      753.09841    
   3642000   311.6831       0.042618159    20.723533      773.29436     -65.45333       707.84103    
   3643000   284.7743       0.042618159    18.166172      706.53289     -69.955685      636.57721    
   3644000   309.99385      0.042618159    33.874362      769.1033      -63.184124      705.91917    
   3645000   317.14158      0.042618159    27.843384      786.83699     -65.926263      720.91073    
   3646000   301.45559      0.042618159    19.766759      747.91964     -65.762655      682.15698    
   3647000   284.51946      0.042618159    20.314279      705.90063     -59.606201      646.29443    
   3648000   297.11583      0.042618159    25.119625      737.15256     -54.831184      682.32137    
   3649000   298.59358      0.042618159    21.68826       740.8189      -60.013693      680.8052     
   3650000   296.01282      0.042618159    19.743994      734.41597     -65.269492      669.14648    
   3651000   299.51752      0.042618159    20.904738      743.11123     -61.338314      681.77291    
   3652000   309.49373      0.042618159    23.993238      767.86247     -71.379965      696.4825     
   3653000   301.66827      0.042618159    23.197628      748.4473      -75.71956       672.72774    
   3654000   291.75811      0.042618159    20.718226      723.85992     -67.9842        655.87572    
   3655000   301.72603      0.042618159    18.466209      748.5906      -62.344431      686.24617    
   3656000   302.03699      0.042618159    25.419586      749.36209     -67.545339      681.81675    
   3657000   296.72387      0.042618159    23.859386      736.1801      -66.878058      669.30204    
   3658000   306.31602      0.042618159    18.062201      759.9785      -65.110337      694.86816    
   3659000   309.20388      0.042618159    23.557493      767.14335     -65.659903      701.48344    
   3660000   295.35567      0.042618159    23.518534      732.78556     -53.182302      679.60325    
   3661000   292.79627      0.042618159    19.770079      726.43561     -57.484326      668.95128    
   3662000   305.06187      0.042618159    19.266911      756.86691     -63.521472      693.34544    
   3663000   296.12224      0.042618159    20.114156      734.68745     -74.375483      660.31196    
   3664000   288.95886      0.042618159    19.390018      716.91489     -64.103267      652.81162    
   3665000   290.49765      0.042618159    23.713763      720.73268     -61.954933      658.77774    
   3666000   297.55981      0.042618159    24.915307      738.25408     -58.151611      680.10247    
   3667000   298.31508      0.042618159    18.067135      740.12794     -57.389019      682.73892    
   3668000   306.206        0.042618159    22.661002      759.70553     -56.925845      702.77969    
   3669000   309.43933      0.042618159    32.430868      767.72751     -63.904914      703.8226     
   3670000   280.69138      0.042618159    6.9712527      696.40306     -62.193059      634.21       
   3671000   296.86943      0.042618159   -10.737708      736.54125     -62.581926      673.95932    
   3672000   306.82261      0.042618159    9.617823       761.23535     -57.575532      703.65982    
   3673000   311.77423      0.042618159    43.777076      773.52047     -71.56067       701.9598     
   3674000   300.32771      0.042618159    30.96037       745.12132     -63.686378      681.43494    
   3675000   294.66614      0.042618159    12.095729      731.07481     -68.86204       662.21277    
   3676000   315.92873      0.042618159    18.279984      783.82788     -72.311135      711.51675    
   3677000   316.44412      0.042618159    23.506886      785.10659     -67.978529      717.12807    
   3678000   304.7083       0.042618159    29.782615      755.98968     -73.346464      682.64322    
   3679000   298.57028      0.042618159    3.7345671      740.7611      -69.736837      671.02426    
   3680000   301.06612      0.042618159    25.583028      746.95335     -74.650898      672.30245    
   3681000   292.30527      0.042618159    22.499744      725.21742     -70.676603      654.54082    
   3682000   295.1794       0.042618159    15.729837      732.34822     -69.75445       662.59377    
   3683000   299.69563      0.042618159    22.017569      743.55312     -77.879398      665.67372    
   3684000   298.28533      0.042618159    23.334431      740.05412     -75.092518      664.9616     
   3685000   295.04686      0.042618159    22.881526      732.0194      -74.101212      657.91819    
   3686000   294.39315      0.042618159    13.900799      730.39751     -79.100224      651.29729    
   3687000   310.46186      0.042618159    18.212294      770.26444     -78.012493      692.25195    
   3688000   311.94306      0.042618159    22.531425      773.93933     -78.795191      695.14414    
   3689000   287.44222      0.042618159    19.01884       713.15207     -73.648283      639.50379    
   3690000   285.58729      0.042618159    18.851076      708.54993     -80.7357        627.81423    
   3691000   311.65903      0.042618159    13.837005      773.23464     -77.782975      695.45167    
   3692000   301.5805       0.042618159    20.500001      748.22952     -80.92303       667.30649    
   3693000   292.98104      0.042618159    21.807461      726.89404     -81.766239      645.1278     
   3694000   312.91752      0.042618159    22.697862      776.357       -83.843026      692.51397    
   3695000   306.48039      0.042618159    20.792737      760.38629     -81.441207      678.94508    
   3696000   288.40364      0.042618159    19.577012      715.53739     -82.92689       632.6105     
   3697000   305.46985      0.042618159    23.725216      757.87912     -82.050501      675.82862    
   3698000   315.51206      0.042618159    20.453868      782.79411     -83.845077      698.94903    
   3699000   311.19951      0.042618159    35.168029      772.09456     -88.401023      683.69354    
   3700000   278.92873      0.042618159    31.340055      692.02987     -84.204519      607.82535    
   3701000   291.65707      0.042618159    20.44733       723.60923     -78.825928      644.7833     
   3702000   303.33331      0.042618159    21.828384      752.5783      -76.090011      676.48829    
   3703000   311.80803      0.042618159    14.682048      773.60431     -77.601981      696.00233    
   3704000   289.84006      0.042618159    36.759342      719.10117     -74.316761      644.78441    
   3705000   294.41602      0.042618159    11.589135      730.45425     -76.996788      653.45746    
   3706000   310.77432      0.042618159    2.0960653      771.03966     -83.109936      687.92972    
   3707000   302.80446      0.042618159    20.555618      751.26621     -75.46617       675.80004    
   3708000   295.35065      0.042618159    25.912127      732.7731      -76.461684      656.31142    
   3709000   299.00283      0.042618159    16.810911      741.83426     -78.873466      662.96079    
   3710000   307.39511      0.042618159    21.229263      762.65575     -73.867965      688.78779    
   3711000   303.21384      0.042618159    22.051412      752.28189     -66.655784      685.62611    
   3712000   299.46618      0.042618159    22.360128      742.98384     -74.283446      668.70039    
   3713000   276.80166      0.042618159    30.442491      686.75255     -77.227972      609.52458    
   3714000   296.56233      0.042618159    16.504816      735.7793      -77.973227      657.80608    
   3715000   313.44611      0.042618159    15.941222      777.66843     -69.488656      708.17978    
   3716000   309.09565      0.042618159    31.968476      766.87484     -74.798222      692.07661    
   3717000   299.16063      0.042618159    36.110172      742.22578     -68.427804      673.79797    
   3718000   293.75103      0.042618159    22.286139      728.8044      -71.607813      657.19659    
   3719000   296.04928      0.042618159    14.363486      734.50642     -76.521043      657.98538    
   3720000   306.07571      0.042618159    18.742181      759.38227     -75.599505      683.78276    
   3721000   309.72072      0.042618159    23.310584      768.42565     -75.840626      692.58503    
   3722000   294.89947      0.042618159    26.150879      731.65371     -75.420685      656.23303    
   3723000   295.63925      0.042618159    29.177242      733.48912     -69.33568       664.15344    
   3724000   291.60861      0.042618159    15.049547      723.48899     -70.728209      652.76079    
   3725000   300.41111      0.042618159    15.827377      745.32825     -71.77178       673.55647    
   3726000   301.98848      0.042618159    22.231311      749.24175     -65.168617      684.07313    
   3727000   317.24657      0.042618159    30.428426      787.09749     -60.497693      726.5998     
   3728000   306.6847       0.042618159    21.718876      760.89319     -70.576778      690.31641    
   3729000   299.59863      0.042618159    17.441108      743.31245     -65.906237      677.40621    
   3730000   294.73836      0.042618159    20.565775      731.25399     -69.450335      661.80365    
   3731000   303.36552      0.042618159    26.683788      752.65821     -63.033893      689.62431    
   3732000   303.85779      0.042618159    20.467541      753.87955     -77.127865      676.75168    
   3733000   307.10398      0.042618159    11.854409      761.93344     -76.641229      685.29221    
   3734000   292.47594      0.042618159    15.259023      725.64088     -73.549927      652.09095    
   3735000   292.23119      0.042618159    23.494223      725.03363     -78.771153      646.26248    
   3736000   304.10829      0.042618159    21.311884      754.50104     -77.610976      676.89007    
   3737000   313.2513       0.042618159    25.189965      777.18511     -76.557724      700.62739    
   3738000   287.23692      0.042618159    20.154132      712.64271     -74.940988      637.70172    
   3739000   285.38299      0.042618159    20.758747      708.04306     -78.933059      629.11       
   3740000   305.19297      0.042618159    25.298178      757.19218     -75.12769       682.06449    
   3741000   295.8391       0.042618159    21.100227      733.98496     -74.864252      659.12071    
   3742000   297.00309      0.042618159    18.652868      736.87285     -73.960278      662.91257    
   3743000   301.49475      0.042618159    27.243346      748.0168      -74.81064       673.20616    
   3744000   300.26769      0.042618159    28.126879      744.97241     -78.892885      666.07953    
   3745000   307.63193      0.042618159    28.124934      763.24331     -73.486907      689.7564     
   3746000   315.75108      0.042618159    14.989926      783.38712     -74.596097      708.79103    
   3747000   291.44317      0.042618159    19.677433      723.07854     -78.422141      644.6564     
   3748000   296.10903      0.042618159    29.257801      734.65467     -77.205549      657.44913    
   3749000   309.65709      0.042618159    12.681613      768.26777     -68.098862      700.16891    
   3750000   290.81057      0.042618159    2.9371879      721.50904     -65.727621      655.78142    
   3751000   283.43121      0.042618159    23.774351      703.20064     -75.486707      627.71393    
   3752000   311.04471      0.042618159    28.631187      771.7105      -74.856153      696.85435    
   3753000   305.46995      0.042618159    16.272068      757.87937     -75.599257      682.28011    
   3754000   305.37669      0.042618159    35.258643      757.64798     -75.184996      682.46299    
   3755000   313.06193      0.042618159    36.595851      776.71528     -72.400509      704.31477    
   3756000   315.75591      0.042618159    22.672515      783.39911     -80.147745      703.25136    
   3757000   290.30844      0.042618159    18.211277      720.26325     -76.988116      643.27514    
   3758000   293.63291      0.042618159    38.904161      728.51134     -72.733677      655.77766    
   3759000   307.61025      0.042618159    10.67495       763.1895      -75.113641      688.07586    
   3760000   288.98412      0.042618159    14.034608      716.97756     -71.598949      645.37861    
   3761000   301.50173      0.042618159    52.153698      748.0341      -62.295601      685.7385     
   3762000   313.1965       0.042618159    25.916458      777.04915     -67.804223      709.24493    
   3763000   301.20585      0.042618159    18.223417      747.30002     -60.899967      686.40006    
   3764000   283.91164      0.042618159    19.970309      704.39261     -71.547649      632.84496    
   3765000   304.94324      0.042618159    28.42646       756.57259     -74.528502      682.04409    
   3766000   317.27591      0.042618159    20.06431       787.17028     -73.375146      713.79513    
   3767000   302.17872      0.042618159    19.499662      749.71373     -76.980781      672.73295    
   3768000   296.66624      0.042618159    23.037866      736.03711     -72.311295      663.72581    
   3769000   302.63784      0.042618159    20.125451      750.85283     -72.231624      678.62121    
   3770000   289.72377      0.042618159    16.596267      718.81265     -67.206751      651.6059     
   3771000   295.40674      0.042618159    32.319076      732.91225     -69.673504      663.23875    
   3772000   308.3554       0.042618159    18.293758      765.03824     -72.463377      692.57487    
   3773000   297.11682      0.042618159    20.271526      737.15502     -70.848679      666.30634    
   3774000   323.69296      0.042618159    40.22836       803.09116     -72.477554      730.6136     
   3775000   293.89937      0.042618159    14.713328      729.17244     -69.471072      659.70137    
   3776000   299.45319      0.042618159    8.1337621      742.95161     -66.185844      676.76577    
   3777000   306.06431      0.042618159    20.766789      759.354       -71.070279      688.28372    
   3778000   301.45661      0.042618159    25.708908      747.92217     -67.034669      680.8875     
   3779000   311.05554      0.042618159    37.401919      771.73738     -70.408116      701.32926    
   3780000   312.06301      0.042618159    1.5904406      774.23694     -77.702173      696.53477    
   3781000   305.90639      0.042618159   -26.50728       758.96219     -79.099857      679.86233    
   3782000   282.62109      0.042618159   -16.798211      701.19073     -80.849453      620.34127    
   3783000   307.99642      0.042618159    37.678787      764.1476      -79.415954      684.73165    
   3784000   297.24675      0.042618159    23.892172      737.47738     -72.961003      664.51638    
   3785000   300.43532      0.042618159    6.5587597      745.3883      -72.851053      672.53725    
   3786000   293.90926      0.042618159    29.465823      729.19698     -76.444544      652.75244    
   3787000   303.99173      0.042618159    25.460922      754.21186     -70.297976      683.91388    
   3788000   301.66663      0.042618159    16.310645      748.44321     -77.710301      670.73291    
   3789000   288.36746      0.042618159    17.990486      715.44761     -71.411891      644.03572    
   3790000   289.62484      0.042618159    14.74206       718.5672      -76.282893      642.28431    
   3791000   299.23207      0.042618159    26.6831        742.403       -79.427109      662.9759     
   3792000   298.04663      0.042618159    24.267093      739.46191     -80.278605      659.1833     
   3793000   316.52138      0.042618159    22.97125       785.29828     -80.936554      704.36172    
   3794000   285.01868      0.042618159    15.993274      707.13921     -84.668335      622.47087    
   3795000   296.60995      0.042618159    18.619525      735.89746     -83.432274      652.46519    
   3796000   299.58322      0.042618159    18.506028      743.27423     -81.218663      662.05556    
   3797000   292.65648      0.042618159    23.854761      726.08878     -84.678194      641.41059    
   3798000   309.9861       0.042618159    23.774914      769.08407     -78.581018      690.50305    
   3799000   298.83251      0.042618159    20.391031      741.4117      -80.83149       660.58021    
   3800000   302.96483      0.042618159    22.216356      751.6641      -86.124767      665.53933    
   3801000   298.86297      0.042618159    19.014236      741.48727     -84.114927      657.37234    
   3802000   285.71329      0.042618159    28.285225      708.86256     -80.944113      627.91845    
   3803000   303.78038      0.042618159    18.699328      753.6875      -77.264947      676.42256    
   3804000   311.34709      0.042618159    15.43471       772.4607      -74.265701      698.195      
   3805000   304.42659      0.042618159    22.315829      755.29077     -67.648435      687.64233    
   3806000   281.26351      0.042618159    24.897223      697.82252     -65.154706      632.66782    
   3807000   298.63528      0.042618159    19.390557      740.92237     -70.925596      669.99678    
   3808000   301.54443      0.042618159    14.73594       748.14005     -75.488208      672.65184    
   3809000   296.81914      0.042618159    21.665984      736.41646     -79.432055      656.98441    
   3810000   306.31277      0.042618159    17.7053        759.97043     -78.889256      681.08118    
   3811000   294.05504      0.042618159    28.417005      729.55867     -75.062874      654.49579    
   3812000   281.65544      0.042618159    21.53502       698.79491     -79.072993      619.72191    
   3813000   302.82252      0.042618159    19.559901      751.31101     -75.205967      676.10504    
   3814000   306.71719      0.042618159    14.675252      760.97381     -73.899222      687.07459    
   3815000   300.07554      0.042618159   -3.1949958      744.49568     -77.850888      666.6448     
   3816000   303.91569      0.042618159    34.546803      754.0232      -76.734495      677.28871    
   3817000   291.09153      0.042618159    16.891746      722.2061      -75.613491      646.59261    
   3818000   297.6582       0.042618159    18.781551      738.4982      -81.337018      657.16118    
   3819000   317.45222      0.042618159    7.3170347      787.60771     -82.139225      705.46849    
   3820000   294.72829      0.042618159    23.186957      731.229       -84.039902      647.1891     
   3821000   297.68763      0.042618159    14.905494      738.57121     -84.829983      653.74122    
   3822000   309.16069      0.042618159    22.083539      767.0362      -76.398947      690.63725    
   3823000   292.86487      0.042618159    21.661064      726.60582     -74.250626      652.3552     
   3824000   292.3192       0.042618159    21.235437      725.25198     -66.897812      658.35417    
   3825000   289.59854      0.042618159    13.934642      718.50195     -74.510594      643.99136    
   3826000   311.54092      0.042618159    19.927723      772.94162     -77.7105        695.23112    
   3827000   299.44066      0.042618159    40.545174      742.92054     -69.135852      673.78469    
   3828000   293.01477      0.042618159    25.474481      726.97773     -70.83248       656.14525    
   3829000   306.67913      0.042618159    15.712664      760.87937     -76.082141      684.79723    
   3830000   305.21936      0.042618159    22.876253      757.25764     -73.496708      683.76094    
   3831000   299.64558      0.042618159    32.264175      743.42893     -76.578133      666.8508     
   3832000   297.20904      0.042618159    17.857663      737.38382     -74.342186      663.04163    
   3833000   293.31031      0.042618159    15.053986      727.71096     -77.489008      650.22195    
   3834000   315.27398      0.042618159    27.038772      782.20344     -77.793816      704.40962    
   3835000   294.07664      0.042618159    25.802762      729.61225     -83.553445      646.0588     
   3836000   287.96557      0.042618159    14.730217      714.45052     -83.255536      631.19498    
   3837000   309.07817      0.042618159    14.361175      766.83146     -81.499475      685.33198    
   3838000   318.1201       0.042618159    19.801862      789.26473     -72.459357      716.80537    
   3839000   299.53648      0.042618159    28.311312      743.15827     -72.727459      670.43081    
   3840000   273.96759      0.042618159    15.472882      679.72115     -68.381424      611.33973    
   3841000   310.34624      0.042618159    18.985556      769.97757     -74.039212      695.93836    
   3842000   294.66154      0.042618159    23.323483      731.06341     -70.443785      660.61962    
   3843000   289.83872      0.042618159    20.720244      719.09786     -68.781634      650.31623    
   3844000   307.42495      0.042618159    22.990168      762.72978     -70.266965      692.46281    
   3845000   311.92365      0.042618159    22.72437       773.89118     -72.326016      701.56516    
   3846000   294.39732      0.042618159    19.405295      730.40786     -65.625647      664.78221    
   3847000   292.24282      0.042618159    23.091283      725.06249     -61.813109      663.24938    
   3848000   297.73237      0.042618159    22.311075      738.68223     -66.374447      672.30778    
   3849000   300.60656      0.042618159    22.656593      745.81317     -68.087329      677.72584    
   3850000   288.9417       0.042618159    15.084912      716.87233     -78.210781      638.66155    
   3851000   303.75211      0.042618159    23.635062      753.61736     -74.319664      679.29769    
   3852000   300.42089      0.042618159    26.265227      745.35252     -80.198649      665.15387    
   3853000   302.83834      0.042618159    2.2769862      751.35027     -78.164703      673.18557    
   3854000   306.24158      0.042618159    24.472858      759.79381     -81.507109      678.2867     
   3855000   306.19389      0.042618159    24.795814      759.67549     -71.187722      688.48776    
   3856000   291.50504      0.042618159    6.4507569      723.23205     -68.232904      654.99914    
   3857000   302.33893      0.042618159    22.63713       750.11123     -66.691557      683.41967    
   3858000   304.45191      0.042618159    32.983878      755.35358     -70.594921      684.75866    
   3859000   305.51509      0.042618159    22.733508      757.99136     -84.010217      673.98114    
   3860000   290.53412      0.042618159   -15.365648      720.82316     -75.867328      644.95583    
   3861000   293.7343       0.042618159    26.858329      728.7629      -77.000721      651.76218    
   3862000   307.1173       0.042618159    36.383984      761.96648     -73.032573      688.93391    
   3863000   311.08235      0.042618159   -7.0952226      771.80388     -74.768938      697.03495    
   3864000   290.36136      0.042618159    20.532928      720.39454     -74.361852      646.03268    
   3865000   308.22527      0.042618159    42.281302      764.71538     -80.938501      683.77688    
   3866000   310.34814      0.042618159    32.773005      769.98229     -82.026949      687.95534    
   3867000   305.37105      0.042618159    31.382358      757.634       -71.068999      686.565      
   3868000   297.22256      0.042618159    11.654432      737.41737     -78.044309      659.37306    
   3869000   300.73581      0.042618159    20.392764      746.13383     -79.055793      667.07804    
   3870000   298.7627       0.042618159    25.570683      741.2385      -81.258438      659.98006    
   3871000   302.0511       0.042618159    10.161822      749.3971      -78.202213      671.19489    
   3872000   310.11857      0.042618159    14.74434       769.41272     -81.254429      688.15829    
   3873000   296.58692      0.042618159    44.492662      735.84031     -85.085915      650.7544     
   3874000   297.53544      0.042618159    21.19749       738.19363     -88.361447      649.83218    
   3875000   294.04235      0.042618159    19.121119      729.52717     -82.460897      647.06627    
   3876000   299.11863      0.042618159    23.703867      742.12157     -83.89867       658.2229     
   3877000   305.15757      0.042618159    21.479709      757.10434     -80.973209      676.13113    
   3878000   296.62015      0.042618159    16.999601      735.92276     -78.796309      657.12646    
   3879000   298.32275      0.042618159    32.296067      740.14696     -78.726891      661.42007    
   3880000   304.1402       0.042618159    18.512726      754.58023     -79.593987      674.98624    
   3881000   289.84633      0.042618159    20.482382      719.11673     -83.499593      635.61714    
   3882000   295.10167      0.042618159    23.569745      732.15537     -86.148645      646.00672    
   3883000   295.20376      0.042618159    19.426894      732.40867     -81.412697      650.99598    
   3884000   295.06571      0.042618159    25.565645      732.06617     -73.694382      658.37179    
   3885000   306.31843      0.042618159    23.402687      759.98448     -67.731109      692.25337    
   3886000   293.94271      0.042618159    22.389206      729.27997     -79.640584      649.63938    
   3887000   301.5726       0.042618159    17.875316      748.20993     -71.877691      676.33223    
   3888000   292.32165      0.042618159    5.7560742      725.25808     -66.77507       658.48301    
   3889000   304.9441       0.042618159    20.810271      756.57472     -69.365507      687.20922    
   3890000   297.91511      0.042618159    23.543637      739.1356      -72.852652      666.28295    
   3891000   299.22013      0.042618159    20.447474      742.37338     -73.11353       669.25985    
   3892000   302.35785      0.042618159    10.442054      750.15817     -74.34849       675.80968    
   3893000   292.36754      0.042618159    25.30845       725.37193     -78.557702      646.81423    
   3894000   292.84634      0.042618159    19.55042       726.55983     -80.235455      646.32438    
   3895000   294.37713      0.042618159    15.203352      730.35777     -81.554594      648.80317    
   3896000   286.15503      0.042618159    31.408405      709.95852     -71.835418      638.1231     
   3897000   314.69152      0.042618159    21.646832      780.75835     -68.506463      712.25189    
   3898000   297.32169      0.042618159    21.063823      737.66332     -68.880868      668.78245    
   3899000   288.23136      0.042618159    19.793785      715.10994     -74.718377      640.39156    
   3900000   302.14071      0.042618159    16.742209      749.61943     -75.177649      674.44178    
   3901000   294.81135      0.042618159    24.239171      731.43509     -72.362257      659.07283    
   3902000   296.53195      0.042618159    21.523317      735.70394     -75.07175       660.63219    
   3903000   306.58079      0.042618159    20.61867       760.6354      -75.342466      685.29293    
   3904000   303.87898      0.042618159    28.552893      753.93212     -68.329601      685.60252    
   3905000   285.72478      0.042618159    22.050497      708.89105     -69.059276      639.83178    
   3906000   295.6373       0.042618159    16.625548      733.4843      -64.720693      668.76361    
   3907000   307.30273      0.042618159    23.273115      762.42655     -60.92539       701.50116    
   3908000   294.0274       0.042618159    22.994361      729.49009     -59.072647      670.41745    
   3909000   289.94628      0.042618159    17.214855      719.36471     -61.24549       658.11922    
   3910000   300.77354      0.042618159    16.110857      746.22744     -66.773613      679.45383    
   3911000   311.74965      0.042618159    23.65238       773.45948     -64.481534      708.97795    
   3912000   292.47547      0.042618159    19.806195      725.63971     -63.826065      661.81365    
   3913000   305.75449      0.042618159    18.573702      758.58531     -71.252188      687.33312    
   3914000   302.73719      0.042618159    20.658385      751.09931     -74.417835      676.68147    
   3915000   307.42364      0.042618159    21.227761      762.72654     -74.020247      688.70629    
   3916000   298.61122      0.042618159    16.42704       740.86266     -73.614734      667.24793    
   3917000   290.30026      0.042618159    24.187171      720.24295     -69.072972      651.16998    
   3918000   307.97814      0.042618159    19.769422      764.10225     -77.340605      686.76165    
   3919000   310.66623      0.042618159    20.106088      770.77148     -77.407468      693.36401    
   3920000   286.56043      0.042618159    18.730356      710.96433     -76.510755      634.45357    
   3921000   293.79999      0.042618159    20.662933      728.92588     -74.444886      654.48099    
   3922000   311.96333      0.042618159    24.031346      773.98961     -70.36054       703.62907    
   3923000   315.48796      0.042618159    14.243785      782.73433     -79.079517      703.65481    
   3924000   289.20857      0.042618159    20.456845      717.53444     -75.612298      641.92214    
   3925000   291.67392      0.042618159    32.643585      723.65104     -71.390298      652.26074    
   3926000   312.61723      0.042618159    18.412459      775.61197     -75.862279      699.74969    
   3927000   299.30345      0.042618159    22.392514      742.58012     -72.098568      670.48155    
   3928000   307.28303      0.042618159    22.591449      762.37766     -73.133319      689.24434    
   3929000   298.97655      0.042618159    21.641844      741.76906     -70.39202       671.37704    
   3930000   299.50516      0.042618159    24.198431      743.08056     -73.611198      669.46936    
   3931000   291.64674      0.042618159    19.878701      723.5836      -73.190637      650.39296    
   3932000   294.98085      0.042618159    20.358214      731.85561     -75.435407      656.42021    
   3933000   293.39191      0.042618159    19.173682      727.91341     -70.246456      657.66695    
   3934000   302.5337       0.042618159    22.543077      750.59444     -70.370406      680.22404    
   3935000   304.54906      0.042618159    21.223729      755.59461     -69.809377      685.78523    
   3936000   273.26029      0.042618159    27.571967      677.96632     -79.372562      598.59375    
   3937000   302.73353      0.042618159    24.897657      751.09023     -72.318033      678.7722     
   3938000   297.55937      0.042618159    20.016778      738.25299     -78.674941      659.57805    
   3939000   295.52386      0.042618159    20.90445       733.20284     -83.980918      649.22192    
   3940000   299.40942      0.042618159    26.289489      742.84302     -77.795026      665.04799    
   3941000   309.10439      0.042618159    20.492094      766.89652     -80.101339      686.79518    
   3942000   309.59855      0.042618159    19.87183       768.12254     -73.815301      694.30724    
   3943000   294.93906      0.042618159    15.5938        731.75194     -79.346844      652.4051     
   3944000   297.13191      0.042618159    22.36272       737.19245     -79.288309      657.90414    
   3945000   307.24358      0.042618159    21.519696      762.27978     -78.611993      683.66779    
   3946000   304.30941      0.042618159    14.148955      755.00003     -71.2064        683.79363    
   3947000   301.50552      0.042618159    19.816024      748.04351     -82.68961       665.3539     
   3948000   306.1791       0.042618159    17.554309      759.63879     -76.676003      682.96278    
   3949000   300.10125      0.042618159    20.050998      744.55946     -75.723019      668.83644    
   3950000   303.48608      0.042618159    21.342928      752.95732     -72.297622      680.6597     
   3951000   298.74572      0.042618159    25.784793      741.19637     -67.51367       673.6827     
   3952000   288.86595      0.042618159    22.703957      716.68438     -68.187167      648.49721    
   3953000   302.73904      0.042618159    22.640046      751.10391     -70.460267      680.64364    
   3954000   304.41186      0.042618159    22.234786      755.25423     -71.108258      684.14597    
   3955000   295.44243      0.042618159    20.293381      733.00082     -81.041309      651.95951    
   3956000   308.98317      0.042618159    24.574133      766.59577     -73.433775      693.16199    
   3957000   296.49054      0.042618159    29.567294      735.6012      -75.325624      660.27558    
   3958000   290.98154      0.042618159    24.816453      721.93322     -76.657711      645.2755     
   3959000   301.28862      0.042618159    15.635999      747.50538     -76.306044      671.19934    
   3960000   314.11569      0.042618159    29.288663      779.32968     -71.347576      707.9821     
   3961000   304.8613       0.042618159    32.143976      756.36928     -76.235624      680.13366    
   3962000   291.44715      0.042618159    38.051309      723.08842     -73.802034      649.28639    
   3963000   288.48318      0.042618159    16.772126      715.73472     -73.150626      642.5841     
   3964000   308.93767      0.042618159   -5.6069508      766.48286     -65.976532      700.50633    
   3965000   301.80011      0.042618159    10.35706       748.77438     -72.445578      676.3288     
   3966000   309.87571      0.042618159    28.235914      768.81019     -76.665408      692.14478    
   3967000   283.08816      0.042618159    27.946286      702.34953     -78.482795      623.86673    
   3968000   289.12005      0.042618159    13.535043      717.3148      -75.540074      641.77473    
   3969000   315.13888      0.042618159    19.987833      781.86824     -78.590617      703.27763    
   3970000   309.58447      0.042618159    31.701082      768.08761     -80.453624      687.63398    
   3971000   299.25053      0.042618159    16.343097      742.44881     -82.007842      660.44097    
   3972000   290.04378      0.042618159    8.4894735      719.60661     -81.655049      637.95156    
   3973000   309.04185      0.042618159    19.325181      766.74135     -74.747882      691.99347    
   3974000   299.84301      0.042618159    30.283329      743.91878     -69.833981      674.0848     
   3975000   285.34743      0.042618159    17.963975      707.95483     -73.908279      634.04655    
   3976000   319.23002      0.042618159    12.650153      792.01848     -78.096503      713.92198    
   3977000   307.16507      0.042618159    22.13464       762.08501     -74.887617      687.19739    
   3978000   284.56085      0.042618159    21.190824      706.00332     -74.346163      631.65716    
   3979000   287.93728      0.042618159    23.472658      714.38034     -67.814333      646.56601    
   3980000   308.6419       0.042618159    24.072949      765.74907     -69.26298       696.48609    
   3981000   307.26999      0.042618159    21.494751      762.34533     -80.275677      682.06965    
   3982000   293.60462      0.042618159    13.241564      728.44115     -81.911634      646.52952    
   3983000   290.08024      0.042618159    21.822145      719.69706     -78.248367      641.44869    
   3984000   305.10717      0.042618159    33.60066       756.97929     -78.944046      678.03524    
   3985000   312.21851      0.042618159    24.031213      774.62272     -66.417949      708.20477    
   3986000   296.3334       0.042618159    18.510538      735.21132     -62.683036      672.52829    
   3987000   302.40242      0.042618159    32.430576      750.26873     -65.631766      684.63696    
   3988000   301.60247      0.042618159    23.05009       748.28403     -66.1775        682.10653    
   3989000   296.9073       0.042618159    14.913129      736.63519     -70.894923      665.74026    
   3990000   295.06923      0.042618159    21.754884      732.07488     -70.060099      662.01478    
   3991000   312.38407      0.042618159    24.949724      775.03348     -68.723737      706.30974    
   3992000   289.02927      0.042618159    9.3502144      717.08958     -65.903007      651.18657    
   3993000   298.40315      0.042618159    27.061536      740.34643     -70.934833      669.4116     
   3994000   318.67893      0.042618159    43.004876      790.65122     -76.503867      714.14735    
   3995000   320.46548      0.042618159    28.190584      795.0837      -73.329763      721.75393    
   3996000   292.55218      0.042618159    10.691831      725.83003     -73.320318      652.50971    
   3997000   299.22008      0.042618159    21.944613      742.37326     -80.33529       662.03797    
   3998000   302.10505      0.042618159    27.555886      749.53095     -76.106168      673.42479    
   3999000   308.8942       0.042618159    21.294948      766.37502     -78.154562      688.22046    
   4000000   291.74973      0.042618159    19.682916      723.83912     -67.031024      656.8081     
   4001000   305.29414      0.042618159    25.445066      757.44318     -72.0063        685.43688    
   4002000   325.11268      0.042618159    23.973774      806.61352     -70.843653      735.76987    
   4003000   289.79912      0.042618159    21.05659       718.99961     -76.205626      642.79398    
   4004000   310.43317      0.042618159    23.523456      770.19324     -70.594441      699.5988     
   4005000   311.28065      0.042618159    25.462161      772.29588     -65.802544      706.49334    
   4006000   305.62742      0.042618159    21.417262      758.27004     -69.228704      689.04134    
   4007000   293.80618      0.042618159    18.514138      728.94123     -71.845107      657.09613    
   4008000   309.38381      0.042618159    21.448556      767.58976     -65.87739       701.71237    
   4009000   299.56208      0.042618159    21.889934      743.22179     -66.182912      677.03887    
   4010000   300.10043      0.042618159    24.510148      744.55743     -67.524481      677.03295    
   4011000   320.46727      0.042618159    33.363213      795.08812     -67.609543      727.47858    
   4012000   299.55182      0.042618159    24.094114      743.19633     -65.281126      677.91521    
   4013000   292.22081      0.042618159    20.184409      725.00788     -62.314718      662.69316    
   4014000   309.49069      0.042618159    21.850403      767.85492     -66.598238      701.25669    
   4015000   300.24808      0.042618159    26.652975      744.92377     -69.327142      675.59663    
   4016000   289.0814       0.042618159    17.767235      717.21892     -71.344394      645.87452    
   4017000   302.40974      0.042618159    22.58328       750.28691     -67.569959      682.71695    
   4018000   305.67386      0.042618159    22.394743      758.38528     -63.183479      695.2018     
   4019000   302.97543      0.042618159    17.868642      751.6904      -61.724857      689.96554    
   4020000   298.75412      0.042618159    26.297028      741.21721     -66.78925       674.42796    
   4021000   296.10003      0.042618159    32.349001      734.63234     -75.176872      659.45547    
   4022000   299.88824      0.042618159    20.431522      744.03099     -69.59532       674.43567    
   4023000   295.36138      0.042618159    15.950661      732.79973     -68.44972       664.35001    
   4024000   303.34804      0.042618159    35.848329      752.61484     -74.193916      678.42093    
   4025000   305.1275       0.042618159    25.165742      757.02974     -72.799654      684.23009    
   4026000   289.32904      0.042618159    18.507968      717.83333     -78.293591      639.53974    
   4027000   309.5581       0.042618159    17.963212      768.02217     -75.81922       692.20295    
   4028000   307.02171      0.042618159    27.876363      761.72931     -74.094629      687.63469    
   4029000   294.51962      0.042618159    32.461293      730.71129     -75.001227      655.71006    
   4030000   292.80492      0.042618159    20.707355      726.45709     -70.368834      656.08826    
   4031000   303.63838      0.042618159    18.011741      753.33519     -69.515473      683.81972    
   4032000   321.24898      0.042618159    24.987866      797.02757     -71.468715      725.55885    
   4033000   310.12985      0.042618159    31.560779      769.44072     -72.887604      696.55311    
   4034000   283.97931      0.042618159    20.03259       704.5605      -73.403303      631.1572     
   4035000   292.48086      0.042618159    20.600009      725.65308     -72.994874      652.65821    
   4036000   297.47991      0.042618159    17.472718      738.05587     -75.999475      662.05639    
   4037000   301.77101      0.042618159    19.889469      748.70218     -74.655116      674.04707    
   4038000   308.10483      0.042618159    27.382136      764.41657     -77.93497       686.4816     
   4039000   296.07589      0.042618159    35.08687       734.57244     -76.951012      657.62142    
   4040000   297.54589      0.042618159    17.404249      738.21955     -74.045395      664.17415    
   4041000   303.25103      0.042618159    26.696684      752.37416     -72.806938      679.56722    
   4042000   303.19328      0.042618159    22.165854      752.23088     -75.04502       677.18586    
   4043000   306.84483      0.042618159    17.37125       761.29049     -79.639389      681.6511     
   4044000   298.24664      0.042618159    21.450025      739.95814     -76.40593       663.55221    
   4045000   297.61083      0.042618159    26.133455      738.38067     -73.107398      665.27327    
   4046000   291.06782      0.042618159    16.960053      722.14729     -76.739931      645.40736    
   4047000   306.24494      0.042618159    21.681892      759.80213     -71.567448      688.23468    
   4048000   304.76173      0.042618159    21.783914      756.12225     -74.096954      682.0253     
   4049000   298.02448      0.042618159    19.876273      739.40696     -71.441933      667.96503    
   4050000   289.58027      0.042618159    19.796161      718.45663     -72.880575      645.57606    
   4051000   302.98005      0.042618159    24.721193      751.70186     -83.80797       667.89389    
   4052000   310.46043      0.042618159    23.256253      770.26088     -78.291263      691.96962    
   4053000   289.7396       0.042618159    24.69599       718.85194     -73.433844      645.41809    
   4054000   288.59478      0.042618159    22.799391      716.0116      -64.973934      651.03767    
   4055000   313.93001      0.042618159    21.014459      778.86901     -67.630735      711.23828    
   4056000   299.85072      0.042618159    29.352001      743.9379      -72.463115      671.47478    
   4057000   295.70217      0.042618159    23.370071      733.64524     -67.43467       666.21057    
   4058000   310.14801      0.042618159    19.53484       769.48577     -76.51163       692.97414    
   4059000   316.70856      0.042618159    21.631137      785.76267     -77.223159      708.53951    
   4060000   288.05823      0.042618159    20.126905      714.68041     -75.756809      638.9236     
   4061000   297.41195      0.042618159    18.469478      737.88726     -74.877739      663.00952    
   4062000   307.32303      0.042618159    20.835801      762.4769      -73.060834      689.41607    
   4063000   296.73548      0.042618159    21.521987      736.20892     -76.207685      660.00123    
   4064000   297.40182      0.042618159    20.971196      737.86212     -70.376282      667.48583    
   4065000   313.5296       0.042618159    22.430733      777.87558     -79.499459      698.37612    
   4066000   295.36575      0.042618159    15.549037      732.81058     -75.635309      657.17527    
   4067000   290.40626      0.042618159    22.767463      720.50593     -77.532354      642.97358    
   4068000   296.16872      0.042618159    19.935775      734.80275     -73.38443       661.41832    
   4069000   313.88523      0.042618159    30.834815      778.7579      -72.796944      705.96096    
   4070000   297.74053      0.042618159    24.14088       738.70245     -73.330501      665.37195    
   4071000   286.23529      0.042618159    6.8850252      710.15766     -74.315166      635.84249    
   4072000   315.53261      0.042618159    25.352034      782.8451      -77.057141      705.78796    
   4073000   308.93739      0.042618159    35.223102      766.48218     -79.108305      687.37387    
   4074000   292.85198      0.042618159    30.281643      726.57382     -85.349953      641.22387    
   4075000   277.06549      0.042618159    16.716902      687.40711     -78.123421      609.28369    
   4076000   301.44632      0.042618159    2.7678929      747.89663     -74.573132      673.3235     
   4077000   310.64956      0.042618159    19.634808      770.73013     -68.771451      701.95868    
   4078000   282.90952      0.042618159    32.638474      701.90632     -70.218497      631.68782    
   4079000   296.19795      0.042618159    12.227267      734.87528     -69.43537       665.43991    
   4080000   307.03071      0.042618159    22.05821       761.75166     -71.167432      690.58423    
   4081000   308.5276       0.042618159    25.548316      765.46549     -73.675671      691.78982    
   4082000   296.26217      0.042618159    20.894357      735.03461     -69.612922      665.42169    
   4083000   287.87288      0.042618159    19.034915      714.22056     -70.893931      643.32663    
   4084000   292.82161      0.042618159    20.180529      726.49849     -71.782215      654.71627    
   4085000   317.25072      0.042618159    24.37609       787.10779     -72.82442       714.28337    
   4086000   297.166        0.042618159    7.9799587      737.27703     -74.240863      663.03617    
   4087000   292.07121      0.042618159    24.103439      724.63672     -74.467371      650.16935    
   4088000   294.8853       0.042618159    26.455687      731.61856     -78.504034      653.11452    
   4089000   312.66492      0.042618159    30.649937      775.73029     -79.200811      696.52948    
   4090000   313.72774      0.042618159    10.196058      778.36716     -78.378772      699.98839    
   4091000   296.95562      0.042618159    25.177272      736.75507     -79.522868      657.2322     
   4092000   298.0842       0.042618159    32.435803      739.55513     -78.918745      660.63638    
   4093000   310.84545      0.042618159   -0.89833896     771.21613     -83.033662      688.18247    
   4094000   298.42681      0.042618159    7.6398886      740.40514     -77.309174      663.09597    
   4095000   279.19646      0.042618159    33.440299      692.69412     -72.973644      619.72047    
   4096000   313.49129      0.042618159    26.879464      777.78052     -69.660687      708.11983    
   4097000   298.51442      0.042618159    9.4280296      740.62251     -72.791981      667.83053    
   4098000   280.48122      0.042618159    22.01963       695.88163     -66.430895      629.45074    
   4099000   306.41893      0.042618159    28.197267      760.23382     -61.779838      698.45398    
   4100000   299.19639      0.042618159    20.07463       742.3145      -58.231204      684.08329    
   4101000   293.95951      0.042618159    19.610834      729.32165     -68.120424      661.20123    
   4102000   293.0153       0.042618159    16.844508      726.97903     -66.601686      660.37734    
   4103000   306.83043      0.042618159    33.338479      761.25475     -69.195686      692.05906    
   4104000   294.69411      0.042618159    21.417278      731.14421     -74.045854      657.09835    
   4105000   300.81864      0.042618159    16.129117      746.33933     -71.207641      675.13168    
   4106000   299.3753       0.042618159    24.245089      742.75838     -69.675921      673.08246    
   4107000   312.66995      0.042618159    23.756889      775.74277     -65.743611      709.99915    
   4108000   299.40968      0.042618159    22.025223      742.84366     -64.749505      678.09416    
   4109000   297.39579      0.042618159    20.871492      737.84716     -67.689157      670.158      
   4110000   309.68993      0.042618159    26.717541      768.34925     -70.460242      697.88901    
   4111000   299.85513      0.042618159    11.193331      743.94883     -76.567972      667.38086    
   4112000   286.88141      0.042618159    17.808712      711.76068     -74.929925      636.83075    
   4113000   314.33423      0.042618159    37.979549      779.87189     -76.861525      703.01037    
   4114000   300.87539      0.042618159    22.947666      746.48013     -74.023512      672.45662    
   4115000   302.76876      0.042618159    21.100562      751.17764     -69.397022      681.78061    
   4116000   298.58924      0.042618159    7.1842935      740.80813     -59.876795      680.93133    
   4117000   297.18308      0.042618159    33.228464      737.31942     -63.879409      673.44001    
   4118000   303.41932      0.042618159    25.16044       752.79169     -66.140021      686.65167    
   4119000   297.78719      0.042618159   -2.4409455      738.81823     -68.238985      670.57925    
   4120000   292.64594      0.042618159    20.307065      726.06266     -67.678036      658.38462    
   4121000   291.86946      0.042618159    39.86056       724.13616     -71.723945      652.41222    
   4122000   318.34062      0.042618159    0.6019877      789.81186     -73.233007      716.57885    
   4123000   296.29473      0.042618159   -0.28237952     735.11539     -69.126913      665.98848    
   4124000   297.0327       0.042618159    20.649855      736.94632     -63.061678      673.88465    
   4125000   298.31134      0.042618159    9.4766964      740.11865     -63.890259      676.22839    
   4126000   296.6551       0.042618159    33.971455      736.00948     -71.272447      664.73704    
   4127000   296.71519      0.042618159    14.785635      736.15857     -70.030309      666.12826    
   4128000   308.70808      0.042618159    18.620873      765.91327     -63.662553      702.25071    
   4129000   303.89667      0.042618159    47.905554      753.97602     -60.136658      693.83936    
   4130000   304.2671       0.042618159    22.285964      754.89506     -70.505952      684.38911    
   4131000   296.33992      0.042618159    14.904808      735.22751     -65.755927      669.47158    
   4132000   291.77241      0.042618159    18.155149      723.89539     -62.576803      661.31858    
   4133000   324.61812      0.042618159    38.632458      805.38651     -65.001792      740.38472    
   4134000   302.44157      0.042618159    21.385485      750.36587     -64.282855      686.08302    
   4135000   295.73793      0.042618159    19.564141      733.73397     -66.223644      667.51032    
   4136000   302.64407      0.042618159    27.909307      750.86829     -65.752633      685.11566    
   4137000   311.94746      0.042618159    21.597076      773.95024     -68.962838      704.98741    
   4138000   284.04844      0.042618159    22.470749      704.732       -70.189673      634.54233    
   4139000   300.53565      0.042618159    21.416997      745.63723     -71.30514       674.33209    
   4140000   304.47855      0.042618159    17.066841      755.41967     -70.852383      684.56728    
   4141000   297.37646      0.042618159    22.557844      737.79919     -76.73832       661.06087    
   4142000   301.61764      0.042618159    31.396338      748.32169     -66.475928      681.84576    
   4143000   296.98299      0.042618159    20.079348      736.82298     -70.20432       666.61866    
   4144000   297.18889      0.042618159    22.327637      737.33384     -77.45979       659.87405    
   4145000   305.0441       0.042618159    18.694758      756.82283     -70.976343      685.84649    
   4146000   305.98377      0.042618159    25.208674      759.15416     -81.676425      677.47773    
   4147000   292.90372      0.042618159    31.146757      726.70221     -83.210181      643.49203    
   4148000   287.85265      0.042618159    15.66099       714.17037     -76.487038      637.68333    
   4149000   317.41949      0.042618159    13.089871      787.52649     -73.458448      714.06805    
   4150000   305.42698      0.042618159    20.924429      757.77276     -65.730165      692.04259    
   4151000   296.78957      0.042618159    22.887235      736.34311     -69.818872      666.52424    
   4152000   306.42733      0.042618159    30.152839      760.25466     -68.969391      691.28527    
   4153000   302.30649      0.042618159    17.931062      750.03073     -70.564092      679.46663    
   4154000   315.81693      0.042618159    26.854348      783.55051     -69.339152      714.21136    
   4155000   291.36783      0.042618159    23.028704      722.89161     -83.324055      639.56756    
   4156000   290.5796       0.042618159    19.490631      720.936       -73.262733      647.67327    
   4157000   305.6359       0.042618159    19.019293      758.2911      -74.093035      684.19806    
   4158000   298.53784      0.042618159    20.675368      740.68062     -76.179785      664.50083    
   4159000   288.57887      0.042618159    18.017623      715.97213     -78.126684      637.84545    
   4160000   311.66917      0.042618159    14.828558      773.25979     -78.85397       694.40582    
   4161000   305.57254      0.042618159    20.627519      758.13389     -79.828654      678.30523    
   4162000   295.27372      0.042618159    22.459401      732.58223     -75.59308       656.98915    
   4163000   299.09902      0.042618159    20.632603      742.07292     -67.640088      674.43283    
   4164000   309.49678      0.042618159    23.862865      767.87005     -76.344263      691.52578    
   4165000   293.2077       0.042618159    20.667835      727.4564      -74.826721      652.62968    
   4166000   294.00553      0.042618159    22.916303      729.43583     -76.355214      653.08062    
   4167000   317.68617      0.042618159    25.230486      788.18814     -88.116493      700.07165    
   4168000   307.09593      0.042618159    18.263776      761.91346     -87.37372       674.53974    
   4169000   293.16474      0.042618159    18.56559       727.3498      -83.897441      643.45236    
   4170000   301.2219       0.042618159    18.761998      747.33984     -79.252462      668.08737    
   4171000   311.61091      0.042618159    21.344028      773.11525     -76.218079      696.89717    
   4172000   300.0866       0.042618159    20.110556      744.52311     -77.871869      666.65125    
   4173000   278.6486       0.042618159    20.294487      691.33486     -74.980975      616.35388    
   4174000   302.27813      0.042618159    22.92814       749.96037     -70.909529      679.05084    
   4175000   310.39285      0.042618159    21.578788      770.09322     -76.131461      693.96176    
   4176000   316.55194      0.042618159    22.58712       785.37409     -71.241283      714.13281    
   4177000   290.7127       0.042618159    25.560529      721.26621     -71.42308       649.84313    
   4178000   286.1635       0.042618159    23.131846      709.97954     -75.269833      634.7097     
   4179000   294.97118      0.042618159    19.970646      731.83162     -76.869773      654.96185    
   4180000   299.0918       0.042618159    15.127009      742.055       -73.633001      668.422      
   4181000   299.98694      0.042618159    20.380995      744.27587     -68.682282      675.59359    
   4182000   293.0778       0.042618159    22.270461      727.13409     -61.959287      665.17481    
   4183000   303.26114      0.042618159    21.555147      752.39926     -63.86758       688.53168    
   4184000   316.55378      0.042618159    26.988896      785.37865     -62.983447      722.3952     
   4185000   299.55153      0.042618159    20.846405      743.1956      -67.848882      675.34672    
   4186000   293.53085      0.042618159    21.092585      728.25814     -67.029106      661.22903    
   4187000   307.53434      0.042618159    22.975976      763.00118     -67.802756      695.19842    
   4188000   300.26532      0.042618159    20.757334      744.96652     -72.168089      672.79844    
   4189000   295.0543       0.042618159    22.76711       732.03786     -70.027354      662.01051    
   4190000   308.6373       0.042618159    22.355169      765.73765     -74.255521      691.48213    
   4191000   299.83931      0.042618159    18.906293      743.9096      -67.269271      676.64033    
   4192000   301.52057      0.042618159    20.491103      748.08085     -69.177453      678.9034     
   4193000   301.26462      0.042618159    25.21273       747.44582     -69.667399      677.77842    
   4194000   313.93603      0.042618159    19.494815      778.88396     -63.659946      715.22401    
   4195000   293.58358      0.042618159    25.106958      728.38897     -65.15941       663.22956    
   4196000   300.58755      0.042618159    20.455916      745.76601     -62.848752      682.91726    
   4197000   303.78336      0.042618159    23.028804      753.69488     -65.617337      688.07755    
   4198000   308.98513      0.042618159    21.244626      766.60063     -73.117113      693.48352    
   4199000   292.55496      0.042618159    22.367206      725.83692     -70.312305      655.52461    
   4200000   309.88438      0.042618159    24.122331      768.83169     -77.408576      691.42311    
   4201000   310.43931      0.042618159    24.175361      770.20848     -82.418963      687.78952    
   4202000   294.62455      0.042618159    22.096447      730.97163     -77.828555      653.14308    
   4203000   298.84458      0.042618159    20.630975      741.44163     -77.266453      664.17518    
   4204000   306.48916      0.042618159    21.137629      760.40805     -74.178576      686.22947    
   4205000   314.38671      0.042618159    22.572193      780.00208     -74.312658      705.68942    
   4206000   292.87853      0.042618159    24.657783      726.6397      -77.532428      649.10728    
   4207000   291.2616       0.042618159    20.138263      722.62807     -73.572987      649.05508    
   4208000   299.51242      0.042618159    18.976924      743.09857     -72.782079      670.31649    
   4209000   309.27777      0.042618159    20.284562      767.32668     -70.578509      696.74818    
   4210000   284.65681      0.042618159    26.178711      706.2414      -69.754658      636.48674    
   4211000   291.83316      0.042618159    15.046374      724.04612     -67.63447       656.41165    
   4212000   303.79792      0.042618159    16.926413      753.73101     -71.488211      682.2428     
   4213000   312.75082      0.042618159    17.180329      775.9434      -70.806737      705.13667    
   4214000   303.7731       0.042618159    20.609065      753.66944     -69.970172      683.69927    
   4215000   293.30232      0.042618159    24.208748      727.69115     -79.237311      648.45383    
   4216000   288.217        0.042618159    16.477015      715.07432     -82.977284      632.09703    
   4217000   312.82168      0.042618159    21.623071      776.11921     -76.414967      699.70424    
   4218000   302.75723      0.042618159    21.336608      751.14902     -76.121614      675.02741    
   4219000   296.30469      0.042618159    26.541934      735.14011     -80.153217      654.98689    
   4220000   305.31454      0.042618159    19.729428      757.49378     -79.571112      677.92267    
   4221000   293.04214      0.042618159    11.605223      727.04562     -76.651436      650.39418    
   4222000   304.38134      0.042618159    22.476657      755.1785      -66.07478       689.10372    
   4223000   298.25486      0.042618159    27.788799      739.97852     -75.702749      664.27577    
   4224000   287.03619      0.042618159    25.344301      712.14471     -63.633541      648.51117    
   4225000   298.5447       0.042618159    13.395071      740.69763     -69.986615      670.71102    
   4226000   308.46294      0.042618159    33.023551      765.30506     -70.853827      694.45123    
   4227000   305.20549      0.042618159    24.444546      757.22323     -70.979428      686.24381    
   4228000   289.95181      0.042618159    18.035188      719.37843     -72.168099      647.21033    
   4229000   293.84603      0.042618159    19.947246      729.04011     -68.98639       660.05372    
   4230000   313.55342      0.042618159    22.477091      777.93467     -66.186055      711.74862    
   4231000   306.22109      0.042618159    25.190831      759.74298     -62.433853      697.30912    
   4232000   296.30226      0.042618159    27.855568      735.13408     -65.637299      669.49678    
   4233000   291.6396       0.042618159    23.027405      723.5659      -67.107545      656.45835    
   4234000   320.48629      0.042618159    24.489788      795.13533     -65.588956      729.54638    
   4235000   306.92128      0.042618159    20.682363      761.48016     -71.375492      690.10467    
   4236000   294.79199      0.042618159    21.344728      731.38706     -62.680883      668.70618    
   4237000   287.09684      0.042618159    22.194627      712.29518     -66.526997      645.76818    
   4238000   302.03897      0.042618159    23.315111      749.36701     -77.857782      671.50923    
   4239000   318.65615      0.042618159    17.990975      790.5947      -71.580002      719.01469    
   4240000   297.64747      0.042618159    10.700488      738.47157     -69.005126      669.46644    
   4241000   288.89338      0.042618159    12.990813      716.75243     -66.40621       650.34622    
   4242000   300.44191      0.042618159    25.185843      745.40465     -70.196814      675.20784    
   4243000   300.70123      0.042618159    12.78403       746.04804     -83.65135       662.39669    
   4244000   294.0743       0.042618159    22.777572      729.60645     -76.971088      652.63536    
   4245000   304.1406       0.042618159    39.422983      754.58121     -71.015383      683.56583    
   4246000   307.67864      0.042618159    17.733837      763.35919     -71.921159      691.43803    
   4247000   289.9464       0.042618159    5.0726897      719.36502     -67.814202      651.55082    
   4248000   296.81769      0.042618159    29.410604      736.41287     -67.356344      669.05652    
   4249000   309.65352      0.042618159    19.414981      768.25893     -64.471837      703.78709    
   4250000   297.0996       0.042618159    16.759288      737.11229     -64.146239      672.96605    
   4251000   286.255        0.042618159    12.413186      710.20654     -59.50994       650.6966     
   4252000   298.55745      0.042618159    39.694597      740.72928     -64.58794       676.14133    
   4253000   301.6871       0.042618159    21.934457      748.49401     -72.155306      676.3387     
   4254000   299.86407      0.042618159    19.816978      743.97103     -69.459998      674.51103    
   4255000   303.87643      0.042618159    21.005774      753.92579     -74.241667      679.68412    
   4256000   303.6016       0.042618159    27.729323      753.24395     -62.861274      690.38268    
   4257000   306.31419      0.042618159    27.245343      759.97394     -68.282528      691.69142    
   4258000   300.23429      0.042618159    20.952279      744.88955     -67.246336      677.64321    
   4259000   295.87194      0.042618159    16.926793      734.06643     -78.378598      655.68783    
   4260000   286.23691      0.042618159    18.055714      710.16165     -72.196849      637.96481    
   4261000   303.25365      0.042618159    26.011244      752.38066     -70.840514      681.54015    
   4262000   317.59683      0.042618159    20.538465      787.96649     -77.059501      710.90699    
   4263000   290.33329      0.042618159    17.858937      720.3249      -74.516074      645.80883    
   4264000   296.66942      0.042618159    25.355187      736.04501     -71.409136      664.63588    
   4265000   302.27679      0.042618159    27.19684       749.95705     -64.833982      685.12307    
   4266000   304.28484      0.042618159    19.384406      754.93907     -66.709768      688.2293     
   4267000   299.32564      0.042618159    19.840822      742.63517     -74.931677      667.70349    
   4268000   283.4362       0.042618159    23.230337      703.21302     -68.617541      634.59548    
   4269000   294.6488       0.042618159    22.683747      731.03179     -70.268806      660.76299    
   4270000   319.352        0.042618159    22.85691       792.3211      -71.884995      720.43611    
   4271000   296.45485      0.042618159    17.727501      735.51265     -79.839249      655.6734     
   4272000   292.67606      0.042618159    21.617931      726.13738     -74.793132      651.34425    
   4273000   308.94982      0.042618159    16.18823       766.51302     -76.917194      689.59582    
   4274000   302.22904      0.042618159    20.731452      749.83859     -77.607462      672.23113    
   4275000   296.84643      0.042618159    23.319269      736.48417     -77.686997      658.79717    
   4276000   303.16736      0.042618159    25.357608      752.16657     -71.382573      680.784      
   4277000   291.25755      0.042618159    21.377246      722.61801     -73.305342      649.31267    
   4278000   296.28937      0.042618159    4.3462281      735.10209     -71.380096      663.722      
   4279000   305.68859      0.042618159    23.696204      758.42181     -66.30344       692.11837    
   4280000   297.87217      0.042618159    21.412082      739.02906     -60.162209      678.86685    
   4281000   304.90682      0.042618159    22.169882      756.48223     -64.351279      692.13096    
   4282000   308.79898      0.042618159    8.9916923      766.13879     -62.529308      703.60948    
   4283000   295.26558      0.042618159    19.387108      732.56205     -55.9126        676.64944    
   4284000   299.65684      0.042618159    23.469306      743.45687     -61.114114      682.34276    
   4285000   304.98233      0.042618159    27.33898       756.66958     -63.861691      692.80789    
   4286000   307.72773      0.042618159    2.2996744      763.48097     -64.762492      698.71848    
   4287000   294.71655      0.042618159    3.620368       731.19988     -70.847149      660.35273    
   4288000   296.1039       0.042618159    35.101308      734.64195     -70.727988      663.91396    
   4289000   312.71326      0.042618159    21.263899      775.85022     -64.211734      711.63849    
   4290000   293.4793       0.042618159   -5.6361584      728.13023     -70.407917      657.72232    
   4291000   288.32315      0.042618159    14.112933      715.33769     -72.334281      643.00341    
   4292000   302.97519      0.042618159    27.823188      751.6898      -77.867175      673.82263    
   4293000   308.60497      0.042618159    21.553918      765.65743     -70.977687      694.67975    
   4294000   302.12704      0.042618159    22.458147      749.58553     -70.023967      679.56156    
   4295000   308.85972      0.042618159    28.285188      766.28949     -68.633435      697.65605    
   4296000   288.2505       0.042618159    16.114259      715.15743     -72.535029      642.6224     
   4297000   309.90378      0.042618159    15.348836      768.87982     -71.492399      697.38742    
   4298000   296.47996      0.042618159    29.964382      735.57496     -72.38022       663.19474    
   4299000   289.29456      0.042618159    30.366847      717.74779     -72.241395      645.50639    
   4300000   302.38285      0.042618159    19.597684      750.22019     -76.041038      674.17915    
   4301000   308.03767      0.042618159    22.324923      764.24996     -69.695507      694.55445    
   4302000   306.34939      0.042618159    21.696156      760.06128     -62.820462      697.24081    
   4303000   294.437        0.042618159    18.916538      730.50632     -71.555241      658.95108    
   4304000   306.3812       0.042618159    22.44083       760.14021     -63.859131      696.28108    
   4305000   292.06127      0.042618159    21.015146      724.61206     -70.209953      654.40211    
   4306000   297.23429      0.042618159    19.55834       737.44646     -80.48347       656.96299    
   4307000   313.52344      0.042618159    18.219951      777.86031     -69.694756      708.16555    
   4308000   293.03342      0.042618159    13.253477      727.02399     -72.488898      654.53509    
   4309000   291.43557      0.042618159    19.251522      723.05968     -74.031761      649.02792    
   4310000   298.40105      0.042618159    22.662674      740.34123     -72.945173      667.39605    
   4311000   308.59608      0.042618159    22.462787      765.63538     -75.662332      689.97305    
   4312000   291.19836      0.042618159    22.405026      722.47116     -74.523221      647.94793    
   4313000   305.23962      0.042618159    23.902615      757.3079      -64.306904      693.001      
   4314000   308.59699      0.042618159    25.168667      765.63763     -63.738532      701.8991     
   4315000   304.50363      0.042618159    21.771375      755.48191     -64.188273      691.29363    
   4316000   301.52068      0.042618159    22.75764       748.08113     -59.930724      688.1504     
   4317000   306.22316      0.042618159    31.785394      759.74811     -59.586016      700.1621     
   4318000   289.81602      0.042618159    13.286214      719.04152     -61.708822      657.3327     
   4319000   301.38708      0.042618159    19.342317      747.74966     -63.807632      683.94202    
   4320000   295.52881      0.042618159    31.273644      733.21511     -66.095044      667.12007    
   4321000   300.43122      0.042618159    16.505677      745.37815     -70.629981      674.74817    
   4322000   306.44216      0.042618159    15.255543      760.29145     -73.832166      686.45929    
   4323000   294.40082      0.042618159    26.054474      730.41655     -67.991176      662.42537    
   4324000   307.01984      0.042618159    26.884016      761.72468     -66.996625      694.72805    
   4325000   303.93931      0.042618159    26.091696      754.0818      -72.510588      681.57121    
   4326000   289.36682      0.042618159    20.949892      717.92705     -68.812646      649.11441    
   4327000   304.20028      0.042618159    24.403314      754.72928     -70.057898      684.67138    
   4328000   292.28816      0.042618159    21.057328      725.17499     -62.970561      662.20442    
   4329000   291.78512      0.042618159    17.86344       723.92693     -64.657989      659.26894    
   4330000   294.65609      0.042618159    20.984237      731.04987     -67.16283       663.88704    
   4331000   326.69839      0.042618159    24.079471      810.5477      -74.736471      735.81123    
   4332000   295.84173      0.042618159    15.517467      733.99149     -75.270209      658.72128    
   4333000   291.53482      0.042618159    21.262418      723.30593     -76.175048      647.13088    
   4334000   304.99471      0.042618159    18.327206      756.70029     -72.228859      684.47143    
   4335000   284.27189      0.042618159    21.17113       705.28641     -72.839832      632.44657    
   4336000   307.15396      0.042618159    26.02309       762.05745     -66.515267      695.54218    
   4337000   310.80199      0.042618159    26.767448      771.10829     -70.644079      700.46421    
   4338000   293.08934      0.042618159    13.464981      727.16273     -70.56117       656.60156    
   4339000   299.23917      0.042618159    19.605986      742.42063     -72.344949      670.07568    
   4340000   312.34242      0.042618159    23.226158      774.93016     -69.569278      705.36088    
   4341000   298.1087       0.042618159    24.31772       739.61589     -73.338058      666.27783    
   4342000   279.93063      0.042618159    17.835276      694.51561     -73.245284      621.27033    
   4343000   292.6279       0.042618159    23.808955      726.01787     -74.175612      651.84226    
   4344000   306.2954       0.042618159    24.114875      759.92734     -76.276671      683.65067    
   4345000   319.0034       0.042618159    25.861994      791.45622     -72.807899      718.64832    
   4346000   299.32959      0.042618159    23.181284      742.64497     -76.444437      666.20054    
   4347000   283.29398      0.042618159    11.604767      702.86018     -69.989086      632.87109    
   4348000   303.20786      0.042618159    19.698628      752.26706     -70.156866      682.1102     
   4349000   315.92663      0.042618159    29.06508       783.82267     -62.371247      721.45142    
   4350000   304.45927      0.042618159    27.775966      755.37185     -67.133529      688.23832    
   4351000   284.94566      0.042618159    26.766879      706.95803     -67.794958      639.16307    
   4352000   298.40038      0.042618159    14.162701      740.33957     -72.631457      667.70812    
   4353000   299.3794       0.042618159    17.277259      742.76855     -73.813217      668.95533    
   4354000   288.40741      0.042618159    42.581356      715.54674     -68.168354      647.37839    
   4355000   288.55359      0.042618159    7.6963488      715.90941     -71.193679      644.71573    
   4356000   316.01578      0.042618159    15.818585      784.04385     -72.887204      711.15665    
   4357000   298.81092      0.042618159    37.109317      741.35814     -71.137927      670.22021    
   4358000   298.91025      0.042618159    16.480749      741.60457     -77.981396      663.62317    
   4359000   291.69378      0.042618159    12.979092      723.70032     -64.373396      659.32692    
   4360000   299.81266      0.042618159    26.974042      743.84348     -68.237669      675.60581    
   4361000   305.37899      0.042618159    21.347957      757.6537      -72.939306      684.71439    
   4362000   300.2259       0.042618159    17.84281       744.86873     -72.659872      672.20885    
   4363000   300.00241      0.042618159    18.30078       744.31425     -74.418738      669.89551    
   4364000   288.04954      0.042618159    18.602496      714.65886     -70.508298      644.15056    
   4365000   304.09972      0.042618159    18.298013      754.47979     -76.557642      677.92215    
   4366000   309.38249      0.042618159    22.073985      767.58648     -70.344012      697.24247    
   4367000   299.67791      0.042618159    21.225064      743.50915     -72.278781      671.23037    
   4368000   288.40166      0.042618159    19.384569      715.53247     -68.232269      647.3002     
   4369000   303.41953      0.042618159    24.044318      752.79223     -69.32032       683.47191    
   4370000   313.99864      0.042618159    21.278715      779.03927     -74.328277      704.71099    
   4371000   295.73366      0.042618159    22.759044      733.72336     -75.508371      658.21499    
   4372000   297.03598      0.042618159    19.692619      736.95446     -70.374465      666.57999    
   4373000   308.4447       0.042618159    21.909029      765.25981     -69.535746      695.72406    
   4374000   285.18015      0.042618159    20.313365      707.53982     -69.840608      637.69921    
   4375000   297.83424      0.042618159    22.140503      738.93497     -68.234046      670.70092    
   4376000   307.21662      0.042618159    19.524197      762.21291     -66.329057      695.88385    
   4377000   323.44679      0.042618159    24.869503      802.48039     -66.729584      735.75081    
   4378000   305.16479      0.042618159    34.788238      757.12225     -72.060805      685.06145    
   4379000   294.1523       0.042618159    29.434337      729.79997     -61.26179       668.53818    
   4380000   297.84888      0.042618159    18.989142      738.97129     -66.813724      672.15757    
   4381000   315.98843      0.042618159    14.468853      783.97601     -65.529546      718.44646    
   4382000   313.64567      0.042618159    34.82901       778.16354     -62.985759      715.17779    
   4383000   292.08698      0.042618159    26.157535      724.67585     -66.151782      658.52406    
   4384000   293.79569      0.042618159    1.8931197      728.91519     -64.05716       664.85803    
   4385000   306.76618      0.042618159    26.034065      761.09534     -60.294226      700.80111    
   4386000   304.53888      0.042618159    20.517636      755.56936     -67.21235       688.35701    
   4387000   296.59774      0.042618159    11.224387      735.86718     -58.484877      677.3823     
   4388000   300.54239      0.042618159    0.91704052     745.65396     -59.454163      686.19979    
   4389000   303.05059      0.042618159    46.089486      751.87686     -61.846871      690.02999    
   4390000   295.81911      0.042618159    20.500776      733.93537     -63.61001       670.32536    
   4391000   295.83528      0.042618159    6.113095       733.97547     -59.56815       674.40732    
   4392000   300.807        0.042618159    8.3941376      746.31046     -59.27907       687.03139    
   4393000   297.44322      0.042618159    30.468817      737.96484     -59.777858      678.18698    
   4394000   300.8815       0.042618159    36.860134      746.4953      -65.473468      681.02183    
   4395000   298.35693      0.042618159    20.651265      740.23176     -70.587331      669.64443    
   4396000   314.39844      0.042618159    14.785891      780.03121     -69.988752      710.04245    
   4397000   301.33303      0.042618159    23.65156       747.61555     -77.347515      670.26804    
   4398000   280.53067      0.042618159    24.085676      696.00433     -75.957371      620.04696    
   4399000   297.03459      0.042618159    23.177487      736.951       -66.996873      669.95412    
   4400000   306.59492      0.042618159    5.0871307      760.67045     -72.619592      688.05086    
   4401000   294.28564      0.042618159    20.153813      730.13077     -72.913353      657.21742    
   4402000   302.27922      0.042618159    28.532232      749.96307     -65.32069       684.64238    
   4403000   302.1358       0.042618159    35.148465      749.60726     -61.310917      688.29634    
   4404000   289.54355      0.042618159    25.00863       718.36554     -67.291087      651.07445    
   4405000   292.62812      0.042618159    15.624453      726.01843     -67.533704      658.48472    
   4406000   312.40244      0.042618159    9.7522371      775.07906     -69.574761      705.5043     
   4407000   311.25936      0.042618159    47.784334      772.24305     -75.362671      696.88038    
   4408000   291.76267      0.042618159    24.512447      723.87122     -73.539768      650.33145    
   4409000   301.45934      0.042618159    13.903978      747.92894     -81.635861      666.29308    
   4410000   290.512        0.042618159    42.043157      720.76827     -72.206068      648.5622     
   4411000   304.78216      0.042618159    17.878849      756.17294     -70.921195      685.25174    
   4412000   301.14129      0.042618159    15.960733      747.13984     -73.053437      674.0864     
   4413000   299.42796      0.042618159    25.190067      742.88902     -77.600359      665.28866    
   4414000   290.64576      0.042618159    26.331707      721.10015     -73.774972      647.32518    
   4415000   299.35368      0.042618159    13.936781      742.70472     -72.583558      670.12116    
   4416000   303.26829      0.042618159    21.971561      752.41698     -78.638411      673.77857    
   4417000   289.37199      0.042618159    24.970982      717.93987     -75.588949      642.35092    
   4418000   298.78431      0.042618159    20.458114      741.29212     -76.520015      664.7721     
   4419000   307.06875      0.042618159    24.153487      761.84603     -76.023161      685.82287    
   4420000   298.14727      0.042618159    22.001358      739.7116      -75.969315      663.74228    
   4421000   304.03282      0.042618159    22.756992      754.31381     -69.459162      684.85465    
   4422000   311.39756      0.042618159    20.772574      772.58594     -71.383402      701.20254    
   4423000   288.99129      0.042618159    22.264842      716.99536     -70.936738      646.05863    
   4424000   299.71302      0.042618159    21.588987      743.59628     -67.371826      676.22445    
   4425000   306.09638      0.042618159    25.149675      759.43357     -63.672263      695.7613     
   4426000   308.97907      0.042618159    14.272381      766.5856      -77.603572      688.98203    
   4427000   296.88704      0.042618159    17.371646      736.58494     -71.521387      665.06355    
   4428000   296.55444      0.042618159    25.758826      735.75975     -62.976088      672.78366    
   4429000   304.30909      0.042618159    19.487724      754.99925     -66.576628      688.42262    
   4430000   306.12562      0.042618159    15.42249       759.50609     -67.713048      691.79305    
   4431000   302.09464      0.042618159    12.002947      749.50513     -63.506382      685.99875    
   4432000   302.91732      0.042618159    38.269977      751.54622     -68.207379      683.33884    
   4433000   302.22609      0.042618159    21.170397      749.83125     -67.818434      682.01282    
   4434000   290.64885      0.042618159    3.8864169      721.10781     -76.429422      644.67839    
   4435000   302.67372      0.042618159    21.199876      750.94184     -71.975295      678.96655    
   4436000   305.56545      0.042618159    28.381577      758.11632     -71.185407      686.93091    
   4437000   295.11401      0.042618159    25.304231      732.18599     -64.730267      667.45572    
   4438000   308.41683      0.042618159    17.904347      765.19066     -62.045356      703.1453     
   4439000   301.02371      0.042618159    13.677885      746.84813     -63.152704      683.69543    
   4440000   293.38469      0.042618159    24.30544       727.8955      -62.565497      665.33       
   4441000   300.20809      0.042618159    27.411337      744.82456     -65.556547      679.26801    
   4442000   301.31964      0.042618159   -1.6021524      747.58233     -64.983063      682.59927    
   4443000   294.48278      0.042618159    34.601278      730.61989     -67.255959      663.36393    
   4444000   314.9714       0.042618159    35.953354      781.45272     -71.786332      709.66639    
   4445000   297.35969      0.042618159    12.944298      737.75759     -72.644471      665.11312    
   4446000   298.15541      0.042618159    32.554335      739.73178     -69.618161      670.11362    
   4447000   298.29379      0.042618159    38.817239      740.07511     -73.378017      666.6971     
   4448000   302.38396      0.042618159    42.726613      750.22294     -63.045642      687.1773     
   4449000   300.619        0.042618159    9.0720019      745.84402     -62.546226      683.2978     
   4450000   296.96453      0.042618159    17.76205       736.77719     -67.878542      668.89865    
   4451000   290.58884      0.042618159    34.590384      720.95893     -67.050587      653.90835    
   4452000   297.55923      0.042618159    17.877067      738.25266     -64.895949      673.35671    
   4453000   293.63611      0.042618159    20.113873      728.51929     -65.568218      662.95107    
   4454000   303.73009      0.042618159    30.609047      753.56272     -63.52908       690.03364    
   4455000   301.26401      0.042618159    22.43195       747.44432     -60.66209       686.78223    
   4456000   306.59562      0.042618159    23.885006      760.67218     -60.323591      700.34859    
   4457000   302.78166      0.042618159    24.876759      751.20964     -61.044302      690.16534    
   4458000   298.3844       0.042618159    31.764658      740.29991     -67.580164      672.71975    
   4459000   309.41012      0.042618159    24.187421      767.65504     -68.811715      698.84333    
   4460000   295.57162      0.042618159    14.381035      733.32135     -73.182713      660.13864    
   4461000   288.87495      0.042618159    13.812989      716.70671     -66.900348      649.80637    
   4462000   307.23034      0.042618159    28.416965      762.24694     -68.260838      693.9861     
   4463000   298.28101      0.042618159    16.073666      740.0434      -69.403151      670.64025    
   4464000   294.49371      0.042618159    20.287795      730.64701     -69.088885      661.55812    
   4465000   290.83393      0.042618159    30.024228      721.567       -68.610085      652.95692    
   4466000   301.36302      0.042618159    24.454891      747.68996     -57.505115      690.18485    
   4467000   310.13012      0.042618159    19.626361      769.44137     -61.222938      708.21844    
   4468000   296.11301      0.042618159    16.626298      734.66455     -56.540473      678.12408    
   4469000   301.4332       0.042618159    21.114484      747.86408     -66.831895      681.03218    
   4470000   293.78849      0.042618159    31.723602      728.89733     -68.972512      659.92482    
   4471000   302.34178      0.042618159    24.424162      750.11829     -64.718316      685.39998    
   4472000   308.39924      0.042618159    11.677539      765.14702     -65.332107      699.81491    
   4473000   298.80756      0.042618159    18.249793      741.34979     -66.56661       674.78318    
   4474000   289.17242      0.042618159    13.105271      717.44475     -62.947859      654.49689    
   4475000   290.98442      0.042618159    24.26897       721.94036     -69.233191      652.70717    
   4476000   311.55717      0.042618159    25.027188      772.98192     -71.044484      701.93744    
   4477000   296.01246      0.042618159    26.345217      734.41508     -61.567314      672.84777    
   4478000   298.51743      0.042618159    23.337449      740.62998     -71.097         669.53298    
   4479000   277.57968      0.042618159    17.820911      688.68283     -70.168612      618.51422    
   4480000   287.85222      0.042618159    15.77253       714.1693      -67.376309      646.79299    
   4481000   309.40127      0.042618159    18.179187      767.63309     -63.792186      703.8409     
   4482000   320.83722      0.042618159    28.760692      796.00599     -64.172684      731.8333     
   4483000   295.78139      0.042618159    22.614237      733.84177     -74.376965      659.46481    
   4484000   289.1249       0.042618159    13.18366       717.32684     -68.847371      648.47946    
   4485000   300.13052      0.042618159    19.615983      744.63208     -65.513287      679.11879    
   4486000   299.06939      0.042618159    33.931582      741.99941     -70.427658      671.57175    
   4487000   297.04458      0.042618159    22.261878      736.97578     -73.018938      663.95684    
   4488000   302.01852      0.042618159    14.026013      749.31629     -79.967955      669.34833    
   4489000   297.2939       0.042618159    31.689279      737.59437     -70.612834      666.98154    
   4490000   290.92324      0.042618159    18.146711      721.78859     -69.234643      652.55394    
   4491000   306.97017      0.042618159    17.874337      761.60146     -71.79717       689.80429    
   4492000   303.68175      0.042618159    28.123895      753.44279     -65.331877      688.11091    
   4493000   289.17753      0.042618159    27.881308      717.45743     -68.970288      648.48714    
   4494000   289.90207      0.042618159    4.0467585      719.25504     -64.761712      654.49333    
   4495000   320.02924      0.042618159    18.808529      794.00136     -59.752468      734.24889    
   4496000   308.17812      0.042618159    29.911916      764.59842     -57.130519      707.4679     
   4497000   295.96438      0.042618159    19.805661      734.29578     -66.398682      667.89709    
   4498000   297.56394      0.042618159    22.338677      738.26434     -67.500842      670.7635     
   4499000   312.30491      0.042618159    21.724776      774.83709     -67.454327      707.38277    
   4500000   292.87275      0.042618159    22.127678      726.62536     -71.735036      654.89032    
   4501000   296.43316      0.042618159    24.715199      735.45883     -74.029415      661.42941    
   4502000   297.38238      0.042618159    18.220062      737.81388     -77.019564      660.79432    
   4503000   299.28434      0.042618159    12.784845      742.53271     -74.663763      667.86895    
   4504000   289.05917      0.042618159    23.192111      717.16378     -71.251397      645.91238    
   4505000   304.4493       0.042618159    16.901732      755.34712     -71.449993      683.89712    
   4506000   304.40746      0.042618159    25.701182      755.2433      -67.638597      687.6047     
   4507000   290.73455      0.042618159    20.964339      721.32043     -80.051442      641.26899    
   4508000   299.40877      0.042618159    18.857073      742.84141     -77.062122      665.77929    
   4509000   306.64769      0.042618159    23.320107      760.80138     -72.442359      688.35902    
   4510000   291.35843      0.042618159    14.480573      722.86829     -71.076352      651.79194    
   4511000   296.33535      0.042618159    21.129456      735.21617     -68.380795      666.83538    
   4512000   299.91907      0.042618159    20.402134      744.10749     -73.007947      671.09954    
   4513000   291.8203       0.042618159    18.820058      724.0142      -74.025473      649.98872    
   4514000   310.07923      0.042618159    30.585273      769.31512     -71.129363      698.18575    
   4515000   310.35649      0.042618159    19.415643      770.00302     -60.190316      709.8127     
   4516000   290.01311      0.042618159    21.002277      719.53053     -54.66726       664.86327    
   4517000   291.38584      0.042618159    18.087894      722.9363      -64.676536      658.25976    
   4518000   312.97867      0.042618159    27.401772      776.50871     -60.501532      716.00717    
   4519000   298.97317      0.042618159    22.468569      741.76069     -60.636308      681.12438    
   4520000   294.71601      0.042618159    20.038738      731.19853     -65.769457      665.42908    
   4521000   311.19102      0.042618159    20.967067      772.07349     -76.251941      695.82155    
   4522000   301.7544       0.042618159    20.387999      748.66098     -68.580317      680.08066    
   4523000   289.41405      0.042618159    16.672479      718.04424     -73.67327       644.37097    
   4524000   292.50163      0.042618159    12.480242      725.7046      -78.216716      647.48788    
   4525000   309.12234      0.042618159    18.339124      766.94105     -83.742844      683.1982     
   4526000   293.83721      0.042618159    18.991689      729.01822     -81.540534      647.47768    
   4527000   303.44011      0.042618159    28.983526      752.84329     -75.724057      677.11923    
   4528000   286.65347      0.042618159    16.714825      711.19516     -82.345126      628.85004    
   4529000   300.05978      0.042618159    22.316559      744.45658     -78.649618      665.80696    
   4530000   300.07324      0.042618159    20.023601      744.48999     -70.770316      673.71968    
   4531000   304.00788      0.042618159    21.645043      754.25192     -64.287242      689.96468    
   4532000   298.66735      0.042618159    21.758594      741.00193     -70.723283      670.27865    
   4533000   287.65939      0.042618159    17.540701      713.69088     -69.100545      644.59033    
   4534000   301.52382      0.042618159    19.506833      748.08892     -72.635178      675.45374    
   4535000   308.57986      0.042618159    11.968092      765.59514     -68.250477      697.34466    
   4536000   296.26331      0.042618159    19.050399      735.03743     -72.600096      662.43734    
   4537000   275.39295      0.042618159    24.15606       683.25749     -66.035627      617.22187    
   4538000   302.90208      0.042618159    39.667064      751.50842     -71.70145       679.80697    
   4539000   310.82777      0.042618159    25.03009       771.17227     -66.610567      704.5617     
   4540000   306.03901      0.042618159    22.445834      759.29122     -59.943013      699.34821    
   4541000   292.3638       0.042618159    19.753274      725.36263     -66.035118      659.32752    
   4542000   299.48589      0.042618159    24.232187      743.03275     -60.477255      682.55549    
   4543000   327.71253      0.042618159    24.715568      813.06383     -68.030787      745.03304    
   4544000   296.39368      0.042618159    22.25562       735.3609      -62.09247       673.26843    
   4545000   286.25322      0.042618159    24.042842      710.20213     -66.989084      643.21305    
   4546000   298.13448      0.042618159    25.773904      739.67986     -72.333099      667.34677    
   4547000   305.72855      0.042618159    17.06947       758.52096     -71.394901      687.12606    
   4548000   302.79334      0.042618159    16.714789      751.23863     -76.600038      674.63859    
   4549000   296.06286      0.042618159    17.40635       734.54012     -77.517864      657.02226    
   4550000   290.60874      0.042618159    24.141643      721.00829     -71.403864      649.60443    
   4551000   293.37861      0.042618159    20.439646      727.88041     -71.515156      656.36525    
   4552000   296.24244      0.042618159    21.429141      734.98566     -73.547458      661.4382     
   4553000   300.72913      0.042618159    21.015754      746.11725     -65.433553      680.6837     
   4554000   299.31947      0.042618159    23.935505      742.61985     -69.866851      672.753      
   4555000   289.57303      0.042618159    19.075083      718.43866     -72.820702      645.61796    
   4556000   298.9452       0.042618159    20.86996       741.69128     -69.278766      672.41251    
   4557000   301.82457      0.042618159    27.71078       748.83509     -70.837051      677.99803    
   4558000   301.98834      0.042618159    23.936916      749.24139     -74.117209      675.12419    
   4559000   293.04005      0.042618159    13.079728      727.04045     -70.287971      656.75248    
   4560000   292.50714      0.042618159    23.510988      725.71828     -76.702875      649.01541    
   4561000   317.28451      0.042618159    26.318351      787.19162     -70.961414      716.23021    
   4562000   304.8369       0.042618159    23.438683      756.30876     -71.385738      684.92302    
   4563000   287.26476      0.042618159    13.863019      712.71179     -72.634371      640.07742    
   4564000   294.60396      0.042618159    21.34513       730.92055     -72.260754      658.65979    
   4565000   304.28406      0.042618159    18.865763      754.93714     -73.462547      681.47459    
   4566000   287.2668       0.042618159    9.9993574      712.71685     -68.115004      644.60185    
   4567000   301.41126      0.042618159    16.413219      747.80963     -71.608872      676.20076    
   4568000   290.11843      0.042618159    17.76367       719.79183     -63.131435      656.66039    
   4569000   296.50214      0.042618159    28.808914      735.62998     -68.232615      667.39736    
   4570000   311.09594      0.042618159    23.889223      771.83761     -63.538321      708.29929    
   4571000   298.08916      0.042618159    6.4843578      739.56742     -60.433785      679.13364    
   4572000   298.47842      0.042618159    21.045857      740.53319     -63.24172       677.29147    
   4573000   304.94928      0.042618159    38.680664      756.58757     -66.896438      689.69113    
   4574000   301.98371      0.042618159    21.953566      749.22991     -62.026161      687.20375    
   4575000   303.25166      0.042618159    2.4050726      752.37572     -61.67274       690.70298    
   4576000   305.57107      0.042618159    22.529533      758.13026     -62.306236      695.82402    
   4577000   296.90176      0.042618159    22.245226      736.62144     -63.0122        673.60924    
   4578000   306.24003      0.042618159    19.00174       759.78996     -68.22644       691.56352    
   4579000   306.11707      0.042618159    17.897733      759.4849      -67.537267      691.94763    
   4580000   298.66108      0.042618159    22.459824      740.98637     -72.853301      668.13306    
   4581000   313.334        0.042618159    20.736465      777.3903      -71.273009      706.11729    
   4582000   301.96366      0.042618159    21.868989      749.18017     -66.026739      683.15343    
   4583000   291.82706      0.042618159    20.812238      724.03098     -69.811324      654.21966    
   4584000   302.76253      0.042618159    28.988665      751.16217     -63.957814      687.20436    
   4585000   296.2875       0.042618159    22.060304      735.09746     -66.949564      668.1479     
   4586000   294.16171      0.042618159    16.493587      729.82331     -65.150523      664.67279    
   4587000   306.92116      0.042618159    25.856086      761.47985     -75.279047      686.20081    
   4588000   305.59411      0.042618159    35.492094      758.1874      -70.929123      687.25828    
   4589000   308.98509      0.042618159    16.502417      766.60052     -67.951226      698.6493     
   4590000   299.32791      0.042618159    12.829413      742.6408      -65.862594      676.7782     
   4591000   295.52056      0.042618159    27.456131      733.19466     -73.274957      659.9197     
   4592000   309.73368      0.042618159    15.475221      768.4578      -77.651762      690.80603    
   4593000   301.74584      0.042618159    5.3441439      748.63974     -82.559029      666.08071    
   4594000   299.95615      0.042618159    33.886216      744.19947     -76.051127      668.14834    
   4595000   312.81296      0.042618159    27.948476      776.09758     -84.159221      691.93836    
   4596000   303.57795      0.042618159    8.6888046      753.18526     -74.148932      679.03632    
   4597000   292.56906      0.042618159    17.457081      725.87191     -77.109984      648.76192    
   4598000   298.015        0.042618159    35.889669      739.38342     -74.85787       664.52555    
   4599000   314.49454      0.042618159    8.730477       780.26962     -75.911843      704.35778    
   4600000   294.29473      0.042618159    15.908523      730.15334     -74.136822      656.01652    
   4601000   283.24892      0.042618159    23.638942      702.74837     -71.510253      631.23812    
   4602000   307.56171      0.042618159    28.172807      763.06907     -73.10589       689.96318    
   4603000   302.92032      0.042618159    18.282137      751.55367     -73.921066      677.63261    
   4604000   303.71935      0.042618159   -0.025631064    753.53608     -75.872828      677.66325    
   4605000   299.68838      0.042618159    23.933952      743.53513     -77.79929       665.73584    
   4606000   297.10817      0.042618159    32.917164      737.13355     -81.221485      655.91206    
   4607000   295.47669      0.042618159    21.609711      733.08581     -79.661202      653.42461    
   4608000   292.99913      0.042618159    17.496741      726.93892     -81.358933      645.57999    
   4609000   301.36188      0.042618159    23.7846        747.68713     -76.408807      671.27832    
   4610000   303.71492      0.042618159    17.540048      753.52509     -82.353483      671.1716     
   4611000   298.89752      0.042618159    21.966195      741.57299     -74.143527      667.42946    
   4612000   287.29828      0.042618159    23.421894      712.79495     -74.447027      638.34793    
   4613000   293.347        0.042618159    22.19291       727.80199     -77.433167      650.36882    
   4614000   303.15579      0.042618159    23.034583      752.13787     -81.20472       670.93315    
   4615000   302.30895      0.042618159    14.802398      750.03683     -73.699925      676.3369     
   4616000   295.48012      0.042618159    10.582404      733.09433     -76.184139      656.91019    
   4617000   297.07204      0.042618159    22.103432      737.04393     -82.051376      654.99255    
   4618000   299.89203      0.042618159    22.49011       744.04038     -80.984443      663.05594    
   4619000   313.00717      0.042618159    20.968411      776.57941     -76.437584      700.14182    
   4620000   293.0122       0.042618159    20.601851      726.97135     -72.350525      654.62083    
   4621000   283.21488      0.042618159    20.363051      702.66392     -69.816013      632.8479     
   4622000   311.32048      0.042618159    19.672101      772.3947      -73.61398       698.78072    
   4623000   300.65488      0.042618159    20.814538      745.93306     -75.315662      670.61739    
   4624000   312.52014      0.042618159    24.920469      775.37108     -71.312235      704.05885    
   4625000   298.42809      0.042618159    21.396119      740.40832     -70.948198      669.46012    
   4626000   297.46269      0.042618159    18.39914       738.01314     -71.04358       666.96956    
   4627000   315.33241      0.042618159    24.59641       782.34841     -80.096027      702.25238    
   4628000   296.74441      0.042618159    21.392714      736.23107     -79.478074      656.753      
   4629000   289.52742      0.042618159    21.550433      718.3255      -76.463563      641.86194    
   4630000   305.29225      0.042618159    20.245049      757.43849     -81.883141      675.55535    
   4631000   298.94565      0.042618159    19.789298      741.6924      -80.917349      660.77505    
   4632000   293.41606      0.042618159    22.850949      727.97333     -78.788395      649.18493    
   4633000   317.28699      0.042618159    21.172611      787.19776     -78.483872      708.71389    
   4634000   303.61675      0.042618159    23.988729      753.28153     -76.002399      677.27913    
   4635000   288.9063       0.042618159    17.921199      716.7845      -73.45802       643.32648    
   4636000   303.40955      0.042618159    19.448594      752.76747     -79.749125      673.01834    
   4637000   305.57363      0.042618159    22.336403      758.1366      -79.177137      678.95947    
   4638000   307.17645      0.042618159    21.914786      762.11324     -78.448894      683.66434    
   4639000   301.71587      0.042618159    20.115165      748.5654      -81.543874      667.02153    
   4640000   297.17969      0.042618159    24.38864       737.31101     -90.08316       647.22785    
   4641000   294.16729      0.042618159    11.889269      729.83716     -82.452447      647.38472    
   4642000   291.58995      0.042618159    17.040978      723.4427      -86.088808      637.3539     
   4643000   299.80123      0.042618159    20.829736      743.81511     -80.462259      663.35285    
   4644000   307.59247      0.042618159    25.493881      763.1454      -78.987342      684.15806    
   4645000   293.39202      0.042618159    26.550912      727.91369     -87.251437      640.66225    
   4646000   305.08681      0.042618159    7.7003629      756.9288      -83.75986       673.16894    
   4647000   297.59037      0.042618159    8.6616364      738.32992     -83.69524       654.63468    
   4648000   302.14444      0.042618159    18.616015      749.62868     -76.049735      673.57895    
   4649000   307.60049      0.042618159    48.873271      763.16529     -76.626681      686.53861    
   4650000   295.68547      0.042618159    12.721157      733.60381     -77.646743      655.95706    
   4651000   312.24064      0.042618159    30.21235       774.67764     -79.914023      694.76362    
   4652000   296.84535      0.042618159    27.238374      736.48149     -81.705159      654.77633    
   4653000   294.66545      0.042618159    2.0328401      731.07311     -82.391527      648.68159    
   4654000   299.09339      0.042618159    18.735065      742.05895     -80.585876      661.47307    
   4655000   299.3266       0.042618159    20.725717      742.63755     -84.127539      658.51001    
   4656000   304.1737       0.042618159    21.031381      754.66334     -80.637802      674.02553    
   4657000   304.4749       0.042618159    19.603448      755.41062     -78.878484      676.53214    
   4658000   297.56616      0.042618159    25.928184      738.26985     -77.664939      660.60492    
   4659000   297.88216      0.042618159    22.446618      739.05384     -80.356302      658.69754    
   4660000   292.21096      0.042618159    19.245029      724.98344     -79.299975      645.68346    
   4661000   300.42966      0.042618159    20.834897      745.37428     -82.099243      663.27504    
   4662000   302.70985      0.042618159    22.837129      751.03149     -70.652319      680.37917    
   4663000   305.83438      0.042618159    22.152939      758.78354     -71.01244       687.7711     
   4664000   306.61951      0.042618159    23.254318      760.73145     -70.564209      690.16724    
   4665000   300.82056      0.042618159    21.789963      746.34411     -76.863164      669.48095    
   4666000   293.80176      0.042618159    11.659418      728.93027     -75.145209      653.78506    
   4667000   301.03439      0.042618159    20.201672      746.87462     -75.452515      671.42211    
   4668000   302.56072      0.042618159    31.683681      750.66149     -72.406315      678.25518    
   4669000   313.74741      0.042618159    20.088906      778.41598     -71.774882      706.64109    
   4670000   296.21427      0.042618159    16.269209      734.91577     -77.357431      657.55834    
   4671000   308.43234      0.042618159    37.593082      765.22915     -77.892672      687.33648    
   4672000   299.55194      0.042618159    27.20388       743.19663     -68.238017      674.95861    
   4673000   295.1933       0.042618159    6.2891456      732.38271     -74.346636      658.03607    
   4674000   307.85287      0.042618159    55.188612      763.79146     -80.491241      683.30022    
   4675000   304.1959       0.042618159    18.309273      754.71841     -79.451164      675.26725    
   4676000   290.61929      0.042618159    24.083021      721.03447     -84.348264      636.68621    
   4677000   302.82309      0.042618159    36.690562      751.31243     -82.651917      668.66052    
   4678000   317.69894      0.042618159    21.548223      788.21983     -83.92785       704.29198    
   4679000   286.7194       0.042618159    18.364791      711.35873     -75.047358      636.31137    
   4680000   291.21918      0.042618159    18.426527      722.52281     -77.331945      645.19086    
   4681000   304.9694       0.042618159    24.897977      756.63748     -73.387602      683.24987    
   4682000   308.19969      0.042618159    21.72524       764.65192     -78.165849      686.48607    
   4683000   297.46865      0.042618159    22.398854      738.02792     -74.085081      663.94284    
   4684000   314.05523      0.042618159    20.787441      779.17969     -78.714768      700.46492    
   4685000   297.72026      0.042618159    21.833449      738.65218     -74.199566      664.45262    
   4686000   289.85121      0.042618159    20.297         719.12884     -73.661938      645.4669     
   4687000   311.59312      0.042618159    23.444976      773.07113     -79.212005      693.85912    
   4688000   309.83982      0.042618159    19.21493       768.72113     -79.163401      689.55773    
   4689000   287.3585       0.042618159    19.573945      712.94435     -83.234622      629.70973    
   4690000   302.60785      0.042618159    20.849934      750.77841     -86.174218      664.60419    
   4691000   294.81398      0.042618159    20.616807      731.44162     -84.980618      646.461      
   4692000   302.06995      0.042618159    21.752685      749.44388     -76.451131      672.99274    
   4693000   309.30632      0.042618159    18.50992       767.39751     -82.420492      684.97701    
   4694000   308.45619      0.042618159    30.474697      765.28831     -77.443638      687.84467    
   4695000   288.03045      0.042618159    27.268912      714.6115      -77.767773      636.84372    
   4696000   302.55041      0.042618159    23.347795      750.63591     -76.30834       674.32757    
   4697000   296.5334       0.042618159    16.965053      735.70755     -73.757092      661.95046    
   4698000   303.21965      0.042618159    23.420901      752.29632     -73.157543      679.13877    
   4699000   304.31004      0.042618159    20.932614      755.0016      -79.674107      675.32749    
   4700000   298.94654      0.042618159    21.151882      741.69461     -80.174645      661.51997    
   4701000   295.35454      0.042618159    22.340871      732.78275     -72.492128      660.29063    
   4702000   310.80544      0.042618159    21.161858      771.11686     -78.045217      693.07164    
   4703000   298.88543      0.042618159    16.439531      741.54298     -86.783461      654.75952    
   4704000   282.55283      0.042618159    17.813965      701.02137     -81.086505      619.93486    
   4705000   296.67518      0.042618159    24.333192      736.05929     -90.923978      645.13531    
   4706000   315.41323      0.042618159    21.245545      782.54891     -92.297058      690.25185    
   4707000   301.67443      0.042618159    18.41168       748.46258     -88.189377      660.2732     
   4708000   292.77038      0.042618159    17.697478      726.37138     -89.530535      636.84085    
   4709000   309.93541      0.042618159    20.742565      768.9583      -95.869079      673.08922    
   4710000   296.34364      0.042618159    15.923051      735.23673     -87.465039      647.77169    
   4711000   286.34076      0.042618159    19.806218      710.41933     -78.433408      631.98592    
   4712000   289.81031      0.042618159    19.687842      719.02737     -80.55091       638.47646    
   4713000   295.94864      0.042618159    21.337932      734.25674     -75.455903      658.80084    
   4714000   305.75893      0.042618159    28.397705      758.59633     -86.248127      672.3482     
   4715000   313.19521      0.042618159    22.719572      777.04594     -93.802843      683.24309    
   4716000   296.83773      0.042618159    19.999813      736.46259     -92.214013      644.24858    
   4717000   292.15263      0.042618159    20.140215      724.83872     -96.998617      627.8401     
   4718000   302.68128      0.042618159    22.34472       750.9606      -93.163628      657.79697    
   4719000   320.15661      0.042618159    24.361146      794.31738     -83.031571      711.28581    
   4720000   302.54673      0.042618159    18.941085      750.62678     -79.45229       671.17449    
   4721000   292.70507      0.042618159    21.204146      726.20934     -84.068157      642.14118    
   4722000   300.83466      0.042618159    19.440387      746.37908     -82.612307      663.76677    
   4723000   302.47211      0.042618159    19.857788      750.44165     -73.707426      676.73422    
   4724000   283.26531      0.042618159    17.992901      702.78905     -76.566441      626.22261    
   4725000   279.55373      0.042618159    19.043024      693.58051     -74.00191       619.5786     
   4726000   292.7221       0.042618159    21.846876      726.25159     -82.780864      643.47073    
   4727000   293.74617      0.042618159    19.068953      728.79235     -79.502648      649.2897     
   4728000   296.31773      0.042618159    18.679959      735.17246     -76.578812      658.59365    
   4729000   299.57164      0.042618159    20.285816      743.2455      -84.237175      659.00833    
   4730000   285.53098      0.042618159    17.506334      708.41024     -76.296548      632.11369    
   4731000   301.02122      0.042618159    17.5496        746.84194     -78.140955      668.70099    
   4732000   302.72347      0.042618159    20.864203      751.06527     -74.513568      676.5517     
   4733000   302.90162      0.042618159    24.469373      751.50727     -78.861455      672.64582    
   4734000   294.9197       0.042618159    25.812872      731.70389     -82.039524      649.66437    
   4735000   299.53984      0.042618159    19.365534      743.1666      -82.829901      660.3367     
   4736000   301.65266      0.042618159    18.121262      748.40856     -72.466294      675.94227    
   4737000   310.70233      0.042618159    27.821067      770.86103     -80.031274      690.82976    
   4738000   297.01235      0.042618159    27.883283      736.89582     -82.759479      654.13634    
   4739000   299.77096      0.042618159    18.482945      743.74002     -85.835742      657.90428    
   4740000   308.24243      0.042618159    20.036716      764.75796     -80.561915      684.19605    
   4741000   303.32346      0.042618159    22.937381      752.55386     -82.062644      670.49122    
   4742000   284.34569      0.042618159    16.539689      705.46949     -87.472297      617.99719    
   4743000   290.66554      0.042618159    20.343237      721.14921     -82.120332      639.02888    
   4744000   310.56743      0.042618159    18.147013      770.52636     -81.241118      689.28525    
   4745000   300.87179      0.042618159    20.298155      746.4712      -73.510216      672.96099    
   4746000   302.28245      0.042618159    21.595496      749.97109     -76.156046      673.81504    
   4747000   310.59296      0.042618159    22.666447      770.58968     -79.950245      690.63944    
   4748000   299.05782      0.042618159    16.362675      741.97071     -83.420337      658.55037    
   4749000   305.87875      0.042618159    18.571712      758.89362     -84.913025      673.98059    
   4750000   297.69273      0.042618159    19.141339      738.58387     -86.217776      652.36609    
   4751000   285.40148      0.042618159    25.313046      708.08893     -78.353715      629.73522    
   4752000   302.30282      0.042618159    22.946372      750.02163     -82.731064      667.29056    
   4753000   296.73204      0.042618159    22.338435      736.20036     -80.761864      655.4385     
   4754000   291.65392      0.042618159    14.304814      723.60141     -80.667882      642.93353    
   4755000   299.33431      0.042618159    19.702501      742.65668     -74.697756      667.95893    
   4756000   310.43783      0.042618159    32.080128      770.2048      -71.430697      698.77411    
   4757000   304.50578      0.042618159    21.954358      755.48723     -68.516918      686.97032    
   4758000   283.31876      0.042618159    28.232952      702.92166     -75.264864      627.6568     
   4759000   306.24004      0.042618159    17.446658      759.78998     -76.993805      682.79618    
   4760000   297.23802      0.042618159    18.351237      737.45572     -74.751839      662.70388    
   4761000   299.92075      0.042618159    24.662217      744.11164     -70.209151      673.90249    
   4762000   299.92664      0.042618159    22.031505      744.12625     -77.366727      666.75952    
   4763000   298.85066      0.042618159    24.169617      741.45672     -78.950387      662.50633    
   4764000   300.24215      0.042618159    19.906255      744.90904     -81.202967      663.70608    
   4765000   296.19383      0.042618159    18.751252      734.86505     -87.273323      647.59173    
   4766000   311.44461      0.042618159    27.313557      772.70267     -79.314504      693.38816    
   4767000   310.79551      0.042618159    17.497957      771.09223     -74.443771      696.64846    
   4768000   295.08015      0.042618159    19.407923      732.10199     -70.239744      661.86225    
   4769000   312.21149      0.042618159    18.968286      774.60531     -75.385878      699.21943    
   4770000   296.86831      0.042618159    21.954373      736.53847     -76.532975      660.0055     
   4771000   310.70729      0.042618159    23.339041      770.87335     -81.481907      689.39145    
   4772000   302.91061      0.042618159    23.69315       751.52956     -77.856876      673.67269    
   4773000   307.6564       0.042618159    21.713565      763.30401     -76.554113      686.7499     
   4774000   292.27677      0.042618159    16.240681      725.14672     -73.851365      651.29535    
   4775000   297.17062      0.042618159    25.163839      737.2885      -72.535293      664.7532     
   4776000   319.60036      0.042618159    27.97351       792.93731     -67.449672      725.48763    
   4777000   294.30337      0.042618159    19.121149      730.17477     -66.164452      664.01032    
   4778000   292.32892      0.042618159    21.931862      725.27611     -64.809212      660.4669     
   4779000   305.46394      0.042618159    26.105131      757.86446     -65.05053       692.81393    
   4780000   291.43122      0.042618159    18.576736      723.0489      -68.562249      654.48665    
   4781000   299.80333      0.042618159    15.042584      743.82032     -72.387763      671.43256    
   4782000   297.39069      0.042618159    17.413493      737.8345      -71.168601      666.6659     
   4783000   299.9239       0.042618159    29.72111       744.11945     -71.666686      672.45277    
   4784000   312.64878      0.042618159    21.861794      775.69024     -73.422861      702.26738    
   4785000   315.92614      0.042618159    13.260851      783.82146     -71.294703      712.52676    
   4786000   282.28406      0.042618159    9.1194774      700.35453     -70.292364      630.06216    
   4787000   288.78388      0.042618159    14.788212      716.48078     -71.389513      645.09126    
   4788000   313.87481      0.042618159    46.453603      778.73206     -65.848313      712.88375    
   4789000   313.8667       0.042618159    27.96923       778.71193     -72.47494       706.23699    
   4790000   298.84847      0.042618159    15.411149      741.45128     -67.642892      673.80839    
   4791000   289.25451      0.042618159    35.84492       717.64842     -70.306135      647.34229    
   4792000   324.67232      0.042618159    31.851572      805.52098     -68.446364      737.07461    
   4793000   301.89894      0.042618159    18.186853      749.01958     -69.330603      679.68898    
   4794000   298.4941       0.042618159    20.105774      740.57208     -69.262293      671.30979    
   4795000   294.60541      0.042618159    23.857963      730.92413     -69.889663      661.03447    
   4796000   297.31965      0.042618159    25.505612      737.65824     -70.742029      666.91622    
   4797000   314.10521      0.042618159    42.11821       779.30369     -59.618359      719.68534    
   4798000   296.7442       0.042618159    1.5433989      736.23055     -75.642008      660.58854    
   4799000   291.81488      0.042618159    20.993659      724.00075     -70.996152      653.0046     
   4800000   311.66155      0.042618159    64.057767      773.24091     -65.536378      707.70453    
   4801000   304.59641      0.042618159    10.642728      755.71208     -71.261043      684.45104    
   4802000   291.36228      0.042618159    13.875094      722.87784     -74.203285      648.67456    
   4803000   302.1411       0.042618159    31.685323      749.6204      -75.465922      674.15448    
   4804000   305.90373      0.042618159    14.072141      758.95557     -74.080049      684.87553    
   4805000   296.03093      0.042618159    15.717269      734.46091     -77.192817      657.26809    
   4806000   295.72304      0.042618159    24.07088       733.69701     -74.877212      658.8198     
   4807000   299.78493      0.042618159    21.517575      743.77468     -77.169711      666.60497    
   4808000   303.26573      0.042618159    24.626777      752.41065     -80.550203      671.86044    
   4809000   296.82357      0.042618159    16.612221      736.42747     -76.064373      660.3631     
   4810000   302.32662      0.042618159    12.794029      750.08067     -67.83593       682.24474    
   4811000   313.89841      0.042618159    23.209208      778.79062     -71.521172      707.26945    
   4812000   303.66525      0.042618159    28.156828      753.40186     -70.472397      682.92946    
   4813000   296.52549      0.042618159    30.976159      735.68791     -75.783834      659.90408    
   4814000   289.4194       0.042618159    9.5130725      718.0575      -76.99784       641.05966    
   4815000   314.41861      0.042618159    18.547906      780.08124     -73.301348      706.77989    
   4816000   307.96741      0.042618159    24.996527      764.07564     -69.017719      695.05792    
   4817000   285.13128      0.042618159    20.532741      707.41856     -69.330393      638.08816    
   4818000   297.03349      0.042618159    10.238717      736.94827     -68.899411      668.04886    
   4819000   305.77397      0.042618159    34.497941      758.63365     -63.118546      695.51511    
   4820000   299.09358      0.042618159    21.332018      742.05941     -63.616703      678.44271    
   4821000   299.65183      0.042618159    17.933072      743.44444     -64.498153      678.94629    
   4822000   309.15976      0.042618159    23.960074      767.03388     -66.415107      700.61878    
   4823000   295.36557      0.042618159    28.917406      732.81012     -63.605596      669.20452    
   4824000   298.52575      0.042618159    3.2761353      740.65063     -67.233727      673.4169     
   4825000   306.12105      0.042618159    22.479491      759.49477     -63.198315      696.29646    
   4826000   292.52193      0.042618159    41.955937      725.75497     -64.590605      661.16436    
   4827000   293.93351      0.042618159    26.58715       729.25715     -62.715679      666.54147    
   4828000   288.88692      0.042618159    13.077381      716.73642     -65.976711      650.75971    
   4829000   307.16742      0.042618159    20.355277      762.09085     -73.996536      688.09431    
   4830000   304.11528      0.042618159    45.012556      754.51839     -76.363216      678.15518    
   4831000   288.00073      0.042618159    27.274332      714.53776     -81.627885      632.90987    
   4832000   294.48414      0.042618159    13.794456      730.62327     -78.953784      651.66948    
   4833000   305.79624      0.042618159    30.185319      758.68889     -75.319494      683.3694     
   4834000   296.53559      0.042618159    22.231895      735.71298     -72.790599      662.92238    
   4835000   296.22192      0.042618159    10.719449      734.93476     -67.84141       667.09335    
   4836000   295.17595      0.042618159    23.192164      732.33967     -71.214381      661.12528    
   4837000   307.52023      0.042618159    32.830838      762.96618     -69.793711      693.17246    
   4838000   295.31343      0.042618159    27.6863        732.68076     -65.479815      667.20095    
   4839000   299.93074      0.042618159    8.1506324      744.13642     -73.891999      670.24442    
   4840000   302.41752      0.042618159    23.012225      750.30621     -67.614911      682.6913     
   4841000   309.81868      0.042618159    27.079858      768.6687      -71.350741      697.31795    
   4842000   293.04251      0.042618159    20.075354      727.04654     -60.254533      666.792      
   4843000   311.20206      0.042618159    16.449856      772.1009      -69.318172      702.78272    
   4844000   289.95403      0.042618159    28.04567       719.38393     -65.304369      654.07957    
   4845000   303.70488      0.042618159    15.856206      753.50018     -69.353463      684.14672    
   4846000   301.60453      0.042618159    23.004248      748.28916     -63.897959      684.3912     
   4847000   285.37481      0.042618159    17.770256      708.02277     -70.628155      637.39461    
   4848000   295.64101      0.042618159    23.233406      733.49351     -69.635755      663.85775    
   4849000   312.09506      0.042618159    20.756394      774.31644     -74.19754       700.1189     
   4850000   303.57561      0.042618159    20.11215       753.17946     -69.367323      683.81214    
   4851000   296.34739      0.042618159    31.407811      735.24603     -65.655619      669.59041    
   4852000   300.95178      0.042618159    29.313058      746.66966     -69.608865      677.0608     
   4853000   311.93189      0.042618159    15.918745      773.91162     -67.618738      706.29288    
   4854000   305.20758      0.042618159    30.663778      757.22841     -68.923438      688.30497    
   4855000   303.77349      0.042618159    36.414474      753.6704      -73.338576      680.33183    
   4856000   293.55622      0.042618159    15.096249      728.32107     -72.863464      655.45761    
   4857000   287.90673      0.042618159    25.290207      714.30453     -72.139582      642.16495    
   4858000   309.92923      0.042618159    36.263678      768.94296     -73.216874      695.72609    
   4859000   300.36905      0.042618159    16.356914      745.22389     -72.64626       672.57763    
   4860000   281.28581      0.042618159    19.357752      697.87786     -81.26043       616.61743    
   4861000   295.51938      0.042618159    30.79934       733.19173     -69.903784      663.28795    
   4862000   311.02241      0.042618159    18.200171      771.65516     -79.816321      691.83884    
   4863000   299.98676      0.042618159    10.040103      744.27542     -73.067081      671.20834    
   4864000   284.32056      0.042618159    18.954799      705.40715     -72.168545      633.23861    
   4865000   296.21932      0.042618159    36.490326      734.92829     -68.077185      666.85111    
   4866000   311.98489      0.042618159    15.918491      774.0431      -68.922065      705.12104    
   4867000   305.12175      0.042618159    17.987335      757.01546     -72.371584      684.64388    
   4868000   288.85548      0.042618159    17.742057      716.65841     -71.564941      645.09347    
   4869000   299.79201      0.042618159    23.511457      743.79225     -73.412725      670.37952    
   4870000   303.04504      0.042618159    29.112693      751.86309     -74.038167      677.82492    
   4871000   316.0257       0.042618159    11.731978      784.06846     -75.419732      708.64873    
   4872000   281.97125      0.042618159    5.7467367      699.57845     -72.57873       626.99972    
   4873000   288.44766      0.042618159    24.564232      715.64659     -83.23233       632.41426    
   4874000   310.33028      0.042618159    22.208389      769.93798     -85.641703      684.29628    
   4875000   295.77036      0.042618159    9.9142329      733.81442     -75.543762      658.27066    
   4876000   301.62229      0.042618159    19.757381      748.33323     -75.506099      672.82713    
   4877000   316.94673      0.042618159    20.263213      786.35357     -75.337848      711.01572    
   4878000   303.62918      0.042618159    17.630177      753.31236     -71.171019      682.14134    
   4879000   290.735        0.042618159    27.903827      721.32155     -76.28816       645.03339    
   4880000   305.04983      0.042618159    25.669764      756.83704     -78.488992      678.34805    
   4881000   307.33351      0.042618159    18.34078       762.50291     -74.774281      687.72863    
   4882000   304.09656      0.042618159    15.768387      754.47196     -79.9701        674.50186    
   4883000   293.05264      0.042618159    21.929853      727.07167     -73.618184      653.45349    
   4884000   306.997        0.042618159    31.851314      761.66803     -69.49671       692.17132    
   4885000   308.28663      0.042618159    17.177876      764.86763     -69.344943      695.52268    
   4886000   293.96331      0.042618159    20.593546      729.33108     -65.732604      663.59848    
   4887000   296.69753      0.042618159    23.146256      736.11476     -66.228252      669.88651    
   4888000   309.48678      0.042618159    20.884741      767.84522     -63.417542      704.42768    
   4889000   304.09981      0.042618159    18.270601      754.48002     -67.681444      686.79858    
   4890000   299.77787      0.042618159    23.171724      743.75715     -61.511065      682.24608    
   4891000   298.11613      0.042618159    22.47233       739.63434     -63.245349      676.38899    
   4892000   300.99591      0.042618159    25.628254      746.77915     -67.507775      679.27137    
   4893000   308.40357      0.042618159    20.117877      765.15775     -73.115893      692.04185    
   4894000   296.37801      0.042618159    23.282096      735.32202     -60.971138      674.35088    
   4895000   296.72701      0.042618159    20.543824      736.18789     -70.973617      665.21427    
   4896000   296.86756      0.042618159    19.153892      736.53659     -63.616001      672.92059    
   4897000   306.18679      0.042618159    19.298192      759.65786     -73.25247       686.40539    
   4898000   314.7759       0.042618159    22.747626      780.96768     -78.180962      702.78672    
   4899000   286.15538      0.042618159    25.021056      709.95939     -71.777387      638.182      
   4900000   302.91271      0.042618159    2.2959284      751.53478     -70.435929      681.09885    
   4901000   314.55068      0.042618159    24.499363      780.4089      -64.666181      715.74272    
   4902000   299.18215      0.042618159    32.330418      742.27915     -65.646303      676.63285    
   4903000   298.1267       0.042618159    22.241607      739.66056     -64.938505      674.72206    
   4904000   305.68612      0.042618159    7.9494343      758.41568     -66.973374      691.4423     
   4905000   301.24453      0.042618159    21.512165      747.39598     -63.017996      684.37799    
   4906000   303.99985      0.042618159    24.67727       754.232       -71.39843       682.83357    
   4907000   304.18654      0.042618159    28.992842      754.69519     -73.803955      680.89123    
   4908000   295.3085       0.042618159    21.94394       732.66852     -77.736338      654.93218    
   4909000   309.19543      0.042618159    21.349646      767.12239     -71.412046      695.71034    
   4910000   301.00902      0.042618159    24.08365       746.81168     -67.488502      679.32318    
   4911000   295.67243      0.042618159    25.993196      733.57144     -56.655705      676.91574    
   4912000   288.17048      0.042618159    14.118463      714.9589      -60.631633      654.32727    
   4913000   285.81048      0.042618159    18.707553      709.10367     -63.431314      645.67236    
   4914000   300.31662      0.042618159   -7.6175829      745.09382     -63.315122      681.7787     
   4915000   311.45432      0.042618159    25.868823      772.72676     -64.389075      708.33769    
   4916000   284.88104      0.042618159    40.027957      706.79771     -62.55452       644.24319    
   4917000   295.61069      0.042618159    15.751871      733.41827     -70.729581      662.68869    
   4918000   312.62728      0.042618159    17.263757      775.63689     -75.129784      700.5071     
   4919000   317.26075      0.042618159    48.219441      787.13267     -68.448606      718.68406    
   4920000   294.075        0.042618159    31.08871       729.60818     -62.364148      667.24404    
   4921000   289.5841       0.042618159    23.71053       718.46613     -68.438703      650.02743    
   4922000   302.0983       0.042618159    13.097523      749.51421     -76.334281      673.17993    
   4923000   313.66779      0.042618159    16.928319      778.21844     -79.368674      698.84976    
   4924000   293.96763      0.042618159    24.544973      729.34178     -72.327796      657.01399    
   4925000   303.70914      0.042618159    26.030064      753.51076     -78.362605      675.14815    
   4926000   289.5571       0.042618159    19.447294      718.39916     -75.736515      642.66264    
   4927000   299.37114      0.042618159    18.455797      742.74805     -81.737467      661.01058    
   4928000   309.2414       0.042618159    21.287935      767.23645     -74.195987      693.04046    
   4929000   303.10704      0.042618159    23.248653      752.01693     -67.38938       684.62755    
   4930000   288.19397      0.042618159    23.066662      715.01718     -72.122498      642.89468    
   4931000   290.38525      0.042618159    19.698321      720.45382     -76.04619       644.40763    
   4932000   302.75142      0.042618159    21.026336      751.13462     -77.065166      674.06945    
   4933000   306.81805      0.042618159    18.483563      761.22403     -72.67945       688.54458    
   4934000   295.51653      0.042618159    22.39672       733.18465     -69.113429      664.07122    
   4935000   305.42343      0.042618159    19.912706      757.76394     -77.550173      680.21377    
   4936000   314.99884      0.042618159    23.371021      781.52081     -76.479537      705.04127    
   4937000   297.01709      0.042618159    23.247044      736.90759     -69.028961      667.87863    
   4938000   300.00805      0.042618159    23.669316      744.32824     -64.519708      679.80853    
   4939000   289.27787      0.042618159    15.552164      717.70637     -65.90175       651.80462    
   4940000   295.13502      0.042618159    18.337653      732.23812     -64.070035      668.16808    
   4941000   288.77056      0.042618159    16.156194      716.44773     -64.015057      652.43267    
   4942000   309.50476      0.042618159    21.342478      767.88983     -69.601886      698.28794    
   4943000   316.15532      0.042618159    26.21796       784.39006     -73.098622      711.29144    
   4944000   293.8003       0.042618159    22.588716      728.92664     -67.888824      661.03781    
   4945000   304.45923      0.042618159    20.153331      755.37173     -60.102295      695.26944    
   4946000   305.09785      0.042618159    23.153946      756.95618     -64.490394      692.46578    
   4947000   298.659        0.042618159    18.14775       740.98122     -69.132946      671.84827    
   4948000   289.02419      0.042618159    16.39939       717.07699     -65.44844       651.62855    
   4949000   308.0668       0.042618159    18.714413      764.32223     -73.794603      690.52763    
   4950000   308.49517      0.042618159    19.91617       765.38502     -65.866994      699.51803    
   4951000   291.88476      0.042618159    24.999498      724.17412     -67.203445      656.97068    
   4952000   298.24045      0.042618159    20.000865      739.94278     -72.188153      667.75463    
   4953000   297.17611      0.042618159    18.944535      737.30211     -66.173267      671.12885    
   4954000   312.73071      0.042618159    15.032248      775.89352     -69.750408      706.14311    
   4955000   304.84588      0.042618159    23.810545      756.33103     -73.668016      682.66301    
   4956000   319.35334      0.042618159    41.144675      792.32444     -68.986376      723.33806    
   4957000   296.20175      0.042618159    24.541508      734.8847      -66.920017      667.96468    
   4958000   299.04161      0.042618159    8.831326       741.93049     -58.302162      683.62832    
   4959000   297.00246      0.042618159    31.860447      736.87128     -63.498797      673.37248    
   4960000   301.54015      0.042618159    20.065492      748.12944     -60.510422      687.61901    
   4961000   309.052        0.042618159    18.957656      766.76654     -72.287378      694.47916    
   4962000   314.14886      0.042618159    22.936454      779.41199     -63.00709       716.4049     
   4963000   298.55957      0.042618159    21.539841      740.73452     -73.878323      666.8562     
   4964000   284.32158      0.042618159    20.063109      705.40967     -73.12411       632.28556    
   4965000   297.18131      0.042618159    20.907581      737.31502     -77.007286      660.30773    
   4966000   317.96767      0.042618159    25.108004      788.88655     -67.880134      721.00642    
   4967000   308.70842      0.042618159    21.036526      765.9141      -67.632416      698.28168    
   4968000   282.51983      0.042618159    18.131555      700.9395      -68.823956      632.11554    
   4969000   292.88609      0.042618159    24.090484      726.65847     -62.240235      664.41823    
   4970000   312.91394      0.042618159    29.125383      776.34811     -60.828766      715.51935    
   4971000   306.61105      0.042618159    18.252899      760.71047     -68.278024      692.43245    
   4972000   289.43207      0.042618159    22.997197      718.08895     -71.061823      647.02713    
   4973000   308.13093      0.042618159    29.222292      764.48132     -76.660195      687.82113    
   4974000   310.80198      0.042618159    16.526806      771.10827     -71.343263      699.76501    
   4975000   291.3996       0.042618159    10.630571      722.97044     -70.302609      652.66783    
   4976000   286.87857      0.042618159    26.405257      711.75363     -71.319504      640.43412    
   4977000   314.7432       0.042618159    24.730327      780.88657     -71.729701      709.15687    
   4978000   310.2722       0.042618159    16.776612      769.79389     -64.414778      705.37911    
   4979000   295.90448      0.042618159    6.5795274      734.14716     -67.812034      666.33513    
   4980000   297.95584      0.042618159    36.727149      739.23665     -71.936682      667.29997    
   4981000   305.59834      0.042618159    26.052059      758.19791     -66.752988      691.44492    
   4982000   291.59149      0.042618159    1.9151673      723.44652     -70.947648      652.49887    
   4983000   299.13508      0.042618159    23.122315      742.16239     -71.861199      670.30119    
   4984000   303.85721      0.042618159    25.567261      753.87812     -74.411578      679.46654    
   4985000   299.48952      0.042618159    21.337272      743.04176     -61.111754      681.93       
   4986000   296.26986      0.042618159    17.90705       735.05369     -69.177016      665.87667    
   4987000   289.52209      0.042618159    23.579676      718.3123      -61.22784       657.08446    
   4988000   310.60891      0.042618159    25.873801      770.62927     -62.90372       707.72555    
   4989000   307.35542      0.042618159    16.628368      762.55727     -66.304925      696.25235    
   4990000   304.40041      0.042618159    18.752222      755.22581     -65.701824      689.52399    
   4991000   297.30738      0.042618159    30.104554      737.62779     -74.451786      663.17601    
   4992000   301.30895      0.042618159    28.958656      747.55581     -67.974509      679.5813     
   4993000   309.59742      0.042618159    21.414035      768.11972     -67.179786      700.93994    
   4994000   277.88438      0.042618159    17.812212      689.4388      -72.488884      616.94991    
   4995000   291.11992      0.042618159    25.048         722.27655     -71.376338      650.90021    
   4996000   318.40297      0.042618159    33.08786       789.96654     -68.707895      721.25864    
   4997000   305.65816      0.042618159    27.691609      758.34632     -70.739402      687.60692    
   4998000   296.17174      0.042618159    2.0647106      734.81024     -72.180735      662.62951    
   4999000   294.36386      0.042618159    23.482209      730.32484     -75.817537      654.5073     
   5000000   310.83032      0.042618159    22.821582      771.17859     -76.040345      695.13825    
   5001000   292.45438      0.042618159   -9.6198222      725.58737     -80.136422      645.45095    
   5002000   292.70192      0.042618159    20.646982      726.20153     -79.827599      646.37393    
   5003000   304.09988      0.042618159    23.376415      754.48017     -74.931361      679.54881    
   5004000   307.92624      0.042618159    26.70411       763.97349     -70.343034      693.63046    
   5005000   309.16749      0.042618159   -6.1421731      767.05307     -69.131436      697.92163    
   5006000   294.58934      0.042618159    14.730553      730.88427     -67.254751      663.62952    
   5007000   291.26864      0.042618159    22.55877       722.64554     -69.187207      653.45833    
   5008000   306.73902      0.042618159    19.121816      761.02796     -63.869185      697.15878    
   5009000   304.00057      0.042618159    2.3596286      754.23378     -68.946184      685.2876     
   5010000   294.1766       0.042618159    28.272086      729.86026     -61.107184      668.75308    
   5011000   294.14777      0.042618159    43.983161      729.78874     -71.117049      658.67169    
   5012000   302.45583      0.042618159    22.398937      750.40125     -67.453542      682.94771    
   5013000   306.02864      0.042618159    21.609594      759.26548     -70.115813      689.14967    
   5014000   296.8775       0.042618159    19.750657      736.56125     -58.850379      677.71087    
   5015000   289.22285      0.042618159    23.293162      717.56986     -64.266569      653.30329    
   5016000   299.32746      0.042618159    18.886955      742.63968     -66.090108      676.54957    
   5017000   305.44112      0.042618159    25.745153      757.80783     -57.43313       700.3747     
   5018000   302.28647      0.042618159    21.024754      749.98106     -64.724753      685.25631    
   5019000   295.46776      0.042618159    25.307817      733.06366     -59.240694      673.82297    
   5020000   284.14604      0.042618159    19.827048      704.97415     -62.766233      642.20792    
   5021000   313.73241      0.042618159    21.381717      778.37877     -68.831034      709.54773    
   5022000   296.8999       0.042618159    12.323899      736.61684     -65.745818      670.87102    
   5023000   296.51833      0.042618159    27.25184       735.67016     -63.630093      672.04006    
   5024000   306.07186      0.042618159    17.200608      759.37272     -62.950362      696.42236    
   5025000   287.0179       0.042618159    20.490497      712.09931     -57.664453      654.43486    
   5026000   301.19423      0.042618159    22.509076      747.27118     -62.256697      685.01449    
   5027000   305.7697       0.042618159    22.600998      758.62307     -66.539381      692.08368    
   5028000   301.61219      0.042618159    24.754754      748.30816     -60.630506      687.67766    
   5029000   292.83418      0.042618159    26.126088      726.52967     -72.832306      653.69737    
   5030000   293.09136      0.042618159    19.685994      727.16774     -71.342276      655.82546    
   5031000   290.1902       0.042618159    25.332392      719.96988     -72.114712      647.85517    
   5032000   301.52649      0.042618159    15.852859      748.09554     -78.085984      670.00955    
   5033000   308.9014       0.042618159    29.310283      766.39289     -73.602448      692.79045    
   5034000   305.25388      0.042618159    27.871453      757.34328     -73.019293      684.32399    
   5035000   303.94995      0.042618159    24.972721      754.1082      -71.463073      682.64513    
   5036000   302.92879      0.042618159    21.769709      751.57469     -75.731414      675.84327    
   5037000   305.32686      0.042618159    11.815938      757.52436     -68.092364      689.432      
   5038000   306.80442      0.042618159    28.17348       761.19023     -63.956277      697.23395    
   5039000   294.71902      0.042618159    19.81683       731.20601     -57.828975      673.37704    
   5040000   298.03428      0.042618159    21.30452       739.43127     -55.480938      683.95033    
   5041000   314.83349      0.042618159    22.204134      781.11057     -58.202669      722.9079     
   5042000   305.59194      0.042618159    23.332426      758.18202     -59.97575       698.20627    
   5043000   290.10443      0.042618159    20.669436      719.75708     -63.388056      656.36902    
   5044000   313.63436      0.042618159    23.070313      778.1355      -64.163772      713.97173    
   5045000   308.23382      0.042618159    23.211149      764.7366      -68.096554      696.64005    
   5046000   304.17898      0.042618159    24.944051      754.67643     -73.275918      681.40051    
   5047000   283.81391      0.042618159    22.675904      704.15013     -67.013571      637.13656    
   5048000   293.89863      0.042618159    16.74794       729.1706      -69.75602       659.41458    
   5049000   300.04411      0.042618159    28.340212      744.41771     -63.770122      680.64759    
   5050000   304.5049       0.042618159    13.27994       755.48504     -68.674465      686.81058    
   5051000   301.3063       0.042618159    15.328967      747.54922     -70.926856      676.62237    
   5052000   296.46102      0.042618159    24.044794      735.52796     -70.370328      665.15764    
   5053000   307.01117      0.042618159    19.65605       761.70316     -68.586848      693.11632    
   5054000   302.81946      0.042618159    21.96323       751.30342     -67.17011       684.13331    
   5055000   292.74755      0.042618159    19.497408      726.31474     -65.437392      660.87735    
   5056000   300.07718      0.042618159    31.962462      744.49976     -69.496232      675.00353    
   5057000   306.96227      0.042618159    22.609593      761.58186     -72.240971      689.34089    
   5058000   300.52822      0.042618159    20.118689      745.61881     -72.674603      672.9442     
   5059000   286.55623      0.042618159    19.825562      710.95391     -71.945539      639.00837    
   5060000   296.8141       0.042618159    22.105371      736.40397     -70.386601      666.01737    
   5061000   305.24508      0.042618159    19.439346      757.32145     -74.076074      683.24538    
   5062000   305.19875      0.042618159    22.442538      757.20652     -78.793013      678.41351    
   5063000   295.31787      0.042618159    22.58923       732.69177     -76.510861      656.18091    
   5064000   292.91137      0.042618159    20.814157      726.72119     -76.643864      650.07732    
   5065000   297.62853      0.042618159    19.815557      738.42459     -76.354143      662.07045    
   5066000   303.21799      0.042618159    21.276103      752.2922      -67.982491      684.3097     
   5067000   309.62324      0.042618159    20.301628      768.18379     -70.706628      697.47716    
   5068000   295.4334       0.042618159    18.495602      732.97841     -76.783308      656.1951     
   5069000   285.83948      0.042618159    25.409302      709.17562     -78.004571      631.17105    
   5070000   305.78024      0.042618159    20.445947      758.64919     -83.778713      674.87048    
   5071000   298.4439       0.042618159    19.408226      740.44753     -83.169587      657.27795    
   5072000   296.47622      0.042618159    20.554878      735.56567     -81.21767       654.348      
   5073000   304.18588      0.042618159    26.703421      754.69354     -64.612646      690.0809     
   5074000   300.39         0.042618159    25.295516      745.27588     -73.798791      671.47709    
   5075000   294.36824      0.042618159    10.767138      730.33571     -72.677722      657.65799    
   5076000   302.09783      0.042618159    29.007392      749.51304     -67.104622      682.40842    
   5077000   309.88358      0.042618159    31.686038      768.8297      -64.411654      704.41805    
   5078000   293.71015      0.042618159    22.687248      728.70298     -62.684255      666.01873    
   5079000   297.1311       0.042618159    16.351388      737.19044     -66.093375      671.09707    
   5080000   302.11544      0.042618159    29.726977      749.55674     -71.844739      677.712      
   5081000   295.13342      0.042618159    21.42512       732.23414     -62.214515      670.01963    
   5082000   300.68812      0.042618159    21.283754      746.0155      -65.03405       680.98145    
   5083000   306.21953      0.042618159    12.38822       759.7391      -69.778083      689.96102    
   5084000   301.09634      0.042618159    21.904955      747.02831     -67.729019      679.29929    
   5085000   298.17854      0.042618159    21.638737      739.78918     -71.66665       668.12253    
   5086000   296.31225      0.042618159    28.712452      735.15887     -67.861301      667.29757    
   5087000   314.1377       0.042618159    22.672688      779.38428     -70.902684      708.4816     
   5088000   291.41041      0.042618159    22.657151      722.99725     -76.621158      646.3761     
   5089000   296.1151       0.042618159    22.883484      734.66971     -64.095649      670.57406    
   5090000   304.64497      0.042618159    17.824541      755.83258     -62.586764      693.24581    
   5091000   308.67274      0.042618159    30.034513      765.82558     -58.983077      706.8425     
   5092000   297.69697      0.042618159    12.071078      738.59438     -56.980737      681.61365    
   5093000   301.56151      0.042618159   -6.8890941      748.18242     -59.923832      688.25858    
   5094000   305.00269      0.042618159    17.629093      756.72008     -64.15051       692.56957    
   5095000   297.79593      0.042618159    48.027641      738.83991     -70.989946      667.84997    
   5096000   301.83753      0.042618159    19.322547      748.86722     -66.045605      682.82162    
   5097000   288.60851      0.042618159    16.309028      716.04568     -76.782308      639.26337    
   5098000   307.66573      0.042618159    34.247588      763.32717     -70.64065       692.68652    
   5099000   302.60914      0.042618159    24.590639      750.78163     -69.651715      681.12991    
   5100000   300.28055      0.042618159    15.738544      745.00432     -77.778967      667.22535    
   5101000   311.20443      0.042618159    20.994642      772.10677     -75.074132      697.03263    
   5102000   292.63932      0.042618159    20.135069      726.04623     -73.50622       652.54001    
   5103000   307.39941      0.042618159    16.736979      762.66641     -66.899537      695.76687    
   5104000   310.86274      0.042618159    21.806327      771.25904     -68.443695      702.81534    
   5105000   293.89663      0.042618159    32.557007      729.16564     -65.436701      663.72894    
   5106000   295.4679       0.042618159    36.924823      733.064       -60.706021      672.35798    
   5107000   300.70337      0.042618159    6.6300602      746.05335     -65.542187      680.51116    
   5108000   309.02177      0.042618159    35.101838      766.69152     -60.586172      706.10535    
   5109000   285.16732      0.042618159    35.297331      707.50798     -64.671426      642.83655    
   5110000   289.54255      0.042618159    29.804763      718.36304     -61.046243      657.3168     
   5111000   302.27944      0.042618159    16.85452       749.96362     -70.05923       679.90439    
   5112000   325.20167      0.042618159    26.88714       806.83431     -67.250544      739.58377    
   5113000   293.70216      0.042618159    35.814058      728.68315     -61.361931      667.32122    
   5114000   294.29         0.042618159    52.62708       730.1416      -66.394646      663.74695    
   5115000   294.02936      0.042618159    11.750719      729.49494     -61.925416      667.56952    
   5116000   314.52107      0.042618159    3.1008302      780.33545     -62.096642      718.23881    
   5117000   310.13812      0.042618159    39.272487      769.46122     -63.357237      706.10398    
   5118000   294.42629      0.042618159    43.277693      730.47974     -66.180233      664.29951    
   5119000   287.53879      0.042618159    18.287985      713.39166     -56.123703      657.26796    
   5120000   309.46754      0.042618159   -33.576217      767.7975      -63.197939      704.59956    
   5121000   312.11315      0.042618159    3.9152793      774.36133     -63.146381      711.21495    
   5122000   302.0571       0.042618159    23.194466      749.412       -66.403593      683.0084     
   5123000   303.2705       0.042618159    47.228644      752.42246     -66.425871      685.99659    
   5124000   298.66999      0.042618159    44.045881      741.00847     -61.453044      679.55543    
   5125000   303.69999      0.042618159    7.3720631      753.48806     -62.505046      690.98301    
   5126000   311.20077      0.042618159    18.972598      772.09769     -61.019531      711.07816    
   5127000   304.89256      0.042618159    25.29455       756.44685     -61.404489      695.04236    
   5128000   297.41114      0.042618159    12.909817      737.88524     -57.813798      680.07144    
   5129000   308.75047      0.042618159    11.215897      766.01842     -64.223788      701.79463    
   5130000   293.01895      0.042618159    24.50405       726.98808     -64.007888      662.98019    
   5131000   288.97513      0.042618159    28.256961      716.95527     -60.766168      656.1891     
   5132000   303.14915      0.042618159    18.629617      752.12139     -60.266828      691.85457    
   5133000   301.45481      0.042618159    20.639774      747.9177      -57.789494      690.1282     
   5134000   304.98234      0.042618159    22.981218      756.6696      -56.297635      700.37196    
   5135000   298.44201      0.042618159    21.005686      740.44286     -61.747211      678.69565    
   5136000   299.40159      0.042618159    21.497265      742.82359     -62.251244      680.57235    
   5137000   300.65249      0.042618159    21.147013      745.92711     -65.90488       680.02222    
   5138000   290.4176       0.042618159    20.941668      720.53406     -63.162611      657.37145    
   5139000   296.60943      0.042618159    21.650303      735.89617     -62.967538      672.92863    
   5140000   312.04334      0.042618159    25.240121      774.18814     -60.181311      714.00683    
   5141000   309.30477      0.042618159    22.079479      767.39367     -63.57055       703.82312    
   5142000   305.78771      0.042618159    13.145427      758.66775     -64.563745      694.104      
   5143000   294.00487      0.042618159    22.047582      729.4342      -61.17753       668.25667    
   5144000   307.28179      0.042618159    26.331209      762.3746      -62.391924      699.98267    
   5145000   309.17632      0.042618159    13.756885      767.07497     -66.836161      700.2388     
   5146000   299.52109      0.042618159    6.1423516      743.12008     -67.685051      675.43503    
   5147000   293.59536      0.042618159    24.090626      728.41818     -75.901002      652.51718    
   5148000   294.30504      0.042618159    25.122379      730.17892     -74.312042      655.86688    
   5149000   305.18691      0.042618159    20.796025      757.17713     -74.278843      682.89829    
   5150000   297.75904      0.042618159    1.8779158      738.74839     -76.463762      662.28463    
   5151000   291.37578      0.042618159    36.300065      722.91134     -70.842761      652.06858    
   5152000   306.4079       0.042618159    21.018636      760.20644     -74.289105      685.91734    
   5153000   296.67068      0.042618159   -3.9211772      736.04812     -70.287805      665.76032    
   5154000   300.37037      0.042618159    30.927065      745.22717     -69.051411      676.17576    
   5155000   306.74454      0.042618159    32.468353      761.04167     -67.002172      694.0395     
   5156000   297.21521      0.042618159    12.418075      737.39913     -69.500025      667.8991     
   5157000   298.56945      0.042618159    31.653714      740.75904     -61.872634      678.8864     
   5158000   306.41996      0.042618159    24.152197      760.23638     -71.252051      688.98433    
   5159000   302.57342      0.042618159    8.2903602      750.693       -78.700386      671.99261    
   5160000   296.69362      0.042618159    17.046103      736.10505     -66.622629      669.48242    
   5161000   301.4692       0.042618159    21.498306      747.9534      -67.015637      680.93777    
   5162000   302.21738      0.042618159    26.644128      749.80966     -70.583285      679.22637    
   5163000   303.0075       0.042618159    20.8063        751.76997     -68.432926      683.33704    
   5164000   305.26069      0.042618159    21.76868       757.36019     -67.85605       689.50414    
   5165000   301.80203      0.042618159    27.233593      748.77915     -66.547946      682.2312     
   5166000   317.64707      0.042618159    26.308573      788.09113     -67.690539      720.40059    
   5167000   291.10397      0.042618159    14.648612      722.23698     -60.940616      661.29636    
   5168000   305.9383       0.042618159    31.506665      759.04135     -65.560671      693.48068    
   5169000   312.38658      0.042618159    27.354643      775.03973     -64.50498       710.53475    
   5170000   306.48761      0.042618159    23.506969      760.40422     -62.957976      697.44624    
   5171000   302.34354      0.042618159    16.585467      750.12266     -63.202089      686.92057    
   5172000   309.07651      0.042618159    53.372409      766.82735     -68.802195      698.02515    
   5173000   295.93347      0.042618159    16.786805      734.2191      -70.406308      663.8128     
   5174000   302.14769      0.042618159    11.399134      749.63676     -76.963857      672.6729     
   5175000   293.43747      0.042618159    9.3573236      728.02645     -69.102572      658.92388    
   5176000   302.1899       0.042618159    51.837509      749.74146     -71.674838      678.06662    
   5177000   305.31085      0.042618159    22.361233      757.48464     -73.01155       684.47309    
   5178000   291.75649      0.042618159    21.864251      723.85589     -71.660798      652.19509    
   5179000   285.84247      0.042618159    15.941629      709.18305     -73.447671      635.73538    
   5180000   292.27356      0.042618159    33.56185       725.13877     -73.009328      652.12944    
   5181000   309.43046      0.042618159    36.518235      767.70549     -75.430094      692.2754     
   5182000   293.43344      0.042618159   -21.883472      728.01646     -73.06638       654.95008    
   5183000   286.44829      0.042618159    6.3982252      710.6861      -70.990835      639.69526    
   5184000   295.43805      0.042618159    39.366204      732.98994     -68.739774      664.25017    
   5185000   314.90807      0.042618159    15.518613      781.29561     -68.826258      712.46935    
   5186000   303.73789      0.042618159    7.8546412      753.58209     -71.551356      682.03073    
   5187000   297.2928       0.042618159    26.208366      737.59164     -68.479158      669.11248    
   5188000   290.92378      0.042618159    22.466128      721.78993     -70.654312      651.13562    
   5189000   308.31075      0.042618159    32.280754      764.92748     -73.688282      691.23919    
   5190000   302.91585      0.042618159    17.085623      751.54256     -70.918097      680.62447    
   5191000   295.37937      0.042618159    14.673242      732.84437     -77.641801      655.20257    
   5192000   288.39135      0.042618159    17.235296      715.50689     -74.447347      641.05954    
   5193000   310.24168      0.042618159    30.064576      769.71815     -74.693166      695.02499    
   5194000   306.9708       0.042618159    19.96112       761.60301     -76.720069      684.88294    
   5195000   279.4939       0.042618159    21.882714      693.43206     -70.204929      623.22713    
   5196000   293.39972      0.042618159    22.234391      727.93278     -75.551294      652.38149    
   5197000   306.3552       0.042618159    22.643024      760.07569     -76.378561      683.69712    
   5198000   295.77752      0.042618159    22.196784      733.83219     -76.834247      656.99794    
   5199000   292.59845      0.042618159    21.526804      725.94482     -82.883967      643.06086    
   5200000   291.99505      0.042618159    20.604905      724.44776     -75.983412      648.46435    
   5201000   313.22089      0.042618159    17.250988      777.10966     -82.832278      694.27738    
   5202000   299.45584      0.042618159    26.882812      742.95818     -78.624823      664.33336    
   5203000   292.02898      0.042618159    20.695116      724.53194     -75.446778      649.08516    
   5204000   302.54339      0.042618159    17.979824      750.61848     -76.483858      674.13462    
   5205000   301.2142       0.042618159    28.884242      747.32073     -68.949999      678.37073    
   5206000   303.59033      0.042618159    20.231034      753.21597     -69.879949      683.33602    
   5207000   310.29637      0.042618159    22.186758      769.85385     -72.12565       697.7282     
   5208000   301.71585      0.042618159    23.679967      748.56534     -66.628478      681.93686    
   5209000   291.06786      0.042618159    21.871965      722.14738     -77.549189      644.59819    
   5210000   301.72707      0.042618159    16.653601      748.59318     -68.487044      680.10613    
   5211000   310.59367      0.042618159    19.309281      770.59145     -66.180515      704.41094    
   5212000   295.83572      0.042618159    21.007211      733.97658     -62.143895      671.83268    
   5213000   297.67054      0.042618159    23.624376      738.52882     -76.099233      662.42958    
   5214000   315.15286      0.042618159    20.459463      781.90293     -69.868226      712.0347     
   5215000   304.74005      0.042618159    20.002276      756.06846     -73.623967      682.44449    
   5216000   286.03509      0.042618159    17.320681      709.66095     -78.820322      630.84062    
   5217000   300.92917      0.042618159    21.791366      746.61358     -71.344132      675.26944    
   5218000   308.6236       0.042618159    26.112093      765.70365     -64.769445      700.93421    
   5219000   291.98529      0.042618159    25.043431      724.42355     -71.198305      653.22524    
   5220000   299.80905      0.042618159    15.715706      743.83453     -70.147075      673.68745    
   5221000   319.17776      0.042618159    23.566508      791.88883     -78.75527       713.13356    
   5222000   290.38812      0.042618159    20.455253      720.46092     -81.415345      639.04557    
   5223000   300.44169      0.042618159    21.981772      745.40412     -82.306344      663.09778    
   5224000   304.51174      0.042618159    20.348133      755.50201     -76.789817      678.71219    
   5225000   296.67318      0.042618159    23.352326      736.05435     -74.533408      661.52094    
   5226000   314.93351      0.042618159    24.077386      781.35871     -74.429636      706.92907    
   5227000   300.90107      0.042618159    16.092776      746.54386     -80.954044      665.58982    
   5228000   295.32667      0.042618159    21.099569      732.71362     -76.134101      656.57952    
   5229000   290.05211      0.042618159    16.887902      719.62728     -80.190956      639.43633    
   5230000   294.85481      0.042618159    21.230103      731.54291     -87.919938      643.62298    
   5231000   306.66879      0.042618159    23.199818      760.85371     -91.253623      669.60009    
   5232000   294.76434      0.042618159    21.320544      731.31845     -87.926986      643.39147    
   5233000   302.9066       0.042618159    18.924888      751.51963     -95.062074      656.45756    
   5234000   304.56888      0.042618159    20.841349      755.64379     -85.889177      669.75461    
   5235000   293.81177      0.042618159    22.51233       728.95509     -73.267944      655.68715    
   5236000   301.45471      0.042618159    20.638692      747.91745     -75.989035      671.92841    
   5237000   299.01459      0.042618159    19.372333      741.86344     -77.234251      664.62919    
   5238000   299.10325      0.042618159    20.811067      742.08341     -77.489851      664.59355    
   5239000   293.74157      0.042618159    20.741375      728.78092     -71.706264      657.07466    
   5240000   304.59093      0.042618159    23.314499      755.69849     -75.028571      680.66992    
   5241000   314.97479      0.042618159    12.97739       781.46113     -75.89519       705.56594    
   5242000   296.68571      0.042618159    21.910282      736.08543     -74.890309      661.19512    
   5243000   290.58483      0.042618159    23.870075      720.94897     -74.382892      646.56608    
   5244000   307.85999      0.042618159    22.23733       763.80911     -75.27719       688.53192    
   5245000   301.76465      0.042618159    22.544934      748.68642     -68.765076      679.92135    
   5246000   309.09909      0.042618159    31.202317      766.88337     -71.985018      694.89836    
   5247000   300.16595      0.042618159    22.94865       744.71999     -67.348853      677.37113    
   5248000   302.83656      0.042618159    23.52532       751.34585     -66.895323      684.45053    
   5249000   302.44196      0.042618159    23.233213      750.36684     -72.001556      678.36528    
   5250000   303.8344       0.042618159    20.52061       753.82151     -75.201111      678.6204     
   5251000   298.26355      0.042618159    20.869362      740.00008     -71.672137      668.32794    
   5252000   289.54841      0.042618159    22.008885      718.3776      -75.918576      642.45902    
   5253000   297.13983      0.042618159    19.83137       737.21212     -73.064501      664.14761    
   5254000   300.07814      0.042618159    21.650896      744.50213     -63.466602      681.03553    
   5255000   295.3134       0.042618159    19.491677      732.68068     -67.977591      664.70309    
   5256000   297.04435      0.042618159    25.753349      736.97521     -61.255206      675.72001    
   5257000   305.98321      0.042618159    18.409267      759.15279     -61.753608      697.39918    
   5258000   289.25063      0.042618159    20.506791      717.63878     -62.217843      655.42094    
   5259000   307.24714      0.042618159    21.566188      762.28862     -65.282709      697.00591    
   5260000   298.05216      0.042618159    22.98          739.47564     -62.59029       676.88535    
   5261000   308.85818      0.042618159    19.866074      766.28565     -65.900442      700.38521    
   5262000   308.20925      0.042618159    25.220926      764.67565     -58.867725      705.80793    
   5263000   300.5399       0.042618159    26.45128       745.64778     -58.389273      687.25851    
   5264000   299.70521      0.042618159    18.265781      743.5769      -54.449069      689.12783    
   5265000   281.7098       0.042618159    19.488571      698.92977     -62.782622      636.14715    
   5266000   314.35381      0.042618159    21.498581      779.92048     -64.430591      715.48988    
   5267000   306.68131      0.042618159    23.197489      760.88479     -62.05764       698.82715    
   5268000   284.43635      0.042618159    20.122663      705.69442     -59.716382      645.97803    
   5269000   306.88591      0.042618159    20.020236      761.39239     -59.211453      702.18094    
   5270000   299.90889      0.042618159    21.160093      744.08222     -61.66715       682.41507    
   5271000   293.44762      0.042618159    17.812258      728.05164     -63.720435      664.33121    
   5272000   293.10295      0.042618159    21.096697      727.19651     -61.050355      666.14615    
   5273000   302.68315      0.042618159    20.003867      750.96523     -59.096256      691.86898    
   5274000   299.58037      0.042618159    19.009296      743.26716     -68.226036      675.04112    
   5275000   295.75023      0.042618159    23.369169      733.76447     -67.850873      665.9136     
   5276000   311.38542      0.042618159    23.371421      772.55582     -65.740892      706.81493    
   5277000   297.18172      0.042618159    21.660184      737.31604     -71.096751      666.21929    
   5278000   292.02312      0.042618159    24.152828      724.51742     -64.716404      659.80101    
   5279000   302.83253      0.042618159    20.883327      751.33585     -68.713299      682.62255    
   5280000   314.72192      0.042618159    23.965407      780.83376     -63.853101      716.98066    
   5281000   293.23596      0.042618159    21.408083      727.5265      -55.910332      671.61616    
   5282000   295.73209      0.042618159    8.3418699      733.71947     -57.575887      676.14358    
   5283000   308.67404      0.042618159    20.261677      765.82879     -56.978163      708.85063    
   5284000   312.00804      0.042618159    25.31894       774.10055     -61.474204      712.62634    
   5285000   311.89744      0.042618159    25.824325      773.82615     -64.542282      709.28387    
   5286000   289.38718      0.042618159    19.644644      717.97756     -63.490272      654.48729    
   5287000   302.70535      0.042618159    19.980815      751.02032     -65.881288      685.13903    
   5288000   310.71321      0.042618159    18.789145      770.88804     -68.129957      702.75808    
   5289000   294.51144      0.042618159    21.856995      730.691       -60.284766      670.40624    
   5290000   299.64868      0.042618159    26.242625      743.43664     -62.540996      680.89565    
   5291000   301.41664      0.042618159    13.173317      747.823       -77.348592      670.47441    
   5292000   304.47737      0.042618159    21.659568      755.41675     -67.285849      688.1309     
   5293000   281.44307      0.042618159    30.752931      698.26802     -63.191026      635.07699    
   5294000   306.77904      0.042618159    13.861358      761.12725     -74.480796      686.64645    
   5295000   310.97912      0.042618159    27.034858      771.54778     -68.195456      703.35232    
   5296000   292.6709       0.042618159    21.753301      726.12457     -64.342729      661.78184    
   5297000   294.70286      0.042618159    17.221578      731.16591     -65.110588      666.05532    
   5298000   302.54532      0.042618159    22.930821      750.62327     -60.231046      690.39223    
   5299000   304.31062      0.042618159    23.229861      755.00305     -60.77232       694.23073    
   5300000   295.04094      0.042618159    22.601093      732.00469     -61.997424      670.00727    
   5301000   285.20442      0.042618159    18.6198        707.60004     -68.685762      638.91427    
   5302000   291.17629      0.042618159    17.646981      722.41641     -70.373136      652.04328    
   5303000   306.99444      0.042618159    26.983937      761.66167     -71.187566      690.4741     
   5304000   296.12704      0.042618159    28.190458      734.69934     -76.956558      657.74279    
   5305000   295.11764      0.042618159    14.696931      732.195       -72.985537      659.20946    
   5306000   303.36625      0.042618159    18.676595      752.66002     -68.79258       683.86744    
   5307000   311.17801      0.042618159    24.898764      772.04123     -69.170658      702.87057    
   5308000   291.87349      0.042618159    20.038771      724.14616     -65.9488        658.19736    
   5309000   300.47063      0.042618159    24.737933      745.47591     -65.154476      680.32144    
   5310000   307.23167      0.042618159    21.819236      762.25023     -62.355109      699.89513    
   5311000   316.07455      0.042618159    18.32947       784.18966     -60.398031      723.79163    
   5312000   292.86583      0.042618159    19.364056      726.6082      -66.235141      660.37306    
   5313000   296.98396      0.042618159    21.055018      736.8254      -64.29135       672.53405    
   5314000   310.08191      0.042618159    32.068441      769.32177     -61.67542       707.64635    
   5315000   316.19288      0.042618159    41.140399      784.48325     -61.77877       722.70448    
   5316000   297.82013      0.042618159    28.869781      738.89995     -58.175745      680.72421    
   5317000   297.58276      0.042618159    19.376792      738.31103     -62.710556      675.60047    
   5318000   307.53603      0.042618159    19.659302      763.00537     -62.84435       700.16102    
   5319000   317.24713      0.042618159    35.973299      787.09886     -64.347522      722.75134    
   5320000   294.23943      0.042618159    25.884218      730.01614     -67.010139      663.006      
   5321000   290.46387      0.042618159    8.7993411      720.64887     -68.137216      652.51166    
   5322000   312.13555      0.042618159    6.9053997      774.41691     -65.160059      709.25685    
   5323000   309.23578      0.042618159    29.326028      767.22249     -67.744769      699.47772    
   5324000   286.04548      0.042618159    10.390814      709.68672     -66.51464       643.17208    
   5325000   293.68801      0.042618159    17.531786      728.64804     -68.583844      660.0642     
   5326000   306.62846      0.042618159    33.541737      760.75365     -76.226155      684.5275     
   5327000   298.60744      0.042618159    21.293566      740.85329     -76.430224      664.42307    
   5328000   290.32522      0.042618159    20.64263       720.30486     -76.649842      643.65502    
   5329000   303.80409      0.042618159    19.606739      753.74631     -76.876018      676.87029    
   5330000   304.16039      0.042618159    24.100188      754.63031     -74.044653      680.58566    
   5331000   299.03844      0.042618159    21.155062      741.9226      -74.040609      667.88199    
   5332000   286.70526      0.042618159    21.369009      711.32366     -73.059442      638.26421    
   5333000   299.84965      0.042618159    20.628436      743.93526     -77.645582      666.28967    
   5334000   308.20002      0.042618159    26.928981      764.65275     -80.46396       684.18879    
   5335000   293.908        0.042618159    22.179673      729.19386     -88.823112      640.37075    
   5336000   291.4654       0.042618159    19.967363      723.13369     -80.654276      642.47941    
   5337000   308.52836      0.042618159    20.841694      765.46737     -78.301135      687.16624    
   5338000   325.9305       0.042618159    20.642221      808.64255     -83.832481      724.81007    
   5339000   294.46328      0.042618159    19.421916      730.57151     -79.513227      651.05828    
   5340000   295.86155      0.042618159    20.631012      734.04066     -75.207926      658.83274    
   5341000   305.16104      0.042618159    22.452876      757.11296     -72.289225      684.82373    
   5342000   309.08032      0.042618159    21.639932      766.83679     -67.20436       699.63243    
   5343000   295.48198      0.042618159    18.598377      733.09895     -71.419203      661.67974    
   5344000   304.25986      0.042618159    25.49854       754.8771      -75.409696      679.4674     
   5345000   295.08873      0.042618159    20.327648      732.12327     -74.576045      657.54723    
   5346000   278.82391      0.042618159    20.777381      691.76982     -78.109849      613.65997    
   5347000   308.64898      0.042618159    33.12215       765.76662     -80.059279      685.70734    
   5348000   304.65426      0.042618159    22.541789      755.85561     -85.794938      670.06067    
   5349000   289.82096      0.042618159    17.457206      719.0538      -78.88295       640.17085    
   5350000   310.77687      0.042618159    65.196885      771.04598     -83.668499      687.37748    
   5351000   302.89039      0.042618159    16.893232      751.47941     -76.074935      675.40448    
   5352000   294.14151      0.042618159    13.484381      729.77318     -69.504089      660.26909    
   5353000   290.53763      0.042618159    26.300302      720.83187     -83.196971      637.6349     
   5354000   315.8161       0.042618159    46.396864      783.54844     -73.828924      709.71951    
   5355000   303.05239      0.042618159    2.5937341      751.88132     -83.68886       668.19246    
   5356000   279.40106      0.042618159    19.969964      693.20172     -73.778713      619.42301    
   5357000   304.6917       0.042618159    22.062315      755.9485      -86.00508       669.94342    
   5358000   313.66662      0.042618159    11.186918      778.21554     -84.457789      693.75775    
   5359000   290.16128      0.042618159    10.274958      719.89814     -78.562984      641.33515    
   5360000   288.70925      0.042618159    37.307726      716.29561     -73.278189      643.01742    
   5361000   303.82369      0.042618159    18.860116      753.79494     -76.431078      677.36387    
   5362000   304.28165      0.042618159    24.422949      754.93116     -81.465532      673.46563    
   5363000   294.1334       0.042618159    13.890737      729.75307     -76.026106      653.72697    
   5364000   306.9435       0.042618159    24.908493      761.53528     -81.582775      679.9525     
   5365000   307.99887      0.042618159    34.32816       764.15368     -72.707495      691.44619    
   5366000   304.12255      0.042618159    22.053281      754.53644     -77.18975       677.34669    
   5367000   307.25627      0.042618159    15.51356       762.31127     -70.616173      691.6951     
   5368000   301.07185      0.042618159    22.583086      746.96757     -68.867317      678.10025    
   5369000   311.71369      0.042618159    23.37371       773.37026     -67.187787      706.18247    
   5370000   289.07606      0.042618159    16.826133      717.20566     -67.055083      650.15058    
   5371000   294.62899      0.042618159    21.423043      730.98264     -68.6651        662.31754    
   5372000   295.52116      0.042618159    20.172196      733.19615     -66.91368       666.28247    
   5373000   305.75028      0.042618159    21.03845       758.57486     -61.775996      696.79887    
   5374000   304.62071      0.042618159    21.42547       755.77237     -58.291401      697.48096    
   5375000   291.50415      0.042618159    20.237583      723.22982     -70.551905      652.67792    
   5376000   298.20464      0.042618159    22.946984      739.85392     -69.334455      670.51947    
   5377000   292.09581      0.042618159    22.202005      724.69775     -72.89758       651.80017    
   5378000   288.63902      0.042618159    22.227076      716.12137     -68.891715      647.22966    
   5379000   320.2425       0.042618159    23.185726      794.53047     -70.452107      724.07836    
   5380000   294.05358      0.042618159    17.899322      729.55503     -71.345934      658.2091     
   5381000   293.30868      0.042618159    24.308091      727.70691     -69.938858      657.76805    
   5382000   305.59296      0.042618159    23.649696      758.18456     -69.998556      688.186      
   5383000   309.75838      0.042618159    21.117653      768.51907     -68.340468      700.1786     
   5384000   285.28218      0.042618159    24.23945       707.79294     -62.743129      645.04982    
   5385000   304.41701      0.042618159    24.690595      755.267       -70.556871      684.71013    
   5386000   304.13295      0.042618159    14.292897      754.56224     -80.58313       673.97911    
   5387000   292.79239      0.042618159    28.523377      726.42598     -74.860153      651.56583    
   5388000   310.32825      0.042618159    24.677423      769.93294     -70.090297      699.84264    
   5389000   312.24789      0.042618159    1.4743216      774.69561     -75.924579      698.77103    
   5390000   293.7706       0.042618159    10.386223      728.85295     -81.877431      646.97552    
   5391000   292.16105      0.042618159    29.412176      724.85962     -80.521247      644.33837    
   5392000   308.58293      0.042618159    21.448159      765.60274     -72.467337      693.13541    
   5393000   289.6133       0.042618159    14.849866      718.53859     -75.847562      642.69103    
   5394000   289.93997      0.042618159    24.430956      719.34905     -71.466249      647.8828     
   5395000   314.14055      0.042618159    31.228208      779.39136     -72.273941      707.11742    
   5396000   304.55449      0.042618159    14.244437      755.60808     -77.516319      678.09176    
   5397000   286.71726      0.042618159    28.510322      711.35343     -76.022531      635.3309     
   5398000   306.5066       0.042618159    22.867799      760.45133     -79.00437       681.44695    
   5399000   312.2741       0.042618159    17.525425      774.76064     -77.055472      697.70517    
   5400000   296.56445      0.042618159    19.706109      735.78456     -71.966056      663.81851    
   5401000   291.66437      0.042618159    18.348397      723.62734     -70.218545      653.40879    
   5402000   297.32492      0.042618159    18.596753      737.67133     -72.293123      665.37821    
   5403000   303.34474      0.042618159    27.810248      752.60667     -67.56646       685.04021    
   5404000   298.41935      0.042618159    17.927218      740.38664     -79.04804       661.3386     
   5405000   302.81128      0.042618159    17.389436      751.28314     -76.455745      674.8274     
   5406000   304.03892      0.042618159    26.662285      754.32894     -81.611377      672.71757    
   5407000   299.6577       0.042618159    22.123383      743.45902     -74.912028      668.54699    
   5408000   309.92522      0.042618159    20.734734      768.93301     -72.329993      696.60301    
   5409000   300.03188      0.042618159    7.1904179      744.38737     -76.693788      667.69358    
   5410000   299.56692      0.042618159    19.752128      743.2338      -75.592356      667.64144    
   5411000   318.06501      0.042618159    26.091244      789.12807     -76.796427      712.33164    
   5412000   292.10948      0.042618159    24.669403      724.73168     -75.464316      649.26737    
   5413000   305.71033      0.042618159   -10.550577      758.47576     -79.570876      678.90489    
   5414000   301.93147      0.042618159    23.756034      749.1003      -74.296825      674.80348    
   5415000   301.5057       0.042618159    33.558837      748.04395     -73.661393      674.38256    
   5416000   282.53045      0.042618159    23.482267      700.96583     -69.541575      631.42426    
   5417000   290.07764      0.042618159    1.4700269      719.69063     -76.688081      643.00255    
   5418000   319.0019       0.042618159    20.082597      791.45251     -77.040606      714.41191    
   5419000   304.77436      0.042618159    40.111094      756.15358     -78.068423      678.08516    
   5420000   292.95635      0.042618159    24.163239      726.83278     -68.742448      658.09033    
   5421000   311.27316      0.042618159    12.343135      772.27728     -76.848596      695.42868    
   5422000   294.69179      0.042618159    26.449184      731.13845     -80.741481      650.39697    
   5423000   288.46874      0.042618159    23.255201      715.6989      -73.624435      642.07447    
   5424000   309.97561      0.042618159    6.0268489      769.05803     -79.48773       689.5703     
   5425000   302.69155      0.042618159    28.696883      750.98608     -76.834575      674.15151    
   5426000   299.62755      0.042618159    30.889394      743.38421     -78.709461      664.67475    
   5427000   297.22056      0.042618159    2.333107       737.41239     -78.722949      658.68944    
   5428000   295.96986      0.042618159    17.86307       734.30938     -83.66455       650.64483    
   5429000   285.37648      0.042618159    30.132008      708.02691     -73.020364      635.00655    
   5430000   301.54744      0.042618159    20.664937      748.14751     -74.80147       673.34604    
   5431000   294.23876      0.042618159    17.108463      730.01447     -63.693762      666.32071    
   5432000   302.89998      0.042618159    17.47042       751.50319     -71.239041      680.26415    
   5433000   306.55632      0.042618159    27.678297      760.57467     -73.260626      687.31405    
   5434000   304.25753      0.042618159    22.542827      754.87131     -80.212702      674.65861    
   5435000   306.79279      0.042618159    15.573904      761.16138     -81.026884      680.1345     
   5436000   297.5944       0.042618159    21.311756      738.33992     -78.304148      660.03577    
   5437000   293.03199      0.042618159    18.722116      727.02046     -79.796305      647.22415    
   5438000   300.35728      0.042618159    19.291606      745.1947      -82.421852      662.77285    
   5439000   299.34773      0.042618159    23.499302      742.68996     -77.678807      665.01116    
   5440000   287.46259      0.042618159    20.649174      713.20262     -78.174067      635.02855    
   5441000   302.99998      0.042618159    20.934219      751.75131     -81.189363      670.56195    
   5442000   304.86692      0.042618159    21.946246      756.38322     -84.006691      672.37653    
   5443000   290.96653      0.042618159    18.068505      721.89599     -85.691394      636.20459    
   5444000   296.96598      0.042618159    23.638078      736.78077     -77.27819       659.50258    
   5445000   291.73052      0.042618159    35.128403      723.79145     -74.088768      649.70268    
   5446000   296.88606      0.042618159    28.170169      736.58251     -70.514764      666.06775    
   5447000   298.17349      0.042618159    6.4036428      739.77666     -64.980917      674.79574    
   5448000   299.65547      0.042618159    25.886868      743.45348     -63.752555      679.70093    
   5449000   290.9889       0.042618159    44.525861      721.95147     -64.787214      657.16426    
   5450000   310.97204      0.042618159    7.3275302      771.53021     -68.810387      702.71982    
   5451000   292.82157      0.042618159    14.040925      726.49839     -68.093877      658.40451    
   5452000   299.43114      0.042618159    17.824123      742.8969      -78.322406      664.5745     
   5453000   303.01386      0.042618159    28.401316      751.78574     -78.5811        673.20464    
   5454000   294.21246      0.042618159    29.555587      729.94921     -73.73821       656.211      
   5455000   302.42627      0.042618159    34.663176      750.32791     -83.144273      667.18363    
   5456000   307.43193      0.042618159    18.64932       762.7471      -80.66621       682.08089    
   5457000   298.57244      0.042618159    9.3346783      740.76645     -79.933333      660.83312    
   5458000   291.6576       0.042618159    19.479862      723.61055     -79.634501      643.97605    
   5459000   296.85145      0.042618159    23.230449      736.49664     -79.089519      657.40712    
   5460000   308.77449      0.042618159    19.531347      766.07802     -73.326672      692.75135    
   5461000   299.21762      0.042618159    18.165626      742.36716     -75.665377      666.70179    
   5462000   289.17009      0.042618159    21.989278      717.43898     -68.675717      648.76326    
   5463000   303.36762      0.042618159    23.15226       752.66343     -73.669852      678.99357    
   5464000   312.46909      0.042618159    18.95218       775.24442     -70.199803      705.04462    
   5465000   289.37656      0.042618159    8.8297604      717.95123     -71.188948      646.76228    
   5466000   295.84938      0.042618159    18.685958      734.01047     -72.828551      661.18192    
   5467000   292.04896      0.042618159    15.361276      724.58152     -77.271798      647.30972    
   5468000   296.09274      0.042618159    28.946453      734.61425     -74.322885      660.29137    
   5469000   303.39987      0.042618159    30.953234      752.74345     -63.946896      688.79655    
   5470000   300.48218      0.042618159    9.9650388      745.50458     -64.818337      680.68624    
   5471000   295.54694      0.042618159    30.892345      733.2601      -72.709783      660.55032    
   5472000   300.91716      0.042618159    28.27942       746.58377     -77.396085      669.18769    
   5473000   297.48423      0.042618159    18.111367      738.06657     -77.211571      660.855      
   5474000   300.01968      0.042618159    16.274397      744.3571      -74.810582      669.54652    
   5475000   302.61115      0.042618159    29.154381      750.7866      -73.121527      677.66508    
   5476000   304.92633      0.042618159    20.005406      756.53062     -78.561613      677.96901    
   5477000   307.72584      0.042618159    19.29746       763.47629     -70.986024      692.49027    
   5478000   295.7731       0.042618159    13.821892      733.82122     -75.023829      658.79739    
   5479000   290.9862       0.042618159    25.464126      721.94479     -71.827706      650.11709    
   5480000   300.68929      0.042618159    19.42346       746.01842     -67.063332      678.95508    
   5481000   306.8985       0.042618159    24.311922      761.42365     -69.71854       691.70511    
   5482000   293.4043       0.042618159    16.928583      727.94416     -64.731353      663.2128     
   5483000   299.91319      0.042618159    26.209539      744.0929      -79.889222      664.20368    
   5484000   294.83076      0.042618159    32.170236      731.48325     -79.8066        651.67665    
   5485000   303.43052      0.042618159    21.245109      752.8195      -79.951417      672.86808    
   5486000   296.33394      0.042618159    16.331996      735.21267     -79.914015      655.29866    
   5487000   300.66376      0.042618159    21.087223      745.95507     -73.573603      672.38147    
   5488000   301.53694      0.042618159    22.164563      748.12145     -77.054179      671.06727    
   5489000   303.43718      0.042618159    21.046994      752.83602     -78.157682      674.67833    
   5490000   297.33428      0.042618159    13.198991      737.69453     -81.991751      655.70278    
   5491000   289.91542      0.042618159    25.082683      719.28815     -75.743838      643.54432    
   5492000   293.37272      0.042618159    23.143111      727.86581     -76.920316      650.9455     
   5493000   283.43734      0.042618159    18.34881       703.21586     -81.539504      621.67635    
   5494000   318.111        0.042618159    19.358899      789.24217     -87.354724      701.88745    
   5495000   279.22601      0.042618159    16.065804      692.76742     -89.616422      603.151      
   5496000   305.51693      0.042618159    19.426925      757.99593     -84.212064      673.78387    
   5497000   319.54891      0.042618159    16.518208      792.80965     -82.628011      710.18164    
   5498000   299.45294      0.042618159    21.515565      742.951       -71.855416      671.09558    
   5499000   298.75172      0.042618159    26.557308      741.21126     -72.242518      668.96874    
   5500000   304.85383      0.042618159    17.055197      756.35075     -65.780668      690.57008    
   5501000   295.41105      0.042618159    18.715022      732.92295     -71.611252      661.3117     
   5502000   289.52992      0.042618159    24.047881      718.33171     -65.266629      653.06508    
   5503000   280.55514      0.042618159    19.305377      696.06504     -64.561298      631.50374    
   5504000   303.16952      0.042618159    17.237062      752.17194     -61.839655      690.33228    
   5505000   315.8579       0.042618159    28.791492      783.65216     -58.633221      725.01894    
   5506000   291.41552      0.042618159    24.463379      723.00993     -56.512845      666.49709    
   5507000   303.29363      0.042618159    20.771402      752.47986     -63.346899      689.13297    
   5508000   304.99512      0.042618159    22.141618      756.70129     -61.620159      695.08113    
   5509000   301.2786       0.042618159    29.149637      747.48052     -53.552893      693.92763    
   5510000   293.05714      0.042618159    24.292481      727.08285     -57.544871      669.53798    
   5511000   295.82265      0.042618159    17.182812      733.94414     -57.675732      676.26841    
   5512000   289.47778      0.042618159    16.537552      718.20235     -57.309164      660.89318    
   5513000   297.26189      0.042618159    19.088592      737.51493     -63.722819      673.79211    
   5514000   321.05801      0.042618159    32.113801      796.55378     -58.772392      737.78139    
   5515000   300.91704      0.042618159    23.443134      746.58347     -59.275488      687.30798    
   5516000   295.70585      0.042618159    21.320175      733.65437     -57.753804      675.90056    
   5517000   299.98611      0.042618159    18.431576      744.2738      -57.320904      686.9529     
   5518000   304.83886      0.042618159    24.056934      756.31361     -57.644707      698.6689     
   5519000   298.6805       0.042618159    24.744874      741.03456     -62.606955      678.42761    
   5520000   288.31911      0.042618159    23.19548       715.32766     -63.593749      651.73391    
   5521000   293.50594      0.042618159    22.796722      728.19633     -60.838812      667.35752    
   5522000   297.31138      0.042618159    22.769364      737.63774     -63.873449      673.76429    
   5523000   293.88825      0.042618159    23.207325      729.14484     -58.399807      670.74503    
   5524000   301.52057      0.042618159    22.376868      748.08084     -57.644285      690.43655    
   5525000   318.69305      0.042618159    24.090006      790.68625     -61.106407      729.57984    
   5526000   296.39579      0.042618159    31.112817      735.36613     -64.11721       671.24892    
   5527000   295.82988      0.042618159    23.242668      733.96209     -65.285219      668.67687    
   5528000   291.74233      0.042618159    19.7294        723.82077     -65.478944      658.34183    
   5529000   305.68664      0.042618159    20.929402      758.41698     -65.103917      693.31306    
   5530000   315.2029       0.042618159    21.465621      782.02709     -68.697625      713.32947    
   5531000   299.88283      0.042618159    21.292094      744.01758     -65.989866      678.02771    
   5532000   297.14035      0.042618159    21.333505      737.2134      -68.233997      668.9794     
   5533000   306.22576      0.042618159    19.726181      759.75455     -65.460981      694.29356    
   5534000   299.85828      0.042618159    23.806757      743.95666     -58.917475      685.03919    
   5535000   300.0971       0.042618159    19.405566      744.54918     -61.501921      683.04726    
   5536000   274.08657      0.042618159    12.626465      680.01634     -75.819458      604.19688    
   5537000   296.94284      0.042618159    31.766641      736.72337     -71.670335      665.05304    
   5538000   318.9475       0.042618159    17.23939       791.31755     -72.028149      719.2894     
   5539000   299.6212       0.042618159    13.384554      743.36845     -74.194895      669.17355    
   5540000   296.49404      0.042618159    12.936202      735.60988     -73.317388      662.29249    
   5541000   296.76742      0.042618159    38.933973      736.28814     -68.860104      667.42804    
   5542000   299.71078      0.042618159    28.417831      743.5907      -74.229857      669.36084    
   5543000   299.18711      0.042618159    12.013045      742.29146     -75.84654       666.44492    
   5544000   294.79922      0.042618159    26.224173      731.40498     -64.612798      666.79218    
   5545000   293.37927      0.042618159    26.730868      727.88205     -66.785135      661.09692    
   5546000   293.17475      0.042618159    12.010262      727.37464     -61.932387      665.44225    
   5547000   304.28523      0.042618159    30.176981      754.94003     -64.51574       690.42429    
   5548000   309.34161      0.042618159    28.211465      767.48506     -62.35139       705.13367    
   5549000   295.17284      0.042618159    13.909415      732.33196     -63.465431      668.86653    
   5550000   293.1971       0.042618159    36.092891      727.43009     -67.260212      660.16988    
   5551000   307.28306      0.042618159    29.190413      762.37775     -67.580887      694.79686    
   5552000   297.02378      0.042618159    22.915233      736.92419     -70.794073      666.13011    
   5553000   305.26905      0.042618159   -5.1981029      757.38092     -68.310224      689.0707     
   5554000   294.25793      0.042618159    26.779776      730.06204     -76.068513      653.99352    
   5555000   291.11915      0.042618159    23.038917      722.27464     -73.723028      648.55161    
   5556000   304.60626      0.042618159    21.63472       755.73653     -74.40075       681.33578    
   5557000   306.63331      0.042618159    19.175893      760.76568     -79.057558      681.70813    
   5558000   289.89767      0.042618159    26.790417      719.2441      -72.237908      647.00619    
   5559000   298.56283      0.042618159    27.286261      740.74262     -75.706177      665.03644    
   5560000   307.36372      0.042618159    14.85054       762.57786     -72.976223      689.60163    
   5561000   299.73067      0.042618159    20.237226      743.64006     -75.505151      668.13491    
   5562000   297.57808      0.042618159    20.532505      738.29941     -74.50879       663.79062    
   5563000   288.54095      0.042618159    21.317033      715.87806     -77.910573      637.96748    
   5564000   299.15877      0.042618159    28.549524      742.22115     -74.388366      667.83279    
   5565000   303.98152      0.042618159    23.58073       754.18653     -71.925749      682.26079    
   5566000   317.7481       0.042618159    19.63795       788.34179     -79.203054      709.13874    
   5567000   294.28256      0.042618159    23.193813      730.12313     -75.981365      654.14177    
   5568000   305.1142       0.042618159    20.732916      756.99673     -80.178994      676.81774    
   5569000   302.78417      0.042618159    24.074957      751.21587     -71.055232      680.16064    
   5570000   302.19563      0.042618159    28.532432      749.7557      -77.636106      672.11959    
   5571000   285.60355      0.042618159    20.790091      708.59029     -79.396255      629.19403    
   5572000   289.68669      0.042618159    20.559243      718.72065     -77.310918      641.40973    
   5573000   300.48502      0.042618159    18.074864      745.51162     -79.691227      665.82039    
   5574000   304.84931      0.042618159    17.417754      756.33955     -75.138856      681.2007     
   5575000   311.2775       0.042618159    23.532614      772.28807     -72.992201      699.29586    
   5576000   286.54659      0.042618159    27.865795      710.93        -65.97715       644.95285    
   5577000   293.09647      0.042618159    16.006693      727.18043     -69.616667      657.56377    
   5578000   311.5586       0.042618159    23.498729      772.98548     -69.458997      703.52648    
   5579000   297.29716      0.042618159    24.76206       737.60245     -65.607175      671.99528    
   5580000   294.84669      0.042618159    22.74369       731.52275     -65.673853      665.8489     
   5581000   291.07127      0.042618159    18.656038      722.15584     -59.542425      662.61341    
   5582000   301.98289      0.042618159    24.039794      749.22786     -63.775644      685.45222    
   5583000   298.24974      0.042618159    26.235372      739.96583     -64.622396      675.34344    
   5584000   295.26757      0.042618159    14.497945      732.56698     -62.677243      669.88974    
   5585000   297.42733      0.042618159    3.150254       737.92541     -63.297377      674.62803    
   5586000   311.937        0.042618159    10.947464      773.92429     -67.116513      706.80778    
   5587000   305.86175      0.042618159    24.373261      758.85143     -69.248647      689.60278    
   5588000   280.95721      0.042618159    18.846497      697.06258     -67.34884       629.71374    
   5589000   301.28031      0.042618159    22.877515      747.48475     -70.71856       676.76619    
   5590000   301.58808      0.042618159    31.015377      748.24833     -67.980626      680.26771    
   5591000   296.34317      0.042618159    19.426169      735.23557     -74.685951      660.54962    
   5592000   304.94053      0.042618159    12.463551      756.56587     -71.884921      684.68095    
   5593000   296.19823      0.042618159    25.840758      734.87596     -75.812806      659.06316    
   5594000   299.63561      0.042618159    27.21484       743.4042      -75.960912      667.44329    
   5595000   303.84222      0.042618159    19.013445      753.84091     -74.858595      678.98232    
   5596000   318.81115      0.042618159    10.894196      790.97926     -74.436037      716.54322    
   5597000   297.13321      0.042618159    24.348741      737.19568     -73.872593      663.32309    
   5598000   294.58113      0.042618159    22.716093      730.86391     -72.050388      658.81352    
   5599000   308.58712      0.042618159    22.204268      765.61315     -78.310549      687.3026     
   5600000   299.08249      0.042618159    14.696309      742.0319      -83.189461      658.84244    
   5601000   306.36466      0.042618159    25.265266      760.09916     -73.359608      686.73956    
   5602000   298.09498      0.042618159    19.862992      739.58187     -72.185075      667.39679    
   5603000   309.9498       0.042618159    8.392829       768.99399     -67.133828      701.86016    
   5604000   300.4062       0.042618159    24.797395      745.31607     -67.044925      678.27114    
   5605000   294.47765      0.042618159    23.418524      730.60717     -66.534226      664.07294    
   5606000   296.68066      0.042618159    24.922959      736.07291     -65.347625      670.72528    
   5607000   314.77332      0.042618159    22.44608       780.96129     -70.223909      710.73738    
   5608000   319.29605      0.042618159    23.931469      792.18229     -73.151642      719.03065    
   5609000   288.22883      0.042618159    20.146948      715.10368     -67.148587      647.95509    
   5610000   305.39844      0.042618159    21.187825      757.70195     -72.482078      685.21988    
   5611000   303.61142      0.042618159    26.25692       753.26829     -67.883194      685.3851     
   5612000   294.09282      0.042618159    19.533285      729.65239     -70.93297       658.71942    
   5613000   311.17943      0.042618159    22.255196      772.04474     -77.128291      694.91645    
   5614000   293.38254      0.042618159    24.187715      727.89016     -70.178581      657.71158    
   5615000   285.64066      0.042618159    25.560066      708.68236     -75.764446      632.91791    
   5616000   311.29462      0.042618159    24.507458      772.33053     -75.199558      697.13098    
   5617000   306.831        0.042618159    22.336521      761.25617     -78.903278      682.35289    
   5618000   297.14889      0.042618159    20.368254      737.23459     -74.279294      662.95529    
   5619000   296.63846      0.042618159    21.720674      735.9682      -73.025046      662.94315    
   5620000   312.12448      0.042618159    25.054418      774.38943     -69.391757      704.99767    
   5621000   311.81092      0.042618159    22.875483      773.61148     -72.88928       700.7222     
   5622000   288.31703      0.042618159    11.486609      715.32251     -72.828823      642.49369    
   5623000   301.52009      0.042618159    0.28999011     748.07966     -73.248328      674.83133    
   5624000   295.27824      0.042618159    37.008551      732.59345     -73.200005      659.39345    
   5625000   301.51557      0.042618159    20.309428      748.06844     -75.51389       672.55455    
   5626000   297.18732      0.042618159    21.716387      737.32994     -76.773133      660.5568     
   5627000   299.0092       0.042618159    17.077048      741.85006     -72.367187      669.48288    
   5628000   306.52999      0.042618159    30.747682      760.50936     -64.316269      696.19309    
   5629000   301.16601      0.042618159    17.449021      747.20117     -74.70623       672.49494    
   5630000   295.56855      0.042618159    14.608436      733.31373     -71.238664      662.07506    
   5631000   308.67639      0.042618159    14.736243      765.83464     -68.331086      697.50356    
   5632000   312.10171      0.042618159    30.168529      774.33295     -70.129296      704.20365    
   5633000   300.36302      0.042618159    27.351713      745.20894     -74.937771      670.27117    
   5634000   291.96078      0.042618159    18.161494      724.36275     -71.079013      653.28374    
   5635000   296.9364       0.042618159    16.754606      736.70739     -69.760029      666.94736    
   5636000   304.09783      0.042618159    19.649371      754.47509     -64.520679      689.95441    
   5637000   314.23947      0.042618159    31.454629      779.63678     -65.174344      714.46244    
   5638000   299.95215      0.042618159    21.152353      744.18954     -70.298927      673.89062    
   5639000   289.99111      0.042618159    17.766765      719.47595     -69.983995      649.49195    
   5640000   320.37909      0.042618159    26.261449      794.86936     -72.01809       722.85127    
   5641000   303.36852      0.042618159    20.869313      752.66567     -68.566221      684.09945    
   5642000   295.09412      0.042618159    23.962713      732.13666     -74.395662      657.741      
   5643000   302.06556      0.042618159    26.57943       749.43298     -81.888062      667.54492    
   5644000   309.30678      0.042618159    17.68608       767.39864     -73.77748       693.62116    
   5645000   295.86341      0.042618159    23.193222      734.04528     -76.876132      657.16914    
   5646000   299.50927      0.042618159    20.312745      743.09075     -76.043665      667.04708    
   5647000   300.36149      0.042618159    22.252658      745.20513     -76.200802      669.00433    
   5648000   297.96855      0.042618159    19.055459      739.26819     -75.241809      664.02639    
   5649000   301.38443      0.042618159    27.503096      747.74308     -79.868136      667.87494    
   5650000   304.68156      0.042618159    14.861821      755.92336     -75.347879      680.57548    
   5651000   303.93385      0.042618159    21.762126      754.06825     -81.809719      672.25853    
   5652000   292.8128       0.042618159    34.162792      726.47663     -79.889102      646.58753    
   5653000   307.0043       0.042618159    22.732754      761.68613     -84.633457      677.05267    
   5654000   286.52135      0.042618159    0.82951253     710.86737     -71.568994      639.29838    
   5655000   302.10998      0.042618159    21.894959      749.54319     -72.415463      677.12773    
   5656000   301.39281      0.042618159    22.953739      747.76387     -70.254035      677.50983    
   5657000   300.57253      0.042618159    24.647076      745.72872     -74.627623      671.1011     
   5658000   299.34757      0.042618159    22.462326      742.68957     -74.491805      668.19777    
   5659000   291.47595      0.042618159    25.141189      723.15987     -62.65422       660.50565    
   5660000   297.43338      0.042618159    19.935681      737.94041     -71.008879      666.93153    
   5661000   295.31971      0.042618159    20.039303      732.69634     -76.138728      656.55761    
   5662000   300.18986      0.042618159    19.850619      744.77932     -76.156243      668.62308    
   5663000   296.45637      0.042618159    16.844502      735.51643     -70.229464      665.28697    
   5664000   293.43785      0.042618159    27.173224      728.02739     -65.337979      662.68942    
   5665000   297.80162      0.042618159    20.632435      738.85403     -71.455955      667.39808    
   5666000   306.92397      0.042618159    19.98417       761.48683     -64.634682      696.85215    
   5667000   305.14743      0.042618159    16.209039      757.07919     -74.33892       682.74027    
   5668000   295.06923      0.042618159    21.788122      732.0749      -79.164344      652.91055    
   5669000   286.38111      0.042618159    20.460561      710.51944     -84.001084      626.51835    
   5670000   308.88562      0.042618159    24.466598      766.35373     -76.328775      690.02496    
   5671000   317.34843      0.042618159    21.458922      787.3502      -82.729307      704.62089    
   5672000   298.32643      0.042618159    21.726264      740.1561      -76.190242      663.96585    
   5673000   280.91886      0.042618159    23.414187      696.96742     -73.130385      623.83704    
   5674000   297.38562      0.042618159    26.703065      737.82192     -73.053783      664.76814    
   5675000   310.61788      0.042618159    10.990843      770.65151     -74.873818      695.77769    
   5676000   294.59939      0.042618159    16.27149       730.9092      -65.857448      665.05175    
   5677000   284.86265      0.042618159    45.478816      706.75208     -66.932061      639.82002    
   5678000   318.60039      0.042618159    38.545036      790.45636     -72.009552      718.44681    
   5679000   306.91119      0.042618159    11.475465      761.45513     -74.494199      686.96093    
   5680000   290.6567       0.042618159    32.221411      721.12729     -71.950922      649.17637    
   5681000   308.14069      0.042618159    25.465143      764.50554     -67.545875      696.95967    
   5682000   309.26827      0.042618159    11.62967       767.30311     -67.015003      700.2881     
   5683000   293.18186      0.042618159    17.208598      727.39228     -61.64921       665.74307    
   5684000   295.15694      0.042618159    31.270714      732.29249     -59.517673      672.77482    
   5685000   322.68086      0.042618159    37.344866      800.58011     -72.566103      728.01401    
   5686000   306.10161      0.042618159    18.569115      759.44654     -66.763473      692.68307    
   5687000   300.72892      0.042618159    5.6310092      746.11675     -67.796369      678.32038    
   5688000   294.48554      0.042618159    10.895511      730.62674     -67.119002      663.50774    
   5689000   301.61167      0.042618159    30.055856      748.30687     -66.076106      682.23076    
   5690000   303.19404      0.042618159    28.262012      752.23276     -62.049645      690.18311    
   5691000   304.90302      0.042618159    10.001153      756.4728      -66.615257      689.85754    
   5692000   282.70925      0.042618159    17.794418      701.40944     -60.085105      641.32433    
   5693000   299.7156       0.042618159    22.697315      743.60267     -59.512838      684.08983    
   5694000   306.98692      0.042618159    23.835564      761.643       -63.809994      697.83301    
   5695000   307.01472      0.042618159    24.61327       761.71198     -57.855738      703.85624    
   5696000   292.73277      0.042618159    20.360243      726.27808     -63.9719        662.30618    
   5697000   295.81003      0.042618159    19.47121       733.91285     -60.415615      673.49723    
   5698000   309.37127      0.042618159    23.567609      767.55865     -64.206548      703.3521     
   5699000   301.98057      0.042618159    22.721997      749.22211     -66.111647      683.11047    
   5700000   299.51626      0.042618159    19.902917      743.10809     -66.620614      676.48748    
   5701000   290.13281      0.042618159    25.849834      719.82749     -64.834456      654.99303    
   5702000   303.17936      0.042618159    22.889781      752.19635     -71.55042       680.64593    
   5703000   298.81683      0.042618159    22.979498      741.37278     -68.058626      673.31415    
   5704000   298.82619      0.042618159    21.505616      741.39602     -68.424453      672.97156    
   5705000   286.74291      0.042618159    23.027644      711.41706     -60.750115      650.66694    
   5706000   292.22299      0.042618159    25.57867       725.0133      -68.797303      656.216      
   5707000   304.50264      0.042618159    31.263304      755.47943     -65.104168      690.37526    
   5708000   305.29102      0.042618159    22.817447      757.43544     -67.192453      690.24299    
   5709000   300.12855      0.042618159    19.519414      744.62721     -68.713717      675.91349    
   5710000   286.93001      0.042618159    20.049576      711.88126     -65.782754      646.0985     
   5711000   306.59559      0.042618159    23.790534      760.67211     -70.175214      690.4969     
   5712000   305.94676      0.042618159    23.352422      759.06236     -57.242444      701.81991    
   5713000   299.02862      0.042618159    21.151587      741.89825     -59.962877      681.93537    
   5714000   302.77858      0.042618159    22.58769       751.20199     -58.727198      692.47479    
   5715000   296.37229      0.042618159    15.370952      735.30782     -65.777274      669.53054    
   5716000   310.31482      0.042618159    22.515135      769.89963     -59.132398      710.76724    
   5717000   310.54051      0.042618159    23.253394      770.45957     -59.92517       710.5344     
   5718000   296.87118      0.042618159    13.815856      736.54558     -64.476838      672.06875    
   5719000   297.0396       0.042618159    23.011851      736.96343     -70.768795      666.19463    
   5720000   293.39356      0.042618159    22.102888      727.9175      -67.470486      660.44701    
   5721000   302.81739      0.042618159    21.976684      751.29828     -76.070871      675.22741    
   5722000   283.83034      0.042618159   -0.56460248     704.1909      -64.321979      639.86892    
   5723000   290.20525      0.042618159    29.419533      720.00724     -66.704296      653.30294    
   5724000   312.29147      0.042618159    32.999999      774.80373     -69.859853      704.94388    
   5725000   310.30361      0.042618159    23.413328      769.8718      -69.996045      699.87575    
   5726000   292.68164      0.042618159    22.941598      726.15121     -72.073467      654.07774    
   5727000   300.4682       0.042618159    23.603739      745.4699      -72.208335      673.26156    
   5728000   306.8008       0.042618159    21.257337      761.18124     -75.179121      686.00211    
   5729000   297.22219      0.042618159    24.438026      737.41644     -75.835513      661.58092    
   5730000   289.25962      0.042618159    21.809833      717.66109     -72.612225      645.04886    
   5731000   305.67583      0.042618159    24.670565      758.39016     -70.814695      687.57547    
   5732000   304.75889      0.042618159    31.966388      756.11521     -67.757788      688.35742    
   5733000   301.13281      0.042618159    15.728427      747.11881     -70.979696      676.13912    
   5734000   302.46535      0.042618159    22.217764      750.42487     -70.807527      679.61735    
   5735000   297.90905      0.042618159    24.374394      739.12057     -69.29141       669.82916    
   5736000   290.59412      0.042618159    25.358591      720.97202     -66.663458      654.30856    
   5737000   294.51742      0.042618159    17.322769      730.70583     -74.731778      655.97405    
   5738000   303.50621      0.042618159    26.538916      753.00727     -65.729299      687.27797    
   5739000   301.39358      0.042618159    20.729493      747.76578     -70.246765      677.51902    
   5740000   307.90409      0.042618159    17.98964       763.91854     -68.386963      695.53158    
   5741000   307.15799      0.042618159    24.837158      762.06744     -69.732665      692.33478    
   5742000   294.81498      0.042618159    40.776905      731.44409     -71.103622      660.34047    
   5743000   301.80473      0.042618159    26.180343      748.78585     -60.763084      688.02276    
   5744000   310.41348      0.042618159    8.5760307      770.14441     -69.114236      701.03017    
   5745000   311.64278      0.042618159    29.430782      773.19433     -66.80715       706.38718    
   5746000   285.90754      0.042618159    23.143923      709.34449     -69.096196      640.2483     
   5747000   297.49245      0.042618159    1.2976574      738.08697     -64.067939      674.01903    
   5748000   307.68257      0.042618159    24.816957      763.36893     -60.637733      702.73119    
   5749000   277.80358      0.042618159    21.645978      689.23834     -64.505238      624.7331     
   5750000   289.74662      0.042618159    20.761093      718.86936     -67.6808        651.18856    
   5751000   308.03132      0.042618159    19.66454       764.23421     -71.027796      693.20641    
   5752000   302.91806      0.042618159    23.477017      751.54806     -65.237621      686.31044    
   5753000   291.14305      0.042618159    21.755477      722.33393     -68.480755      653.85317    
   5754000   307.56161      0.042618159    23.783005      763.06883     -64.306026      698.76281    
   5755000   308.83132      0.042618159    19.217618      766.21903     -74.432447      691.78658    
   5756000   283.29915      0.042618159    22.04055       702.87301     -65.103428      637.76958    
   5757000   310.05486      0.042618159    22.997893      769.25467     -65.021593      704.23307    
   5758000   309.87735      0.042618159    21.954509      768.81426     -69.793754      699.0205     
   5759000   291.8401       0.042618159    11.975961      724.06334     -67.114214      656.94912    
   5760000   287.69426      0.042618159    19.499134      713.77739     -65.336091      648.4413     
   5761000   301.68452      0.042618159    20.364061      748.48762     -61.9626        686.52502    
   5762000   302.91062      0.042618159    19.932383      751.52959     -60.951912      690.57768    
   5763000   304.63049      0.042618159    24.806135      755.79663     -66.085509      689.71113    
   5764000   296.55067      0.042618159    21.699838      735.75038     -60.791712      674.95867    
   5765000   292.49846      0.042618159    17.104643      725.69674     -59.696634      666.00011    
   5766000   300.58708      0.042618159    26.820775      745.76483     -64.11081       681.65402    
   5767000   331.21614      0.042618159    9.9825879      821.75637     -65.32788       756.42849    
   5768000   302.34831      0.042618159    4.0195075      750.1345      -65.830575      684.30392    
   5769000   295.74521      0.042618159    6.4317257      733.75203     -70.074933      663.6771     
   5770000   299.46224      0.042618159    23.045941      742.97408     -77.854297      665.11978    
   5771000   304.18065      0.042618159    21.509381      754.68057     -74.627522      680.05305    
   5772000   313.56177      0.042618159    22.953917      777.95539     -82.046034      695.90935    
   5773000   308.16696      0.042618159    19.966265      764.57073     -77.299863      687.27087    
   5774000   289.08237      0.042618159    10.102105      717.22134     -69.547995      647.67334    
   5775000   289.88569      0.042618159    21.23721       719.21439     -72.265875      646.94852    
   5776000   303.61434      0.042618159    27.633894      753.27556     -72.359209      680.91635    
   5777000   311.63997      0.042618159    18.179902      773.18737     -71.526792      701.66058    
   5778000   289.1494       0.042618159    11.257926      717.38763     -69.520766      647.86686    
   5779000   295.27059      0.042618159    20.109598      732.57448     -65.461335      667.11314    
   5780000   293.34379      0.042618159    20.84886       727.79403     -68.243803      659.55023    
   5781000   295.75982      0.042618159    20.782824      733.78826     -66.062906      667.72536    
   5782000   300.94753      0.042618159    33.259078      746.65912     -69.299307      677.35982    
   5783000   302.57595      0.042618159    12.056862      750.69926     -74.581508      676.11775    
   5784000   298.21629      0.042618159    13.109921      739.88284     -72.684874      667.19797    
   5785000   296.01967      0.042618159    23.971541      734.43295     -76.449525      657.98343    
   5786000   303.92633      0.042618159    32.236888      754.04961     -71.820343      682.22926    
   5787000   297.87507      0.042618159    19.609293      739.03627     -68.911273      670.125      
   5788000   300.01722      0.042618159    20.05376       744.351       -70.331421      674.01958    
   5789000   298.67236      0.042618159    23.458083      741.01435     -63.387255      677.6271     
   5790000   295.41134      0.042618159    22.614796      732.92367     -70.36863       662.55504    
   5791000   292.02806      0.042618159    18.026237      724.52966     -72.529529      652.00013    
   5792000   310.97987      0.042618159    26.581647      771.54963     -64.933823      706.61581    
   5793000   307.14271      0.042618159    21.638242      762.02953     -71.292626      690.7369     
   5794000   289.25214      0.042618159    20.422884      717.64254     -71.26099       646.38155    
   5795000   287.20974      0.042618159    23.637106      712.57528     -69.172878      643.4024     
   5796000   302.16554      0.042618159    21.506304      749.68103     -67.931042      681.74998    
   5797000   293.89616      0.042618159    30.89842       729.16449     -69.025647      660.13884    
   5798000   294.88693      0.042618159    21.252455      731.62261     -66.115677      665.50693    
   5799000   302.16036      0.042618159    2.0581334      749.66819     -70.11435       679.55383    
   5800000   295.07508      0.042618159    16.945971      732.08942     -70.823174      661.26625    
   5801000   298.08293      0.042618159    34.658774      739.55196     -70.845207      668.70676    
   5802000   306.3586       0.042618159    2.87097        760.08412     -71.936285      688.14784    
   5803000   300.09933      0.042618159    19.449192      744.55471     -73.550962      671.00375    
   5804000   297.56472      0.042618159    44.032241      738.26627     -69.775549      668.49072    
   5805000   298.83615      0.042618159    7.7101008      741.42072     -76.855601      664.56511    
   5806000   301.80846      0.042618159    27.607051      748.79511     -72.787833      676.00728    
   5807000   318.97328      0.042618159    39.925974      791.3815      -64.057703      727.3238     
   5808000   309.25442      0.042618159    15.739956      767.26873     -64.653845      702.61488    
   5809000   292.89103      0.042618159    23.524504      726.67072     -74.279146      652.39157    
   5810000   313.91669      0.042618159    22.847416      778.83597     -68.782109      710.05386    
   5811000   315.60617      0.042618159    22.515459      783.0276      -72.146005      710.88159    
   5812000   299.38166      0.042618159    22.010746      742.77415     -78.217162      664.55699    
   5813000   294.55972      0.042618159    20.7301        730.81079     -74.521031      656.28976    
   5814000   297.50512      0.042618159    23.399124      738.1184      -67.888083      670.23031    
   5815000   297.46996      0.042618159    15.013961      738.03116     -70.152007      667.87915    
   5816000   302.32505      0.042618159    21.294847      750.07677     -67.059704      683.01707    
   5817000   299.57811      0.042618159    24.755673      743.26154     -71.638918      671.62263    
   5818000   305.82237      0.042618159    18.479358      758.75372     -73.770413      684.98331    
   5819000   306.83114      0.042618159    19.643976      761.25651     -72.562624      688.69388    
   5820000   298.65667      0.042618159    23.70033       740.97544     -65.503294      675.47215    
   5821000   300.28724      0.042618159    21.860887      745.02092     -74.332587      670.68833    
   5822000   308.11345      0.042618159    21.137151      764.43796     -66.907021      697.53094    
   5823000   298.06273      0.042618159    20.680511      739.50184     -69.00813       670.49371    
   5824000   293.96911      0.042618159    24.197862      729.34547     -66.304163      663.04131    
   5825000   292.01088      0.042618159    23.630793      724.48703     -67.181075      657.30596    
   5826000   310.83274      0.042618159    21.619535      771.18459     -65.934134      705.25046    
   5827000   297.57029      0.042618159    10.638914      738.2801      -61.552578      676.72752    
   5828000   295.55472      0.042618159    14.583206      733.2794      -60.82819       672.45121    
   5829000   291.40151      0.042618159    24.156718      722.97519     -63.480142      659.49504    
   5830000   305.15118      0.042618159    25.290574      757.08849     -61.893618      695.19487    
   5831000   301.95515      0.042618159    18.071111      749.15905     -62.51297       686.64608    
   5832000   286.36391      0.042618159    19.187273      710.47675     -65.877765      644.59899    
   5833000   297.14005      0.042618159    22.762795      737.21264     -71.235284      665.97736    
   5834000   309.04826      0.042618159    22.609263      766.75725     -72.85252       693.90473    
   5835000   304.78211      0.042618159    22.697257      756.17282     -65.473616      690.6992     
   5836000   294.34227      0.042618159    22.964544      730.27129     -72.74367       657.52762    
   5837000   312.68693      0.042618159    32.090796      775.78489     -72.220591      703.5643     
   5838000   302.44315      0.042618159    21.799671      750.3698      -67.01187       683.35793    
   5839000   293.17331      0.042618159    18.522597      727.37107     -68.698729      658.67234    
   5840000   307.00191      0.042618159    17.127862      761.68021     -70.600641      691.07957    
   5841000   307.54991      0.042618159    25.186628      763.0398      -66.575022      696.46477    
   5842000   303.22211      0.042618159    17.88134       752.30242     -67.954757      684.34766    
   5843000   294.97113      0.042618159    20.06359       731.83151     -69.915936      661.91557    
   5844000   297.9684       0.042618159    35.096538      739.26781     -73.099769      666.16805    
   5845000   305.06007      0.042618159    18.678584      756.86243     -71.620923      685.24151    
   5846000   297.29314      0.042618159    15.324977      737.59246     -74.311057      663.28141    
   5847000   313.79797      0.042618159    16.659677      778.54142     -73.025063      705.51635    
   5848000   308.27395      0.042618159    33.140882      764.83617     -65.591003      699.24516    
   5849000   295.93157      0.042618159    18.122361      734.21438     -68.190124      666.02425    
   5850000   316.18169      0.042618159    9.3763399      784.4555      -78.023718      706.43178    
   5851000   312.36786      0.042618159    22.898448      774.99328     -75.077316      699.91597    
   5852000   293.94526      0.042618159    33.482434      729.2863      -79.17799       650.10831    
   5853000   295.64132      0.042618159    16.331065      733.49427     -81.147613      652.34666    
   5854000   304.31784      0.042618159    10.175365      755.02096     -76.514671      678.50629    
   5855000   301.97016      0.042618159    26.021504      749.19629     -73.342682      675.85361    
   5856000   301.61432      0.042618159    26.639036      748.31344     -68.388496      679.92494    
   5857000   296.97513      0.042618159    14.961397      736.80349     -77.225903      659.57758    
   5858000   306.48645      0.042618159    16.156892      760.40134     -78.78768       681.61366    
   5859000   317.00335      0.042618159    27.077244      786.49404     -83.398425      703.09561    
   5860000   297.47368      0.042618159    30.674632      738.0404      -73.178408      664.86199    
   5861000   288.04451      0.042618159    18.240151      714.64637     -73.544109      641.10226    
   5862000   303.00468      0.042618159    20.246467      751.76297     -68.62625       683.13672    
   5863000   303.37102      0.042618159    23.056002      752.67187     -73.604216      679.06765    
   5864000   306.78964      0.042618159    26.86775       761.15354     -68.650556      692.50299    
   5865000   275.86621      0.042618159    13.597633      684.43167     -78.229491      606.20218    
   5866000   299.83721      0.042618159    10.026419      743.90437     -72.396588      671.50779    
   5867000   304.47795      0.042618159    27.595937      755.41818     -71.71742       683.70076    
   5868000   291.34323      0.042618159    21.036279      722.83058     -73.819616      649.01097    
   5869000   293.57596      0.042618159    15.76763       728.37004     -81.307133      647.06291    
   5870000   299.54568      0.042618159    17.885301      743.18108     -72.866273      670.31481    
   5871000   299.19638      0.042618159    34.074126      742.31447     -75.39383       666.92064    
   5872000   302.89129      0.042618159    24.500986      751.48165     -68.975031      682.50662    
   5873000   304.8642       0.042618159    15.979661      756.37647     -70.487795      685.88868    
   5874000   306.23218      0.042618159    23.592266      759.77047     -79.23354       680.53693    
   5875000   296.80023      0.042618159    25.157632      736.36955     -74.153456      662.21609    
   5876000   298.40964      0.042618159    15.824297      740.36253     -74.300607      666.06193    
   5877000   322.42859      0.042618159    20.976805      799.95422     -86.556689      713.39753    
   5878000   297.23503      0.042618159    21.12437       737.44831     -78.678539      658.76977    
   5879000   295.78441      0.042618159    21.15474       733.84927     -74.795736      659.05354    
   5880000   315.8915       0.042618159    25.314345      783.73552     -70.151919      713.58361    
   5881000   308.76436      0.042618159    23.885058      766.0529      -67.762568      698.29033    
   5882000   315.13857      0.042618159    23.692127      781.86749     -77.127445      704.74004    
   5883000   298.9638       0.042618159    18.555504      741.73743     -78.361934      663.37549    
   5884000   291.16421      0.042618159    22.746545      722.38643     -76.644114      645.74232    
   5885000   298.86056      0.042618159    30.992754      741.48129     -67.664337      673.81696    
   5886000   306.52408      0.042618159    17.268441      760.49469     -77.594651      682.90004    
   5887000   292.36158      0.042618159    8.9454063      725.35713     -74.348646      651.00849    
   5888000   295.89441      0.042618159    23.687374      734.12219     -77.875385      656.2468     
   5889000   307.38793      0.042618159    34.289709      762.63794     -74.180932      688.457      
   5890000   310.5526       0.042618159    20.701542      770.48957     -79.406414      691.08315    
   5891000   290.64662      0.042618159    22.940966      721.10227     -68.371864      652.73041    
   5892000   293.40966      0.042618159    22.909203      727.95746     -64.135493      663.82197    
   5893000   319.26422      0.042618159    28.609139      792.10333     -69.522928      722.5804     
   5894000   303.64894      0.042618159    26.608014      753.36139     -63.34013       690.02126    
   5895000   289.81846      0.042618159    8.4438316      719.0476      -67.117102      651.9305     
   5896000   317.07138      0.042618159    29.180168      786.66284     -60.932214      725.73063    
   5897000   312.59727      0.042618159    27.360861      775.56245     -61.799332      713.76312    
   5898000   294.8911       0.042618159    16.218957      731.63295     -71.49997       660.13298    
   5899000   305.33573      0.042618159    19.557016      757.54635     -66.31797       691.22838    
   5900000   296.14184      0.042618159    40.637601      734.73606     -73.052946      661.68311    
   5901000   295.47304      0.042618159    14.81455       733.07677     -68.690153      664.38661    
   5902000   297.21057      0.042618159    18.257288      737.38761     -65.994432      671.39318    
   5903000   309.30873      0.042618159    10.041826      767.40349     -69.830201      697.57328    
   5904000   295.9182       0.042618159    15.685145      734.18121     -73.446256      660.73495    
   5905000   306.35952      0.042618159    23.899978      760.08641     -71.706755      688.37966    
   5906000   304.53648      0.042618159    26.116558      755.5634      -72.774354      682.78905    
   5907000   300.38456      0.042618159    20.074534      745.26237     -80.633891      664.62848    
   5908000   294.33633      0.042618159    17.895342      730.25655     -75.643318      654.61323    
   5909000   318.33778      0.042618159    21.890705      789.80482     -71.332943      718.47187    
   5910000   297.3972       0.042618159    16.07547       737.85066     -72.951678      664.89898    
   5911000   295.49374      0.042618159    31.906946      733.12812     -72.948144      660.17998    
   5912000   307.98877      0.042618159    37.615709      764.12863     -77.713821      686.4148     
   5913000   307.79138      0.042618159    21.461777      763.63889     -72.436155      691.20273    
   5914000   302.27688      0.042618159    13.701815      749.95727     -73.12339       676.83388    
   5915000   295.24738      0.042618159    20.715793      732.51689     -74.159629      658.35726    
   5916000   291.99034      0.042618159    17.477674      724.43608     -65.91863       658.51745    
   5917000   307.40795      0.042618159    25.136992      762.68759     -67.970956      694.71664    
   5918000   310.14401      0.042618159    19.788366      769.47584     -72.651925      696.82392    
   5919000   304.3152       0.042618159    21.238023      755.01439     -72.68496       682.32943    
   5920000   302.4462       0.042618159    21.259849      750.37737     -77.39753       672.97984    
   5921000   302.90367      0.042618159    21.927934      751.51237     -77.550569      673.9618     
   5922000   294.95921      0.042618159    20.662768      731.80193     -77.011042      654.79089    
   5923000   308.9203       0.042618159    23.473077      766.43979     -67.42629       699.0135     
   5924000   302.74819      0.042618159    20.333616      751.12662     -68.916732      682.20988    
   5925000   302.78588      0.042618159    18.198919      751.22012     -68.959155      682.26096    
   5926000   307.18702      0.042618159    4.0186718      762.13946     -69.243527      692.89593    
   5927000   296.76449      0.042618159    9.8018398      736.28088     -71.727803      664.55308    
   5928000   300.42761      0.042618159    24.829991      745.36918     -67.283412      678.08577    
   5929000   302.36986      0.042618159    21.58755       750.18796     -66.896344      683.29162    
   5930000   302.14562      0.042618159    21.942972      749.63162     -68.443447      681.18817    
   5931000   298.76104      0.042618159    19.546476      741.23438     -66.516472      674.71791    
   5932000   294.51087      0.042618159    20.79182       730.68958     -65.706962      664.98262    
   5933000   293.31938      0.042618159    21.595982      727.73347     -67.854045      659.87943    
   5934000   309.1546       0.042618159    20.665694      767.02109     -74.1121        692.90899    
   5935000   288.96999      0.042618159    7.1606208      716.9425      -77.445527      639.49698    
   5936000   296.86718      0.042618159    27.018396      736.53566     -76.04574       660.48992    
   5937000   306.91588      0.042618159    16.742665      761.46676     -76.912588      684.55417    
   5938000   293.85246      0.042618159    12.676196      729.05606     -74.94104       654.11502    
   5939000   301.34874      0.042618159    37.029607      747.65452     -74.969811      672.68471    
   5940000   309.05482      0.042618159    31.408697      766.77352     -71.31491       695.45861    
   5941000   309.21408      0.042618159    22.829548      767.16866     -69.974873      697.19379    
   5942000   294.29487      0.042618159    11.757511      730.1537      -75.618639      654.53506    
   5943000   301.57243      0.042618159    16.306594      748.20951     -73.913875      674.29564    
   5944000   303.41893      0.042618159    32.601792      752.79073     -66.702242      686.08849    
   5945000   309.54152      0.042618159    13.711448      767.98104     -72.762412      695.21863    
   5946000   300.43344      0.042618159    12.728072      745.38365     -71.28737       674.09628    
   5947000   290.95238      0.042618159    20.789278      721.86087     -66.706935      655.15394    
   5948000   294.97541      0.042618159    27.230968      731.84212     -68.456347      663.38577    
   5949000   310.25498      0.042618159    23.160932      769.75116     -69.81588       699.93528    
   5950000   300.3507       0.042618159    19.975997      745.17838     -68.588284      676.59009    
   5951000   295.00682      0.042618159    20.051134      731.92006     -63.009739      668.91032    
   5952000   303.05225      0.042618159    28.247524      751.88097     -67.021835      684.85914    
   5953000   305.58698      0.042618159    20.815773      758.16973     -76.442875      681.72685    
   5954000   295.764        0.042618159    13.789883      733.79863     -72.886765      660.91186    
   5955000   299.13237      0.042618159    25.499912      742.15566     -77.401771      664.75389    
   5956000   309.17214      0.042618159    23.500666      767.0646      -70.011421      697.05318    
   5957000   293.13067      0.042618159    8.224884       727.26527     -69.993565      657.2717     
   5958000   303.90325      0.042618159    21.199772      753.99234     -76.378272      677.61407    
   5959000   318.56764      0.042618159    32.994936      790.37511     -75.029024      715.34608    
   5960000   291.0476       0.042618159    13.991877      722.09713     -68.058807      654.03832    
   5961000   301.02826      0.042618159    17.569749      746.85941     -62.755043      684.10437    
   5962000   303.23088      0.042618159    37.159698      752.32416     -71.337868      680.98629    
   5963000   303.25439      0.042618159    22.579628      752.3825      -78.573252      673.80925    
   5964000   292.90035      0.042618159   -27.343076      726.69383     -77.326392      649.36744    
   5965000   302.29395      0.042618159    26.604207      749.99962     -78.007431      671.99219    
   5966000   299.4587       0.042618159    32.77314       742.96529     -79.461475      663.50381    
   5967000   301.91879      0.042618159    27.500198      749.06885     -71.477061      677.59179    
   5968000   308.20682      0.042618159    33.576396      764.66962     -74.744818      689.9248     
   5969000   302.7332       0.042618159   -3.3595518      751.08942     -69.422883      681.66654    
   5970000   298.52434      0.042618159    38.153897      740.64711     -68.956618      671.69049    
   5971000   293.34855      0.042618159    15.515494      727.80584     -77.262019      650.54383    
   5972000   296.76483      0.042618159   -2.2322926      736.28171     -82.543678      653.73803    
   5973000   297.61572      0.042618159    27.38083       738.39281     -74.111418      664.28139    
   5974000   295.86916      0.042618159    25.972074      734.05955     -80.344764      653.71478    
   5975000   304.7775       0.042618159    9.9927473      756.16138     -73.503104      682.65828    
   5976000   301.43027      0.042618159    16.057225      747.85681     -71.092503      676.7643     
   5977000   306.15004      0.042618159    45.072581      759.56669     -74.972364      684.59433    
   5978000   309.06736      0.042618159    22.754295      766.80464     -75.91513       690.88951    
   5979000   306.63012      0.042618159    30.711098      760.75779     -69.203968      691.55382    
   5980000   303.17452      0.042618159    15.577149      752.18433     -81.211665      670.97267    
   5981000   307.94063      0.042618159    36.540332      764.00919     -76.966279      687.04291    
   5982000   298.07494      0.042618159    17.477562      739.53213     -75.836731      663.6954     
   5983000   288.67599      0.042618159    17.637638      716.21308     -73.405347      642.80773    
   5984000   304.53867      0.042618159    22.617681      755.56884     -68.371821      687.19702    
   5985000   304.65941      0.042618159    24.913252      755.86839     -75.790667      680.07773    
   5986000   300.2728       0.042618159    21.759303      744.9851      -74.793729      670.19137    
   5987000   305.85976      0.042618159    22.475205      758.84649     -75.861971      682.98452    
   5988000   301.8372       0.042618159    23.64221       748.86641     -72.997788      675.86863    
   5989000   308.41532      0.042618159    18.522966      765.18691     -69.096768      696.09015    
   5990000   303.55651      0.042618159    18.926055      753.13206     -81.003772      672.12829    
   5991000   310.70377      0.042618159    29.105168      770.86463     -67.408841      703.45578    
   5992000   298.52182      0.042618159    20.430871      740.64086     -72.176804      668.46406    
   5993000   301.77078      0.042618159    18.420158      748.70162     -68.892766      679.80885    
   5994000   305.52286      0.042618159    15.888483      758.01063     -73.603972      684.40665    
   5995000   299.27496      0.042618159    22.902323      742.50943     -73.058829      669.4506     
   5996000   294.77126      0.042618159    19.81766       731.33561     -68.374249      662.96136    
   5997000   311.94088      0.042618159    18.933849      773.93393     -69.845894      704.08803    
   5998000   300.24998      0.042618159    21.895086      744.92849     -73.435727      671.49276    
   5999000   303.38312      0.042618159    21.488413      752.70188     -72.787806      679.91407    
   6000000   297.85287      0.042618159    18.860487      738.98118     -73.868955      665.11222    
   6001000   288.99999      0.042618159    19.541528      717.01694     -68.974954      648.04198    
   6002000   309.88745      0.042618159    23.751193      768.8393      -68.442361      700.39694    
   6003000   305.5094       0.042618159    20.4198        757.97723     -68.863643      689.11359    
   6004000   288.72207      0.042618159    21.192352      716.32741     -72.097932      644.22948    
   6005000   314.59075      0.042618159    18.435208      780.50831     -75.048982      705.45933    
   6006000   301.40248      0.042618159    25.096341      747.78786     -67.352526      680.43534    
   6007000   286.26033      0.042618159    14.525406      710.21977     -72.129681      638.09009    
   6008000   295.79253      0.042618159    18.570379      733.86941     -69.883308      663.98611    
   6009000   317.31759      0.042618159    29.257765      787.27369     -75.542488      711.7312     
   6010000   304.14442      0.042618159    25.984327      754.59069     -72.443331      682.14736    
   6011000   297.65588      0.042618159    24.579744      738.49245     -72.835205      665.65725    
   6012000   300.88081      0.042618159    2.1426305      746.49358     -75.999968      670.49362    
   6013000   308.46357      0.042618159    26.839766      765.30663     -70.767909      694.53872    
   6014000   296.24372      0.042618159    25.69912       734.98884     -71.227475      663.76136    
   6015000   282.84543      0.042618159    22.215111      701.74732     -74.694935      627.05238    
   6016000   299.0061       0.042618159    19.168199      741.84238     -76.212254      665.63012    
   6017000   308.46193      0.042618159    18.280946      765.30254     -78.938778      686.36376    
   6018000   309.47887      0.042618159    26.381749      767.8256      -78.536688      689.28891    
   6019000   301.70234      0.042618159    23.681887      748.53183     -81.651207      666.88062    
   6020000   302.40846      0.042618159   -5.6982827      750.28372     -75.091546      675.19217    
   6021000   308.55057      0.042618159    6.9444016      765.52246     -66.52069       699.00177    
   6022000   312.55694      0.042618159    44.697095      775.46239     -71.543439      703.91895    
   6023000   291.38374      0.042618159    23.774589      722.93108     -71.332998      651.59808    
   6024000   307.94093      0.042618159    16.550618      764.00994     -72.496966      691.51297    
   6025000   304.7274       0.042618159    29.432829      756.03707     -70.162885      685.87418    
   6026000   294.81814      0.042618159    33.994817      731.45193     -67.007927      664.444      
   6027000   293.58969      0.042618159    0.33680652     728.40411     -68.49397       659.91014    
   6028000   310.6886       0.042618159    24.689488      770.82698     -69.74329       701.08369    
   6029000   311.1687       0.042618159    27.572599      772.01812     -71.907345      700.11077    
   6030000   299.74542      0.042618159    29.004745      743.67666     -74.239559      669.4371     
   6031000   297.5252       0.042618159    26.095317      738.16822     -66.812279      671.35594    
   6032000   294.74751      0.042618159    14.921178      731.27669     -70.960376      660.31631    
   6033000   298.95768      0.042618159    7.1860266      741.72224     -73.054366      668.66788    
   6034000   298.26099      0.042618159    24.726346      739.99374     -69.996353      669.99739    
   6035000   290.51112      0.042618159    24.010183      720.76609     -64.161406      656.60468    
   6036000   303.57599      0.042618159    13.130203      753.18039     -69.393086      683.7873     
   6037000   295.72851      0.042618159    36.470973      733.71058     -76.714986      656.99559    
   6038000   295.69877      0.042618159    12.614194      733.6368      -79.093781      654.54302    
   6039000   304.72719      0.042618159    10.805768      756.03655     -81.81903       674.21752    
   6040000   297.64503      0.042618159    23.43415       738.46552     -79.753381      658.71214    
   6041000   303.36663      0.042618159    22.550836      752.66097     -82.92218       669.73879    
   6042000   299.91194      0.042618159    23.890474      744.08979     -82.039041      662.05075    
   6043000   305.84318      0.042618159    20.827605      758.80535     -81.516711      677.28864    
   6044000   303.56093      0.042618159    21.684923      753.14302     -69.507084      683.63594    
   6045000   294.15248      0.042618159    20.190081      729.8004      -66.026703      663.7737     
   6046000   294.64675      0.042618159    23.674706      731.0267      -71.529694      659.497      
   6047000   307.69487      0.042618159    20.759056      763.39947     -73.000448      690.39902    
   6048000   298.28564      0.042618159    15.641316      740.0549      -69.374415      670.68048    
   6049000   285.80396      0.042618159    17.8491        709.0875      -77.06772       632.01978    
   6050000   309.12187      0.042618159    20.700135      766.93988     -69.983379      696.9565     
   6051000   300.18313      0.042618159    15.20723       744.76263     -67.406224      677.3564     
   6052000   292.33132      0.042618159    18.07094       725.28207     -62.619767      662.6623     
   6053000   297.32479      0.042618159    23.948728      737.671       -61.81557       675.85543    
   6054000   305.90945      0.042618159    23.927871      758.96978     -60.900651      698.06912    
   6055000   304.09745      0.042618159    13.891793      754.47416     -64.144288      690.32987    
   6056000   292.73627      0.042618159    17.723028      726.28675     -58.892267      667.39448    
   6057000   296.03363      0.042618159    21.731703      734.46761     -64.974989      669.49262    
   6058000   301.12711      0.042618159    24.140484      747.10466     -66.04904       681.05562    
   6059000   299.14578      0.042618159    16.366896      742.18892     -70.96727       671.22165    
   6060000   294.09855      0.042618159    27.67689       729.66662     -66.302068      663.36455    
   6061000   297.06871      0.042618159    21.030991      737.03565     -69.587429      667.44822    
   6062000   315.61575      0.042618159    16.317937      783.05138     -69.741815      713.30957    
   6063000   304.38726      0.042618159    17.928362      755.19318     -71.993838      683.19934    
   6064000   297.45799      0.042618159    17.369461      738.00146     -67.317527      670.68394    
   6065000   297.75762      0.042618159    23.333155      738.74486     -67.652694      671.09216    
   6066000   304.71443      0.042618159    22.776633      756.00491     -67.360014      688.64489    
   6067000   304.87062      0.042618159    7.8680344      756.3924      -61.561114      694.83129    
   6068000   295.41783      0.042618159    29.989671      732.93979     -63.799494      669.14029    
   6069000   304.80795      0.042618159    23.471365      756.23693     -68.329596      687.90734    
   6070000   319.30872      0.042618159    25.179131      792.21373     -59.893897      732.31984    
   6071000   292.3929       0.042618159    6.0576069      725.43485     -66.451803      658.98304    
   6072000   292.51339      0.042618159    23.326052      725.73379     -63.234382      662.4994     
   6073000   306.50647      0.042618159    26.767632      760.451       -61.159003      699.292      
   6074000   305.63644      0.042618159    20.640406      758.29243     -61.020566      697.27186    
   6075000   301.72653      0.042618159    21.654571      748.59184     -63.394361      685.19748    
   6076000   288.05422      0.042618159    12.13711       714.67045     -56.95795       657.7125     
   6077000   297.79452      0.042618159    35.155109      738.83642     -53.434509      685.40191    
   6078000   316.3468       0.042618159    16.438108      784.86514     -65.507522      719.35762    
   6079000   283.70756      0.042618159    15.479987      703.88628     -60.143304      643.74298    
   6080000   299.03609      0.042618159    28.272062      741.91679     -63.732372      678.18441    
   6081000   313.75343      0.042618159    23.942329      778.4309      -64.267721      714.16318    
   6082000   303.7156       0.042618159    12.578797      753.52677     -75.178222      678.34855    
   6083000   282.65064      0.042618159    21.99586       701.26404     -76.549683      624.71435    
   6084000   292.04529      0.042618159    23.186636      724.57242     -80.300869      644.27155    
   6085000   306.37183      0.042618159    26.465047      760.11696     -78.750641      681.36632    
   6086000   306.14591      0.042618159    20.708609      759.55644     -77.851207      681.70524    
   6087000   293.92754      0.042618159    17.910748      729.24232     -80.449811      648.79251    
   6088000   286.26452      0.042618159    31.946202      710.23016     -73.326896      636.90326    
   6089000   302.58752      0.042618159    22.159853      750.72798     -82.320583      668.4074     
   6090000   291.60168      0.042618159    4.5733125      723.47181     -79.420338      644.05148    
   6091000   309.88913      0.042618159    30.51852       768.84348     -83.892993      684.95049    
   6092000   302.79713      0.042618159    26.561506      751.24802     -79.418445      671.82957    
   6093000   303.40413      0.042618159    19.25388       752.754       -74.599307      678.15469    
   6094000   292.47898      0.042618159    6.6157532      725.64841     -86.255719      639.39269    
   6095000   286.69081      0.042618159    8.2569495      711.2878      -78.130126      633.15767    
   6096000   294.59395      0.042618159    26.992382      730.89571     -80.87025       650.02546    
   6097000   306.89588      0.042618159    30.703462      761.41713     -79.920659      681.49647    
   6098000   306.96592      0.042618159    21.404761      761.59091     -76.278866      685.31204    
   6099000   298.33509      0.042618159    29.235378      740.17757     -74.147424      666.03015    
   6100000   295.41728      0.042618159    32.29031       732.93842     -77.100869      655.83755    
   6101000   306.17893      0.042618159    22.271402      759.63837     -71.884919      687.75345    
   6102000   313.05211      0.042618159    18.450853      776.69091     -77.243831      699.44708    
   6103000   303.73062      0.042618159    22.932388      753.56404     -69.725455      683.83858    
   6104000   297.27367      0.042618159    18.894064      737.54416     -75.803961      661.7402     
   6105000   289.49867      0.042618159    22.762132      718.25417     -76.517996      641.73618    
   6106000   312.69833      0.042618159    22.73936       775.81317     -76.935291      698.87788    
   6107000   303.60486      0.042618159    25.155293      753.25202     -78.829535      674.42248    
   6108000   290.08702      0.042618159    18.910995      719.71389     -85.060326      634.65356    
   6109000   290.96334      0.042618159    27.706609      721.88806     -82.207499      639.68056    
   6110000   312.82866      0.042618159    24.10495       776.13654     -77.218129      698.91841    
   6111000   309.97655      0.042618159    17.495686      769.06037     -77.555873      691.50449    
   6112000   289.50169      0.042618159    15.794175      718.26168     -81.540157      636.72153    
   6113000   285.49883      0.042618159    22.568096      708.33048     -73.827527      634.50295    
   6114000   331.64867      0.042618159    27.495996      822.82949     -74.232822      748.59667    
   6115000   307.45644      0.042618159    22.354052      762.80791     -70.094134      692.71378    
   6116000   295.63966      0.042618159    18.280454      733.49014     -65.098011      668.39213    
   6117000   299.94211      0.042618159    19.726959      744.16464     -65.972241      678.1924     
   6118000   305.17142      0.042618159    22.918079      757.13872     -65.645817      691.4929     
   6119000   310.81812      0.042618159    21.7981        771.14832     -64.293961      706.85436    
   6120000   291.96721      0.042618159    21.157805      724.3787      -71.341409      653.03729    
   6121000   303.25509      0.042618159    23.558595      752.38424     -60.406119      691.97812    
   6122000   309.03057      0.042618159    23.27708       766.71335     -61.594726      705.11862    
   6123000   297.31876      0.042618159    25.103336      737.65603     -67.027318      670.62872    
   6124000   285.94808      0.042618159    18.274457      709.44508     -63.204056      646.24102    
   6125000   299.74747      0.042618159    20.341222      743.68175     -67.571231      676.11052    
   6126000   306.01661      0.042618159    26.475942      759.23565     -71.8757        687.35995    
   6127000   299.84043      0.042618159    21.526547      743.91237     -66.861211      677.05116    
   6128000   302.81361      0.042618159    15.534238      751.28891     -69.882713      681.4062     
   6129000   301.88184      0.042618159    23.023864      748.97716     -75.000836      673.97632    
   6130000   291.51374      0.042618159    29.997607      723.25362     -77.789555      645.46407    
   6131000   286.69938      0.042618159    10.646436      711.30905     -83.421512      627.88754    
   6132000   306.96027      0.042618159    17.967663      761.5769      -80.123878      681.45302    
   6133000   303.73914      0.042618159    31.980082      753.58518     -79.53062       674.05456    
   6134000   283.07304      0.042618159    20.506753      702.31202     -78.816951      623.49507    
   6135000   292.802        0.042618159    12.974901      726.44982     -86.338044      640.11178    
   6136000   323.38028      0.042618159    18.629636      802.3154      -72.883105      729.4323     
   6137000   300.23108      0.042618159    24.414138      744.88159     -79.370518      665.51108    
   6138000   283.03641      0.042618159    19.206479      702.22113     -82.494272      619.72686    
   6139000   291.48809      0.042618159    21.668918      723.19        -82.885554      640.30444    
   6140000   310.30282      0.042618159    22.583833      769.86986     -80.574947      689.29491    
   6141000   308.22771      0.042618159    21.055762      764.72144     -78.650535      686.0709     
   6142000   300.58847      0.042618159    23.021276      745.76829     -77.705876      668.06241    
   6143000   294.69672      0.042618159    19.887705      731.15069     -74.264602      656.88609    
   6144000   297.57146      0.042618159    22.267904      738.28299     -73.467184      664.81581    
   6145000   276.57796      0.042618159    18.873535      686.19754     -83.238988      602.95855    
   6146000   307.60655      0.042618159    19.641743      763.18034     -75.052668      688.12767    
   6147000   297.46859      0.042618159    24.73762       738.02776     -76.078726      661.94903    
   6148000   291.19048      0.042618159    21.110373      722.4516      -75.518482      646.93311    
   6149000   308.47599      0.042618159    5.7847175      765.33745     -70.252544      695.0849     
   6150000   312.96942      0.042618159    24.876011      776.48575     -65.258629      711.22712    
   6151000   296.62967      0.042618159    27.612225      735.94638     -67.034616      668.91176    
   6152000   296.63362      0.042618159    23.358942      735.95618     -61.778262      674.17792    
   6153000   316.93878      0.042618159    13.567894      786.33386     -68.536684      717.79717    
   6154000   294.48376      0.042618159    19.047286      730.62233     -73.696441      656.92589    
   6155000   290.11596      0.042618159    22.087287      719.7857      -73.850888      645.93481    
   6156000   303.83875      0.042618159    14.634171      753.83232     -75.227751      678.60457    
   6157000   302.54829      0.042618159    18.858343      750.63065     -79.619256      671.01139    
   6158000   301.52636      0.042618159    28.271035      748.0952      -70.758694      677.33651    
   6159000   285.59974      0.042618159    18.424979      708.58084     -74.147532      634.4333     
   6160000   307.58332      0.042618159    14.650659      763.1227      -64.479436      698.64327    
   6161000   307.44284      0.042618159    25.615212      762.77416     -73.849263      688.9249     
   6162000   280.45731      0.042618159    21.043587      695.82231     -76.036401      619.78591    
   6163000   299.58529      0.042618159    21.092978      743.27937     -68.737989      674.54138    
   6164000   326.73872      0.042618159    24.367252      810.64776     -73.403105      737.24465    
   6165000   296.90488      0.042618159    24.888906      736.6292      -64.848362      671.78084    
   6166000   292.06389      0.042618159    22.411554      724.61856     -65.607908      659.01066    
   6167000   304.39151      0.042618159    23.962515      755.20373     -64.69828       690.50545    
   6168000   305.31533      0.042618159    22.622366      757.49576     -63.517381      693.97838    
   6169000   289.86943      0.042618159    21.220566      719.17405     -73.290205      645.88384    
   6170000   289.40589      0.042618159    17.140539      718.02398     -66.423439      651.60054    
   6171000   306.42849      0.042618159    25.509068      760.25753     -68.784243      691.47329    
   6172000   297.95263      0.042618159    9.8510848      739.22868     -73.846819      665.38186    
   6173000   295.88025      0.042618159    25.125054      734.08705     -65.947392      668.13966    
   6174000   309.63441      0.042618159    25.270034      768.21151     -70.199983      698.01153    
   6175000   286.05008      0.042618159    11.08476       709.69814     -77.41193       632.28621    
   6176000   309.89778      0.042618159    27.905578      768.86494     -72.508323      696.35661    
   6177000   314.25888      0.042618159    11.477748      779.68495     -77.697198      701.98775    
   6178000   290.51073      0.042618159    10.285317      720.76512     -74.130699      646.63442    
   6179000   300.07997      0.042618159    22.124682      744.50668     -63.39456       681.11212    
   6180000   312.95566      0.042618159    24.431188      776.45163     -66.383237      710.06839    
   6181000   303.55983      0.042618159    22.307189      753.14031     -68.940062      684.20025    
   6182000   302.03735      0.042618159    25.387046      749.36298     -75.799842      673.56314    
   6183000   295.05415      0.042618159    24.410471      732.03748     -68.447786      663.58969    
   6184000   314.55935      0.042618159    28.525765      780.43042     -69.430502      710.99992    
   6185000   320.32605      0.042618159    22.656314      794.73776     -67.299841      727.43792    
   6186000   297.58106      0.042618159    19.54662       738.30682     -63.541487      674.76533    
   6187000   290.59518      0.042618159    21.227881      720.97464     -63.445205      657.52944    
   6188000   308.25611      0.042618159    23.640417      764.79191     -71.731378      693.06054    
   6189000   291.58565      0.042618159    22.211952      723.43205     -65.924619      657.50743    
   6190000   288.66173      0.042618159    22.213768      716.1777      -67.509552      648.66815    
   6191000   295.15889      0.042618159    21.534941      732.29734     -65.798764      666.49857    
   6192000   291.81011      0.042618159    33.851004      723.98893     -70.164545      653.82439    
   6193000   300.3867       0.042618159    21.543792      745.26768     -71.65109       673.61659    
   6194000   305.42443      0.042618159    0.36824113     757.76643     -68.539356      689.22707    
   6195000   302.26424      0.042618159    25.5676        749.92591     -66.186059      683.73986    
   6196000   305.77683      0.042618159    21.400227      758.64074     -70.926481      687.71426    
   6197000   299.95305      0.042618159    14.971615      744.19178     -75.698506      668.49327    
   6198000   300.91798      0.042618159    34.246551      746.58581     -70.646748      675.93907    
   6199000   299.37516      0.042618159    10.696301      742.75802     -64.653057      678.10497    
   6200000   299.47764      0.042618159    18.37883       743.01228     -66.248303      676.76398    
   6201000   294.90656      0.042618159    22.595991      731.6713      -65.968548      665.70275    
   6202000   299.91826      0.042618159    23.953916      744.10547     -71.027196      673.07828    
   6203000   293.75516      0.042618159    20.714054      728.81464     -69.101557      659.71309    
   6204000   289.54723      0.042618159    20.090398      718.37466     -72.228976      646.14568    
   6205000   304.2875       0.042618159    27.279104      754.94568     -74.081446      680.86424    
   6206000   304.41046      0.042618159    18.94343       755.25074     -76.787345      678.4634     
   6207000   295.84968      0.042618159    19.066053      734.01122     -68.715728      665.29549    
   6208000   282.93329      0.042618159    15.275434      701.9653      -64.714431      637.25087    
   6209000   298.42142      0.042618159    22.759338      740.39178     -72.937472      667.45431    
   6210000   317.40839      0.042618159    22.674656      787.49898     -69.756051      717.74293    
   6211000   291.77349      0.042618159    15.05962       723.89806     -73.690409      650.20765    
   6212000   294.88189      0.042618159    21.578019      731.61009     -67.751056      663.85903    
   6213000   304.67669      0.042618159    21.507799      755.91126     -69.26102       686.65024    
   6214000   299.4336       0.042618159    23.615325      742.90303     -70.751675      672.15135    
   6215000   294.53323      0.042618159    21.636545      730.74505     -69.010399      661.73465    
   6216000   325.63507      0.042618159    22.359788      807.90959     -69.347804      738.56179    
   6217000   303.71964      0.042618159    22.501887      753.53679     -77.014803      676.52199    
   6218000   300.77184      0.042618159    26.200445      746.22324     -70.389175      675.83406    
   6219000   296.58566      0.042618159    22.741505      735.83721     -73.656497      662.18071    
   6220000   303.26743      0.042618159    21.003228      752.41485     -73.022078      679.39277    
   6221000   308.26877      0.042618159    23.625481      764.82331     -79.333021      685.49029    
   6222000   299.8673       0.042618159    25.012417      743.97904     -70.502914      673.47612    
   6223000   285.66239      0.042618159    12.072116      708.73628     -70.990044      637.74623    
   6224000   303.53849      0.042618159    19.588256      753.08737     -72.938875      680.14849    
   6225000   306.41475      0.042618159    29.135655      760.22344     -74.978418      685.24502    
   6226000   292.47772      0.042618159    26.496749      725.64529     -73.341035      652.30425    
   6227000   288.11974      0.042618159    9.9388629      714.83302     -81.118827      633.71419    
   6228000   309.19696      0.042618159    23.225063      767.12617     -80.181772      686.9444     
   6229000   289.48514      0.042618159    20.663004      718.22061     -78.36048       639.86013    
   6230000   303.05195      0.042618159    17.312131      751.88023     -84.044194      667.83604    
   6231000   301.50145      0.042618159    21.143007      748.03342     -75.629752      672.40367    
   6232000   317.17184      0.042618159    31.660163      786.91207     -74.521854      712.39021    
   6233000   287.98409      0.042618159    20.840455      714.49645     -67.967066      646.52939    
   6234000   299.22484      0.042618159    20.568187      742.38507     -68.858641      673.52643    
   6235000   314.26177      0.042618159    31.571745      779.69212     -74.777204      704.91492    
   6236000   300.91869      0.042618159    25.159947      746.58756     -70.6245        675.96306    
   6237000   284.97365      0.042618159    18.559844      707.02747     -75.525005      631.50247    
   6238000   309.50396      0.042618159    20.762869      767.88785     -79.663105      688.22475    
   6239000   304.14988      0.042618159    22.024065      754.60424     -79.654137      674.9501     
   6240000   289.95693      0.042618159    29.601854      719.39113     -80.064901      639.32623    
   6241000   301.25512      0.042618159    25.420806      747.42225     -74.873201      672.54905    
   6242000   303.37103      0.042618159    14.05303       752.6719      -76.072039      676.59986    
   6243000   304.62678      0.042618159    22.652082      755.78745     -78.836077      676.95137    
   6244000   291.84171      0.042618159    22.497359      724.06732     -81.981233      642.08609    
   6245000   292.84665      0.042618159    19.280899      726.56061     -72.467086      654.09352    
   6246000   322.45014      0.042618159    24.216225      800.00769     -79.197263      720.81042    
   6247000   308.39436      0.042618159    17.105763      765.13492     -73.07815       692.05677    
   6248000   289.78727      0.042618159    21.915338      718.9702      -76.534107      642.43609    
   6249000   293.91049      0.042618159    18.380858      729.20004     -75.408286      653.79175    
   6250000   296.91947      0.042618159    21.383769      736.66539     -72.418558      664.24683    
   6251000   308.18834      0.042618159    19.400872      764.62376     -76.629457      687.9943     
   6252000   293.47448      0.042618159    24.069067      728.11827     -80.121197      647.99708    
   6253000   276.80598      0.042618159    17.929492      686.76326     -76.954155      609.8091     
   6254000   294.49217      0.042618159    22.489248      730.64318     -72.45673       658.18645    
   6255000   304.21797      0.042618159    20.471069      754.77318     -69.856494      684.91668    
   6256000   311.95144      0.042618159    18.463823      773.96012     -65.331954      708.62817    
   6257000   293.27719      0.042618159    22.936023      727.62878     -71.845943      655.78284    
   6258000   296.05894      0.042618159    19.943874      734.5304      -74.10501       660.42539    
   6259000   311.44983      0.042618159    21.510634      772.71562     -78.142605      694.57302    
   6260000   317.28515      0.042618159    21.583196      787.1932      -72.472186      714.72101    
   6261000   315.08587      0.042618159    18.22387       781.73673     -74.028907      707.70782    
   6262000   282.73686      0.042618159    19.626271      701.47794     -64.809054      636.66888    
   6263000   297.09645      0.042618159    24.87028       737.10448     -70.94333       666.16115    
   6264000   305.54809      0.042618159    8.228219       758.07323     -72.019615      686.05362    
   6265000   276.66103      0.042618159    24.759986      686.40364     -75.795024      610.60861    
   6266000   303.74571      0.042618159    22.236036      753.60147     -76.037739      677.56373    
   6267000   304.90714      0.042618159    9.8575255      756.48302     -70.456959      686.02606    
   6268000   293.12244      0.042618159    28.710417      727.24486     -67.716158      659.52871    
   6269000   310.93598      0.042618159    34.097402      771.44073     -73.873502      697.56723    
   6270000   299.83259      0.042618159    11.084926      743.89292     -78.188005      665.70492    
   6271000   305.3655       0.042618159    21.867243      757.62023     -77.092109      680.52812    
   6272000   303.89724      0.042618159    43.845035      753.97742     -78.508198      675.46922    
   6273000   303.38888      0.042618159    13.469597      752.71616     -77.224901      675.49126    
   6274000   315.32974      0.042618159    16.338961      782.34178     -79.106388      703.23539    
   6275000   301.92595      0.042618159    16.79989       749.08659     -71.80532       677.28127    
   6276000   293.88565      0.042618159    28.641769      729.13839     -74.93341       654.20498    
   6277000   305.7914       0.042618159    28.625882      758.67688     -78.933212      679.74367    
   6278000   311.6455       0.042618159    20.272814      773.20108     -78.853654      694.34742    
   6279000   305.85575      0.042618159    16.662623      758.83655     -79.768323      679.06823    
   6280000   289.44026      0.042618159    20.290819      718.10927     -77.630905      640.47837    
   6281000   318.45121      0.042618159    28.463177      790.08623     -82.169807      707.91642    
   6282000   301.31624      0.042618159    24.043655      747.57388     -72.188627      675.38526    
   6283000   297.54901      0.042618159    18.498957      738.2273      -75.504755      662.72254    
   6284000   301.73603      0.042618159    21.946093      748.6154      -77.198805      671.4166     
   6285000   299.38758      0.042618159    21.70719       742.78884     -80.356738      662.4321     
   6286000   286.08767      0.042618159    22.958656      709.7914      -80.736978      629.05442    
   6287000   297.44744      0.042618159    20.130756      737.97529     -76.262736      661.71255    
   6288000   319.27234      0.042618159    24.275193      792.12348     -79.690214      712.43327    
   6289000   301.52164      0.042618159    20.355474      748.0835      -77.276292      670.80721    
   6290000   292.27053      0.042618159    9.2566036      725.13125     -77.283386      647.84786    
   6291000   296.38034      0.042618159    17.758495      735.32779     -77.733735      657.59406    
   6292000   296.37781      0.042618159    25.640723      735.32153     -82.044045      653.27748    
   6293000   301.18536      0.042618159    24.817694      747.24919     -80.166377      667.08281    
   6294000   316.28651      0.042618159    12.327695      784.71554     -77.511882      707.20366    
   6295000   296.11797      0.042618159    21.57055       734.67686     -69.764622      664.91224    
   6296000   297.81843      0.042618159    29.996312      738.89574     -76.917625      661.97811    
   6297000   300.10262      0.042618159    11.622916      744.56288     -70.772939      673.78994    
   6298000   297.29145      0.042618159    20.815495      737.58828     -78.964817      658.62346    
   6299000   299.13383      0.042618159    29.217466      742.15928     -73.107065      669.05222    
   6300000   306.58899      0.042618159    21.966368      760.65574     -70.165013      690.49073    
   6301000   297.51012      0.042618159    29.506093      738.13081     -72.320669      665.81014    
   6302000   299.5436       0.042618159    20.176006      743.17592     -62.659625      680.5163     
   6303000   310.04749      0.042618159    23.190642      769.23637     -65.612366      703.62401    
   6304000   301.21801      0.042618159    23.944646      747.33019     -69.345859      677.98433    
   6305000   288.76005      0.042618159    19.222307      716.42166     -73.01022       643.41144    
   6306000   298.71758      0.042618159    23.318953      741.12656     -77.96947       663.15709    
   6307000   312.66858      0.042618159    22.07599       775.73936     -75.861868      699.87749    
   6308000   301.1707       0.042618159    24.270581      747.21281     -75.479198      671.73361    
   6309000   284.41184      0.042618159    16.863003      705.63361     -80.810794      624.82282    
   6310000   310.31897      0.042618159    19.050502      769.90991     -78.874237      691.03567    
   6311000   288.31234      0.042618159    25.572638      715.31087     -84.47983       630.83104    
   6312000   280.40935      0.042618159    17.937953      695.70334     -84.632107      611.07123    
   6313000   297.40618      0.042618159    19.111008      737.87292     -85.638395      652.23453    
   6314000   308.21516      0.042618159    24.230194      764.6903      -87.502986      677.18732    
   6315000   287.07937      0.042618159    16.904971      712.25183     -80.336589      631.91525    
   6316000   298.78269      0.042618159    16.661796      741.28809     -80.194187      661.09391    
   6317000   312.3339       0.042618159    22.820179      774.90901     -77.207801      697.70121    
   6318000   299.27678      0.042618159    23.079591      742.51394     -82.173891      660.34005    
   6319000   306.29603      0.042618159    16.654652      759.9289      -78.497397      681.43151    
   6320000   319.52408      0.042618159    22.300631      792.74804     -75.152739      717.5953     
   6321000   305.5009       0.042618159    25.69943       757.95615     -74.924733      683.03142    
   6322000   287.13751      0.042618159    15.922159      712.39607     -76.349973      636.0461     
   6323000   308.94053      0.042618159    9.1469549      766.48996     -70.039686      696.45027    
   6324000   316.69724      0.042618159    26.890219      785.73459     -70.990157      714.74443    
   6325000   290.28624      0.042618159    28.648655      720.20815     -69.39845       650.8097     
   6326000   307.39715      0.042618159    21.521495      762.66079     -67.534717      695.12607    
   6327000   302.61446      0.042618159    15.462861      750.79482     -75.395545      675.39928    
   6328000   303.05622      0.042618159    23.639903      751.89083     -74.71094       677.17989    
   6329000   291.80519      0.042618159    19.390416      723.97673     -67.63003       656.3467     
   6330000   298.50371      0.042618159    14.029869      740.59593     -67.045646      673.55029    
   6331000   313.78006      0.042618159    30.079097      778.49699     -68.096527      710.40046    
   6332000   305.42963      0.042618159    29.935612      757.77932     -67.752024      690.0273     
   6333000   288.25783      0.042618159    13.603074      715.17561     -63.92743       651.24818    
   6334000   291.89148      0.042618159    22.674691      724.1908      -70.935617      653.25518    
   6335000   291.10083      0.042618159    26.066548      722.22918     -64.965078      657.26411    
   6336000   308.16547      0.042618159    22.54425       764.56703     -63.620501      700.94652    
   6337000   295.33785      0.042618159    22.073305      732.74135     -65.251752      667.4896     
   6338000   310.52846      0.042618159    18.234441      770.42967     -67.197574      703.2321     
   6339000   297.43972      0.042618159    17.755362      737.95613     -70.764033      667.1921     
   6340000   299.89563      0.042618159    23.149515      744.04933     -67.517727      676.5316     
   6341000   293.43586      0.042618159    23.481082      728.02245     -69.134302      658.88815    
   6342000   303.96554      0.042618159    21.123335      754.14689     -70.285661      683.86123    
   6343000   308.0268       0.042618159    27.73442       764.22297     -66.165997      698.05698    
   6344000   284.1749       0.042618159    23.652895      705.04575     -61.09735       643.9484     
   6345000   308.06622      0.042618159    17.125478      764.3208      -69.89007       694.43073    
   6346000   317.56535      0.042618159    23.411251      787.88838     -63.349575      724.5388     
   6347000   297.06363      0.042618159    24.670852      737.02306     -62.531846      674.49122    
   6348000   297.10682      0.042618159    20.443801      737.13022     -65.595174      671.53504    
   6349000   294.73577      0.042618159    24.631153      731.24758     -68.953077      662.2945     
   6350000   297.5249       0.042618159    26.654015      738.16749     -67.485626      670.68186    
   6351000   309.43025      0.042618159    16.113909      767.70499     -54.513292      713.1917     
   6352000   299.07382      0.042618159    25.232061      742.01038     -57.419713      684.59067    
   6353000   290.74585      0.042618159    21.869679      721.34846     -60.225766      661.12269    
   6354000   298.23741      0.042618159    22.993746      739.93524     -64.367235      675.568      
   6355000   305.51046      0.042618159    16.356839      757.97988     -63.814445      694.16544    
   6356000   293.45384      0.042618159    18.752007      728.06706     -71.867789      656.19927    
   6357000   298.99986      0.042618159    22.515463      741.8269      -71.998022      669.82888    
   6358000   291.52005      0.042618159    20.759342      723.26927     -73.537072      649.7322     
   6359000   301.40561      0.042618159    24.046276      747.79562     -76.395442      671.40018    
   6360000   292.49719      0.042618159    22.790096      725.69359     -74.717375      650.97621    
   6361000   290.85166      0.042618159    22.382674      721.61099     -70.159852      651.45114    
   6362000   304.22801      0.042618159    21.157285      754.79807     -72.682557      682.11551    
   6363000   298.52148      0.042618159    23.349796      740.64001     -81.981078      658.65893    
   6364000   294.58001      0.042618159    16.855498      730.86113     -81.336542      649.52458    
   6365000   315.32793      0.042618159    20.862803      782.33729     -81.588         700.74929    
   6366000   305.43319      0.042618159    23.40717       757.78816     -78.9381        678.85006    
   6367000   293.39496      0.042618159    23.861393      727.92099     -72.63717       655.28382    
   6368000   306.35144      0.042618159    20.865206      760.06637     -84.250633      675.81574    
   6369000   299.67277      0.042618159    22.12078       743.4964      -86.26474       657.23166    
   6370000   291.56039      0.042618159    20.423486      723.36937     -80.499855      642.86951    
   6371000   307.82525      0.042618159    23.808646      763.72293     -80.602957      683.11997    
   6372000   300.13634      0.042618159    22.626254      744.64653     -78.327248      666.31928    
   6373000   300.74625      0.042618159    9.45455        746.15974     -74.827284      671.33246    
   6374000   309.19285      0.042618159    23.433226      767.116       -73.604739      693.51126    
   6375000   302.94665      0.042618159    21.507357      751.619       -71.367107      680.25189    
   6376000   276.18388      0.042618159    20.779374      685.21981     -75.146204      610.07361    
   6377000   302.23014      0.042618159    24.186895      749.84132     -76.913405      672.92791    
   6378000   306.78845      0.042618159    21.111511      761.1506      -75.44949       685.70111    
   6379000   303.52946      0.042618159    21.588408      753.06495     -87.545737      665.51921    
   6380000   296.17629      0.042618159    19.790654      734.82153     -79.344726      655.4768     
   6381000   298.33735      0.042618159    18.338817      740.18318     -78.836938      661.34624    
   6382000   298.0978       0.042618159    22.784848      739.58887     -78.758097      660.83077    
   6383000   304.36037      0.042618159    20.922085      755.12646     -74.713947      680.41251    
   6384000   317.51507      0.042618159    30.433428      787.76365     -77.12203       710.64162    
   6385000   301.82797      0.042618159    22.402587      748.8435      -76.501201      672.3423     
   6386000   300.00044      0.042618159    4.9742726      744.30937     -81.609977      662.69939    
   6387000   302.80074      0.042618159    19.759113      751.25698     -85.068949      666.18803    
   6388000   306.44966      0.042618159    34.655684      760.31005     -84.803821      675.50623    
   6389000   298.54287      0.042618159    17.561655      740.69309     -86.160992      654.5321     
   6390000   299.74622      0.042618159    19.364057      743.67864     -80.169224      663.50941    
   6391000   306.96932      0.042618159    23.191006      761.59934     -82.702914      678.89643    
   6392000   295.00021      0.042618159    30.202587      731.90366     -71.632383      660.27127    
   6393000   285.81287      0.042618159    22.11727       709.1096      -69.057524      640.05208    
   6394000   303.69277      0.042618159    18.380845      753.47014     -65.862734      687.6074     
   6395000   307.23947      0.042618159    20.274237      762.26959     -66.080677      696.18891    
   6396000   301.82485      0.042618159    27.056037      748.83578     -69.924172      678.91161    
   6397000   304.86296      0.042618159    23.735598      756.3734      -68.56087       687.81253    
   6398000   291.3883       0.042618159    21.743715      722.94242     -69.931349      653.01107    
   6399000   295.61808      0.042618159    22.804094      733.4366      -70.020798      663.4158     
   6400000   318.22404      0.042618159    23.787727      789.52261     -68.710147      720.81246    
   6401000   291.47102      0.042618159    19.487594      723.14763     -69.599352      653.54828    
   6402000   299.53837      0.042618159    23.551586      743.16295     -67.885152      675.27779    
   6403000   310.10576      0.042618159    19.967082      769.38094     -72.935682      696.44526    
   6404000   289.67905      0.042618159    25.356234      718.7017      -77.521464      641.18023    
   6405000   301.62004      0.042618159    33.576217      748.32763     -82.842253      665.48537    
   6406000   308.0883       0.042618159    23.030816      764.37557     -80.934463      683.44111    
   6407000   288.79937      0.042618159    23.396672      716.5192      -78.145601      638.3736     
   6408000   290.33607      0.042618159    22.081641      720.3318      -75.043261      645.28854    
   6409000   306.95625      0.042618159    17.284262      761.56691     -73.600665      687.96625    
   6410000   309.81421      0.042618159    22.551096      768.6576      -74.897171      693.76043    
   6411000   284.50217      0.042618159    33.057098      705.85774     -73.388782      632.46895    
   6412000   303.48927      0.042618159    4.3924767      752.96523     -72.928558      680.03668    
   6413000   299.38822      0.042618159    7.5325266      742.79044     -66.814941      675.97549    
   6414000   306.82018      0.042618159    25.03969       761.22933     -74.359766      686.86957    
   6415000   302.53008      0.042618159    27.761787      750.58546     -69.59884       680.98662    
   6416000   292.02117      0.042618159    22.211575      724.51258     -67.349644      657.16294    
   6417000   291.51137      0.042618159    19.498833      723.24774     -63.808202      659.43954    
   6418000   303.73811      0.042618159    20.599783      753.58262     -64.829921      688.7527     
   6419000   308.30241      0.042618159    20.961951      764.90677     -64.379464      700.52731    
   6420000   276.03505      0.042618159    22.497215      684.85056     -67.233578      617.61698    
   6421000   301.72438      0.042618159    21.301222      748.5865      -67.227575      681.35892    
   6422000   309.03403      0.042618159    21.802466      766.72196     -67.807171      698.91478    
   6423000   290.50232      0.042618159    16.228036      720.74426     -72.265441      648.47882    
   6424000   304.35671      0.042618159    34.428439      755.11739     -69.382577      685.73482    
   6425000   309.19996      0.042618159    32.46785       767.13363     -65.765399      701.36823    
   6426000   309.53828      0.042618159    9.3021194      767.97302     -65.18546       702.78756    
   6427000   288.10629      0.042618159    25.78453       714.79965     -75.92556       638.87409    
   6428000   303.88574      0.042618159    39.960126      753.9489      -72.482786      681.46611    
   6429000   307.56277      0.042618159    19.856636      763.07172     -67.851831      695.21989    
   6430000   307.24018      0.042618159    3.3336904      762.27135     -73.434828      688.83652    
   6431000   291.71873      0.042618159    21.862016      723.7622      -75.12589       648.63631    
   6432000   290.05862      0.042618159    9.9079754      719.64343     -70.681712      648.96172    
   6433000   302.25072      0.042618159    51.667875      749.89236     -69.887266      680.0051     
   6434000   306.87646      0.042618159    26.169409      761.36896     -69.509469      691.85949    
   6435000   313.88865      0.042618159    11.750454      778.7664      -69.571381      709.19502    
   6436000   305.68085      0.042618159    11.052777      758.40262     -75.517188      682.88543    
   6437000   299.78306      0.042618159    64.191943      743.77004     -70.598243      673.17179    
   6438000   304.97154      0.042618159    35.089119      756.64279     -74.038228      682.60456    
   6439000   299.70027      0.042618159    4.9534975      743.56462     -72.21108       671.35354    
   6440000   296.39586      0.042618159    55.268699      735.36629     -69.32416       666.04213    
   6441000   306.45914      0.042618159    43.37811       760.33356     -60.795575      699.53799    
   6442000   299.74089      0.042618159   -0.44669735     743.66542     -67.578167      676.08725    
   6443000   306.07934      0.042618159    44.478231      759.39129     -64.606326      694.78496    
   6444000   300.0424       0.042618159    35.528221      744.41345     -65.58673       678.82672    
   6445000   283.75575      0.042618159   -8.2926271      704.00585     -63.75568       640.25017    
   6446000   305.02355      0.042618159    21.420549      756.77183     -62.327354      694.44448    
   6447000   309.39147      0.042618159    37.18468       767.60876     -64.531117      703.07764    
   6448000   304.3439       0.042618159    27.572555      755.0856      -61.152917      693.93268    
   6449000   292.83217      0.042618159    9.5959227      726.5247      -62.028919      664.49578    
   6450000   296.29984      0.042618159    21.758155      735.12808     -66.958463      668.16961    
   6451000   307.24107      0.042618159    41.211041      762.27356     -72.204384      690.06917    
   6452000   286.95696      0.042618159    26.236102      711.94812     -65.166638      646.78148    
   6453000   314.55366      0.042618159    32.909376      780.41631     -75.204192      705.21212    
   6454000   311.83083      0.042618159    13.602528      773.66089     -71.398579      702.26231    
   6455000   297.48212      0.042618159   -5.0602559      738.06133     -75.549852      662.51148    
   6456000   280.25735      0.042618159    10.022854      695.3262      -69.95581       625.37039    
   6457000   295.97039      0.042618159    18.619701      734.31069     -68.824789      665.4859     
   6458000   297.71554      0.042618159    22.385442      738.64047     -68.514984      670.12549    
   6459000   306.98512      0.042618159    19.986224      761.63854     -71.126128      690.51241    
   6460000   305.84169      0.042618159    17.545891      758.80167     -73.98725       684.81442    
   6461000   307.35949      0.042618159    23.150145      762.56738     -74.513965      688.05341    
   6462000   288.81288      0.042618159    20.094865      716.55273     -76.399318      640.15341    
   6463000   299.30712      0.042618159    16.890154      742.58922     -79.310955      663.27827    
   6464000   304.24408      0.042618159    22.775347      754.83796     -73.784814      681.05314    
   6465000   294.81876      0.042618159    21.781909      731.45347     -76.434841      655.01862    
   6466000   294.03679      0.042618159    17.722659      729.51339     -73.811451      655.70194    
   6467000   299.66008      0.042618159    21.198381      743.46492     -78.815818      664.6491     
   6468000   302.88886      0.042618159    21.619151      751.47561     -75.363869      676.11174    
   6469000   307.39124      0.042618159    22.115818      762.64615     -77.921627      684.72452    
   6470000   288.77692      0.042618159    21.830672      716.4635      -73.707027      642.75647    
   6471000   304.08642      0.042618159    21.909032      754.44678     -70.017699      684.42908    
   6472000   303.37106      0.042618159    20.349055      752.67197     -72.224265      680.4477     
   6473000   305.31566      0.042618159    23.662767      757.49656     -66.398244      691.09832    
   6474000   297.51049      0.042618159    21.157843      738.13173     -69.387993      668.74374    
   6475000   283.49883      0.042618159    19.227766      703.3684      -71.080051      632.28835    
   6476000   290.00283      0.042618159    19.470534      719.50501     -67.893947      651.61106    
   6477000   307.70195      0.042618159    21.402855      763.41703     -67.520648      695.89638    
   6478000   309.06751      0.042618159    20.606454      766.805       -75.245518      691.55949    
   6479000   293.4875       0.042618159    21.350948      728.15059     -79.06634       649.08425    
   6480000   306.51872      0.042618159    28.203625      760.4814      -78.534456      681.94694    
   6481000   299.46101      0.042618159    17.611964      742.97103     -73.243971      669.72706    
   6482000   300.85734      0.042618159    20.416307      746.43534     -69.821407      676.61394    
   6483000   308.31875      0.042618159    24.294099      764.94731     -68.038351      696.90896    
   6484000   299.00085      0.042618159    19.527369      741.82936     -71.990267      669.83909    
   6485000   291.93607      0.042618159    22.892904      724.30145     -70.704163      653.59728    
   6486000   313.43298      0.042618159    25.028853      777.63586     -65.445669      712.19019    
   6487000   313.9476       0.042618159    22.468175      778.91266     -60.514024      718.39863    
   6488000   297.37446      0.042618159    25.145881      737.79424     -63.192118      674.60212    
   6489000   292.94225      0.042618159    14.303543      726.79779     -70.505766      656.29202    
   6490000   307.49406      0.042618159    15.274196      762.90125     -67.551771      695.34948    
   6491000   307.2951       0.042618159    25.493495      762.40761     -60.704575      701.70303    
   6492000   299.28374      0.042618159    38.556023      742.53122     -55.398807      687.13241    
   6493000   307.77091      0.042618159    20.243223      763.58811     -72.94039       690.64772    
   6494000   308.63752      0.042618159    9.8966904      765.73819     -60.152726      705.58546    
   6495000   306.37566      0.042618159    10.184276      760.12645     -66.270828      693.85562    
   6496000   304.12707      0.042618159    23.846793      754.54765     -70.212162      684.33549    
   6497000   312.42181      0.042618159    38.453881      775.12713     -65.917795      709.20933    
   6498000   297.62396      0.042618159    24.719514      738.41325     -66.020657      672.39259    
   6499000   306.40792      0.042618159    15.636881      760.20649     -64.637891      695.5686     
   6500000   310.59614      0.042618159    21.509554      770.59758     -65.631623      704.96596    
   6501000   302.97586      0.042618159    10.255971      751.69145     -70.546548      681.1449     
   6502000   312.38285      0.042618159    24.45843       775.03046     -74.270085      700.76038    
   6503000   288.19287      0.042618159    22.838973      715.01445     -75.837694      639.17675    
   6504000   291.49794      0.042618159    24.384775      723.21442     -72.194879      651.01954    
   6505000   294.87964      0.042618159    18.164744      731.60451     -71.313571      660.29093    
   6506000   310.0015       0.042618159    20.371087      769.12227     -69.480563      699.6417     
   6507000   300.36386      0.042618159    19.443451      745.21103     -73.637574      671.57345    
   6508000   284.39617      0.042618159    19.529645      705.59473     -72.194061      633.40067    
   6509000   295.71613      0.042618159    20.160614      733.67986     -68.163128      665.51673    
   6510000   298.59434      0.042618159    25.079727      740.82079     -69.258846      671.56194    
   6511000   307.53678      0.042618159    22.516559      763.00724     -70.575996      692.43124    
   6512000   296.44239      0.042618159    19.696662      735.48173     -69.341415      666.14032    
   6513000   298.73781      0.042618159    28.015411      741.17673     -66.071963      675.10477    
   6514000   313.56834      0.042618159    24.688304      777.97169     -64.893404      713.07829    
   6515000   320.46749      0.042618159    19.836988      795.08868     -71.501746      723.58693    
   6516000   295.86919      0.042618159    18.180235      734.05963     -73.224556      660.83507    
   6517000   281.3128       0.042618159    27.670973      697.94482     -68.285032      629.65979    
   6518000   308.03056      0.042618159    21.513617      764.2323      -71.268648      692.96365    
   6519000   307.14272      0.042618159    17.238108      762.02957     -74.835463      687.1941     
   6520000   285.00856      0.042618159    22.274071      707.11409     -77.089081      630.02501    
   6521000   307.15994      0.042618159    20.226282      762.07229     -76.128095      685.94419    
   6522000   298.35133      0.042618159    22.059826      740.21788     -67.030088      673.18779    
   6523000   279.84468      0.042618159    18.042932      694.30237     -75.359624      618.94275    
   6524000   295.9161       0.042618159    38.274335      734.17601     -72.888477      661.28753    
   6525000   303.48694      0.042618159    20.430167      752.95946     -71.560116      681.39934    
   6526000   296.23873      0.042618159    20.591114      734.97646     -71.321976      663.65448    
   6527000   298.3568       0.042618159    25.977208      740.23145     -69.471477      670.75998    
   6528000   309.08712      0.042618159    26.211056      766.85366     -63.988322      702.86533    
   6529000   304.41038      0.042618159    19.352987      755.25053     -62.137678      693.11285    
   6530000   298.80552      0.042618159    21.365647      741.34473     -65.078341      676.26639    
   6531000   296.13866      0.042618159    21.354457      734.72819     -61.293589      673.4346     
   6532000   307.18104      0.042618159    23.902464      762.12462     -67.809185      694.31544    
   6533000   298.05556      0.042618159    22.596358      739.48406     -64.922835      674.56122    
   6534000   295.54944      0.042618159    33.15276       733.2663      -62.520198      670.7461     
   6535000   297.77385      0.042618159    26.608506      738.78513     -73.40967       665.37546    
   6536000   300.83515      0.042618159    24.136032      746.3803      -66.035296      680.345      
   6537000   297.34975      0.042618159    22.813802      737.73294     -59.462647      678.27029    
   6538000   305.30706      0.042618159    36.203971      757.47523     -61.908287      695.56694    
   6539000   297.14562      0.042618159    25.275518      737.22646     -62.633382      674.59308    
   6540000   312.32295      0.042618159    20.623311      774.88185     -74.455566      700.42629    
   6541000   300.67544      0.042618159    18.802374      745.98406     -70.59401       675.39005    
   6542000   282.88628      0.042618159    20.270625      701.84867     -72.207198      629.64147    
   6543000   307.07909      0.042618159    36.397978      761.87169     -70.472262      691.39942    
   6544000   298.41725      0.042618159    17.298299      740.38142     -75.548644      664.83277    
   6545000   286.90648      0.042618159    13.596738      711.82289     -72.1205        639.70239    
   6546000   304.87888      0.042618159    17.850224      756.4129      -69.389315      687.02358    
   6547000   291.38903      0.042618159    29.755153      722.94422     -74.652483      648.29174    
   6548000   324.94786      0.042618159    34.00813       806.20461     -70.795574      735.40903    
   6549000   305.73797      0.042618159    10.719773      758.54433     -72.403035      686.14129    
   6550000   303.69677      0.042618159    22.497332      753.48005     -66.910491      686.56956    
   6551000   292.3942       0.042618159    21.0532        725.43807     -67.338129      658.09995    
   6552000   291.75808      0.042618159    24.817007      723.85985     -66.093443      657.7664     
   6553000   313.39935      0.042618159    30.573555      777.55242     -72.00802       705.5444     
   6554000   305.30452      0.042618159    26.61478       757.46894     -67.580763      689.88818    
   6555000   293.22638      0.042618159    7.6418686      727.50274     -71.18593       656.31681    
   6556000   303.28971      0.042618159    32.666147      752.47012     -67.496358      684.97376    
   6557000   312.35882      0.042618159    18.351829      774.97084     -75.758256      699.21258    
   6558000   289.10235      0.042618159    14.750623      717.2709      -68.781021      648.48988    
   6559000   294.95229      0.042618159    24.906991      731.78475     -66.714924      665.06983    
   6560000   308.84582      0.042618159    24.195772      766.255       -65.798683      700.45632    
   6561000   308.48932      0.042618159    21.842662      765.3705      -66.999614      698.37088    
   6562000   292.92408      0.042618159    12.380409      726.75272     -70.050967      656.70175    
   6563000   290.75848      0.042618159    20.839615      721.3798      -60.487438      660.89236    
   6564000   307.57373      0.042618159    24.551276      763.0989      -67.011107      696.08779    
   6565000   299.00262      0.042618159    22.900135      741.83374     -74.212073      667.62167    
   6566000   300.32696      0.042618159    14.035119      745.11947     -66.845427      678.27405    
   6567000   297.37159      0.042618159    20.346618      737.78711     -64.099804      673.68731    
   6568000   298.22124      0.042618159    23.390599      739.89512     -65.610981      674.28414    
   6569000   298.05537      0.042618159    26.01712       739.48358     -69.354351      670.12923    
   6570000   297.24971      0.042618159    22.198716      737.48471     -66.70336       670.78135    
   6571000   311.3062       0.042618159    9.8315966      772.35926     -75.072737      697.28652    
   6572000   305.7625       0.042618159    22.329247      758.60518     -71.194079      687.4111     
   6573000   291.83195      0.042618159    31.560968      724.04312     -71.305454      652.73766    
   6574000   298.78221      0.042618159    28.073818      741.2869      -61.21929       680.06761    
   6575000   301.78908      0.042618159    10.500666      748.74704     -62.24112       686.50592    
   6576000   298.96015      0.042618159    18.125535      741.72837     -60.22514       681.50323    
   6577000   295.55102      0.042618159    24.9867        733.27023     -59.817188      673.45305    
   6578000   299.66293      0.042618159    19.807782      743.47198     -69.390934      674.08105    
   6579000   300.33238      0.042618159    20.612272      745.13292     -69.267901      675.86502    
   6580000   300.86328      0.042618159    20.038641      746.45009     -77.385674      669.06442    
   6581000   303.416        0.042618159    20.891779      752.78345     -72.572851      680.2106     
   6582000   300.53507      0.042618159    16.086817      745.6358      -71.859998      673.7758     
   6583000   290.5716       0.042618159    25.634038      720.91616     -68.980115      651.93605    
   6584000   306.516        0.042618159    21.095416      760.47465     -77.38019       683.09446    
   6585000   303.84721      0.042618159    23.377063      753.8533      -70.342652      683.51064    
   6586000   298.41725      0.042618159    21.17584       740.38142     -64.865447      675.51597    
   6587000   295.64623      0.042618159    17.15834       733.50644     -67.142852      666.36359    
   6588000   299.74373      0.042618159    21.218644      743.67246     -67.310107      676.36235    
   6589000   309.31475      0.042618159    26.374018      767.41842     -67.791194      699.62722    
   6590000   303.75725      0.042618159    25.777278      753.6301      -67.231425      686.39868    
   6591000   288.94909      0.042618159    23.601467      716.89065     -69.937274      646.95338    
   6592000   293.38135      0.042618159    18.249629      727.88721     -68.992087      658.89513    
   6593000   302.95741      0.042618159    23.246378      751.64568     -61.556396      690.08928    
   6594000   306.677        0.042618159    23.811687      760.8741      -63.225168      697.64893    
   6595000   300.65739      0.042618159    22.466388      745.93927     -60.577893      685.36137    
   6596000   289.79395      0.042618159    18.979866      718.98678     -67.884657      651.10212    
   6597000   297.3409       0.042618159    11.794536      737.71096     -67.501716      670.20924    
   6598000   306.23289      0.042618159    23.742972      759.77225     -65.715067      694.05719    
   6599000   297.66234      0.042618159    21.895907      738.50847     -67.495685      671.01278    
   6600000   293.87386      0.042618159    12.263252      729.10914     -65.363041      663.7461     
   6601000   303.5649       0.042618159    21.28911       753.15289     -64.031357      689.12154    
   6602000   306.54157      0.042618159    31.911104      760.53808     -72.309744      688.22834    
   6603000   304.95839      0.042618159    21.996991      756.61017     -64.359908      692.25027    
   6604000   304.95526      0.042618159    35.568373      756.6024      -66.889241      689.71316    
   6605000   292.58065      0.042618159    18.703707      725.90067     -64.2609        661.63977    
   6606000   308.98041      0.042618159    21.429182      766.58891     -61.738765      704.85015    
   6607000   293.87266      0.042618159    22.439987      729.10616     -61.366469      667.73969    
   6608000   300.45157      0.042618159    18.791163      745.42863     -58.923353      686.50528    
   6609000   301.44134      0.042618159    23.022985      747.88428     -61.282747      686.60153    
   6610000   310.77887      0.042618159    29.387903      771.05095     -60.198822      710.85213    
   6611000   306.97708      0.042618159    24.237822      761.61859     -62.721231      698.89736    
   6612000   298.53682      0.042618159    18.685495      740.67807     -67.431574      673.2465     
   6613000   298.84549      0.042618159    25.858784      741.4439      -65.979581      675.46432    
   6614000   313.634        0.042618159    28.899974      778.13461     -64.171638      713.96297    
   6615000   299.52483      0.042618159    16.191855      743.12936     -55.716968      687.4124     
   6616000   290.16335      0.042618159    23.382637      719.90326     -67.434671      652.46859    
   6617000   318.03804      0.042618159    24.916253      789.06115     -71.048613      718.01253    
   6618000   298.98116      0.042618159    20.741264      741.7805      -71.446043      670.33445    
   6619000   290.8242       0.042618159    19.75709       721.54286     -72.191127      649.35173    
   6620000   296.39544      0.042618159    22.550236      735.36526     -79.62042       655.74484    
   6621000   311.56711      0.042618159    18.88616       773.00658     -81.631982      691.3746     
   6622000   295.17578      0.042618159    19.602392      732.33925     -76.519315      655.81993    
   6623000   282.89544      0.042618159    20.832106      701.8714      -68.529596      633.3418     
   6624000   301.58671      0.042618159    19.863436      748.24494     -74.637327      673.60761    
   6625000   309.56272      0.042618159    24.550123      768.03365     -77.040769      690.99288    
   6626000   293.55765      0.042618159    26.425523      728.32463     -82.030977      646.29365    
   6627000   297.50833      0.042618159    22.857582      738.12638     -83.470481      654.65589    
   6628000   303.00467      0.042618159    23.343473      751.76294     -75.83994       675.923      
   6629000   305.26231      0.042618159    14.264945      757.36422     -76.895735      680.46848    
   6630000   293.35206      0.042618159    23.977964      727.81456     -79.781399      648.03316    
   6631000   303.80888      0.042618159    22.484374      753.7582      -72.988105      680.7701     
   6632000   302.71773      0.042618159    17.195585      751.05103     -71.564838      679.48619    
   6633000   299.34488      0.042618159    22.563513      742.6829      -76.607802      666.0751     
   6634000   302.71109      0.042618159    20.64723       751.03456     -78.374074      672.66048    
   6635000   295.46994      0.042618159    20.422261      733.06906     -77.005481      656.06357    
   6636000   291.76226      0.042618159    17.226836      723.87022     -73.223326      650.64689    
   6637000   306.07147      0.042618159    22.896234      759.37175     -73.91313       685.45862    
   6638000   287.70671      0.042618159    23.358021      713.80828     -72.789477      641.01881    
   6639000   300.09431      0.042618159    10.180029      744.54226     -74.258353      670.28391    
   6640000   309.48129      0.042618159    31.850703      767.83162     -71.647633      696.18399    
   6641000   302.5467       0.042618159    19.271502      750.62671     -74.431341      676.19537    
   6642000   298.08439      0.042618159    8.7722507      739.5556      -78.263836      661.29176    
   6643000   296.77778      0.042618159    14.84538       736.31386     -78.888359      657.4255     
   6644000   317.32678      0.042618159    46.647118      787.29649     -78.149392      709.1471     
   6645000   294.84393      0.042618159    16.068554      731.51592     -69.88561       661.63031    
   6646000   302.20762      0.042618159    20.416869      749.78544     -70.108628      679.67681    
   6647000   292.70052      0.042618159    27.780604      726.19805     -68.992599      657.20545    
   6648000   297.38221      0.042618159    16.040479      737.81346     -68.101674      669.71179    
   6649000   305.91965      0.042618159    13.522571      758.99508     -69.18191       689.81317    
   6650000   292.40324      0.042618159    30.153967      725.4605      -71.989349      653.47115    
   6651000   288.13667      0.042618159    7.9250695      714.87503     -76.307299      638.56773    
   6652000   316.10104      0.042618159    15.954262      784.2554      -77.605775      706.64962    
   6653000   312.61741      0.042618159    43.834263      775.61242     -84.421631      691.19078    
   6654000   292.43878      0.042618159    42.37392       725.54867     -80.09263       645.45604    
   6655000   308.87442      0.042618159    13.65029       766.32594     -81.515374      684.81057    
   6656000   298.88081      0.042618159    16.202812      741.53152     -80.137709      661.39381    
   6657000   297.4794       0.042618159    15.028545      738.05459     -78.114927      659.93967    
   6658000   323.71918      0.042618159    27.013568      803.1562      -76.090508      727.06569    
   6659000   299.4159       0.042618159    25.482993      742.8591      -74.661241      668.19786    
   6660000   294.22298      0.042618159    24.36263       729.97534     -73.984131      655.99121    
   6661000   285.08143      0.042618159    15.334792      707.29488     -70.096727      637.19815    
   6662000   312.60896      0.042618159    25.796657      775.59145     -61.138668      714.45278    
   6663000   302.75588      0.042618159    20.468927      751.14568     -65.027846      686.11784    
   6664000   289.64226      0.042618159    17.22714       718.61044     -69.483015      649.12743    
   6665000   297.61293      0.042618159    23.13008       738.38589     -73.520577      664.86532    
   6666000   299.12751      0.042618159    20.811739      742.1436      -69.232857      672.91074    
   6667000   303.50841      0.042618159    23.824975      753.01274     -66.181511      686.83123    
   6668000   300.3331       0.042618159    20.806754      745.13471     -68.053451      677.08125    
   6669000   298.20872      0.042618159    20.330508      739.86405     -72.803002      667.06105    
   6670000   307.78893      0.042618159    21.03472       763.63281     -70.806085      692.82673    
   6671000   306.4336       0.042618159    23.934733      760.2702      -71.554393      688.71581    
   6672000   298.6013       0.042618159    24.145791      740.83805     -71.136525      669.70152    
   6673000   298.29447      0.042618159    30.976611      740.07681     -71.405505      668.67131    
   6674000   293.06433      0.042618159    23.231157      727.10069     -71.744326      655.35636    
   6675000   291.69699      0.042618159    8.8478778      723.70827     -71.599369      652.1089     
   6676000   298.19651      0.042618159    26.909036      739.83375     -71.989383      667.84437    
   6677000   307.52686      0.042618159    42.311024      762.98262     -71.462357      691.52026    
   6678000   298.59136      0.042618159    20.123551      740.8134      -78.457961      662.35543    
   6679000   303.21706      0.042618159    14.36366       752.28989     -73.456701      678.83319    
   6680000   304.75222      0.042618159    18.425824      756.09866     -73.261217      682.83744    
   6681000   299.49861      0.042618159    26.032171      743.06431     -75.466537      667.59777    
   6682000   303.78238      0.042618159    22.507672      753.69247     -79.739934      673.95253    
   6683000   297.77226      0.042618159    18.649539      738.78119     -82.087561      656.69362    
   6684000   303.78832      0.042618159    16.618516      753.70719     -72.24189       681.4653     
   6685000   319.02259      0.042618159    18.718938      791.50384     -69.885206      721.61863    
   6686000   295.45537      0.042618159    28.470458      733.03292     -74.230335      658.80258    
   6687000   281.16898      0.042618159    18.425579      697.58798     -70.654367      626.93361    
   6688000   309.02308      0.042618159    21.040782      766.69479     -76.736132      689.95866    
   6689000   308.43483      0.042618159    25.658471      765.23531     -78.708916      686.52639    
   6690000   297.9417       0.042618159    19.307495      739.20158     -77.216052      661.98553    
   6691000   289.59318      0.042618159    21.464422      718.48867     -81.438075      637.05059    
   6692000   310.39638      0.042618159    28.655549      770.10196     -78.365146      691.73682    
   6693000   310.24864      0.042618159    23.10425       769.73542     -73.648427      696.087      
   6694000   293.95396      0.042618159    19.73432       729.30787     -78.129605      651.17826    
   6695000   316.74822      0.042618159    28.27517       785.86106     -75.229267      710.63179    
   6696000   300.98487      0.042618159    20.236089      746.75175     -74.409398      672.34236    
   6697000   296.39773      0.042618159    17.250952      735.37093     -73.610138      661.76079    
   6698000   300.82469      0.042618159    21.532268      746.35434     -71.645736      674.7086     
   6699000   307.58701      0.042618159    19.732237      763.13185     -69.719461      693.41239    
   6700000   283.84162      0.042618159    15.473149      704.21888     -72.018638      632.20024    
   6701000   300.81842      0.042618159    17.989807      746.33878     -70.988388      675.35039    
   6702000   307.40148      0.042618159    25.801978      762.67155     -71.75703       690.91452    
   6703000   299.25985      0.042618159    20.176653      742.47193     -72.21249       670.25944    
   6704000   309.40816      0.042618159    23.175904      767.65018     -73.806548      693.84364    
   6705000   309.97018      0.042618159    18.178176      769.04457     -78.401846      690.64272    
   6706000   293.16346      0.042618159    17.987279      727.34663     -78.25475       649.09188    
   6707000   305.76129      0.042618159    25.69759       758.6022      -77.425275      681.17693    
   6708000   316.58923      0.042618159    20.664927      785.4666      -80.146767      705.31984    
   6709000   305.19324      0.042618159    21.854479      757.19284     -85.728346      671.46449    
   6710000   302.62492      0.042618159    6.3013911      750.82077     -80.880884      669.93988    
   6711000   295.20145      0.042618159    16.275868      732.40293     -85.933669      646.46926    
   6712000   293.20301      0.042618159    33.937545      727.44474     -83.829903      643.61484    
   6713000   307.56881      0.042618159    22.537847      763.08669     -82.8172        680.26949    
   6714000   303.8397       0.042618159    13.421696      753.83468     -80.286571      673.54811    
   6715000   289.62721      0.042618159    31.197489      718.57309     -77.472494      641.10059    
   6716000   299.95309      0.042618159    31.347969      744.19188     -82.775624      661.41626    
   6717000   308.50577      0.042618159    28.747509      765.41131     -73.056744      692.35457    
   6718000   311.78571      0.042618159    27.16754       773.54895     -79.481517      694.06743    
   6719000   285.84152      0.042618159    9.3938693      709.18068     -78.138974      631.04171    
   6720000   295.3551       0.042618159    22.11563       732.78414     -85.283589      647.50055    
   6721000   304.55832      0.042618159    29.663987      755.61758     -84.044816      671.57276    
   6722000   317.29237      0.042618159    20.310079      787.21111     -78.769783      708.44133    
   6723000   297.94713      0.042618159    12.927815      739.21504     -82.166537      657.0485     
   6724000   291.38544      0.042618159    18.407677      722.9353      -83.178318      639.75698    
   6725000   301.09858      0.042618159    33.53418       747.03388     -75.038545      671.99533    
   6726000   303.18144      0.042618159    22.90285       752.20151     -78.541691      673.65982    
   6727000   302.45673      0.042618159   -0.16364885     750.40348     -79.998465      670.40502    
   6728000   290.53284      0.042618159    19.316245      720.81997     -80.236224      640.58375    
   6729000   308.83558      0.042618159    27.161246      766.2296      -75.23631       690.99329    
   6730000   313.51051      0.042618159    22.768362      777.82822     -79.617659      698.21056    
   6731000   312.03625      0.042618159    9.6282867      774.17055     -72.773632      701.39691    
   6732000   278.42478      0.042618159    12.051549      690.77955     -75.397478      615.38208    
   6733000   287.41714      0.042618159    22.436273      713.08984     -69.971838      643.118      
   6734000   313.48664      0.042618159    29.527743      777.76899     -75.672197      702.09679    
   6735000   310.72967      0.042618159    21.215035      770.92888     -73.71624       697.21264    
   6736000   282.00999      0.042618159    20.688959      699.67456     -71.812854      627.8617     
   6737000   308.88012      0.042618159    21.815251      766.34008     -68.584278      697.7558     
   6738000   309.39806      0.042618159    22.492777      767.62512     -73.165933      694.45919    
   6739000   300.59662      0.042618159    25.162371      745.78849     -72.405213      673.38328    
   6740000   290.43876      0.042618159    22.214502      720.58657     -75.214196      645.37237    
   6741000   309.12506      0.042618159    22.462177      766.9478      -77.60637       689.34144    
   6742000   301.94369      0.042618159    24.067142      749.13061     -70.298337      678.83227    
   6743000   289.24         0.042618159    17.339447      717.61242     -79.177135      638.43529    
   6744000   299.66149      0.042618159    20.549433      743.46841     -73.912601      669.55581    
   6745000   314.51472      0.042618159    22.472923      780.31968     -76.563745      703.75594    
   6746000   297.83249      0.042618159    22.722784      738.93062     -68.981153      669.94946    
   6747000   285.60412      0.042618159    18.76478       708.59169     -72.774375      635.81731    
   6748000   297.59707      0.042618159    22.209648      738.34654     -73.462584      664.88396    
   6749000   318.17717      0.042618159    22.212091      789.40633     -66.035753      723.37058    
   6750000   307.59598      0.042618159    22.474334      763.15411     -62.896794      700.25732    
   6751000   296.61099      0.042618159    20.804497      735.90004     -67.137275      668.76276    
   6752000   294.7294       0.042618159    21.085875      731.23175     -72.826412      658.40534    
   6753000   315.92984      0.042618159    24.691757      783.83063     -69.596764      714.23387    
   6754000   320.08385      0.042618159    22.550454      794.13685     -65.400956      728.73589    
   6755000   293.20152      0.042618159    19.955094      727.44105     -70.772791      656.66826    
   6756000   293.90696      0.042618159    22.101858      729.19126     -62.084851      667.10641    
   6757000   307.87602      0.042618159    20.241397      763.8489      -66.063086      697.78581    
   6758000   298.33403      0.042618159    20.730871      740.17496     -63.350089      676.82487    
   6759000   288.90853      0.042618159    22.121358      716.79004     -73.021968      643.76807    
   6760000   305.6101       0.042618159    26.240457      758.22708     -72.569214      685.65787    
   6761000   310.0403       0.042618159    19.871392      769.21853     -70.716072      698.50246    
   6762000   288.96782      0.042618159    13.018782      716.93713     -62.202025      654.7351     
   6763000   301.15923      0.042618159    22.75277       747.18434     -65.832029      681.35231    
   6764000   311.17029      0.042618159    25.988691      772.02207     -66.170409      705.85166    
   6765000   303.61404      0.042618159    17.176735      753.27481     -66.228775      687.04604    
   6766000   296.48522      0.042618159    19.679514      735.58801     -70.026139      665.56187    
   6767000   313.37704      0.042618159    22.247187      777.49707     -64.625432      712.87164    
   6768000   295.07083      0.042618159    19.253712      732.07887     -74.136167      657.9427     
   6769000   296.76961      0.042618159    11.100827      736.29358     -69.854074      666.4395     
   6770000   290.90418      0.042618159    19.922246      721.74128     -80.801402      640.93988    
   6771000   301.50582      0.042618159    22.516275      748.04425     -73.439224      674.60502    
   6772000   308.91892      0.042618159    19.620437      766.43634     -76.598877      689.83747    
   6773000   287.60158      0.042618159    2.9214481      713.54744     -74.941765      638.60567    
   6774000   300.17768      0.042618159    26.150583      744.7491      -76.213168      668.53593    
   6775000   310.14026      0.042618159    17.223584      769.46653     -70.179478      699.28705    
   6776000   302.35733      0.042618159    0.37570025     750.15687     -73.535991      676.62088    
   6777000   293.47749      0.042618159    21.763136      728.12575     -63.054199      665.07155    
   6778000   310.56859      0.042618159    23.81137       770.52922     -61.713693      708.81553    
   6779000   307.75504      0.042618159    24.433486      763.54874     -64.164405      699.38434    
   6780000   297.74703      0.042618159    24.625561      738.71859     -65.588512      673.13008    
   6781000   296.05599      0.042618159    3.6436467      734.52306     -63.726305      670.79676    
   6782000   304.06758      0.042618159    17.663082      754.40006     -64.810093      689.58996    
   6783000   306.61193      0.042618159    19.892148      760.71265     -74.878707      685.83394    
   6784000   303.46096      0.042618159    24.526087      752.895       -71.227562      681.66744    
   6785000   290.57083      0.042618159    23.536334      720.91423     -70.850975      650.06326    
   6786000   299.45131      0.042618159    22.440791      742.94695     -69.450219      673.49673    
   6787000   303.4093       0.042618159    27.900541      752.76684     -65.815956      686.95088    
   6788000   306.35051      0.042618159    20.283006      760.06405     -62.555736      697.50832    
   6789000   310.05641      0.042618159    23.352032      769.25849     -69.114495      700.144      
   6790000   299.55501      0.042618159    23.188039      743.20425     -68.213685      674.99056    
   6791000   307.83745      0.042618159    25.967972      763.75319     -66.843205      696.90999    
   6792000   293.28619      0.042618159    22.630425      727.65112     -68.212522      659.43859    
   6793000   313.53392      0.042618159    24.79705       777.8863      -76.174657      701.71164    
   6794000   298.28258      0.042618159    23.188111      740.0473      -76.92618       663.12112    
   6795000   289.92792      0.042618159    18.491902      719.31916     -76.942003      642.37715    
   6796000   299.15554      0.042618159    24.200549      742.21315     -75.609275      666.60387    
   6797000   299.78374      0.042618159    20.821005      743.77173     -76.05363       667.7181     
   6798000   317.13781      0.042618159    18.885852      786.82765     -80.53889       706.28876    
   6799000   302.4039       0.042618159    23.43544       750.27242     -78.590168      671.68225    
   6800000   288.12701      0.042618159    28.193235      714.85106     -70.376171      644.47489    
   6801000   301.12408      0.042618159    18.88573       747.09714     -75.078642      672.01849    
   6802000   316.5497       0.042618159    25.05307       785.36854     -81.900137      703.4684     
   6803000   283.32808      0.042618159    17.198041      702.94478     -80.514573      622.43021    
   6804000   298.04852      0.042618159    20.199948      739.4666      -82.753311      656.71329    
   6805000   299.54583      0.042618159    20.91462       743.18147     -85.646029      657.53544    
   6806000   298.77178      0.042618159    21.592102      741.26103     -81.993642      659.26738    
   6807000   301.34279      0.042618159    34.215338      747.63976     -80.656119      666.98364    
   6808000   300.60861      0.042618159    18.53275       745.81825     -78.347089      667.47116    
   6809000   304.97092      0.042618159    22.247255      756.64125     -74.34828       682.29297    
   6810000   288.80967      0.042618159    27.410189      716.54475     -72.24379       644.30096    
   6811000   289.26902      0.042618159    20.348882      717.68442     -77.235508      640.44891    
   6812000   303.44582      0.042618159    12.728211      752.85743     -78.764175      674.09326    
   6813000   308.56438      0.042618159    21.837556      765.55672     -77.851507      687.70522    
   6814000   292.78383      0.042618159    16.416656      726.40475     -83.912431      642.49232    
   6815000   296.96533      0.042618159    21.863946      736.77917     -76.083415      660.69575    
   6816000   308.075        0.042618159    26.954659      764.34255     -68.678794      695.66376    
   6817000   308.28733      0.042618159    20.989827      764.86936     -67.923949      696.94541    
   6818000   283.08181      0.042618159    26.587768      702.33378     -63.726591      638.60719    
   6819000   312.98391      0.042618159    20.950025      776.5217      -65.610382      710.91132    
   6820000   302.56768      0.042618159    20.956471      750.67875     -70.157381      680.52137    
   6821000   284.64712      0.042618159    24.115302      706.21735     -62.263932      643.95341    
   6822000   292.05145      0.042618159    28.354959      724.58769     -69.027378      655.56032    
   6823000   305.62425      0.042618159    27.010516      758.26218     -63.555596      694.70659    
   6824000   305.62568      0.042618159    21.576495      758.26573     -61.201121      697.06461    
   6825000   296.33182      0.042618159    21.963707      735.20742     -62.029992      673.17743    
   6826000   286.86257      0.042618159    24.952075      711.71395     -63.079309      648.63464    
   6827000   301.83762      0.042618159    21.960257      748.86746     -54.58541       694.28205    
   6828000   297.27324      0.042618159    21.545422      737.54309     -61.861533      675.68156    
   6829000   287.57647      0.042618159    12.783498      713.48515     -59.052225      654.43293    
   6830000   301.23599      0.042618159    25.656521      747.37479     -56.051791      691.323      
   6831000   316.46357      0.042618159    22.594718      785.15485     -64.990804      720.16405    
   6832000   297.67233      0.042618159    20.802057      738.53326     -58.378217      680.15504    
   6833000   294.25302      0.042618159    29.470392      730.04986     -62.396972      667.65289    
   6834000   297.73166      0.042618159    17.795636      738.68045     -56.54467       682.13578    
   6835000   302.11983      0.042618159    13.862993      749.56764     -65.192394      684.37524    
   6836000   296.55072      0.042618159    25.317785      735.75051     -62.888619      672.86189    
   6837000   298.20184      0.042618159    22.049311      739.84698     -67.948612      671.89837    
   6838000   295.80798      0.042618159    19.444219      733.90774     -72.360697      661.54705    
   6839000   297.03139      0.042618159    19.550533      736.94306     -63.101522      673.84154    
   6840000   296.86964      0.042618159    20.859973      736.54177     -64.203996      672.33777    
   6841000   302.24159      0.042618159    23.78549       749.86973     -62.060025      687.8097     
   6842000   305.56205      0.042618159    19.814248      758.10786     -60.042031      698.06583    
   6843000   293.43096      0.042618159    18.932308      728.01031     -65.513863      662.49644    
   6844000   303.02685      0.042618159    23.767686      751.81796     -66.545616      685.27235    
   6845000   303.66196      0.042618159    23.812693      753.39368     -65.047017      688.34667    
   6846000   299.96973      0.042618159    18.805279      744.23316     -62.345722      681.88744    
   6847000   301.07503      0.042618159    23.945584      746.97545     -60.085205      686.89025    
   6848000   297.17108      0.042618159    22.731638      737.28964     -57.562036      679.72761    
   6849000   302.79869      0.042618159    28.906054      751.25189     -54.003326      697.24856    
   6850000   307.21357      0.042618159    14.371648      762.20533     -52.971147      709.23418    
   6851000   288.8684       0.042618159    18.109764      716.69047     -51.866981      664.82349    
   6852000   295.21719      0.042618159    21.947014      732.44198     -55.65951       676.78247    
   6853000   320.33571      0.042618159    25.284328      794.76172     -59.95172       734.81       
   6854000   304.65224      0.042618159    24.870163      755.8506      -64.625929      691.22467    
   6855000   296.9265       0.042618159    18.173411      736.68283     -62.103057      674.57977    
   6856000   305.36462      0.042618159    20.148433      757.61804     -59.805879      697.81216    
   6857000   297.21199      0.042618159    24.979455      737.39114     -60.159551      677.23159    
   6858000   301.4262       0.042618159    22.198838      747.84671     -65.67577       682.17094    
   6859000   318.36188      0.042618159    20.060237      789.86459     -67.734201      722.13039    
   6860000   300.99806      0.042618159    22.976579      746.78449     -62.405297      684.37919    
   6861000   293.30419      0.042618159    24.228525      727.69577     -58.70407       668.9917     
   6862000   285.66721      0.042618159    38.688312      708.74822     -64.192833      644.55539    
   6863000   307.71728      0.042618159    12.256741      763.45506     -67.507082      695.94798    
   6864000   308.30514      0.042618159    23.634668      764.91354     -64.710278      700.20326    
   6865000   289.30583      0.042618159    36.77813       717.77573     -64.123227      653.65251    
   6866000   291.6381       0.042618159    14.839289      723.56215     -60.837726      662.72443    
   6867000   322.88165      0.042618159    12.557577      801.07827     -64.203721      736.87454    
   6868000   305.88706      0.042618159    49.836807      758.91423     -63.302558      695.61167    
   6869000   288.55197      0.042618159    31.38942       715.90538     -60.073782      655.8316     
   6870000   293.54463      0.042618159    11.557127      728.29232     -62.622256      665.67006    
   6871000   309.63906      0.042618159    28.84306       768.22304     -55.726027      712.49701    
   6872000   295.66449      0.042618159    40.421132      733.55175     -56.470294      677.08146    
   6873000   291.83639      0.042618159    16.955567      724.05413     -60.85465       663.19948    
   6874000   311.06043      0.042618159   -1.2309976      771.74949     -70.239556      701.50994    
   6875000   305.21273      0.042618159    29.316165      757.24119     -72.906407      684.33478    
   6876000   290.63102      0.042618159    25.577936      721.06356     -65.866873      655.19669    
   6877000   286.11607      0.042618159    12.693635      709.86186     -63.983575      645.87828    
   6878000   316.40777      0.042618159    12.26842       785.0164      -65.186514      719.82989    
   6879000   308.84475      0.042618159    30.542401      766.25234     -64.134487      702.11786    
   6880000   281.62115      0.042618159    12.340787      698.70983     -63.521719      635.18812    
   6881000   308.37736      0.042618159    13.92682       765.09273     -63.527661      701.56507    
   6882000   308.88391      0.042618159    15.154857      766.3495      -72.225882      694.12362    
   6883000   311.00034      0.042618159    28.525206      771.60042     -67.888257      703.71216    
   6884000   304.32977      0.042618159    32.773294      755.05055     -69.026701      686.02385    
   6885000   290.63988      0.042618159    23.118627      721.08555     -71.290103      649.79544    
   6886000   314.27488      0.042618159   -9.311265       779.72464     -72.008361      707.71628    
   6887000   312.1106       0.042618159    17.766114      774.355       -70.216315      704.13868    
   6888000   283.44618      0.042618159    39.058368      703.23778     -65.667507      637.57028    
   6889000   299.87673      0.042618159    3.0043289      744.00242     -65.139289      678.86313    
   6890000   322.43178      0.042618159   -8.1361641      799.96212     -66.821497      733.14063    
   6891000   300.86957      0.042618159    28.457586      746.46569     -73.233239      673.23245    
   6892000   305.60246      0.042618159    31.385964      758.20813     -76.514823      681.69331    
   6893000   292.18343      0.042618159    15.411049      724.91516     -74.461678      650.45348    
   6894000   297.05668      0.042618159    17.927757      737.00581     -67.345417      669.66039    
   6895000   302.72431      0.042618159    17.333906      751.06735     -65.670391      685.39696    
   6896000   317.71537      0.042618159    22.205374      788.26059     -71.48231       716.77828    
   6897000   301.89228      0.042618159    22.842672      749.00308     -67.748991      681.25409    
   6898000   303.50507      0.042618159    17.084065      753.00444     -69.645624      683.35881    
   6899000   304.07654      0.042618159    21.582073      754.42227     -68.25515       686.16712    
   6900000   301.97657      0.042618159    20.597698      749.2122      -64.430982      684.78122    
   6901000   292.55079      0.042618159    20.702982      725.82657     -65.512881      660.31368    
   6902000   301.37527      0.042618159    21.845009      747.72034     -60.31134       687.409      
   6903000   323.4614       0.042618159    22.999866      802.51664     -61.918515      740.59813    
   6904000   285.02779      0.042618159    19.438813      707.16181     -62.23538       644.92643    
   6905000   289.22944      0.042618159    19.926507      717.58622     -62.09098       655.49524    
   6906000   295.14862      0.042618159    20.879985      732.27187     -65.01492       667.25695    
   6907000   320.09916      0.042618159    22.700205      794.17483     -64.227023      729.94781    
   6908000   297.16956      0.042618159    17.440251      737.28586     -66.203063      671.0828     
   6909000   290.73833      0.042618159    23.260833      721.32981     -65.799853      655.52996    
   6910000   297.42018      0.042618159    32.489368      737.90767     -60.640606      677.26706    
   6911000   322.78601      0.042618159    16.867676      800.84098     -66.72181       734.11917    
   6912000   290.87972      0.042618159    20.164589      721.68061     -66.710197      654.97042    
   6913000   288.46386      0.042618159    31.492296      715.68678     -58.254653      657.43212    
   6914000   314.13529      0.042618159    26.797525      779.37831     -59.970882      719.40743    
   6915000   295.81145      0.042618159    16.452219      733.91637     -65.524722      668.39165    
   6916000   292.09526      0.042618159    22.601191      724.6964      -63.185399      661.511      
   6917000   294.65748      0.042618159    28.581236      731.05333     -71.716099      659.33723    
   6918000   290.60745      0.042618159    11.720223      721.00509     -69.471565      651.53352    
   6919000   302.4026       0.042618159    26.902511      750.26918     -64.017534      686.25165    
   6920000   320.77271      0.042618159    30.39101       795.84595     -66.773406      729.07254    
   6921000   298.93407      0.042618159    11.367083      741.66367     -67.311658      674.35201    
   6922000   301.21185      0.042618159    8.51289        747.31491     -66.040646      681.27426    
   6923000   297.06494      0.042618159    17.792701      737.02632     -67.028573      669.99774    
   6924000   298.68299      0.042618159    21.24791       741.04073     -63.753677      677.28705    
   6925000   293.253        0.042618159    25.912466      727.56877     -66.242002      661.32676    
   6926000   303.17339      0.042618159    47.521909      752.18153     -64.527391      687.65414    
   6927000   322.18374      0.042618159    36.399407      799.34675     -62.330298      737.01645    
   6928000   303.584        0.042618159    1.7698475      753.20027     -61.181499      692.01877    
   6929000   295.38242      0.042618159    37.256803      732.85193     -63.264777      669.58715    
   6930000   306.58707      0.042618159    37.259817      760.65098     -65.024841      695.62614    
   6931000   295.75476      0.042618159    15.577213      733.77571     -63.666335      670.10937    
   6932000   296.34149      0.042618159    25.989758      735.23141     -59.584347      675.64706    
   6933000   292.43891      0.042618159    24.561143      725.549       -56.49002       669.05898    
   6934000   299.28007      0.042618159    23.804306      742.52211     -48.953956      693.56815    
   6935000   287.5386       0.042618159    19.952334      713.39118     -53.648661      659.74252    
   6936000   304.83024      0.042618159    20.985536      756.29222     -60.345606      695.94661    
   6937000   301.01134      0.042618159    19.052371      746.81743     -62.596038      684.22139    
   6938000   291.72338      0.042618159    25.459113      723.77374     -60.871207      662.90254    
   6939000   321.83061      0.042618159    23.447263      798.47062     -63.096976      735.37364    
   6940000   303.61613      0.042618159    21.060942      753.27998     -62.345097      690.93488    
   6941000   294.0628       0.042618159    38.714957      729.57791     -66.435644      663.14227    
   6942000   315.06112      0.042618159    20.882475      781.67533     -64.918121      716.75721    
   6943000   292.48858      0.042618159    14.261371      725.67223     -68.719927      656.9523     
   6944000   304.61409      0.042618159    66.844098      755.75595     -72.497526      683.25843    
   6945000   311.69671      0.042618159    20.465726      773.32812     -71.64287       701.68525    
   6946000   297.55176      0.042618159    12.523113      738.23412     -67.746986      670.48713    
   6947000   292.08182      0.042618159    18.960555      724.66303     -74.439402      650.22363    
   6948000   311.75641      0.042618159    19.934138      773.47625     -73.209851      700.2664     
   6949000   299.21266      0.042618159    21.491778      742.35485     -74.960118      667.39473    
   6950000   276.73686      0.042618159    23.126272      686.59177     -70.133733      616.45804    
   6951000   308.84934      0.042618159    24.315759      766.26372     -75.450467      690.81325    
   6952000   309.36191      0.042618159    18.573069      767.53542     -77.384078      690.15134    
   6953000   291.46114      0.042618159    21.198547      723.12313     -71.716102      651.40703    
   6954000   298.71956      0.042618159    24.639864      741.13146     -70.567333      670.56413    
   6955000   312.32021      0.042618159    23.355405      774.87504     -67.591538      707.2835     
   6956000   306.02101      0.042618159    19.901535      759.24655     -64.12387       695.12268    
   6957000   289.30521      0.042618159    21.506277      717.77421     -69.789183      647.98503    
   6958000   300.62781      0.042618159    17.507196      745.86587     -74.052054      671.81382    
   6959000   307.7764       0.042618159    20.936899      763.60172     -65.146947      698.45477    
   6960000   310.79917      0.042618159    24.180216      771.1013      -61.220389      709.88091    
   6961000   295.29449      0.042618159    23.291344      732.63377     -61.920169      670.7136     
   6962000   278.8716       0.042618159    17.593957      691.88811     -57.082734      634.80538    
   6963000   298.80554      0.042618159    21.000154      741.34478     -61.201411      680.14337    
   6964000   300.76239      0.042618159    26.389136      746.19977     -59.152715      687.04706    
   6965000   290.36005      0.042618159    19.891907      720.39128     -62.501455      657.88982    
   6966000   307.458        0.042618159    12.599439      762.81177     -58.773918      704.03786    
   6967000   301.46656      0.042618159    20.145833      747.94684     -71.529084      676.41776    
   6968000   307.56498      0.042618159    30.187236      763.07719     -71.876093      691.2011     
   6969000   298.8001       0.042618159    24.16732       741.33128     -69.248621      672.08266    
   6970000   284.23075      0.042618159    11.538694      705.18432     -65.93079       639.25353    
   6971000   314.11138      0.042618159    23.596365      779.319       -70.592484      708.72651    
   6972000   310.58915      0.042618159    25.771279      770.58024     -75.943936      694.6363     
   6973000   298.13701      0.042618159    22.886508      739.68614     -70.961531      668.72461    
   6974000   314.9645       0.042618159    21.988871      781.4356      -69.509032      711.92657    
   6975000   301.0949       0.042618159    22.013028      747.02475     -72.61318       674.41157    
   6976000   291.36346      0.042618159    17.40131       722.88077     -74.280466      648.6003     
   6977000   305.84017      0.042618159    22.345244      758.79789     -73.209399      685.58849    
   6978000   311.15708      0.042618159    19.439209      771.98929     -68.919877      703.06941    
   6979000   298.11684      0.042618159    22.302693      739.63609     -66.248942      673.38715    
   6980000   296.42561      0.042618159    21.337798      735.44011     -66.153766      669.28634    
   6981000   314.04521      0.042618159    25.761565      779.15483     -74.338586      704.81624    
   6982000   298.11833      0.042618159    19.127267      739.63979     -70.593458      669.04633    
   6983000   295.85337      0.042618159    19.083702      734.02038     -70.554796      663.46558    
   6984000   290.85646      0.042618159    12.237431      721.62289     -71.271116      650.35177    
   6985000   301.20504      0.042618159    23.097467      747.298       -71.694605      675.60339    
   6986000   301.40162      0.042618159    21.280102      747.78572     -68.557152      679.22857    
   6987000   303.1439       0.042618159    25.092377      752.10837     -68.940158      683.16821    
   6988000   300.39611      0.042618159    14.8104        745.29102     -71.459418      673.8316     
   6989000   308.76489      0.042618159    15.727001      766.0542      -79.218829      686.83538    
   6990000   288.37141      0.042618159    26.086908      715.45743     -66.035109      649.42232    
   6991000   288.65408      0.042618159    19.751004      716.15874     -69.579989      646.57875    
   6992000   303.24642      0.042618159    21.112391      752.36272     -62.633385      689.72933    
   6993000   317.82135      0.042618159    19.355195      788.52353     -64.722152      723.80138    
   6994000   306.50735      0.042618159    26.72183       760.45319     -67.920847      692.53234    
   6995000   296.36878      0.042618159    22.465144      735.29912     -70.022159      665.27697    
   6996000   292.97766      0.042618159    14.714328      726.88564     -71.125617      655.76002    
   6997000   300.32         0.042618159    17.329145      745.1022      -74.252735      670.84946    
   6998000   303.01098      0.042618159    22.438424      751.77858     -73.350963      678.42762    
   6999000   307.353        0.042618159    28.572975      762.55126     -73.292675      689.25859    
   7000000   299.42379      0.042618159    19.423893      742.87868     -78.074358      664.80432    
   7001000   298.80396      0.042618159    18.118911      741.34087     -82.708589      658.63228    
   7002000   293.48184      0.042618159    13.218352      728.13653     -75.418097      652.71844    
   7003000   307.60323      0.042618159    25.631392      763.17208     -75.831618      687.34047    
   7004000   292.85816      0.042618159    20.802775      726.58916     -67.366595      659.22257    
   7005000   299.9035       0.042618159    20.908255      744.06884     -65.972579      678.09626    
   7006000   311.17629      0.042618159    22.858241      772.03694     -69.792048      702.24489    
   7007000   289.17374      0.042618159    29.575697      717.44801     -77.934065      639.51395    
   7008000   302.75287      0.042618159    14.462338      751.1382      -82.145442      668.99276    
   7009000   313.92747      0.042618159    30.553059      778.86271     -78.670851      700.19186    
   7010000   297.52514      0.042618159    26.524317      738.16807     -73.911262      664.25681    
   7011000   292.64457      0.042618159    38.01779       726.05924     -75.885144      650.17409    
   7012000   279.97429      0.042618159    29.031822      694.62393     -66.630765      627.99316    
   7013000   292.70095      0.042618159    23.95855       726.19914     -67.327648      658.87149    
   7014000   300.59268      0.042618159    19.924782      745.77874     -65.919797      679.85894    
   7015000   301.57846      0.042618159    18.84061       748.22446     -68.713533      679.51093    
   7016000   314.40349      0.042618159    26.975876      780.04372     -71.598463      708.44526    
   7017000   303.21931      0.042618159    31.374609      752.29546     -70.291454      682.004      
   7018000   290.1608       0.042618159   -1.2388443      719.89695     -63.86918       656.02777    
   7019000   305.48145      0.042618159    29.202944      757.9079      -60.452097      697.4558     
   7020000   311.91137      0.042618159    43.315582      773.86071     -66.54355       707.31716    
   7021000   288.8714       0.042618159    18.398975      716.6979      -66.476072      650.22183    
   7022000   296.83443      0.042618159    7.4149766      736.45439     -74.118933      662.33546    
   7023000   305.24276      0.042618159    10.866624      757.3157      -74.946381      682.36932    
   7024000   310.89876      0.042618159    45.575126      771.3484      -75.14938       696.19902    
   7025000   307.55535      0.042618159    24.447761      763.0533      -71.457682      691.59561    
   7026000   300.81851      0.042618159    2.1608476      746.33902     -80.853399      665.48562    
   7027000   295.79053      0.042618159    48.961037      733.86446     -67.179804      666.68466    
   7028000   304.15757      0.042618159    32.657297      754.62331     -70.800722      683.82259    
   7029000   298.19563      0.042618159    23.660199      739.83158     -75.615142      664.21644    
   7030000   295.47446      0.042618159    17.243418      733.08028     -73.731911      659.34837    
   7031000   296.88292      0.042618159    19.78136       736.57471     -72.144645      664.43007    
   7032000   315.94913      0.042618159    20.703983      783.8785      -69.169884      714.70862    
   7033000   310.80568      0.042618159    31.543543      771.11746     -67.700675      703.41679    
   7034000   292.05663      0.042618159    8.7443904      724.60056     -75.064613      649.53595    
   7035000   307.132        0.042618159    22.342312      762.00296     -76.638604      685.36436    
   7036000   284.9802       0.042618159    15.84908       707.04372     -71.889622      635.1541     
   7037000   304.03974      0.042618159    25.28665       754.33098     -67.857353      686.47363    
   7038000   306.35574      0.042618159    21.411057      760.07704     -71.922207      688.15484    
   7039000   293.99458      0.042618159    20.977962      729.40865     -79.503246      649.9054     
   7040000   292.1603       0.042618159    26.234392      724.85776     -79.20181       645.65595    
   7041000   311.66511      0.042618159    23.77554       773.24973     -77.251091      695.99864    
   7042000   315.69208      0.042618159    17.198395      783.24075     -73.93804       709.30271    
   7043000   292.12003      0.042618159    18.727143      724.75784     -76.913353      647.84448    
   7044000   284.51167      0.042618159    14.102642      705.8813      -76.002602      629.87869    
   7045000   294.60123      0.042618159    25.510819      730.91378     -75.63072       655.28306    
   7046000   309.50963      0.042618159    29.142574      767.90191     -78.614736      689.28718    
   7047000   310.97673      0.042618159    16.722543      771.54184     -71.735869      699.80597    
   7048000   302.58244      0.042618159    22.89669       750.71538     -71.896903      678.81847    
   7049000   288.50746      0.042618159    21.710149      715.79496     -66.468898      649.32606    
   7050000   310.72293      0.042618159    23.524362      770.91216     -65.671833      705.24033    
   7051000   302.02077      0.042618159    21.343657      749.32186     -69.186733      680.13512    
   7052000   296.89999      0.042618159    20.692932      736.61706     -72.908228      663.70884    
   7053000   312.5098       0.042618159    29.797204      775.34543     -74.800094      700.54534    
   7054000   294.59242      0.042618159    19.955406      730.8919      -80.870724      650.02118    
   7055000   297.14453      0.042618159    19.991557      737.22377     -79.656819      657.56695    
   7056000   310.95991      0.042618159    20.546572      771.5001      -73.718442      697.78166    
   7057000   308.91845      0.042618159    20.935101      766.4352      -74.036066      692.39913    
   7058000   290.06493      0.042618159    22.128842      719.65908     -77.711274      641.9478     
   7059000   308.11321      0.042618159    13.652571      764.43736     -83.086564      681.35079    
   7060000   301.03756      0.042618159    24.079785      746.88248     -85.525738      661.35675    
   7061000   289.89732      0.042618159    20.748512      719.24325     -79.497954      639.7453     
   7062000   301.97409      0.042618159    20.589146      749.20604     -79.555977      669.65007    
   7063000   318.43326      0.042618159    28.680438      790.04169     -77.436676      712.60501    
   7064000   311.13512      0.042618159    30.121851      771.9348      -80.253989      691.68081    
   7065000   286.15165      0.042618159    22.85118       709.95014     -80.276636      629.6735     
   7066000   301.03252      0.042618159    21.614907      746.86999     -82.752984      664.11701    
   7067000   308.79164      0.042618159    21.588438      766.12056     -83.775267      682.3453     
   7068000   287.55451      0.042618159    16.828892      713.43068     -72.879828      640.55085    
   7069000   297.74358      0.042618159    23.441449      738.71004     -72.211639      666.4984     
   7070000   297.62463      0.042618159    10.130929      738.41491     -76.299745      662.11517    
   7071000   312.7676       0.042618159    20.821506      775.98503     -75.307626      700.6774     
   7072000   305.67451      0.042618159    21.744258      758.38689     -77.237057      681.14983    
   7073000   303.59772      0.042618159    11.142192      753.23432     -81.34576       671.88856    
   7074000   284.22618      0.042618159    22.507633      705.173       -75.187529      629.98547    
   7075000   303.08099      0.042618159    25.157253      751.95228     -77.669781      674.2825     
   7076000   309.74827      0.042618159    37.36838       768.494       -79.298523      689.19548    
   7077000   308.04895      0.042618159    2.6752324      764.27794     -80.476312      683.80163    
   7078000   306.73389      0.042618159    13.060194      761.01525     -77.658141      683.35711    
   7079000   290.26445      0.042618159    27.73838       720.15409     -75.613469      644.54062    
   7080000   303.73283      0.042618159    32.542541      753.56951     -72.526675      681.04284    
   7081000   305.39604      0.042618159    25.553705      757.69599     -71.278355      686.41764    
   7082000   313.03992      0.042618159    15.959522      776.66066     -63.379054      713.28161    
   7083000   296.10306      0.042618159    19.174589      734.63986     -59.383338      675.25652    
   7084000   303.12078      0.042618159    49.622181      752.05101     -58.347898      693.70311    
   7085000   307.11152      0.042618159    26.892078      761.95214     -57.617443      704.33469    
   7086000   306.26573      0.042618159    4.9430137      759.85372     -65.341889      694.51183    
   7087000   294.41492      0.042618159    26.335244      730.45153     -64.642828      665.8087     
   7088000   298.96335      0.042618159    25.084204      741.7363      -62.492778      679.24353    
   7089000   300.84657      0.042618159    7.8425058      746.40864     -62.11062       684.29802    
   7090000   293.37812      0.042618159    22.342737      727.87919     -70.737839      657.14135    
   7091000   299.63246      0.042618159    29.005688      743.39639     -69.113567      674.28282    
   7092000   311.78126      0.042618159    16.728421      773.53789     -68.628205      704.90969    
   7093000   295.14763      0.042618159    11.194781      732.26941     -75.280236      656.98918    
   7094000   299.904        0.042618159    31.445955      744.07008     -71.960347      672.10974    
   7095000   305.83704      0.042618159    15.921055      758.79013     -72.585908      686.20422    
   7096000   283.88167      0.042618159    12.648466      704.31825     -72.882932      631.43531    
   7097000   306.38534      0.042618159    26.591589      760.15047     -68.190369      691.9601     
   7098000   301.27479      0.042618159    12.680546      747.47106     -71.069941      676.40112    
   7099000   290.71051      0.042618159    10.884116      721.26079     -73.144648      648.11614    
   7100000   295.66599      0.042618159    18.74603       733.55546     -73.284185      660.27128    
   7101000   308.41142      0.042618159    32.23811       765.17722     -68.547161      696.63006    
   7102000   295.73159      0.042618159    18.324391      733.71823     -71.137916      662.58032    
   7103000   301.72077      0.042618159    14.704532      748.57755     -69.307405      679.27014    
   7104000   294.16435      0.042618159    25.969528      729.82986     -80.63134       649.19852    
   7105000   296.38995      0.042618159    31.75582       735.35163     -71.178821      664.17281    
   7106000   316.93118      0.042618159    21.897498      786.31499     -68.165771      718.14922    
   7107000   305.13438      0.042618159    18.52579       757.0468      -65.48292       691.56388    
   7108000   286.96532      0.042618159    33.300609      711.96887     -63.038444      648.93042    
   7109000   290.01565      0.042618159    29.269005      719.53681     -64.235794      655.30102    
   7110000   312.17839      0.042618159    22.263157      774.52318     -68.692358      705.83082    
   7111000   298.83551      0.042618159    4.3141752      741.41914     -78.24235       663.17679    
   7112000   297.15408      0.042618159    18.742318      737.24745     -74.830635      662.41682    
   7113000   290.22759      0.042618159    19.651428      720.06264     -79.461512      640.60113    
   7114000   294.92784      0.042618159    19.590027      731.7241      -73.375811      658.34829    
   7115000   296.48227      0.042618159    25.998391      735.58068     -69.106336      666.47435    
   7116000   297.70042      0.042618159    34.005053      738.60294     -62.397876      676.20506    
   7117000   294.14056      0.042618159    29.321604      729.77084     -62.830217      666.94062    
   7118000   300.61018      0.042618159    14.978106      745.82215     -55.868327      689.95382    
   7119000   308.44222      0.042618159    34.215859      765.25366     -60.814617      704.43904    
   7120000   306.6287       0.042618159    28.990996      760.75426     -59.368244      701.38601    
   7121000   307.68428      0.042618159    21.144542      763.37318     -56.245182      707.128      
   7122000   297.31386      0.042618159    13.111049      737.64387     -57.059953      680.58392    
   7123000   295.11267      0.042618159    23.308661      732.18266     -51.582623      680.60004    
   7124000   304.83677      0.042618159    19.403674      756.30843     -60.7744        695.53403    
   7125000   303.14296      0.042618159    17.724867      752.10604     -61.174551      690.93148    
   7126000   304.05525      0.042618159    20.224041      754.36946     -67.92989       686.43957    
   7127000   303.61761      0.042618159    25.105953      753.28365     -71.155745      682.12791    
   7128000   297.26571      0.042618159    15.186527      737.52441     -67.044102      670.48031    
   7129000   291.46701      0.042618159    17.194305      723.13769     -64.138278      658.99942    
   7130000   321.23538      0.042618159    32.608827      796.99383     -68.288436      728.7054     
   7131000   300.76649      0.042618159    23.125622      746.20996     -65.109299      681.10066    
   7132000   298.58408      0.042618159    12.801125      740.79534     -69.341728      671.45362    
   7133000   305.89895      0.042618159    21.777465      758.94373     -64.371153      694.57258    
   7134000   305.54751      0.042618159    20.173356      758.0718      -71.051578      687.02022    
   7135000   283.90029      0.042618159    18.011398      704.36444     -69.888904      634.47554    
   7136000   302.39301      0.042618159    21.876213      750.24539     -62.028369      688.21702    
   7137000   314.09192      0.042618159    23.529474      779.2707      -65.123278      714.14742    
   7138000   304.28102      0.042618159    22.16952       754.92959     -63.813797      691.11579    
   7139000   293.04206      0.042618159    17.67003       727.04542     -64.175473      662.86995    
   7140000   306.49349      0.042618159    27.982062      760.4188      -52.318649      708.10016    
   7141000   290.2765       0.042618159    31.726939      720.18401     -61.51402       658.66999    
   7142000   303.5157       0.042618159    23.259341      753.03082     -56.710492      696.32033    
   7143000   308.4067       0.042618159    8.2269361      765.16553     -51.013745      714.15178    
   7144000   301.30366      0.042618159    19.3057        747.54269     -60.996901      686.54579    
   7145000   295.23672      0.042618159    41.786191      732.49043     -62.046841      670.44359    
   7146000   309.95377      0.042618159    20.083539      769.00385     -63.516942      705.48691    
   7147000   295.19249      0.042618159    19.466813      732.38071     -61.919998      670.46071    
   7148000   298.69813      0.042618159    19.878115      741.0783      -65.338607      675.73969    
   7149000   293.3364       0.042618159    22.626766      727.77571     -71.522925      656.25278    
   7150000   302.09223      0.042618159    27.486359      749.49916     -65.370274      684.12889    
   7151000   305.35507      0.042618159    22.176936      757.59434     -63.191352      694.40299    
   7152000   287.98848      0.042618159    20.575765      714.50737     -58.507375      655.99999    
   7153000   312.0851       0.042618159    21.913335      774.29174     -55.429259      718.86249    
   7154000   307.56807      0.042618159    20.236624      763.08485     -56.873131      706.21172    
   7155000   289.67009      0.042618159    16.473573      718.67948     -58.078637      660.60084    
   7156000   295.55818      0.042618159    21.885567      733.28799     -56.440053      676.84794    
   7157000   321.23422      0.042618159    29.089509      796.99097     -54.769662      742.2213     
   7158000   303.40469      0.042618159    19.406628      752.75539     -63.158683      689.59671    
   7159000   292.9866       0.042618159    18.203976      726.90784     -76.494066      650.41377    
   7160000   304.57481      0.042618159    26.571744      755.6585      -76.825586      678.83291    
   7161000   297.84775      0.042618159    25.714989      738.96848     -78.613426      660.35505    
   7162000   293.46408      0.042618159    19.507558      728.09246     -81.616721      646.47574    
   7163000   303.86778      0.042618159    19.100535      753.90433     -75.760528      678.1438     
   7164000   300.26497      0.042618159    41.79157       744.96567     -69.501832      675.46384    
   7165000   302.14304      0.042618159    27.453497      749.62521     -71.647715      677.9775     
   7166000   299.24508      0.042618159   -0.62314108     742.4353      -74.958505      667.4768     
   7167000   293.19504      0.042618159    12.144891      727.42497     -70.607595      656.81737    
   7168000   312.40607      0.042618159    30.650439      775.08807     -72.914936      702.17314    
   7169000   304.35274      0.042618159    20.498743      755.10754     -73.649548      681.45799    
   7170000   308.31995      0.042618159    17.327366      764.95029     -76.895971      688.05432    
   7171000   285.08885      0.042618159    6.2956071      707.3133      -74.333473      632.97983    
   7172000   292.65783      0.042618159    26.419804      726.09214     -75.663635      650.4285     
   7173000   292.64863      0.042618159    26.680813      726.06931     -75.084062      650.98525    
   7174000   308.38962      0.042618159    24.58414       765.12315     -74.232698      690.89045    
   7175000   315.59534      0.042618159    15.452047      783.00073     -73.472559      709.52817    
   7176000   298.15453      0.042618159    15.358814      739.72962     -73.946272      665.78335    
   7177000   297.86168      0.042618159    15.332826      739.00303     -71.128931      667.8741     
   7178000   294.0588       0.042618159    25.994647      729.56798     -82.663901      646.90408    
   7179000   300.02154      0.042618159    31.440724      744.3617      -71.929414      672.43228    
   7180000   303.02991      0.042618159    21.286448      751.82556     -70.202044      681.62352    
   7181000   292.99719      0.042618159    16.479692      726.9341      -71.011786      655.92231    
   7182000   291.8818       0.042618159    17.080778      724.16678     -75.536927      648.62985    
   7183000   295.92948      0.042618159    33.863984      734.2092      -75.229072      658.98013    
   7184000   303.20208      0.042618159    23.914728      752.25272     -78.171172      674.08155    
   7185000   292.55151      0.042618159    23.395361      725.82837     -74.045116      651.78325    
   7186000   290.24113      0.042618159    16.271491      720.09624     -68.3668        651.72944    
   7187000   303.67964      0.042618159    18.240381      753.43755     -69.005151      684.43239    
   7188000   315.92132      0.042618159    22.903191      783.8095      -69.597532      714.21197    
   7189000   289.23787      0.042618159    27.931395      717.60714     -68.415539      649.1916     
   7190000   295.8259       0.042618159    21.370006      733.95222     -67.154597      666.79763    
   7191000   290.99381      0.042618159    22.758698      721.96365     -70.834662      651.12899    
   7192000   302.608        0.042618159    21.069061      750.7788      -73.553801      677.225      
   7193000   305.00484      0.042618159    18.590718      756.7254      -77.269605      679.4558     
   7194000   304.53016      0.042618159    25.262891      755.54771     -73.692485      681.85523    
   7195000   293.40829      0.042618159    26.474177      727.95405     -68.039296      659.91475    
   7196000   309.49437      0.042618159    22.38737       767.86406     -69.701477      698.16258    
   7197000   308.56532      0.042618159    19.978378      765.55906     -70.280548      695.27851    
   7198000   305.08976      0.042618159    19.510316      756.93609     -71.054052      685.88204    
   7199000   291.61443      0.042618159    21.48007       723.50343     -78.566963      644.93647    
   7200000   295.59477      0.042618159    25.103153      733.37877     -75.876678      657.50209    
   7201000   306.32422      0.042618159    19.950673      759.99884     -76.728104      683.27074    
   7202000   299.71443      0.042618159    18.761332      743.59976     -77.66292       665.93684    
   7203000   289.46046      0.042618159    22.026664      718.15938     -73.190806      644.96857    
   7204000   293.74203      0.042618159    13.987979      728.78207     -67.998103      660.78397    
   7205000   312.27483      0.042618159    18.864433      774.76246     -68.267888      706.49457    
   7206000   307.83634      0.042618159    25.639764      763.75045     -61.144266      702.60619    
   7207000   289.157        0.042618159    14.9026        717.4065      -67.406821      649.99967    
   7208000   290.51581      0.042618159    18.363613      720.77774     -60.781943      659.9958     
   7209000   311.75708      0.042618159    31.606017      773.47792     -59.259062      714.21885    
   7210000   301.81976      0.042618159    27.990905      748.82315     -63.949305      684.87384    
   7211000   302.20148      0.042618159    16.545463      749.77019     -67.342175      682.42802    
   7212000   304.1          0.042618159    25.540584      754.48048     -68.549283      685.93119    
   7213000   292.32682      0.042618159    24.588156      725.27089     -70.611103      654.65979    
   7214000   315.95648      0.042618159    4.3244599      783.89674     -66.366426      717.53031    
   7215000   305.8734       0.042618159    23.566657      758.88034     -68.838175      690.04217    
   7216000   295.47672      0.042618159    27.044235      733.0859      -69.740488      663.34541    
   7217000   298.10532      0.042618159    20.957152      739.60752     -78.55489       661.05263    
   7218000   306.2418       0.042618159    19.35726       759.79434     -71.99521       687.79913    
   7219000   307.36725      0.042618159    22.999049      762.58663     -72.26062       690.32601    
   7220000   295.36221      0.042618159    23.94201       732.80178     -74.103688      658.6981     
   7221000   289.98354      0.042618159    17.458188      719.45716     -74.942588      644.51457    
   7222000   300.5095       0.042618159    20.417662      745.57235     -73.553846      672.0185     
   7223000   308.08546      0.042618159    20.437664      764.36852     -74.854057      689.51447    
   7224000   292.15779      0.042618159    26.564959      724.85152     -76.775965      648.07556    
   7225000   290.56787      0.042618159    25.150918      720.90689     -63.421167      657.48572    
   7226000   300.9349       0.042618159    17.747229      746.62779     -64.011404      682.61638    
   7227000   307.53432      0.042618159    27.037182      763.00112     -62.10482       700.8963     
   7228000   301.90445      0.042618159    20.653534      749.03327     -67.489614      681.54366    
   7229000   304.19595      0.042618159    23.381485      754.71855     -63.237411      691.48113    
   7230000   306.87098      0.042618159    16.5939        761.35536     -75.128202      686.22716    
   7231000   285.45776      0.042618159    18.142099      708.22858     -69.752265      638.47631    
   7232000   306.39747      0.042618159    33.974112      760.18058     -72.589661      687.59092    
   7233000   309.04231      0.042618159    25.226817      766.7425      -67.885489      698.85701    
   7234000   285.1323       0.042618159    20.201428      707.42109     -70.910317      636.51077    
   7235000   301.80176      0.042618159    26.607185      748.7785      -72.90618       675.87232    
   7236000   308.56981      0.042618159    19.429535      765.57019     -71.058454      694.51174    
   7237000   292.42088      0.042618159    13.598987      725.50426     -69.690354      655.8139     
   7238000   299.65148      0.042618159    20.934902      743.44357     -70.618289      672.82529    
   7239000   310.16658      0.042618159    25.475183      769.53183     -70.92301       698.60882    
   7240000   307.61946      0.042618159    20.831085      763.21236     -68.832466      694.37989    
   7241000   288.33122      0.042618159    17.11035       715.3577      -70.264976      645.09272    
   7242000   302.31696      0.042618159    24.917937      750.05672     -68.71533       681.34139    
   7243000   310.7905       0.042618159    25.178821      771.0798      -71.950902      699.1289     
   7244000   306.24444      0.042618159    11.281733      759.8009      -69.343797      690.4571     
   7245000   281.15802      0.042618159    17.453055      697.56079     -69.673151      627.88764    
   7246000   298.83804      0.042618159    18.339605      741.42541     -66.485192      674.94021    
   7247000   308.30774      0.042618159    20.69657       764.92        -70.173986      694.74601    
   7248000   293.22243      0.042618159    20.635402      727.49292     -72.329821      655.1631     
   7249000   287.21672      0.042618159    22.170035      712.5926      -73.745104      638.84749    
   7250000   301.04082      0.042618159    20.963606      746.89057     -76.999213      669.89136    
   7251000   309.2405       0.042618159    22.800401      767.23419     -77.11188       690.12231    
   7252000   298.53092      0.042618159    23.266875      740.66345     -75.514105      665.14935    
   7253000   289.71218      0.042618159    12.741849      718.78389     -76.804393      641.9795     
   7254000   296.03794      0.042618159    18.674757      734.4783      -78.844404      655.6339     
   7255000   291.79601      0.042618159    23.538521      723.95394     -73.129453      650.82449    
   7256000   303.4332       0.042618159    28.072846      752.82612     -72.693168      680.13296    
   7257000   299.50877      0.042618159    22.41179       743.0895      -72.630835      670.45867    
   7258000   298.30089      0.042618159    18.42893       740.09273     -71.138236      668.9545     
   7259000   294.33366      0.042618159    16.592826      730.24993     -73.986629      656.2633     
   7260000   301.26258      0.042618159    27.054917      747.44077     -74.204276      673.23649    
   7261000   294.66274      0.042618159    26.018115      731.06638     -75.102309      655.96407    
   7262000   305.63077      0.042618159    9.6924828      758.27838     -74.98909       683.28929    
   7263000   295.36246      0.042618159    20.444999      732.8024      -78.65103       654.15137    
   7264000   291.85178      0.042618159    33.593183      724.09232     -82.236955      641.85537    
   7265000   306.9823       0.042618159    36.173434      761.63156     -76.258047      685.37351    
   7266000   325.30038      0.042618159    11.008279      807.0792      -76.730737      730.34846    
   7267000   289.85016      0.042618159    16.180229      719.12624     -71.037122      648.08912    
   7268000   297.45316      0.042618159    28.241759      737.98949     -74.010946      663.97855    
   7269000   317.031        0.042618159    20.066186      786.56266     -69.898023      716.66463    
   7270000   295.14011      0.042618159    17.468842      732.25076     -74.443905      657.80685    
   7271000   287.01775      0.042618159    19.008896      712.09895     -71.075198      641.02375    
   7272000   289.13196      0.042618159    21.521926      717.34436     -65.556659      651.7877     
   7273000   313.16691      0.042618159    29.215009      776.97574     -59.330446      717.6453     
   7274000   304.84437      0.042618159    21.054981      756.32728     -66.134864      690.19242    
   7275000   295.58487      0.042618159    22.852808      733.35421     -64.331967      669.02224    
   7276000   286.07644      0.042618159    17.849634      709.76354     -70.265833      639.49771    
   7277000   302.32369      0.042618159    22.796588      750.07341     -66.210095      683.86332    
   7278000   308.67008      0.042618159    18.901086      765.81898     -63.15851       702.66047    
   7279000   309.86374      0.042618159    16.415524      768.78047     -58.447485      710.33298    
   7280000   290.24544      0.042618159    22.139701      720.10693     -67.372808      652.73412    
   7281000   291.24166      0.042618159    15.394464      722.57857     -65.258983      657.31959    
   7282000   312.30559      0.042618159    24.31757       774.83878     -74.136687      700.70209    
   7283000   294.21304      0.042618159    20.730701      729.95065     -69.680706      660.26994    
   7284000   302.33936      0.042618159    23.725683      750.11228     -74.154284      675.958      
   7285000   305.64454      0.042618159    22.333301      758.31252     -68.018271      690.29425    
   7286000   299.63334      0.042618159    20.698373      743.39856     -70.607508      672.79106    
   7287000   297.6507       0.042618159    21.823556      738.47959     -57.411391      681.0682     
   7288000   304.26815      0.042618159    27.145244      754.89766     -64.849914      690.04775    
   7289000   290.47614      0.042618159    21.883281      720.6793      -65.712815      654.96649    
   7290000   298.66064      0.042618159    22.112635      740.98527     -63.665545      677.31973    
   7291000   307.90634      0.042618159    23.433295      763.92411     -70.424517      693.49959    
   7292000   292.63554      0.042618159    19.947743      726.03685     -65.681901      660.35495    
   7293000   296.11856      0.042618159    16.879031      734.67832     -66.559795      668.11852    
   7294000   314.53591      0.042618159    24.420744      780.37225     -64.446035      715.92622    
   7295000   297.2809       0.042618159    20.77509       737.5621      -60.909086      676.65301    
   7296000   303.43982      0.042618159    32.200399      752.84256     -57.722434      695.12013    
   7297000   309.67409      0.042618159    25.131137      768.30995     -55.336987      712.97296    
   7298000   298.61617      0.042618159    16.751762      740.87495     -63.160399      677.71455    
   7299000   284.4822       0.042618159    22.114169      705.80817     -56.125721      649.68245    
   7300000   292.52453      0.042618159    24.527825      725.76142     -59.995584      665.76583    
   7301000   309.24712      0.042618159    23.237608      767.25062     -58.29104       708.95958    
   7302000   309.90181      0.042618159    19.719416      768.87492     -63.271859      705.60307    
   7303000   302.93777      0.042618159    22.121154      751.59696     -60.22758       691.36938    
   7304000   292.33042      0.042618159    18.689687      725.27982     -63.620767      661.65905    
   7305000   293.07338      0.042618159    9.2234331      727.12313     -58.51096       668.61217    
   7306000   308.90142      0.042618159    24.903009      766.39293     -61.168449      705.22448    
   7307000   294.33351      0.042618159    26.676578      730.24956     -60.508383      669.74118    
   7308000   289.60919      0.042618159    24.319939      718.52839     -68.414815      650.11357    
   7309000   299.80974      0.042618159    19.030158      743.83623     -72.931478      670.90476    
   7310000   300.41964      0.042618159    21.991538      745.34941     -62.742203      682.60721    
   7311000   300.08106      0.042618159    26.76027       744.50938     -63.291845      681.21753    
   7312000   294.30894      0.042618159    20.694336      730.18858     -65.841426      664.34716    
   7313000   319.55122      0.042618159    9.9991129      792.8154      -66.449791      726.3656     
   7314000   302.62338      0.042618159    24.223679      750.81694     -74.587979      676.22896    
   7315000   294.90112      0.042618159    21.354314      731.6578      -68.966746      662.69105    
   7316000   303.16292      0.042618159    17.16353       752.15557     -67.881434      684.27414    
   7317000   303.96702      0.042618159    23.817342      754.15055     -69.01737       685.13318    
   7318000   297.71465      0.042618159    24.602279      738.63825     -62.898969      675.73928    
   7319000   307.50014      0.042618159    20.07419       762.91633     -69.763379      693.15295    
   7320000   296.24608      0.042618159    19.032755      734.99469     -66.740414      668.25427    
   7321000   306.80127      0.042618159    23.013672      761.18241     -65.871662      695.31075    
   7322000   305.62062      0.042618159    23.209542      758.25317     -61.617649      696.63553    
   7323000   308.06572      0.042618159    33.604915      764.31953     -55.491185      708.82835    
   7324000   294.88484      0.042618159    22.777849      731.61742     -65.364564      666.25285    
   7325000   310.66401      0.042618159    26.084135      770.76597     -65.549094      705.21688    
   7326000   303.15454      0.042618159    23.204005      752.13477     -61.547846      690.58692    
   7327000   269.18112      0.042618159    20.249903      667.84577     -65.089814      602.75596    
   7328000   306.25591      0.042618159    19.324395      759.82937     -61.724812      698.10455    
   7329000   290.68616      0.042618159    21.724831      721.20037     -59.907386      661.29298    
   7330000   283.71048      0.042618159    20.979776      703.89351     -58.22011       645.6734     
   7331000   294.86431      0.042618159    22.866222      731.56647     -66.835235      664.73124    
   7332000   307.65945      0.042618159    22.805957      763.31158     -65.094624      698.21696    
   7333000   296.60719      0.042618159    15.273039      735.89062     -69.884088      666.00653    
   7334000   286.18822      0.042618159    21.588704      710.04086     -69.999343      640.04152    
   7335000   299.58434      0.042618159    23.459871      743.27701     -64.747295      678.52971    
   7336000   309.66104      0.042618159    23.164117      768.27757     -69.743952      698.53361    
   7337000   296.88791      0.042618159    18.370471      736.58708     -68.047572      668.53951    
   7338000   287.55258      0.042618159    18.942242      713.42588     -69.801182      643.6247     
   7339000   298.00199      0.042618159    25.255835      739.35115     -71.475725      667.87543    
   7340000   306.39092      0.042618159    30.556116      760.16431     -68.693613      691.4707     
   7341000   302.6208       0.042618159    20.104518      750.81056     -65.768681      685.04188    
   7342000   286.90161      0.042618159    26.755568      711.8108      -64.457479      647.35332    
   7343000   306.86254      0.042618159    56.045168      761.33441     -59.077597      702.25681    
   7344000   308.91051      0.042618159    8.0652778      766.41548     -68.112478      698.303      
   7345000   304.78894      0.042618159    1.244146       756.18975     -73.268454      682.9213     
   7346000   288.39349      0.042618159    25.867064      715.51221     -59.489246      656.02296    
   7347000   312.21536      0.042618159    29.555717      774.61491     -67.230178      707.38473    
   7348000   304.41763      0.042618159    32.151013      755.26853     -60.470197      694.79833    
   7349000   296.79291      0.042618159    7.9885853      736.3514      -65.559989      670.79141    
   7350000   288.76317      0.042618159    8.0992062      716.42939     -69.139599      647.28979    
   7351000   311.9891       0.042618159    32.286659      774.05355     -58.08337       715.97018    
   7352000   310.00214      0.042618159    23.944576      769.12386     -67.52296       701.6009     
   7353000   300.30444      0.042618159    27.661088      745.06359     -62.060537      683.00305    
   7354000   312.14333      0.042618159    15.96996       774.43619     -68.048507      706.38769    
   7355000   297.523        0.042618159    23.439897      738.16277     -68.50736       669.65541    
   7356000   294.83635      0.042618159    23.503633      731.49712     -61.791589      669.70553    
   7357000   293.52734      0.042618159    25.256621      728.24941     -60.023351      668.22606    
   7358000   302.66895      0.042618159    23.858658      750.93        -65.947747      684.98226    
   7359000   302.75014      0.042618159    26.574596      751.13145     -60.92831       690.20313    
   7360000   300.35825      0.042618159    14.144076      745.19709     -67.223061      677.97403    
   7361000   295.01322      0.042618159    19.575536      731.93593     -70.562859      661.37307    
   7362000   289.05432      0.042618159    29.41565       717.15173     -61.515038      655.6367     
   7363000   309.59281      0.042618159    25.074754      768.10828     -56.518121      711.59016    
   7364000   301.09159      0.042618159    24.513754      747.01653     -56.949565      690.06697    
   7365000   291.07367      0.042618159    19.595604      722.16179     -54.948989      667.21281    
   7366000   300.30255      0.042618159    22.805847      745.05891     -52.529531      692.52937    
   7367000   313.51948      0.042618159    21.762392      777.85048     -62.540488      715.30999    
   7368000   300.10483      0.042618159    24.817743      744.56836     -56.169036      688.39932    
   7369000   279.61849      0.042618159    18.992485      693.74117     -60.509263      633.23191    
   7370000   306.1693       0.042618159    19.915196      759.61448     -66.400837      693.21364    
   7371000   301.03548      0.042618159    19.046113      746.87731     -70.121135      676.75618    
   7372000   293.73961      0.042618159    21.062868      728.77608     -61.83327       666.94281    
   7373000   293.82183      0.042618159    19.83596       728.98007     -53.698644      675.28143    
   7374000   298.02688      0.042618159    20.886245      739.41291     -56.930363      682.48255    
   7375000   301.51185      0.042618159    31.641679      748.0592      -58.551431      689.50777    
   7376000   290.66349      0.042618159    21.723478      721.14414     -62.756837      658.3873     
   7377000   292.26033      0.042618159    16.193312      725.10594     -56.74586       668.36008    
   7378000   311.36626      0.042618159    22.126952      772.50828     -60.577002      711.93128    
   7379000   291.76905      0.042618159    27.116226      723.88706     -58.077079      665.80998    
   7380000   286.81745      0.042618159    28.927471      711.602       -55.169976      656.43202    
   7381000   293.24612      0.042618159    23.105407      727.5517      -63.527605      664.02409    
   7382000   310.07062      0.042618159    12.792403      769.29377     -63.071142      706.22262    
   7383000   294.32696      0.042618159    30.383068      730.2333      -62.620588      667.61271    
   7384000   291.35063      0.042618159    22.680219      722.84894     -66.639165      656.20978    
   7385000   295.14709      0.042618159    12.195731      732.26807     -63.620703      668.64737    
   7386000   311.12378      0.042618159    18.634087      771.90667     -64.954135      706.95253    
   7387000   288.6855       0.042618159    31.437541      716.23669     -61.029743      655.20694    
   7388000   281.70806      0.042618159    21.636079      698.92546     -71.320874      627.60458    
   7389000   303.12684      0.042618159    9.6153863      752.06606     -64.553824      687.51223    
   7390000   310.41468      0.042618159    22.577395      770.14739     -61.461915      708.68548    
   7391000   300.22964      0.042618159    20.403932      744.878       -58.651036      686.22697    
   7392000   288.31321      0.042618159    17.614154      715.31302     -63.548942      651.76407    
   7393000   301.81676      0.042618159    14.623443      748.81571     -64.299412      684.51629    
   7394000   307.52723      0.042618159    22.607892      762.98354     -68.258339      694.7252     
   7395000   300.77461      0.042618159    23.889048      746.2301      -71.893975      674.33613    
   7396000   290.50006      0.042618159    18.058751      720.73866     -67.77998       652.95868    
   7397000   310.74402      0.042618159    23.457749      770.96448     -74.607795      696.35668    
   7398000   309.71727      0.042618159    21.185374      768.41708     -72.438022      695.97906    
   7399000   288.90244      0.042618159    22.837268      716.77493     -66.574489      650.20044    
   7400000   283.33642      0.042618159    17.256614      702.96546     -63.512745      639.45271    
   7401000   296.64871      0.042618159    20.925413      735.99362     -63.17853       672.81509    
   7402000   310.70578      0.042618159    21.42415       770.8696      -71.012123      699.85748    
   7403000   308.01201      0.042618159    27.428495      764.18629     -75.359942      688.82635    
   7404000   280.31625      0.042618159    21.191865      695.47234     -68.96216       626.51018    
   7405000   295.97344      0.042618159    21.814091      734.31826     -59.01121       675.30705    
   7406000   299.47403      0.042618159    22.415564      743.00333     -56.016393      686.98694    
   7407000   297.87887      0.042618159    26.000126      739.04568     -57.014593      682.03109    
   7408000   292.54061      0.042618159    40.857405      725.80131     -54.798827      671.00248    
   7409000   306.93289      0.042618159    25.726166      761.50895     -62.277224      699.23173    
   7410000   298.9305       0.042618159    9.0017776      741.6548      -66.389745      675.26506    
   7411000   291.12384      0.042618159    25.175284      722.28628     -65.921719      656.36456    
   7412000   303.78548      0.042618159    21.737237      753.70015     -71.624137      682.07602    
   7413000   312.46211      0.042618159    19.631942      775.22711     -59.314434      715.91268    
   7414000   296.46797      0.042618159    21.091651      735.5452      -63.556691      671.98851    
   7415000   296.35896      0.042618159    21.836578      735.27475     -62.221363      673.05338    
   7416000   310.23919      0.042618159    22.703493      769.71197     -60.623455      709.08852    
   7417000   307.2062       0.042618159    21.168899      762.18704     -66.455538      695.7315     
   7418000   282.42355      0.042618159    18.792674      700.70062     -67.949587      632.75103    
   7419000   316.60088      0.042618159    10.829068      785.49551     -71.359578      714.13593    
   7420000   309.10696      0.042618159    27.641513      766.90288     -72.162418      694.74046    
   7421000   283.22282      0.042618159    25.997627      702.68363     -70.491359      632.19227    
   7422000   296.86942      0.042618159    8.2528028      736.54122     -63.926146      672.61508    
   7423000   313.49602      0.042618159    19.00483       777.79227     -76.835449      700.95682    
   7424000   312.54079      0.042618159    25.907361      775.42232     -73.836355      701.58596    
   7425000   287.54464      0.042618159    28.377932      713.40617     -70.819634      642.58653    
   7426000   299.09303      0.042618159   -7.6064726      742.05806     -80.33609       661.72197    
   7427000   310.43731      0.042618159    35.716827      770.20353     -73.973306      696.23023    
   7428000   289.0293       0.042618159    19.900235      717.08966     -71.344402      645.74525    
   7429000   297.66086      0.042618159    8.1992291      738.50481     -70.495819      668.00899    
   7430000   302.28452      0.042618159    6.5077109      749.97623     -64.591684      685.38454    
   7431000   303.17605      0.042618159    18.256527      752.18813     -62.33936       689.84877    
   7432000   294.86887      0.042618159    41.917006      731.57779     -64.274065      667.30372    
   7433000   290.8931       0.042618159    22.435164      721.7138      -66.668357      655.04544    
   7434000   299.05899      0.042618159    8.1333802      741.9736      -62.426435      679.54717    
   7435000   307.17352      0.042618159    42.530655      762.10597     -60.963174      701.1428     
   7436000   294.20412      0.042618159    50.104053      729.92854     -66.109085      663.81946    
   7437000   296.3262       0.042618159    14.469989      735.19347     -64.096261      671.09721    
   7438000   292.66258      0.042618159    13.734029      726.10393     -64.299484      661.80445    
   7439000   292.30234      0.042618159    23.566292      725.21016     -64.870554      660.3396     
   7440000   321.89212      0.042618159    21.388789      798.62323     -68.977645      729.64559    
   7441000   296.53382      0.042618159    23.110656      735.70858     -72.779174      662.9294     
   7442000   289.43393      0.042618159    21.638568      718.09355     -69.427272      648.66628    
   7443000   309.64935      0.042618159    28.891295      768.24857     -70.011549      698.23702    
   7444000   300.5897       0.042618159    26.618617      745.77133     -70.529551      675.24178    
   7445000   286.16683      0.042618159    18.328088      709.9878      -69.484726      640.50307    
   7446000   294.56902      0.042618159    19.365048      730.83386     -69.954325      660.87954    
   7447000   317.2189       0.042618159    14.84063       787.02884     -68.361601      718.66724    
   7448000   286.79162      0.042618159    22.165039      711.53791     -65.482219      646.05569    
   7449000   287.09         0.042618159    21.789372      712.2782      -62.707421      649.57078    
   7450000   304.71149      0.042618159    14.218772      755.9976      -65.031496      690.96611    
   7451000   308.56786      0.042618159    28.840882      765.56537     -62.387522      703.17785    
   7452000   290.52796      0.042618159    26.298401      720.80787     -62.475302      658.33257    
   7453000   298.97362      0.042618159    8.5035964      741.76178     -63.130683      678.6311     
   7454000   320.51324      0.042618159    23.731956      795.20218     -66.262275      728.9399     
   7455000   288.75748      0.042618159    27.615761      716.41527     -65.971335      650.44394    
   7456000   293.42183      0.042618159    26.530348      727.98765     -62.890704      665.09695    
   7457000   304.65469      0.042618159    17.586062      755.85667     -65.095038      690.76164    
   7458000   309.35179      0.042618159    21.582816      767.51031     -60.84656       706.66375    
   7459000   290.10202      0.042618159    18.814937      719.75111     -69.549231      650.20188    
   7460000   296.1985       0.042618159    24.192255      734.87664     -63.667841      671.2088     
   7461000   300.39915      0.042618159    16.795196      745.29858     -66.155811      679.14277    
   7462000   305.75819      0.042618159    18.400577      758.5945      -71.457781      687.13672    
   7463000   297.71459      0.042618159    22.866814      738.63811     -69.279496      669.35861    
   7464000   299.32252      0.042618159    22.35732       742.62743     -69.814964      672.81247    
   7465000   313.90551      0.042618159    26.279582      778.80822     -65.80041       713.00781    
   7466000   304.35549      0.042618159    13.728227      755.11436     -79.808624      675.30574    
   7467000   300.08894      0.042618159    21.226513      744.52894     -72.735406      671.79353    
   7468000   305.74684      0.042618159    18.311245      758.56633     -76.83873       681.7276     
   7469000   299.24382      0.042618159    19.970903      742.43217     -75.577549      666.85462    
   7470000   292.76177      0.042618159    20.238197      726.35002     -75.452202      650.89782    
   7471000   302.63273      0.042618159    18.660049      750.84014     -73.358646      677.48149    
   7472000   307.0633       0.042618159    23.773974      761.83251     -70.470399      691.36211    
   7473000   297.65108      0.042618159    16.337718      738.48055     -68.987888      669.49266    
   7474000   294.94669      0.042618159    19.810735      731.77087     -68.19521       663.57566    
   7475000   301.79011      0.042618159    31.026264      748.74959     -62.590105      686.15948    
   7476000   315.65931      0.042618159    15.52955       783.15946     -72.693829      710.46563    
   7477000   295.19737      0.042618159    4.1521996      732.39281     -73.244084      659.14872    
   7478000   281.67192      0.042618159    12.626681      698.83579     -75.184039      623.65175    
   7479000   305.14302      0.042618159    25.442235      757.06823     -70.113053      686.95518    
   7480000   311.24493      0.042618159    18.641054      772.20725     -74.777911      697.42934    
   7481000   302.37479      0.042618159    25.267958      750.2002      -66.463747      683.73645    
   7482000   294.91736      0.042618159    23.492707      731.69809     -64.966223      666.73187    
   7483000   303.60873      0.042618159    24.65981       753.26162     -71.821992      681.43963    
   7484000   299.36625      0.042618159    15.355773      742.73593     -76.100719      666.63521    
   7485000   297.24257      0.042618159    21.430772      737.46701     -80.437606      657.0294     
   7486000   298.01216      0.042618159    32.28162       739.37639     -78.169522      661.20687    
   7487000   307.03587      0.042618159    22.056448      761.76445     -75.284675      686.47978    
   7488000   311.49319      0.042618159    4.6877824      772.82318     -74.812749      698.01043    
   7489000   298.96637      0.042618159    22.370166      741.74382     -72.725709      669.01811    
   7490000   292.53483      0.042618159    23.91833       725.78698     -70.235335      655.55165    
   7491000   305.339        0.042618159    20.353117      757.55447     -64.787788      692.76669    
   7492000   296.08324      0.042618159    9.2007657      734.59069     -67.723724      666.86696    
   7493000   305.24011      0.042618159    22.336865      757.30914     -70.543881      686.76526    
   7494000   297.7013       0.042618159    29.219806      738.60512     -67.093477      671.51165    
   7495000   312.83895      0.042618159    16.440103      776.16207     -70.865447      705.29662    
   7496000   295.22519      0.042618159    7.9506085      732.46183     -68.930209      663.53162    
   7497000   294.67861      0.042618159    68.519538      731.10576     -65.914755      665.19101    
   7498000   320.67991      0.042618159    28.419614      795.61569     -65.749209      729.86648    
   7499000   305.84108      0.042618159    17.135655      758.80014     -75.639728      683.16041    
   7500000   285.65405      0.042618159    14.405292      708.71556     -78.037027      630.67853    
   7501000   288.48051      0.042618159    23.333213      715.72811     -80.216062      635.51205    
   7502000   292.15132      0.042618159    25.703155      724.83549     -83.265492      641.57       
   7503000   300.31258      0.042618159    21.870657      745.08378     -87.098349      657.98543    
   7504000   296.58505      0.042618159    21.945086      735.83568     -85.822485      650.0132     
   7505000   296.56959      0.042618159    25.80822       735.79732     -79.607038      656.19029    
   7506000   297.99284      0.042618159    47.557135      739.32844     -83.428444      655.9        
   7507000   303.12653      0.042618159    22.364832      752.06528     -83.093132      668.97215    
   7508000   298.93729      0.042618159    20.279432      741.67165     -77.14614       664.52551    
   7509000   281.9234       0.042618159    17.348963      699.45973     -70.020551      629.43918    
   7510000   302.9438       0.042618159    30.576953      751.61191     -69.700413      681.9115     
   7511000   327.28151      0.042618159    19.10692       811.99444     -72.845106      739.14934    
   7512000   285.45504      0.042618159    7.6177598      708.22183     -76.748818      631.47301    
   7513000   289.54124      0.042618159    31.27812       718.35981     -77.909132      640.45067    
   7514000   310.60111      0.042618159    27.11158       770.60992     -79.835729      690.77419    
   7515000   309.01225      0.042618159    13.461788      766.66792     -81.566247      685.10168    
   7516000   291.34828      0.042618159    19.614397      722.84311     -88.144482      634.69863    
   7517000   284.95492      0.042618159    16.9248        706.98102     -77.515678      629.46534    
   7518000   299.26033      0.042618159    24.796563      742.47313     -79.507434      662.96569    
   7519000   308.50332      0.042618159    24.175067      765.40523     -79.956136      685.4491     
   7520000   313.99881      0.042618159    22.933965      779.03969     -79.965708      699.07398    
   7521000   303.97594      0.042618159    14.772623      754.17267     -74.827966      679.34471    
   7522000   291.92459      0.042618159    23.347084      724.27295     -77.345272      646.92768    
   7523000   309.89584      0.042618159    21.853274      768.86012     -84.120703      684.73942    
   7524000   298.64664      0.042618159    17.587959      740.95053     -74.648006      666.30253    
   7525000   295.31022      0.042618159    23.684501      732.67281     -78.802678      653.87013    
   7526000   303.84183      0.042618159    22.560843      753.83995     -69.87038       683.96957    
   7527000   308.08726      0.042618159    8.9269141      764.37298     -70.612201      693.76078    
   7528000   299.42818      0.042618159    22.146003      742.88957     -73.006186      669.88338    
   7529000   313.52383      0.042618159    34.978475      777.86127     -72.486371      705.3749     
   7530000   306.26323      0.042618159    25.108581      759.84751     -68.437149      691.41036    
   7531000   305.54612      0.042618159    20.504567      758.06835     -76.881967      681.18639    
   7532000   298.05889      0.042618159    21.022368      739.49232     -71.973183      667.51914    
   7533000   299.79392      0.042618159    27.899697      743.79699     -68.271222      675.52577    
   7534000   311.85215      0.042618159    23.917304      773.71379     -71.918344      701.79545    
   7535000   296.20075      0.042618159    13.21463       734.88223     -63.694483      671.18775    
   7536000   294.08114      0.042618159    22.31338       729.62342     -65.703442      663.91998    
   7537000   311.74366      0.042618159    25.92029       773.44462     -70.79154       702.65308    
   7538000   295.68543      0.042618159    18.579606      733.60371     -66.781939      666.82177    
   7539000   289.31144      0.042618159    19.877449      717.78966     -68.330356      649.4593     
   7540000   310.77363      0.042618159    21.310375      771.03793     -71.719234      699.3187     
   7541000   301.8998       0.042618159    39.895977      749.02173     -71.011688      678.01004    
   7542000   290.36079      0.042618159    21.563082      720.39314     -70.215207      650.17793    
   7543000   304.64021      0.042618159    19.523536      755.82075     -68.699569      687.12118    
   7544000   304.93225      0.042618159    14.951416      756.54532     -70.136319      686.409      
   7545000   306.00094      0.042618159    24.73681       759.19677     -66.647138      692.54963    
   7546000   294.63163      0.042618159    21.954294      730.98918     -64.663688      666.3255     
   7547000   305.53362      0.042618159    17.169799      758.03734     -70.889463      687.14788    
   7548000   305.53843      0.042618159    28.529277      758.04927     -72.288003      685.76127    
   7549000   291.261        0.042618159    22.035381      722.62658     -75.530592      647.09599    
   7550000   286.20931      0.042618159    17.15967       710.09319     -80.859981      629.23321    
   7551000   306.98787      0.042618159    19.399857      761.64537     -74.040117      687.60525    
   7552000   303.39259      0.042618159    22.732945      752.72537     -70.011648      682.71373    
   7553000   288.95218      0.042618159    20.097415      716.89832     -69.142267      647.75606    
   7554000   298.42335      0.042618159    21.412114      740.39655     -70.58415       669.8124     
   7555000   300.37491      0.042618159    12.49351       745.23844     -71.556997      673.68145    
   7556000   298.11592      0.042618159    17.035131      739.63382     -63.784339      675.84948    
   7557000   300.76564      0.042618159    26.611957      746.20784     -73.021025      673.18682    
   7558000   300.81174      0.042618159    22.562925      746.32222     -76.645791      669.67643    
   7559000   305.30961      0.042618159    18.860271      757.48157     -72.889093      684.59247    
   7560000   283.52238      0.042618159    23.397567      703.42683     -77.656738      625.77009    
   7561000   296.88964      0.042618159    24.371571      736.59137     -73.979766      662.6116     
   7562000   307.84534      0.042618159    23.438381      763.77278     -65.784108      697.98868    
   7563000   296.20582      0.042618159    24.035294      734.89481     -60.517747      674.37706    
   7564000   305.39598      0.042618159    20.949933      757.69585     -70.345685      687.35017    
   7565000   303.39612      0.042618159    19.689443      752.73413     -65.782059      686.95207    
   7566000   296.20448      0.042618159    26.025428      734.89147     -68.308114      666.58336    
   7567000   297.63942      0.042618159    24.714553      738.4516      -62.900658      675.55094    
   7568000   293.22952      0.042618159    17.971782      727.51053     -61.60507       665.90546    
   7569000   294.79429      0.042618159    24.014614      731.39277     -58.513472      672.8793     
   7570000   294.01134      0.042618159    24.472389      729.45025     -60.08259       669.36766    
   7571000   300.78535      0.042618159    13.944107      746.25674     -66.450875      679.80586    
   7572000   306.50084      0.042618159    17.346458      760.43703     -65.112839      695.32419    
   7573000   295.85631      0.042618159    32.457925      734.02765     -69.846416      664.18124    
   7574000   302.63645      0.042618159    16.491883      750.84937     -69.446929      681.40245    
   7575000   299.66356      0.042618159    18.766645      743.47356     -65.852388      677.62117    
   7576000   304.86221      0.042618159    27.312299      756.37155     -63.854632      692.51691    
   7577000   300.82776      0.042618159    29.955977      746.36198     -68.545044      677.81693    
   7578000   292.13475      0.042618159    6.5047766      724.79437     -73.652115      651.14226    
   7579000   302.14829      0.042618159    17.624069      749.63824     -71.992886      677.64535    
   7580000   300.11026      0.042618159    31.611821      744.58183     -74.613225      669.9686     
   7581000   288.33205      0.042618159    5.0771519      715.35976     -73.352383      642.00738    
   7582000   305.2584       0.042618159    14.951655      757.3545      -68.065903      689.2886     
   7583000   316.803        0.042618159    42.345933      785.99699     -72.621188      713.3758     
   7584000   287.29518      0.042618159    31.555372      712.78727     -73.666858      639.12041    
   7585000   294.46017      0.042618159    12.570935      730.5638      -73.585671      656.97813    
   7586000   308.28787      0.042618159    29.766218      764.8707      -76.020177      688.85053    
   7587000   294.60485      0.042618159    32.68867       730.92275     -78.291817      652.63093    
   7588000   292.77938      0.042618159    15.325644      726.39372     -71.373855      655.01986    
   7589000   301.35634      0.042618159    20.06758       747.6734      -74.070746      673.60265    
   7590000   295.5885       0.042618159    27.07265       733.36321     -72.307414      661.0558     
   7591000   292.3734       0.042618159    19.496669      725.38647     -65.558095      659.82838    
   7592000   296.13532      0.042618159    22.728656      734.71989     -65.838451      668.88144    
   7593000   300.91378      0.042618159    23.883989      746.57539     -68.759629      677.81576    
   7594000   295.52889      0.042618159    24.925179      733.21533     -66.669024      666.54631    
   7595000   290.73189      0.042618159    23.714397      721.31384     -68.864666      652.44918    
   7596000   315.29978      0.042618159    22.898875      782.26745     -65.95011       716.31734    
   7597000   303.99928      0.042618159    7.7584204      754.23059     -62.594115      691.63648    
   7598000   295.50511      0.042618159    35.047084      733.15632     -60.877094      672.27923    
   7599000   306.03581      0.042618159    30.988287      759.28327     -66.646535      692.63674    
   7600000   300.07118      0.042618159    25.947352      744.48487     -66.314296      678.17057    
   7601000   306.57211      0.042618159    19.113118      760.61385     -62.635526      697.97833    
   7602000   292.14282      0.042618159    11.512547      724.8144      -66.135534      658.67887    
   7603000   289.86622      0.042618159    26.658007      719.16607     -68.431383      650.73469    
   7604000   308.22738      0.042618159    30.384546      764.72062     -61.414811      703.30581    
   7605000   305.62947      0.042618159    18.120106      758.27515     -55.314332      702.96082    
   7606000   292.99376      0.042618159    11.01918       726.92559     -62.604252      664.32134    
   7607000   286.44118      0.042618159    19.276329      710.66846     -68.384305      642.28415    
   7608000   320.02143      0.042618159    26.256623      793.98199     -57.703572      736.27842    
   7609000   296.90493      0.042618159    0.58536806     736.62931     -55.189833      681.43948    
   7610000   293.23922      0.042618159    22.667372      727.53459     -60.672944      666.86164    
   7611000   311.69049      0.042618159    23.331725      773.31271     -55.600653      717.71205    
   7612000   318.02524      0.042618159    21.765591      789.02938     -56.151051      732.87833    
   7613000   291.95471      0.042618159    17.905117      724.34768     -56.718747      667.62893    
   7614000   300.24912      0.042618159    29.397976      744.92636     -63.16297       681.76338    
   7615000   298.00934      0.042618159    32.419645      739.36938     -60.742815      678.62656    
   7616000   301.6522       0.042618159    20.027936      748.40743     -69.000019      679.40741    
   7617000   307.51201      0.042618159    12.729439      762.94578     -69.913084      693.0327     
   7618000   303.51078      0.042618159    11.393474      753.01861     -73.989203      679.0294     
   7619000   303.2292       0.042618159    34.83912       752.31999     -72.486931      679.83306    
   7620000   299.63097      0.042618159    35.456991      743.39269     -77.475723      665.91697    
   7621000   306.36264      0.042618159    9.921996       760.09415     -76.42692       683.66723    
   7622000   308.16676      0.042618159    19.277931      764.57022     -74.145341      690.42488    
   7623000   301.76831      0.042618159    21.465825      748.69551     -76.101102      672.59441    
   7624000   303.89137      0.042618159    31.516591      753.96287     -73.00117       680.9617     
   7625000   303.2428       0.042618159    11.386423      752.35376     -66.846312      685.50744    
   7626000   292.37911      0.042618159   -3.7159225      725.40062     -73.199989      652.20063    
   7627000   294.01203      0.042618159    39.941446      729.45194     -69.798464      659.65348    
   7628000   308.91971      0.042618159    12.953741      766.43831     -64.940169      701.49814    
   7629000   304.76828      0.042618159   -13.254012      756.13849     -67.783787      688.35471    
   7630000   305.7272       0.042618159    26.692798      758.5176      -74.401108      684.11649    
   7631000   297.57381      0.042618159    38.17417       738.28883     -72.443711      665.84512    
   7632000   306.42971      0.042618159    34.694247      760.26055     -75.139705      685.12085    
   7633000   316.36485      0.042618159    48.987351      784.9099      -75.604757      709.30515    
   7634000   308.09592      0.042618159    28.293334      764.39447     -70.117868      694.2766     
   7635000   283.59538      0.042618159    21.959442      703.60796     -74.474028      629.13394    
   7636000   305.33405      0.042618159    30.911945      757.54219     -71.732136      685.81006    
   7637000   302.92117      0.042618159    8.6861997      751.55576     -65.723842      685.83192    
   7638000   295.31632      0.042618159    18.683518      732.68792     -68.205234      664.48269    
   7639000   291.94947      0.042618159    26.782745      724.33469     -68.68703       655.64766    
   7640000   309.31651      0.042618159    23.863875      767.42279     -74.74654       692.67625    
   7641000   308.38674      0.042618159    22.089137      765.11599     -69.987742      695.12825    
   7642000   298.6395       0.042618159    22.119417      740.93283     -70.003016      670.92981    
   7643000   301.3986       0.042618159    22.044592      747.77823     -68.006152      679.77208    
   7644000   296.5119       0.042618159    19.763271      735.65421     -64.413182      671.24102    
   7645000   310.52902      0.042618159    22.13794       770.43105     -66.381098      704.04995    
   7646000   307.08327      0.042618159    21.495001      761.88205     -63.003613      698.87844    
   7647000   295.629        0.042618159    15.650081      733.4637      -70.626517      662.83718    
   7648000   296.6494       0.042618159    23.600074      735.99534     -64.178353      671.81699    
   7649000   297.64399      0.042618159    21.754371      738.46294     -70.558904      667.90404    
   7650000   308.41499      0.042618159    27.639147      765.18609     -74.943866      690.24223    
   7651000   307.04332      0.042618159    6.1976527      761.78293     -77.411304      684.37163    
   7652000   281.98801      0.042618159    27.52576       699.62004     -77.099051      622.52099    
   7653000   309.53104      0.042618159    25.927303      767.95504     -80.334266      687.62077    
   7654000   322.72521      0.042618159    20.147859      800.69015     -80.153818      720.53633    
   7655000   298.25951      0.042618159    16.716609      739.99006     -76.191519      663.79855    
   7656000   289.7896       0.042618159    28.593691      718.97598     -77.366539      641.60945    
   7657000   300.67403      0.042618159    24.738513      745.98056     -75.755268      670.22529    
   7658000   316.82527      0.042618159    20.672822      786.05224     -73.91954       712.1327     
   7659000   309.68609      0.042618159    22.740745      768.33973     -69.882242      698.45749    
   7660000   293.80252      0.042618159    20.658581      728.93216     -71.908379      657.02378    
   7661000   301.7568       0.042618159    23.104617      748.66693     -70.55381       678.11312    
   7662000   296.74269      0.042618159    18.520787      736.2268      -73.398623      662.82818    
   7663000   281.27058      0.042618159    19.473885      697.84007     -71.078359      626.76171    
   7664000   303.09194      0.042618159    23.616758      751.97946     -72.313999      679.66546    
   7665000   321.40494      0.042618159    20.911285      797.41451     -78.08015       719.33436    
   7666000   297.68124      0.042618159    24.846059      738.55537     -75.714575      662.84079    
   7667000   291.40176      0.042618159    4.4071398      722.9758      -71.197102      651.7787     
   7668000   306.06701      0.042618159    25.756845      759.36068     -67.874212      691.48647    
   7669000   297.44803      0.042618159    26.065426      737.97677     -66.231877      671.74489    
   7670000   294.10972      0.042618159    22.536406      729.69433     -64.160586      665.53375    
   7671000   301.99931      0.042618159    22.471835      749.26861     -70.311685      678.95692    
   7672000   300.15743      0.042618159    34.118086      744.69885     -63.884817      680.81404    
   7673000   304.05064      0.042618159    22.730151      754.35803     -67.499769      686.85826    
   7674000   311.60774      0.042618159    11.730146      773.10739     -76.446813      696.66058    
   7675000   296.36685      0.042618159    33.489333      735.29433     -77.815038      657.47929    
   7676000   296.8504       0.042618159    21.776022      736.49402     -83.72981       652.76421    
   7677000   302.90518      0.042618159    13.666903      751.51609     -83.293259      668.22283    
   7678000   303.95392      0.042618159    20.88958       754.11806     -75.947669      678.17039    
   7679000   306.94974      0.042618159    22.36932       761.55076     -81.468294      680.08247    
   7680000   300.38304      0.042618159    23.160972      745.2586      -71.808354      673.45024    
   7681000   290.01072      0.042618159    16.618122      719.52459     -65.889789      653.6348     
   7682000   310.03211      0.042618159    25.722306      769.19821     -65.397092      703.80112    
   7683000   303.30977      0.042618159    24.914387      752.5199      -69.495617      683.02429    
   7684000   289.56869      0.042618159    19.202445      718.4279      -68.020433      650.40746    
   7685000   309.50198      0.042618159    20.626622      767.88295     -64.997466      702.88548    
   7686000   305.61332      0.042618159    33.825069      758.23506     -65.445458      692.7896     
   7687000   291.67912      0.042618159    28.252586      723.66393     -66.204932      657.459      
   7688000   297.75053      0.042618159    20.602019      738.72726     -63.714034      675.01323    
   7689000   302.45454      0.042618159    23.806838      750.39805     -60.012155      690.38589    
   7690000   311.64968      0.042618159    26.189968      773.21146     -65.810556      707.4009     
   7691000   284.85043      0.042618159    17.286149      706.72177     -64.564712      642.15706    
   7692000   291.69827      0.042618159    22.074305      723.71145     -66.58948       657.12197    
   7693000   312.81596      0.042618159    25.137202      776.10503     -67.343434      708.7616     
   7694000   302.89289      0.042618159    18.180658      751.4856      -75.54598       675.93962    
   7695000   284.75544      0.042618159    22.034875      706.48611     -71.989145      634.49696    
   7696000   305.23349      0.042618159    23.643253      757.2927      -73.626091      683.66661    
   7697000   305.40035      0.042618159    19.895778      757.7067      -75.54242       682.16428    
   7698000   299.56537      0.042618159    20.846049      743.22994     -73.645904      669.58404    
   7699000   299.20833      0.042618159    29.693101      742.34411     -79.394081      662.95003    
   7700000   298.69634      0.042618159    21.914732      741.07385     -88.258753      652.8151     
   7701000   296.27156      0.042618159    25.244039      735.0579      -75.711904      659.34599    
   7702000   291.44988      0.042618159    17.1861        723.09519     -76.127694      646.9675     
   7703000   306.07395      0.042618159    21.722793      759.37791     -72.548648      686.82926    
   7704000   302.31451      0.042618159    22.224005      750.05064     -68.939514      681.11112    
   7705000   308.58208      0.042618159    25.313494      765.60064     -67.432424      698.16821    
   7706000   302.59686      0.042618159    20.020675      750.75115     -70.141322      680.60983    
   7707000   303.4716       0.042618159    21.550848      752.92141     -71.66742       681.25399    
   7708000   308.88196      0.042618159    22.336986      766.34467     -65.111581      701.23309    
   7709000   292.98768      0.042618159    23.475483      726.91051     -64.189758      662.72075    
   7710000   289.70409      0.042618159    19.165983      718.76382     -65.719497      653.04433    
   7711000   315.40185      0.042618159    22.520426      782.52068     -66.383987      716.1367     
   7712000   295.85971      0.042618159    27.472879      734.0361      -64.742954      669.29315    
   7713000   292.04105      0.042618159    28.035341      724.5619      -67.264053      657.29785    
   7714000   305.91561      0.042618159    18.741116      758.98506     -64.811986      694.17308    
   7715000   295.92067      0.042618159    23.57421       734.18734     -69.76492       664.42242    
   7716000   300.11888      0.042618159    21.77075       744.60321     -71.898308      672.7049     
   7717000   303.3384       0.042618159    22.457907      752.59093     -70.754703      681.83622    
   7718000   312.17004      0.042618159    19.581688      774.50246     -76.276834      698.22563    
   7719000   301.38388      0.042618159    21.208304      747.74171     -73.936268      673.80545    
   7720000   278.13713      0.042618159    19.069043      690.06588     -75.197665      614.86822    
   7721000   302.15753      0.042618159    23.623352      749.66116     -82.433551      667.22761    
   7722000   295.12779      0.042618159    16.609293      732.22017     -79.981718      652.23845    
   7723000   304.47911      0.042618159    22.643653      755.42106     -83.423443      671.99762    
   7724000   299.21298      0.042618159    20.721185      742.35566     -81.405347      660.95031    
   7725000   288.19006      0.042618159    20.913807      715.00749     -76.102183      638.90531    
   7726000   300.09984      0.042618159    17.446994      744.55596     -80.624992      663.93097    
   7727000   295.81054      0.042618159    18.019886      733.9141      -82.524114      651.38998    
   7728000   311.26874      0.042618159    23.412638      772.26632     -76.092338      696.17398    
   7729000   303.7883       0.042618159    26.525026      753.70715     -69.841496      683.86566    
   7730000   288.87337      0.042618159    17.911083      716.7028      -71.989897      644.7129     
   7731000   302.19605      0.042618159    24.800419      749.75672     -66.983712      682.77301    
   7732000   300.93025      0.042618159    0.40220109     746.61624     -68.506131      678.11011    
   7733000   303.03904      0.042618159    24.039715      751.84821     -68.199976      683.64823    
   7734000   310.80382      0.042618159    20.985242      771.11284     -63.761397      707.35145    
   7735000   303.56433      0.042618159    21.2241        753.15147     -63.487224      689.66424    
   7736000   315.27922      0.042618159    13.848202      782.21643     -68.630998      713.58543    
   7737000   297.54874      0.042618159    33.966882      738.22663     -68.564428      669.66221    
   7738000   303.61291      0.042618159    29.827168      753.27199     -75.41872       677.85327    
   7739000   314.44988      0.042618159    10.334588      780.15882     -77.273082      702.88574    
   7740000   296.13651      0.042618159    22.485077      734.72285     -68.944352      665.7785     
   7741000   303.16778      0.042618159    46.655793      752.16761     -65.161032      687.00658    
   7742000   308.69753      0.042618159    16.204064      765.88707     -69.135886      696.75118    
   7743000   301.35754      0.042618159    12.761963      747.67636     -71.067444      676.60892    
   7744000   283.23199      0.042618159    19.200577      702.70637     -70.764619      631.94175    
   7745000   303.66953      0.042618159    19.7056        753.41247     -69.893461      683.51901    
   7746000   314.55116      0.042618159    25.643253      780.4101      -68.062055      712.34805    
   7747000   308.67402      0.042618159    20.344512      765.82874     -77.825794      688.00295    
   7748000   290.81357      0.042618159    19.581012      721.51649     -71.020937      650.49555    
   7749000   305.15518      0.042618159    25.308058      757.09841     -75.263016      681.8354     
   7750000   309.02578      0.042618159    26.346322      766.70147     -79.332179      687.36929    
   7751000   296.49776      0.042618159    21.65276       735.6191      -80.865907      654.7532     
   7752000   288.07926      0.042618159    16.428797      714.73259     -72.625386      642.1072     
   7753000   300.41566      0.042618159    20.278938      745.33954     -77.357563      667.98198    
   7754000   301.11706      0.042618159    26.775112      747.07972     -72.151554      674.92816    
   7755000   286.29383      0.042618159    20.553669      710.30288     -71.320701      638.98218    
   7756000   288.85385      0.042618159    18.028759      716.65436     -72.353394      644.30097    
   7757000   304.46591      0.042618159    21.487667      755.38831     -72.380949      683.00737    
   7758000   302.66599      0.042618159    25.445052      750.92268     -76.335298      674.58738    
   7759000   301.84289      0.042618159    22.391789      748.88053     -71.653907      677.22662    
   7760000   291.52041      0.042618159    24.163565      723.27016     -68.854691      654.41547    
   7761000   288.74153      0.042618159    19.657816      716.37569     -66.733263      649.64243    
   7762000   303.6856       0.042618159    15.89743       753.45235     -75.453209      677.99914    
   7763000   301.40539      0.042618159    22.718215      747.79507     -70.387601      677.40747    
   7764000   295.43277      0.042618159    23.652587      732.97684     -69.982561      662.99428    
   7765000   299.85211      0.042618159    24.913724      743.94136     -69.898087      674.04327    
   7766000   309.47335      0.042618159    23.205901      767.81191     -69.194833      698.61708    
   7767000   299.92542      0.042618159    22.020103      744.12323     -73.955427      670.16781    
   7768000   306.74041      0.042618159    24.117621      761.03141     -70.239223      690.79219    
   7769000   299.88196      0.042618159    21.327095      744.01542     -65.880652      678.13477    
   7770000   310.68872      0.042618159    14.368472      770.82728     -69.88623       700.94105    
   7771000   298.52588      0.042618159    23.691367      740.65093     -66.618932      674.032      
   7772000   294.94877      0.042618159    21.23652       731.77603     -73.520652      658.25538    
   7773000   298.0862       0.042618159    21.159198      739.56008     -70.325414      669.23467    
   7774000   286.90277      0.042618159    20.834023      711.81367     -71.847333      639.96634    
   7775000   294.72491      0.042618159    19.846596      731.22062     -74.279683      656.94094    
   7776000   312.0862       0.042618159    23.556488      774.29448     -73.845945      700.44853    
   7777000   300.89862      0.042618159    20.253459      746.53777     -81.310765      665.22701    
   7778000   293.73888      0.042618159    20.826903      728.77425     -76.385574      652.38868    
   7779000   304.79487      0.042618159    22.650699      756.20447     -84.382829      671.82164    
   7780000   296.92878      0.042618159    31.694923      736.68849     -76.823792      659.8647     
   7781000   293.85162      0.042618159    20.244623      729.05397     -76.541558      652.51241    
   7782000   301.87577      0.042618159    23.583717      748.96211     -84.329994      664.63212    
   7783000   300.4897       0.042618159    21.085901      745.52324     -82.496406      663.02683    
   7784000   305.33191      0.042618159    19.775641      757.53687     -81.103904      676.43297    
   7785000   292.05094      0.042618159    22.954706      724.58642     -80.590315      643.99611    
   7786000   296.86892      0.042618159    23.549016      736.53998     -76.397315      660.14267    
   7787000   316.24932      0.042618159    19.853068      784.62328     -73.237581      711.3857     
   7788000   297.82392      0.042618159    20.246777      738.90936     -77.289274      661.62009    
   7789000   298.64363      0.042618159    29.321275      740.94309     -72.933017      668.01007    
   7790000   304.15515      0.042618159    23.324262      754.61732     -64.850625      689.7667     
   7791000   297.91496      0.042618159    12.685114      739.13524     -65.219906      673.91533    
   7792000   300.00702      0.042618159    25.001265      744.32568     -55.529274      688.7964     
   7793000   315.67095      0.042618159    22.955768      783.18833     -59.868013      723.32032    
   7794000   302.13847      0.042618159    16.813855      749.61388     -71.773027      677.84085    
   7795000   290.72376      0.042618159    21.132793      721.29367     -70.707605      650.58606    
   7796000   299.43069      0.042618159    22.613554      742.89579     -68.368317      674.52747    
   7797000   306.66514      0.042618159    22.764206      760.84466     -63.495832      697.34882    
   7798000   304.91941      0.042618159    20.66219       756.51346     -65.066852      691.44661    
   7799000   290.02437      0.042618159    4.3335564      719.55845     -63.227968      656.33048    
   7800000   279.42582      0.042618159    25.240279      693.26316     -64.796537      628.46662    
   7801000   301.39924      0.042618159    24.499048      747.77982     -63.970437      683.80938    
   7802000   308.97546      0.042618159    18.149658      766.57663     -62.755807      703.82082    
   7803000   289.63887      0.042618159    15.343366      718.60201     -67.331631      651.27038    
   7804000   290.88558      0.042618159    25.949123      721.69515     -67.427542      654.26761    
   7805000   301.6515       0.042618159    31.270926      748.40569     -70.822541      677.58315    
   7806000   301.59565      0.042618159    33.964331      748.26712     -65.34381       682.92331    
   7807000   303.57029      0.042618159   -9.0653052      753.16625     -77.351951      675.81429    
   7808000   304.53037      0.042618159    15.793028      755.54823     -68.473478      687.07475    
   7809000   302.41565      0.042618159    34.044339      750.30156     -68.914084      681.38747    
   7810000   301.95568      0.042618159    7.4028886      749.16037     -67.989842      681.17052    
   7811000   298.21603      0.042618159    12.542604      739.8822      -66.316184      673.56601    
   7812000   294.16486      0.042618159    40.328832      729.83113     -64.877313      664.95382    
   7813000   297.64218      0.042618159    23.763176      738.45845     -63.922124      674.53633    
   7814000   309.50167      0.042618159    20.070774      767.88217     -68.323881      699.55829    
   7815000   300.72588      0.042618159   -6.8757476      746.1092      -73.919199      672.19001    
   7816000   293.42172      0.042618159    32.663227      727.98738     -75.568499      652.41889    
   7817000   294.70048      0.042618159    24.772006      731.16001     -69.233175      661.92684    
   7818000   312.11212      0.042618159    24.75621       774.35878     -67.697207      706.66157    
   7819000   294.29235      0.042618159    17.251772      730.14744     -74.990486      655.15696    
   7820000   287.50966      0.042618159    14.05267       713.3194      -75.302086      638.01731    
   7821000   304.04584      0.042618159    21.871078      754.34612     -73.662653      680.68346    
   7822000   301.62331      0.042618159    23.610735      748.33575     -69.243273      679.09247    
   7823000   310.07792      0.042618159    20.633872      769.31186     -70.510275      698.80159    
   7824000   301.73408      0.042618159    14.452093      748.61056     -78.662751      669.94781    
   7825000   303.21635      0.042618159    25.121167      752.28812     -73.157645      679.13048    
   7826000   297.27234      0.042618159    22.494875      737.54087     -73.986238      663.55463    
   7827000   303.0377       0.042618159    19.638467      751.84488     -75.654609      676.19027    
   7828000   312.75544      0.042618159    25.946535      775.95487     -71.101417      704.85345    
   7829000   307.29705      0.042618159    17.301336      762.41246     -77.561606      684.85085    
   7830000   293.93013      0.042618159    22.177189      729.24876     -75.785134      653.46363    
   7831000   294.75457      0.042618159    22.811767      731.2942      -78.547395      652.74681    
   7832000   304.51675      0.042618159    23.769927      755.51446     -78.170497      677.34396    
   7833000   299.51376      0.042618159    24.112805      743.1019      -74.492374      668.60952    
   7834000   291.32685      0.042618159    14.297874      722.78994     -75.395697      647.39424    
   7835000   295.44254      0.042618159    24.520639      733.00107     -73.599794      659.40128    
   7836000   301.38321      0.042618159    21.107392      747.74005     -74.111773      673.62828    
   7837000   308.23783      0.042618159    24.846517      764.74655     -68.270399      696.47615    
   7838000   291.46495      0.042618159    17.31246       723.13258     -71.928976      651.20361    
   7839000   288.10553      0.042618159    15.211125      714.79777     -83.784906      631.01287    
   7840000   305.60365      0.042618159    26.986017      758.21108     -77.788671      680.4224     
   7841000   311.85237      0.042618159    26.190667      773.71433     -79.172788      694.54154    
   7842000   306.05011      0.042618159    18.386158      759.31876     -78.485181      680.83358    
   7843000   292.64276      0.042618159    22.162259      726.05475     -71.25741       654.79734    
   7844000   287.87274      0.042618159    22.608655      714.22021     -71.637472      642.58273    
   7845000   295.67213      0.042618159    23.687289      733.5707      -73.750743      659.81996    
   7846000   314.74095      0.042618159    19.233705      780.88097     -79.125593      701.75538    
   7847000   301.40422      0.042618159    19.602617      747.79217     -72.716011      675.07616    
   7848000   280.24501      0.042618159    21.525668      695.2956      -73.230846      622.06476    
   7849000   299.66415      0.042618159    19.742438      743.47502     -72.680455      670.79456    
   7850000   297.23474      0.042618159    20.538709      737.44758     -66.513839      670.93374    
   7851000   295.02827      0.042618159    15.728411      731.97328     -68.997267      662.97601    
   7852000   306.63256      0.042618159    27.137748      760.76383     -66.881581      693.88225    
   7853000   298.12049      0.042618159    25.305666      739.64515     -66.563489      673.08167    
   7854000   297.72247      0.042618159    11.308133      738.65766     -63.252309      675.40535    
   7855000   308.15325      0.042618159    20.475304      764.53672     -61.789757      702.74696    
   7856000   309.43532      0.042618159    25.919973      767.71755     -69.092706      698.62484    
   7857000   283.09367      0.042618159    24.663512      702.36321     -69.176229      633.18698    
   7858000   295.53191      0.042618159    19.904997      733.22282     -74.014604      659.20822    
   7859000   294.13483      0.042618159    3.3412813      729.75663     -68.673508      661.08312    
   7860000   308.28119      0.042618159    19.066478      764.85412     -64.847629      700.00649    
   7861000   300.03252      0.042618159    30.068279      744.38894     -63.918718      680.47023    
   7862000   299.8566       0.042618159    29.407544      743.95248     -66.342338      677.61014    
   7863000   305.17599      0.042618159    19.664471      757.15004     -64.022041      693.128      
   7864000   317.18501      0.042618159    12.444607      786.94475     -69.095556      717.8492     
   7865000   292.77699      0.042618159    29.127289      726.38779     -66.187712      660.20008    
   7866000   298.95571      0.042618159    24.913463      741.71736     -70.80779       670.90957    
   7867000   299.06158      0.042618159    13.679501      741.98003     -72.403289      669.57674    
   7868000   304.74947      0.042618159    8.1212785      756.09182     -69.055852      687.03597    
   7869000   291.05673      0.042618159    42.1977        722.11977     -68.686673      653.4331     
   7870000   297.74667      0.042618159    17.688737      738.71769     -69.555892      669.16179    
   7871000   310.56164      0.042618159    17.314688      770.51199     -64.154108      706.35788    
   7872000   301.75836      0.042618159    27.201069      748.67082     -62.296375      686.37444    
   7873000   298.03121      0.042618159    19.002288      739.42365     -59.246125      680.17752    
   7874000   300.09345      0.042618159    0.98795556     744.54013     -59.935077      684.60505    
   7875000   301.67427      0.042618159    24.622238      748.46217     -56.184281      692.27789    
   7876000   289.21093      0.042618159    34.504657      717.54028     -64.228745      653.31154    
   7877000   298.33013      0.042618159    18.906341      740.16527     -57.693414      682.47186    
   7878000   307.78434      0.042618159    31.103509      763.62144     -64.525322      699.09611    
   7879000   290.04088      0.042618159    19.992793      719.59941     -65.824032      653.77538    
   7880000   297.53402      0.042618159    19.732508      738.19011     -65.244503      672.9456     
   7881000   305.36875      0.042618159    20.446145      757.62828     -74.179314      683.44897    
   7882000   319.18717      0.042618159    24.596733      791.91217     -74.117982      717.79419    
   7883000   306.8392       0.042618159    28.741383      761.27651     -70.405924      690.87059    
   7884000   286.07764      0.042618159    22.343013      709.76651     -73.514924      636.25159    
   7885000   289.05929      0.042618159    14.158574      717.16406     -75.745179      641.41888    
   7886000   317.69904      0.042618159    18.894115      788.22008     -77.023155      711.19692    
   7887000   311.89277      0.042618159    24.042227      773.81455     -73.29679       700.51776    
   7888000   293.77594      0.042618159    22.023404      728.8662      -73.407912      655.45828    
   7889000   284.96252      0.042618159    25.521891      706.99986     -80.386315      626.61354    
   7890000   303.00441      0.042618159    19.512348      751.7623      -77.276685      674.48561    
   7891000   303.69375      0.042618159    25.293164      753.47258     -76.220661      677.25192    
   7892000   306.11955      0.042618159    46.266588      759.49104     -73.519341      685.9717     
   7893000   294.17407      0.042618159    17.834942      729.85397     -71.854239      657.99973    
   7894000   302.21454      0.042618159    13.605751      749.80259     -63.995846      685.80675    
   7895000   322.95273      0.042618159    22.959594      801.25464     -67.133599      734.12104    
   7896000   311.05308      0.042618159    30.272375      771.73127     -72.081798      699.64947    
   7897000   293.66666      0.042618159    30.82693       728.59509     -64.352579      664.24251    
   7898000   294.80623      0.042618159    13.239876      731.42239     -69.526289      661.8961     
   7899000   321.86091      0.042618159    24.60166       798.54579     -70.925351      727.62044    
   7900000   301.07231      0.042618159    33.186797      746.96871     -69.745464      677.22324    
   7901000   295.81782      0.042618159    22.124005      733.93215     -72.996672      660.93548    
   7902000   299.11777      0.042618159    14.595343      742.11944     -72.903988      669.21545    
   7903000   310.44948      0.042618159    21.030592      770.23373     -74.904104      695.32963    
   7904000   295.16434      0.042618159    35.838612      732.31087     -70.661852      661.64902    
   7905000   291.10844      0.042618159    18.609423      722.24806     -75.032709      647.21535    
   7906000   305.62715      0.042618159    27.56539       758.26937     -79.924888      678.34448    
   7907000   304.73347      0.042618159    25.074949      756.05213     -83.536731      672.5154     
   7908000   296.89153      0.042618159    19.896274      736.59606     -77.372233      659.22382    
   7909000   279.92568      0.042618159    19.856676      694.50332     -76.073138      618.43018    
   7910000   304.15576      0.042618159    25.610018      754.61882     -75.057931      679.56088    
   7911000   312.64121      0.042618159    23.126971      775.67145     -77.926584      697.74487    
   7912000   285.26378      0.042618159    21.380855      707.7473      -73.692808      634.05449    
   7913000   285.7115       0.042618159    20.302883      708.85812     -76.280364      632.57775    
   7914000   302.96219      0.042618159    21.236435      751.65754     -78.138267      673.51928    
   7915000   312.03854      0.042618159    20.888909      774.17623     -79.268872      694.90736    
   7916000   297.81544      0.042618159    23.815781      738.88831     -71.808223      667.08009    
   7917000   293.86095      0.042618159    20.744464      729.07713     -76.016677      653.06045    
   7918000   300.28214      0.042618159    19.947311      745.00826     -80.558864      664.4494     
   7919000   307.59324      0.042618159    17.674158      763.1473      -75.4985        687.6488     
   7920000   294.69329      0.042618159    21.187317      731.14218     -78.364324      652.77786    
   7921000   296.66051      0.042618159    23.372829      736.02291     -76.865456      659.15746    
   7922000   310.09947      0.042618159    13.562352      769.36533     -70.9145        698.45083    
   7923000   288.47217      0.042618159    16.557396      715.70741     -74.60241       641.105      
   7924000   299.62003      0.042618159    22.278523      743.36556     -75.844148      667.52141    
   7925000   312.93038      0.042618159    41.061336      776.3889      -73.839597      702.54931    
   7926000   301.23694      0.042618159    23.40101       747.37716     -71.454651      675.92251    
   7927000   302.67785      0.042618159    14.897881      750.95208     -71.923944      679.02814    
   7928000   288.3982       0.042618159    30.081782      715.52388     -69.189892      646.33399    
   7929000   317.59584      0.042618159    26.382942      787.96403     -69.015782      718.94825    
   7930000   309.86339      0.042618159    7.3987014      768.77962     -68.680015      700.0996     
   7931000   292.80799      0.042618159    11.571771      726.46469     -66.203652      660.26104    
   7932000   295.19787      0.042618159    16.926027      732.39406     -68.668756      663.72531    
   7933000   307.23767      0.042618159    29.049802      762.26514     -71.038616      691.22652    
   7934000   307.35724      0.042618159    20.31182       762.56179     -74.736841      687.82495    
   7935000   290.25822      0.042618159    14.83905       720.13865     -73.407462      646.73119    
   7936000   293.82194      0.042618159    25.406879      728.98032     -74.742433      654.23789    
   7937000   300.27314      0.042618159    23.859182      744.98593     -72.820192      672.16574    
   7938000   308.47827      0.042618159    31.08697       765.34309     -72.408022      692.93507    
   7939000   311.31437      0.042618159    27.920618      772.37953     -66.311864      706.06766    
   7940000   301.02443      0.042618159    19.673887      746.8499      -70.128816      676.72108    
   7941000   303.71674      0.042618159    28.400404      753.52961     -65.532421      687.99719    
   7942000   314.85961      0.042618159    19.978892      781.17536     -72.394805      708.78056    
   7943000   295.18539      0.042618159    19.328456      732.36309     -67.386056      664.97704    
   7944000   294.70005      0.042618159    19.785589      731.15895     -71.376912      659.78204    
   7945000   295.25921      0.042618159    20.107718      732.54624     -73.061139      659.4851     
   7946000   291.97816      0.042618159    22.337213      724.40587     -75.147946      649.25792    
   7947000   302.29521      0.042618159    22.992844      750.00276     -68.060402      681.94236    
   7948000   296.9866       0.042618159    22.234159      736.83194     -70.890188      665.94176    
   7949000   302.61411      0.042618159    23.336192      750.79395     -71.654759      679.13919    
   7950000   303.16293      0.042618159    28.031822      752.15559     -76.706247      675.44934    
   7951000   297.38252      0.042618159    15.877547      737.81422     -71.505063      666.30916    
   7952000   302.21957      0.042618159    23.955944      749.81509     -75.571149      674.24395    
   7953000   310.02458      0.042618159    19.562554      769.17954     -76.020311      693.15923    
   7954000   293.95691      0.042618159    21.182406      729.31521     -67.524546      661.79066    
   7955000   302.46459      0.042618159    21.419701      750.42297     -66.495364      683.92761    
   7956000   293.26701      0.042618159    14.626427      727.60353     -68.125504      659.47802    
   7957000   299.91902      0.042618159    20.076363      744.10735     -66.751812      677.35554    
   7958000   302.71685      0.042618159    24.920269      751.04885     -72.54027       678.50858    
   7959000   313.29717      0.042618159    27.371482      777.29892     -66.175255      711.12366    
   7960000   296.27162      0.042618159    15.036833      735.05805     -76.282544      658.77551    
   7961000   294.0962       0.042618159    16.199062      729.66078     -72.889391      656.77139    
   7962000   293.49773      0.042618159    25.029236      728.17595     -80.484648      647.69131    
   7963000   296.64605      0.042618159    27.39594       735.98702     -75.94676       660.04026    
   7964000   308.83782      0.042618159    13.660934      766.23514     -74.761884      691.47325    
   7965000   308.60366      0.042618159    20.696726      765.65418     -75.188563      690.46562    
   7966000   304.93768      0.042618159    32.623444      756.55878     -72.350292      684.20849    
   7967000   304.28339      0.042618159    20.313941      754.93549     -73.237238      681.69825    
   7968000   292.50905      0.042618159    21.191002      725.72301     -75.645368      650.07764    
   7969000   292.78018      0.042618159    21.414931      726.3957      -75.084043      651.31165    
   7970000   298.39671      0.042618159    19.407875      740.33047     -79.080127      661.25034    
   7971000   299.99977      0.042618159    23.122151      744.30769     -72.768383      671.53931    
   7972000   283.56178      0.042618159    20.79943       703.52459     -75.610194      627.9144     
   7973000   295.65054      0.042618159    23.258436      733.51713     -68.033829      665.48331    
   7974000   310.90677      0.042618159    23.04471       771.36826     -64.025121      707.34313    
   7975000   313.57689      0.042618159    23.305999      777.9929      -67.67014       710.32276    
   7976000   307.26663      0.042618159    23.117931      762.33699     -72.906669      689.43032    
   7977000   299.82037      0.042618159    21.028101      743.8626      -63.894311      679.96829    
   7978000   307.12365      0.042618159    10.444077      761.98225     -67.07869       694.90356    
   7979000   301.32534      0.042618159    16.79094       747.59648     -65.436409      682.16007    
   7980000   295.60983      0.042618159    30.187829      733.41614     -64.188478      669.22766    
   7981000   300.96463      0.042618159    25.626024      746.70155     -62.115787      684.58576    
   7982000   302.02419      0.042618159    21.758524      749.33034     -70.4782        678.85214    
   7983000   297.07457      0.042618159    20.174205      737.05019     -72.349835      664.70035    
   7984000   284.84763      0.042618159    18.822266      706.71482     -77.141922      629.5729     
   7985000   292.54926      0.042618159    25.819341      725.82278     -70.13253       655.69025    
   7986000   307.8227       0.042618159    20.191436      763.7166      -72.164036      691.55257    
   7987000   303.77969      0.042618159    19.193101      753.68577     -70.861754      682.82402    
   7988000   299.53833      0.042618159    20.561372      743.16285     -63.448654      679.71419    
   7989000   298.39638      0.042618159    19.069236      740.32964     -61.536139      678.7935     
   7990000   313.93503      0.042618159    27.812057      778.88147     -53.228846      725.65263    
   7991000   301.80544      0.042618159    20.103744      748.78763     -64.006913      684.78071    
   7992000   296.54132      0.042618159    25.624045      735.7272      -57.115505      678.61169    
   7993000   303.31573      0.042618159    26.437478      752.53468     -63.340212      689.19447    
   7994000   307.56997      0.042618159    20.055823      763.08956     -66.434917      696.65464    
   7995000   294.84723      0.042618159    23.576764      731.52411     -66.488389      665.03572    
   7996000   278.60671      0.042618159    29.524744      691.23093     -66.762134      624.4688     
   7997000   298.21877      0.042618159    22.87107       739.88898     -64.53935       675.34963    
   7998000   317.64564      0.042618159    6.0229926      788.08758     -68.88534       719.20224    
   7999000   289.4109       0.042618159    14.807625      718.03641     -59.260827      658.77558    
   8000000   293.18795      0.042618159    24.352943      727.40737     -64.477438      662.92994    
Loop time of 14378 on 1 procs for 8000000 steps with 1500 atoms

Performance: 12.018 ns/day, 1.997 hours/ns, 556.406 timesteps/s, 834.609 katom-step/s
99.6% CPU use with 1 MPI tasks x 1 OpenMP threads

MPI task timing breakdown:
Section |  min time  |  avg time  |  max time  |%varavg| %total
---------------------------------------------------------------
Pair    | 1256.8     | 1256.8     | 1256.8     |   0.0 |  8.74
Bond    | 358.37     | 358.37     | 358.37     |   0.0 |  2.49
Kspace  | 11100      | 11100      | 11100      |   0.0 | 77.20
Neigh   | 0.066758   | 0.066758   | 0.066758   |   0.0 |  0.00
Comm    | 58.34      | 58.34      | 58.34      |   0.0 |  0.41
Output  | 0.2673     | 0.2673     | 0.2673     |   0.0 |  0.00
Modify  | 1570.8     | 1570.8     | 1570.8     |   0.0 | 10.93
Other   |            | 33.42      |            |       |  0.23

Nlocal:           1500 ave        1500 max        1500 min
Histogram: 1 0 0 0 0 0 0 0 0 0
Nghost:           1748 ave        1748 max        1748 min
Histogram: 1 0 0 0 0 0 0 0 0 0
Neighs:              0 ave           0 max           0 min
Histogram: 1 0 0 0 0 0 0 0 0 0

Total # of neighbors = 0
Ave neighs/atom = 0
Ave special neighs/atom = 2
Neighbor list builds = 29640
Dangerous builds = 0
write_data	last_conf.data pair ij
System init for write_data ...
PPPM initialization ...
  using 12-bit tables for long-range coulomb (src/kspace.cpp:342)
  G vector (1/distance) = 0.17959966
  grid = 24 24 24
  stencil order = 5
  estimated absolute RMS force accuracy = 0.02669929
  estimated relative force accuracy = 8.0404118e-05
  using double precision FFTW3
  3d grid and FFT values/proc = 24389 13824
Generated 1 of 1 mixed pair_coeff terms from arithmetic mixing rule
Total wall time: 3:59:38
