LAMMPS (29 Aug 2024 - Update 1)
  using 1 OpenMP thread(s) per MPI task
package gpu 1 gpuID 0
# GCMC for CO2 molecular fluid, rigid/small/nvt dynamics
# Rigid CO2 TraPPE model
# [Potoff and J.I. Siepmann, Vapor-liquid equilibria of
# mixtures containing alkanes, carbon dioxide and
# nitrogen AIChE J., 47,1676-1682 (2001)].

# global model settings

units           real
atom_style      full
boundary        p p p
pair_style      lj/cut/coul/long  12
pair_modify     mix arithmetic shift yes
kspace_style    pppm 1.0e-4
bond_style      harmonic
angle_style     harmonic
neigh_modify    one 4000

# box, start molecules on simple cubic lattice
region          mbox block 0 ${lbox} 0 ${lbox} 0 ${lbox} units box
region          mbox block 0 129 0 ${lbox} 0 ${lbox} units box
region          mbox block 0 129 0 129 0 ${lbox} units box
region          mbox block 0 129 0 129 0 129 units box
create_box      2 mbox                                       bond/types 1                                angle/types 1                               extra/bond/per/atom 2                       extra/angle/per/atom 1                      extra/special/per/atom 2
Created orthogonal box = (0 0 0) to (129 129 129)
  1 by 1 by 1 MPI processor grid
molecule        co2mol ../CO2.txt
Read molecule template co2mol:
# CO2 molecule file. TraPPE model.
  1 molecules
  0 fragments
  3 atoms with max type 2
  2 bonds with max type 1
  1 angles with max type 1
  0 dihedrals with max type 0
  0 impropers with max type 0
create_atoms   	0 random ${nmols} 34578 mbox mol co2mol 464563 overlap 1.2
create_atoms   	0 random 500 34578 mbox mol co2mol 464563 overlap 1.2
Created 1500 atoms
  using lattice units in orthogonal box = (0 0 0) to (129 129 129)
  create_atoms CPU = 0.014 seconds

# rigid CO2 TraPPE model

pair_coeff      1   1  0.053649   2.800
pair_coeff      2   2  0.156973   3.050
bond_coeff      1       0       1.16
angle_coeff     1       0       180

# masses

mass 1 12.0107
mass 2 15.9994

write_data init_conf.data  pair ij
System init for write_data ...
PPPM initialization ...
  using 12-bit tables for long-range coulomb (src/kspace.cpp:342)
  G vector (1/distance) = 0.16458777
  grid = 27 27 27
  stencil order = 5
  estimated absolute RMS force accuracy = 0.035513361
  estimated relative force accuracy = 0.00010694743
  using double precision FFTW3
  3d grid and FFT values/proc = 32768 19683
Generated 1 of 1 mixed pair_coeff terms from arithmetic mixing rule

# MD settings

group           co2 type 1 2
1500 atoms in group co2
velocity       	all create 300 54654
timestep        0.25

# rigid constraints with thermostat
fix             myrigidnvt co2 rigid/nvt molecule temp 300 300 $(100*dt)
fix             myrigidnvt co2 rigid/nvt molecule temp 300 300 25
  500 rigid bodies with 1500 atoms

thermo 1000
thermo_style custom step temp density press ke pe etotal


variable    mvol equal vol
variable    mden equal density
variable	mtmp equal temp
variable    mpre equal press

fix mydat all ave/time 1 4000 4000 v_mtmp v_mden v_mpre file statistics.dat ## every 1ps

run 4000000 ## 1ns

CITE-CITE-CITE-CITE-CITE-CITE-CITE-CITE-CITE-CITE-CITE-CITE-CITE

Your simulation uses code contributions which should be cited:

- GPU package (short-range, long-range and three-body potentials): doi:10.1016/j.cpc.2010.12.021, doi:10.1016/j.cpc.2011.10.012, doi:10.1016/j.cpc.2013.08.002, doi:10.1016/j.commatsci.2014.10.068, doi:10.1016/j.cpc.2016.10.020, doi:10.3233/APC200086

@Article{Brown11,
 author = {W. M. Brown and P. Wang and S. J. Plimpton and A. N. Tharrington},
 title = {Implementing Molecular Dynamics on Hybrid High Performance Computers---Short Range Forces},
 journal = {Comput.\ Phys.\ Commun.},
 year =    2011,
 volume =  182,
 pages =   {898--911},
 doi =     {10.1016/j.cpc.2010.12.021}
}

@Article{Brown12,
 author = {W. M. Brown and A. Kohlmeyer and S. J. Plimpton and A. N. Tharrington},
 title = {Implementing Molecular Dynamics on Hybrid High Performance Computers - Particle-Particle Particle-Mesh},
 journal = {Comput.\ Phys.\ Commun.},
 year =    2012,
 volume =  183,
 doi =     {10.1016/j.cpc.2011.10.012},
 pages =   {449--459}
}

@Article{Brown13,
 author = {W. M. Brown and Y. Masako},
 title = {Implementing Molecular Dynamics on Hybrid High Performance Computers---Three-Body Potentials},
 journal = {Comput.\ Phys.\ Commun.},
 year =    2013,
 volume =  184,
 pages =   {2785--2793},
 doi =     {10.1016/j.cpc.2013.08.002},
}

@Article{Trung15,
 author = {T. D. Nguyen and S. J. Plimpton},
 title = {Accelerating Dissipative Particle Dynamics Simulations for Soft Matter Systems},
 journal = {Comput.\ Mater.\ Sci.},
 year =    2015,
 doi =     {10.1016/j.commatsci.2014.10.068},
 volume =  100,
 pages =   {173--180}
}

@Article{Trung17,
 author = {T. D. Nguyen},
 title = {{GPU}-Accelerated {T}ersoff Potentials for Massively Parallel
    Molecular Dynamics Simulations},
 journal = {Comput.\ Phys.\ Commun.},
 year =    2017,
 doi =     {10.1016/j.cpc.2016.10.020},
 volume =  212,
 pages =   {113--122}
}

@inproceedings{Nikolskiy19,
 author = {V. Nikolskiy and V. Stegailov},
 title = {{GPU} Acceleration of Four-Site Water Models in {LAMMPS}},
 booktitle = {Proceedings of the International Conference on Parallel
    Computing (ParCo 2019), Prague, Czech Republic},
 doi =     {10.3233/APC200086},
 year =    2019
}

CITE-CITE-CITE-CITE-CITE-CITE-CITE-CITE-CITE-CITE-CITE-CITE-CITE

PPPM initialization ...
  using 12-bit tables for long-range coulomb (src/kspace.cpp:342)
  G vector (1/distance) = 0.16458777
  grid = 27 27 27
  stencil order = 5
  estimated absolute RMS force accuracy = 0.035513361
  estimated relative force accuracy = 0.00010694743
  using double precision FFTW3
  3d grid and FFT values/proc = 32768 19683
Generated 1 of 1 mixed pair_coeff terms from arithmetic mixing rule
Per MPI rank memory allocation (min/avg/max) = 10.39 | 10.39 | 10.39 Mbytes
   Step          Temp         Density         Press          KinEng         PotEng         TotEng    
         0   307.41471      0.017021443   -198.99125      762.70438      56141.898      56904.602    
      1000   304.27087      0.017021443    12.252234      754.90442     -20.421771      734.48265    
      2000   305.12013      0.017021443    15.15663       757.01145     -18.969647      738.0418     
      3000   297.65392      0.017021443    14.38593       738.48759     -34.314708      704.17288    
      4000   313.8128       0.017021443    6.8425591      778.57821     -40.722678      737.85554    
      5000   312.42757      0.017021443    9.7619919      775.14142     -44.277057      730.86436    
      6000   295.60583      0.017021443    10.439651      733.40621     -46.739469      686.66674    
      7000   286.42295      0.017021443    8.7348377      710.62322     -50.764831      659.85839    
      8000   312.87004      0.017021443    7.6499236      776.2392      -57.628762      718.61044    
      9000   313.42301      0.017021443    12.67421       777.61112     -59.1518        718.45932    
     10000   316.85052      0.017021443    10.430442      786.11487     -67.014705      719.10016    
     11000   298.36266      0.017021443    8.6375413      740.24599     -72.598053      667.64794    
     12000   286.5095       0.017021443    8.1851381      710.83797     -66.914139      643.92384    
     13000   301.30031      0.017021443    8.3219654      747.53437     -66.745017      680.78935    
     14000   299.13352      0.017021443    10.76679       742.15851     -70.387625      671.77088    
     15000   299.12556      0.017021443    8.7312346      742.13876     -76.67845       665.46031    
     16000   304.70701      0.017021443    4.0068076      755.98648     -76.966104      679.02038    
     17000   310.85969      0.017021443    10.440245      771.25145     -74.956617      696.29483    
     18000   287.31926      0.017021443    7.8638423      712.847       -85.990683      626.85632    
     19000   302.84711      0.017021443    9.3372247      751.37202     -87.395907      663.97611    
     20000   313.45719      0.017021443    8.7649097      777.69594     -86.290188      691.40575    
     21000   290.27094      0.017021443    12.582807      720.17021     -89.340877      630.82934    
     22000   298.24628      0.017021443    9.0680525      739.95724     -78.521809      661.43543    
     23000   306.33101      0.017021443    8.1814751      760.01569     -85.098014      674.91767    
     24000   301.91953      0.017021443    15.497128      749.07068     -89.791177      659.2795     
     25000   318.26862      0.017021443    15.801351      789.63323     -99.535788      690.09744    
     26000   311.17333      0.017021443    4.3819815      772.02961     -99.89958       672.13003    
     27000   303.77046      0.017021443    9.1203615      753.66287     -102.32566      651.33721    
     28000   294.21965      0.017021443    9.2357401      729.96706     -103.9735       625.99355    
     29000   301.78877      0.017021443    12.433897      748.74624     -95.675113      653.07113    
     30000   299.23954      0.017021443    9.3930026      742.42154     -98.056819      644.36472    
     31000   305.04777      0.017021443    8.6549305      756.83193     -105.04538      651.78655    
     32000   312.67567      0.017021443    7.4395148      775.75695     -110.72046      665.03649    
     33000   299.42284      0.017021443    4.4244312      742.87632     -112.91033      629.96599    
     34000   282.77237      0.017021443    0.61788766     701.56603     -114.73177      586.83427    
     35000   303.9305       0.017021443    13.274791      754.05994     -117.04125      637.01869    
     36000   318.46998      0.017021443    14.025618      790.1328      -118.9084       671.2244     
     37000   292.45871      0.017021443    6.0846557      725.59812     -120.56822      605.02991    
     38000   280.99319      0.017021443   -8.8052018      697.15185     -118.51566      578.63619    
     39000   296.11772      0.017021443    9.9903526      734.67622     -114.46755      620.20867    
     40000   305.29775      0.017021443    9.7020662      757.45214     -122.45385      634.9983     
     41000   312.0127       0.017021443    9.316274       774.11211     -126.2157       647.89641    
     42000   297.44271      0.017021443    11.149046      737.96355     -121.26501      616.69855    
     43000   306.9742       0.017021443    1.747856       761.61145     -126.74365      634.8678     
     44000   304.57872      0.017021443   -0.21989442     755.66821     -124.94303      630.72518    
     45000   281.46364      0.017021443    9.7775544      698.31905     -120.98013      577.33892    
     46000   302.3296       0.017021443    9.4439922      750.08807     -124.03706      626.05101    
     47000   310.46522      0.017021443    11.846801      770.27278     -129.11194      641.16084    
     48000   287.61067      0.017021443    6.8843633      713.56999     -124.39488      589.17511    
     49000   300.55799      0.017021443    11.478123      745.69266     -130.58634      615.10632    
     50000   300.87338      0.017021443    12.59195       746.47515     -129.81279      616.66236    
     51000   296.90758      0.017021443    4.7973364      736.63589     -128.60659      608.0293     
     52000   293.63748      0.017021443    6.9760952      728.52269     -130.73245      597.79024    
     53000   297.88081      0.017021443    11.330281      739.0505      -119.17814      619.87236    
     54000   298.64656      0.017021443    7.6351001      740.95035     -127.48431      613.46605    
     55000   301.11663      0.017021443    8.8043729      747.07866     -128.50363      618.57504    
     56000   288.70866      0.017021443    9.9700226      716.29415     -130.45736      585.83679    
     57000   301.44625      0.017021443    8.3562141      747.89646     -128.21575      619.68071    
     58000   310.28278      0.017021443    11.522912      769.82014     -126.24805      643.57209    
     59000   299.18192      0.017021443    19.071786      742.2786      -124.97833      617.30027    
     60000   294.24727      0.017021443    8.5699606      730.03559     -119.21791      610.81768    
     61000   297.03238      0.017021443    7.1530103      736.94552     -121.22333      615.72219    
     62000   303.49286      0.017021443    9.6894984      752.97415     -129.45361      623.52054    
     63000   309.23955      0.017021443    9.0220967      767.23185     -131.5604       635.67145    
     64000   295.21635      0.017021443    8.6673954      732.4399      -129.71676      602.72314    
     65000   293.1121       0.017021443    8.0113866      727.21921     -129.41239      597.80682    
     66000   306.05974      0.017021443    9.2980962      759.34265     -134.73665      624.606      
     67000   308.58342      0.017021443    11.546276      765.60398     -138.21012      627.39386    
     68000   295.08957      0.017021443    7.4934749      732.12536     -132.63832      599.48704    
     69000   298.27182      0.017021443    8.4658473      740.0206      -126.50021      613.52039    
     70000   306.91503      0.017021443    8.5837464      761.46464     -133.55793      627.90672    
     71000   295.43368      0.017021443    6.9612529      732.9791      -137.49579      595.48332    
     72000   300.01431      0.017021443    8.2862398      744.34377     -137.04372      607.30005    
     73000   302.83218      0.017021443    9.6765551      751.33498     -148.89249      602.44249    
     74000   290.05969      0.017021443    5.7053866      719.64608     -146.32911      573.31696    
     75000   297.08322      0.017021443    9.6361579      737.07167     -143.42801      593.64366    
     76000   309.05212      0.017021443    9.0538066      766.76684     -147.47918      619.28765    
     77000   289.9014       0.017021443    4.5986467      719.25337     -142.24602      577.00735    
     78000   293.02181      0.017021443    8.826718       726.99519     -135.73157      591.26362    
     79000   309.98889      0.017021443    7.907892       769.09098     -148.25465      620.83634    
     80000   304.64636      0.017021443    11.609979      755.83601     -149.84765      605.98836    
     81000   292.05818      0.017021443    7.4234752      724.6044      -143.76123      580.84318    
     82000   295.02814      0.017021443    5.018374       731.97294     -149.45163      582.5213     
     83000   298.25611      0.017021443    8.8519973      739.98164     -142.3883       597.59334    
     84000   307.81005      0.017021443    12.904158      763.68521     -143.65381      620.0314     
     85000   295.92481      0.017021443    11.048575      734.19761     -146.13496      588.06265    
     86000   295.45061      0.017021443    7.011196       733.02111     -149.15362      583.86749    
     87000   309.90492      0.017021443    2.2077481      768.88265     -147.18259      621.70007    
     88000   305.56637      0.017021443    10.877964      758.11858     -146.83855      611.28003    
     89000   294.78307      0.017021443    10.927615      731.36491     -153.69623      577.66868    
     90000   294.26451      0.017021443    6.8405139      730.07837     -151.40048      578.67789    
     91000   293.70485      0.017021443    8.1569624      728.68984     -153.78144      574.9084     
     92000   306.43024      0.017021443    9.2011078      760.26186     -147.08024      613.18162    
     93000   306.26555      0.017021443    17.322927      759.85328     -153.00422      606.84906    
     94000   284.55062      0.017021443    6.9608644      705.97794     -146.48306      559.49488    
     95000   311.5304       0.017021443    7.6746947      772.91552     -152.59343      620.32209    
     96000   312.66935      0.017021443    8.7252068      775.74127     -150.67341      625.06786    
     97000   295.47958      0.017021443    9.5211597      733.09299     -152.1827       580.91028    
     98000   285.33618      0.017021443   -0.79383982     707.92694     -156.97375      550.95318    
     99000   304.98523      0.017021443    8.8091459      756.67676     -154.12683      602.54993    
    100000   313.7602       0.017021443    9.0686888      778.4477      -153.0957       625.352      
    101000   298.70028      0.017021443    8.0598423      741.08364     -152.28266      588.80097    
    102000   296.47126      0.017021443    6.8820619      735.55336     -147.8896       587.66377    
    103000   293.01794      0.017021443    7.5544247      726.98557     -148.09419      578.89138    
    104000   301.05337      0.017021443    9.388571       746.92171     -150.33658      596.58513    
    105000   306.99491      0.017021443    9.226916       761.66283     -144.94462      616.71821    
    106000   307.03801      0.017021443    10.542966      761.76976     -142.97326      618.79651    
    107000   309.72785      0.017021443    2.1831305      768.44333     -137.09525      631.34808    
    108000   289.03243      0.017021443    6.8811158      717.09744     -134.65623      582.44121    
    109000   303.03405      0.017021443    8.4359249      751.83583     -137.82966      614.00617    
    110000   302.75107      0.017021443    8.5275864      751.13376     -141.98063      609.15313    
    111000   295.27759      0.017021443    8.2179779      732.59183     -138.68721      593.90462    
    112000   296.29229      0.017021443    10.63179       735.10933     -136.30509      598.80424    
    113000   307.55382      0.017021443    10.425111      763.04952     -136.02752      627.022      
    114000   305.4451       0.017021443    6.2640911      757.8177      -139.78687      618.03084    
    115000   283.29813      0.017021443    7.258783       702.87048     -138.56606      564.30442    
    116000   301.00977      0.017021443    8.9752754      746.81353     -135.20504      611.60849    
    117000   304.7954       0.017021443    6.3138856      756.20579     -139.40619      616.79959    
    118000   302.69344      0.017021443    1.8102235      750.99076     -135.90668      615.08408    
    119000   285.26838      0.017021443    8.248334       707.75871     -130.08842      577.67029    
    120000   293.99425      0.017021443    12.193862      729.40783     -131.97546      597.43237    
    121000   312.72083      0.017021443    11.891148      775.86899     -131.73324      644.13575    
    122000   298.19809      0.017021443    6.5016142      739.83769     -136.3816       603.45609    
    123000   284.56392      0.017021443    5.4767388      706.01093     -145.12135      560.88958    
    124000   284.70584      0.017021443    18.382788      706.36305     -142.51293      563.85012    
    125000   315.4759       0.017021443    9.3330995      782.70441     -144.30075      638.40366    
    126000   295.68821      0.017021443    4.6105663      733.61061     -145.99891      587.6117     
    127000   296.42012      0.017021443    16.716844      735.42648     -143.19282      592.23366    
    128000   317.02985      0.017021443    6.1240551      786.5598      -141.23784      645.32196    
    129000   294.985        0.017021443   -1.7655609      731.86593     -141.58523      590.2807     
    130000   290.58768      0.017021443    8.8373202      720.95605     -131.95678      588.99927    
    131000   299.12453      0.017021443    10.761073      742.1362      -138.05045      604.08575    
    132000   305.98009      0.017021443    14.429752      759.14504     -137.61644      621.52859    
    133000   307.76814      0.017021443    9.7386838      763.58125     -138.34834      625.23291    
    134000   294.13292      0.017021443    6.5539899      729.75189     -134.32978      595.42211    
    135000   303.31824      0.017021443    8.256575       752.54091     -135.7006       616.84031    
    136000   301.35931      0.017021443    11.811922      747.68075     -136.69151      610.98924    
    137000   302.09416      0.017021443    6.4855415      749.50393     -132.48537      617.01856    
    138000   291.98879      0.017021443    2.045152       724.43225     -141.50548      582.92677    
    139000   304.50495      0.017021443    9.0602181      755.48518     -139.79242      615.69276    
    140000   303.27781      0.017021443    7.9727605      752.44061     -126.9328       625.50781    
    141000   286.80672      0.017021443    10.688763      711.57538     -136.8137       574.76168    
    142000   300.79761      0.017021443    10.521738      746.28717     -140.56604      605.72114    
    143000   297.87271      0.017021443    8.6066771      739.0304      -140.86285      598.16755    
    144000   308.11829      0.017021443    4.2425425      764.44998     -135.84592      628.60406    
    145000   309.68053      0.017021443    8.8948475      768.32593     -128.5109       639.81503    
    146000   298.69811      0.017021443    7.9341978      741.07825     -131.74561      609.33264    
    147000   289.68082      0.017021443    8.582647       718.7061      -132.02093      586.68517    
    148000   316.02568      0.017021443    5.2573756      784.06842     -129.75451      654.31391    
    149000   314.73194      0.017021443    12.860799      780.85861     -126.60814      654.25047    
    150000   295.31081      0.017021443    9.1659742      732.67425     -130.37363      602.30062    
    151000   287.72433      0.017021443    7.941285       713.85198     -127.7848       586.06719    
    152000   310.31389      0.017021443    8.3553695      769.89732     -127.56744      642.32988    
    153000   312.15542      0.017021443    12.482485      774.46621     -125.54717      648.91904    
    154000   287.56881      0.017021443    7.6071129      713.46614     -127.1103       586.35584    
    155000   305.56651      0.017021443    7.9360211      758.11894     -130.77534      627.3436     
    156000   311.97033      0.017021443    8.9643401      774.007       -125.54348      648.46352    
    157000   297.06777      0.017021443    8.2452738      737.03334     -130.05486      606.97848    
    158000   298.71834      0.017021443    6.1106022      741.12843     -128.77668      612.35175    
    159000   303.7363       0.017021443    5.4044244      753.57812     -121.47736      632.10076    
    160000   313.20767      0.017021443    10.500152      777.07686     -121.40262      655.67424    
    161000   301.23354      0.017021443    7.6390405      747.36872     -125.48355      621.88517    
    162000   290.19511      0.017021443    6.9364998      719.98206     -129.95978      590.02228    
    163000   294.53544      0.017021443    9.0406         730.75054     -130.72176      600.02878    
    164000   291.32176      0.017021443    7.4348489      722.77733     -133.52667      589.25065    
    165000   304.29114      0.017021443    6.5631247      754.95471     -129.19506      625.75965    
    166000   309.65318      0.017021443    9.3224531      768.25807     -130.94596      637.31211    
    167000   284.52112      0.017021443    7.5251969      705.90475     -128.54522      577.35953    
    168000   300.03265      0.017021443    7.0297384      744.38927     -122.98473      621.40454    
    169000   304.45538      0.017021443    6.0161964      755.3622      -130.30746      625.05474    
    170000   298.26071      0.017021443    15.247448      739.99305     -123.35011      616.64294    
    171000   284.44145      0.017021443    11.602908      705.70707     -121.49236      584.21472    
    172000   307.05401      0.017021443    5.8955419      761.80947     -124.16208      637.64739    
    173000   312.50926      0.017021443    9.9474732      775.34409     -120.7231       654.62099    
    174000   290.60176      0.017021443    7.9818294      720.99098     -125.40499      595.586      
    175000   305.75426      0.017021443    8.3975475      758.58474     -121.24276      637.34198    
    176000   308.36442      0.017021443    8.6532246      765.06063     -128.54802      636.51261    
    177000   304.64638      0.017021443    8.2805886      755.83607     -129.89122      625.94485    
    178000   306.948        0.017021443    7.8119417      761.54646     -123.2755       638.27096    
    179000   301.674        0.017021443    9.026204       748.46152     -116.87086      631.59066    
    180000   284.64179      0.017021443    8.184444       706.20413     -113.92857      592.27556    
    181000   313.13434      0.017021443    9.1150336      776.89493     -117.52889      659.36604    
    182000   294.21055      0.017021443    5.1709797      729.94448     -119.28145      610.66303    
    183000   279.81532      0.017021443    10.377714      694.22951     -111.45887      582.77065    
    184000   299.92902      0.017021443    7.3907797      744.13217     -122.29753      621.83464    
    185000   298.03378      0.017021443    7.6154137      739.43001     -120.59117      618.83884    
    186000   308.3945       0.017021443    17.892493      765.13526     -120.12609      645.00918    
    187000   302.72872      0.017021443    10.715649      751.0783      -120.92082      630.15748    
    188000   302.98866      0.017021443   -1.9313855      751.72323     -117.16987      634.55336    
    189000   300.81809      0.017021443    10.756222      746.33798     -121.84969      624.48828    
    190000   294.84293      0.017021443    13.624947      731.51343     -129.45856      602.05487    
    191000   301.83186      0.017021443   -9.0584712      748.85317     -122.80713      626.04604    
    192000   309.94871      0.017021443   -0.96075144     768.99128     -124.85512      644.13616    
    193000   300.36284      0.017021443    14.917584      745.20849     -122.0716       623.13689    
    194000   296.82423      0.017021443    8.9386684      736.4291      -120.16829      616.26081    
    195000   302.63632      0.017021443    8.1098575      750.84906     -116.362        634.48706    
    196000   294.82992      0.017021443    4.4627572      731.48116     -114.09079      617.39038    
    197000   308.58094      0.017021443    15.427495      765.59782     -112.6961       652.90172    
    198000   296.57241      0.017021443    9.8773874      735.80431     -119.45509      616.34922    
    199000   290.2641       0.017021443   -1.0096079      720.15324     -114.40687      605.74637    
    200000   315.60619      0.017021443    4.6240171      783.02765     -117.05337      665.97428    
    201000   308.20159      0.017021443    10.288964      764.65665     -122.40908      642.24757    
    202000   292.37707      0.017021443    17.914721      725.39557     -113.81584      611.57973    
    203000   288.38763      0.017021443    9.5822781      715.49765     -123.98435      591.51329    
    204000   311.56537      0.017021443   -1.5691008      773.00228     -127.43785      645.56443    
    205000   304.11071      0.017021443   -3.5027189      754.50706     -128.63412      625.87294    
    206000   308.38422      0.017021443    7.3129604      765.10975     -117.50344      647.6063     
    207000   301.11258      0.017021443    18.025967      747.06861     -116.48768      630.58093    
    208000   296.8918       0.017021443    19.453306      736.59675     -115.46961      621.12714    
    209000   296.5527       0.017021443    2.6808114      735.75544     -115.4812       620.27423    
    210000   308.54489      0.017021443    2.4897189      765.50838     -120.99156      644.51682    
    211000   291.84266      0.017021443    8.3210015      724.06968     -111.8393       612.23037    
    212000   290.06034      0.017021443    11.995521      719.64769     -109.98606      609.66163    
    213000   303.5258       0.017021443    7.6598116      753.05588     -108.94772      644.10816    
    214000   298.30768      0.017021443    8.4630974      740.10957     -114.94289      625.16668    
    215000   298.39868      0.017021443    10.067653      740.33534     -106.32363      634.01171    
    216000   312.07268      0.017021443    7.7640641      774.26093     -104.88711      669.37382    
    217000   309.80658      0.017021443    8.1372668      768.63867     -109.91141      658.72726    
    218000   297.77087      0.017021443    7.5154839      738.77773     -109.55831      629.21942    
    219000   303.32514      0.017021443    14.90392       752.55803     -110.90437      641.65365    
    220000   295.70758      0.017021443    6.4563572      733.65866     -114.15615      619.50251    
    221000   301.73177      0.017021443    0.89010836     748.60485     -109.07298      639.53187    
    222000   301.46796      0.017021443    2.9089595      747.95032     -103.71964      644.23068    
    223000   300.42807      0.017021443    9.817258       745.37032     -97.198345      648.17198    
    224000   297.19355      0.017021443    7.9148642      737.34538     -104.0565       633.28888    
    225000   305.68801      0.017021443    5.2566332      758.42038     -97.563265      660.85712    
    226000   299.34594      0.017021443    3.3250048      742.68552     -101.46636      641.21917    
    227000   303.06531      0.017021443    25.994106      751.91338     -106.01046      645.90292    
    228000   293.87282      0.017021443    14.482344      729.10656     -101.26808      627.83848    
    229000   293.52547      0.017021443   -6.9934238      728.24478     -96.733944      631.51083    
    230000   311.40661      0.017021443    11.119327      772.60838     -106.3293       666.27908    
    231000   289.8991       0.017021443    7.3609287      719.24766     -103.5225       615.72516    
    232000   290.16762      0.017021443    2.3971581      719.91386     -102.4566       617.45725    
    233000   305.57813      0.017021443    3.3373214      758.14777     -98.48988       659.65789    
    234000   306.16925      0.017021443    9.2219439      759.61434     -94.674029      664.94031    
    235000   291.90701      0.017021443    8.9039193      724.22934     -91.588751      632.64059    
    236000   291.77728      0.017021443    7.0416452      723.90747     -91.543345      632.36413    
    237000   300.82925      0.017021443    8.556348       746.36566     -90.62537       655.74029    
    238000   317.47689      0.017021443    8.6010082      787.66893     -91.817732      695.85119    
    239000   303.94798      0.017021443    6.507751       754.10331     -97.063126      657.04018    
    240000   295.8968       0.017021443    8.5022444      734.12812     -92.659115      641.46901    
    241000   299.11014      0.017021443    9.9756231      742.1005      -96.782048      645.31846    
    242000   310.04911      0.017021443    9.7385941      769.24039     -92.393244      676.84714    
    243000   304.80732      0.017021443    9.8569005      756.23535     -89.391054      666.8443     
    244000   288.35052      0.017021443    7.4585521      715.40558     -93.793147      621.61243    
    245000   301.91226      0.017021443    7.9957661      749.05263     -91.538         657.51463    
    246000   320.77273      0.017021443    8.2590503      795.84598     -96.682214      699.16376    
    247000   298.25577      0.017021443    8.519696       739.9808      -92.224228      647.75657    
    248000   302.12853      0.017021443    7.9007508      749.58921     -91.035407      658.5538     
    249000   301.07899      0.017021443    8.6550631      746.98528     -96.56981       650.41547    
    250000   301.10322      0.017021443    8.39148        747.04538     -94.045977      652.9994     
    251000   298.3324       0.017021443    4.7719622      740.17091     -91.196172      648.97473    
    252000   300.5349       0.017021443    8.3594954      745.63538     -93.248917      652.38646    
    253000   295.32785      0.017021443    7.5086253      732.71653     -87.498743      645.21779    
    254000   300.68093      0.017021443    9.3040184      745.99769     -89.874761      656.12293    
    255000   297.61003      0.017021443    8.4462789      738.37868     -86.506519      651.87216    
    256000   301.5794       0.017021443    7.5145093      748.22681     -84.225367      664.00144    
    257000   281.72308      0.017021443    12.281728      698.96274     -86.032429      612.93031    
    258000   294.7025       0.017021443    11.063677      731.16504     -88.089554      643.07548    
    259000   307.66769      0.017021443    12.416399      763.33203     -84.85228       678.47974    
    260000   308.30635      0.017021443    5.1849754      764.91655     -83.780034      681.13652    
    261000   303.61069      0.017021443    6.3268316      753.26649     -78.431404      674.83509    
    262000   307.7229       0.017021443    10.117973      763.46899     -74.658485      688.81051    
    263000   312.62842      0.017021443    8.3107925      775.63973     -79.395083      696.24465    
    264000   301.0144       0.017021443    5.9078983      746.82503     -81.085007      665.74002    
    265000   297.25782      0.017021443    10.254013      737.50485     -81.428753      656.0761     
    266000   304.16739      0.017021443    10.166937      754.64768     -83.646195      671.00148    
    267000   293.61309      0.017021443    5.7871349      728.46217     -83.855861      644.6063     
    268000   299.62336      0.017021443    8.5807884      743.37382     -85.709402      657.66442    
    269000   309.19635      0.017021443    11.512477      767.12466     -83.470258      683.65441    
    270000   298.06297      0.017021443    6.1461878      739.50246     -86.120753      653.3817     
    271000   295.00533      0.017021443    7.7129927      731.91636     -89.88329       642.03307    
    272000   306.73727      0.017021443    10.018385      761.02362     -83.231346      677.79227    
    273000   304.25727      0.017021443    8.385437       754.87066     -84.825035      670.04563    
    274000   287.40089      0.017021443    4.5292931      713.04952     -91.179099      621.87042    
    275000   291.48176      0.017021443    11.013632      723.17428     -88.406308      634.76797    
    276000   313.5404       0.017021443    10.64806       777.90237     -95.867283      682.03508    
    277000   307.18626      0.017021443   -0.23070631     762.13759     -90.197367      671.94022    
    278000   284.66925      0.017021443    7.4634711      706.27225     -91.028445      615.24381    
    279000   299.85787      0.017021443    15.86771       743.95565     -92.130607      651.82505    
    280000   310.40621      0.017021443    8.9749053      770.12636     -91.181595      678.94476    
    281000   291.49008      0.017021443    5.8265958      723.19492     -86.623399      636.57152    
    282000   297.12261      0.017021443    4.1863798      737.1694      -89.592101      647.57729    
    283000   295.82818      0.017021443    7.2142753      733.95786     -82.360783      651.59708    
    284000   294.779        0.017021443    14.464984      731.35482     -74.998494      656.35633    
    285000   305.42176      0.017021443    6.8720526      757.7598      -82.076057      675.68375    
    286000   297.14897      0.017021443    8.2445787      737.23477     -84.715088      652.51969    
    287000   297.3878       0.017021443    10.132136      737.82732     -90.333969      647.49335    
    288000   300.84431      0.017021443    8.4282556      746.40302     -90.394767      656.00825    
    289000   305.53745      0.017021443    9.7324675      758.04685     -78.270625      679.77622    
    290000   297.35899      0.017021443    9.0787874      737.75585     -81.451568      656.30428    
    291000   301.51908      0.017021443    11.446343      748.07716     -78.773309      669.30385    
    292000   308.55495      0.017021443    3.2953816      765.53333     -77.772116      687.76121    
    293000   293.79736      0.017021443    8.2067716      728.91934     -74.475551      654.44379    
    294000   283.27108      0.017021443    6.0660655      702.80335     -74.780562      628.02279    
    295000   309.73749      0.017021443    4.2134484      768.46724     -72.238582      696.22866    
    296000   302.88773      0.017021443    9.8211226      751.47281     -78.711834      672.76098    
    297000   303.18004      0.017021443    8.6259227      752.19804     -74.528953      677.66908    
    298000   286.91846      0.017021443    9.0613858      711.85262     -81.061208      630.79141    
    299000   298.35798      0.017021443    7.6939594      740.23438     -80.414367      659.82002    
    300000   310.48647      0.017021443    6.0344527      770.32548     -82.999696      687.32579    
    301000   302.9286       0.017021443    9.0305602      751.57421     -81.221371      670.35284    
    302000   295.11176      0.017021443    10.577363      732.18042     -78.911288      653.26914    
    303000   287.11772      0.017021443    16.398495      712.34697     -77.279865      635.0671     
    304000   306.67842      0.017021443    7.499306       760.8776      -73.607437      687.27017    
    305000   305.8004       0.017021443    4.9168468      758.69922     -80.385697      678.31352    
    306000   292.26751      0.017021443    11.038842      725.12375     -79.565659      645.55809    
    307000   298.65873      0.017021443    8.9327859      740.98055     -82.904767      658.07578    
    308000   299.86182      0.017021443    7.9221188      743.96544     -79.167045      664.7984     
    309000   291.64551      0.017021443    7.9731263      723.58054     -80.259923      643.32062    
    310000   311.13675      0.017021443    13.245193      771.93885     -75.432362      696.50649    
    311000   303.10735      0.017021443    11.640634      752.0177      -70.157294      681.8604     
    312000   293.96274      0.017021443    3.8157732      729.32966     -77.319416      652.01024    
    313000   301.87897      0.017021443    8.8824693      748.97004     -72.823778      676.14626    
    314000   299.54206      0.017021443    12.552346      743.1721      -76.421219      666.75089    
    315000   296.80044      0.017021443    6.8051853      736.37008     -72.429077      663.941      
    316000   309.51193      0.017021443    7.5407552      767.90763     -70.291126      697.6165     
    317000   303.07247      0.017021443    14.62142       751.93116     -67.973055      683.95811    
    318000   290.37613      0.017021443    9.7802922      720.43117     -67.338524      653.09265    
    319000   310.14431      0.017021443    4.7601248      769.47658     -62.961137      706.51544    
    320000   302.88901      0.017021443    10.4082        751.47599     -65.985045      685.49094    
    321000   318.82462      0.017021443    10.04727       791.01266     -66.902685      724.10998    
    322000   299.31129      0.017021443    9.6360788      742.59957     -60.961316      681.63826    
    323000   299.09905      0.017021443    8.3931118      742.07298     -64.273136      677.79985    
    324000   302.73387      0.017021443    8.8152504      751.09109     -62.2386        688.85249    
    325000   307.95297      0.017021443    7.5685822      764.0398      -67.210239      696.82956    
    326000   278.81831      0.017021443    9.8136425      691.75591     -68.511529      623.24438    
    327000   303.56736      0.017021443    15.532118      753.15898     -66.241277      686.91771    
    328000   300.10546      0.017021443    7.5148102      744.56992     -68.4606        676.10932    
    329000   306.16972      0.017021443    4.9142077      759.61552     -69.693154      689.92237    
    330000   282.13689      0.017021443    6.8925935      699.9894      -66.994086      632.99531    
    331000   293.83283      0.017021443    9.8817871      729.00736     -65.856676      663.15068    
    332000   304.54022      0.017021443    7.4597288      755.57267     -71.82843       683.74424    
    333000   298.83537      0.017021443    8.1631635      741.4188      -68.088767      673.33003    
    334000   292.37023      0.017021443    9.2637044      725.3786      -69.626562      655.75204    
    335000   294.31304      0.017021443    16.634744      730.19877     -65.883721      664.31505    
    336000   314.85109      0.017021443    8.5209489      781.15424     -65.173824      715.98041    
    337000   291.41574      0.017021443    5.6465037      723.01049     -67.307214      655.70328    
    338000   289.00246      0.017021443    20.071766      717.02306     -63.762017      653.26105    
    339000   307.75207      0.017021443    8.1765304      763.54138     -65.359883      698.1815     
    340000   301.53618      0.017021443    6.145227       748.11958     -70.208237      677.91134    
    341000   294.23643      0.017021443    16.555562      730.0087      -71.393108      658.61559    
    342000   310.59012      0.017021443    2.7822232      770.58265     -63.320182      707.26247    
    343000   308.74971      0.017021443   -3.1285806      766.01655     -68.578341      697.4382     
    344000   294.59092      0.017021443    6.943749       730.88818     -65.871723      665.01646    
    345000   294.14063      0.017021443    12.355581      729.77102     -63.149978      666.62104    
    346000   295.7594       0.017021443    13.153705      733.78723     -63.530838      670.2564     
    347000   305.18309      0.017021443    4.1782674      757.16766     -61.024599      696.14306    
    348000   309.51755      0.017021443    4.1317065      767.92156     -62.664738      705.25683    
    349000   287.03695      0.017021443    16.398757      712.14658     -63.581334      648.56525    
    350000   296.46163      0.017021443    21.294494      735.52948     -60.634104      674.89538    
    351000   299.71606      0.017021443    8.1465659      743.60381     -57.32004       686.28376    
    352000   306.25157      0.017021443    6.0330936      759.81859     -57.431234      702.38735    
    353000   294.01928      0.017021443    2.6163131      729.46994     -61.906981      667.56296    
    354000   295.76889      0.017021443    17.769686      733.81078     -61.146965      672.66381    
    355000   306.11107      0.017021443    8.666217       759.47        -60.090429      699.37957    
    356000   301.26912      0.017021443   -5.8099176      747.45699     -55.905876      691.55112    
    357000   289.80321      0.017021443    6.1461584      719.00976     -62.40232       656.60744    
    358000   300.92507      0.017021443    12.634029      746.60339     -68.410787      678.1926     
    359000   321.91906      0.017021443    19.611146      798.69007     -61.886758      736.80331    
    360000   292.3902       0.017021443    0.99648276     725.42814     -61.711738      663.7164     
    361000   287.17409      0.017021443    8.1122005      712.48683     -58.332426      654.1544     
    362000   299.00727      0.017021443    15.015492      741.84527     -58.369442      683.47583    
    363000   311.62987      0.017021443    12.410703      773.16229     -56.391066      716.77123    
    364000   302.10539      0.017021443    2.2622423      749.53181     -59.70555       689.82626    
    365000   295.07013      0.017021443    11.425359      732.07713     -64.787609      667.28952    
    366000   306.7378       0.017021443    15.010374      761.02495     -58.916425      702.10852    
    367000   303.53749      0.017021443    2.2638066      753.08487     -57.538427      695.54644    
    368000   303.3432       0.017021443   -5.4971323      752.60283     -54.021613      698.58122    
    369000   306.82117      0.017021443    12.91296       761.23177     -51.343364      709.88841    
    370000   306.08644      0.017021443    13.35869       759.40889     -57.103598      702.30529    
    371000   299.44162      0.017021443    7.0001976      742.92292     -50.446714      692.4762     
    372000   293.73425      0.017021443    9.8956027      728.76276     -55.046176      673.71659    
    373000   319.25887      0.017021443    22.382567      792.09007     -53.408328      738.68174    
    374000   312.13491      0.017021443    14.057021      774.41532     -48.809883      725.60544    
    375000   301.96291      0.017021443    1.0051921      749.17831     -50.733496      698.44482    
    376000   294.20334      0.017021443    10.900785      729.9266      -52.383019      677.54359    
    377000   316.23572      0.017021443    7.8150035      784.58954     -49.299155      735.29039    
    378000   300.46546      0.017021443    8.4472666      745.4631      -44.901491      700.56161    
    379000   289.39951      0.017021443    11.232142      718.00817     -48.144391      669.86377    
    380000   314.23836      0.017021443    9.5521966      779.63403     -50.070039      729.56399    
    381000   311.81997      0.017021443    9.0047976      773.63395     -56.133334      717.50061    
    382000   296.07972      0.017021443    1.1195218      734.58194     -51.805788      682.77616    
    383000   290.32189      0.017021443    7.6996633      720.29661     -54.322733      665.97387    
    384000   301.2372       0.017021443    15.896539      747.37779     -49.993112      697.38468    
    385000   306.99748      0.017021443    2.6871098      761.6692      -45.824764      715.84444    
    386000   293.64131      0.017021443    5.8196886      728.5322      -41.981628      686.55057    
    387000   300.93148      0.017021443    12.553364      746.61929     -46.549386      700.0699     
    388000   302.92099      0.017021443    8.5760038      751.55533     -46.526177      705.02915    
    389000   295.55031      0.017021443    7.8130199      733.26847     -44.86901       688.39946    
    390000   314.24811      0.017021443    20.839347      779.65822     -44.60995       735.04827    
    391000   310.56078      0.017021443    11.86962       770.50987     -47.371897      723.13797    
    392000   285.15584      0.017021443    1.1119917      707.4795      -45.552558      661.92695    
    393000   293.56241      0.017021443    9.6251268      728.33643     -51.160539      677.17589    
    394000   315.96655      0.017021443    16.995473      783.92172     -46.505448      737.41627    
    395000   298.88795      0.017021443    2.1101173      741.54925     -44.38233       697.16692    
    396000   301.58012      0.017021443   -0.71753995     748.22859     -44.539141      703.68945    
    397000   294.97476      0.017021443    2.8599565      731.8405      -47.546916      684.29359    
    398000   293.47586      0.017021443    14.147106      728.1217      -48.322526      679.79917    
    399000   308.02273      0.017021443    9.72577        764.2129      -48.910383      715.30251    
    400000   309.0884       0.017021443    5.4489623      766.85683     -48.336988      718.51984    
    401000   288.27451      0.017021443    11.69092       715.217       -49.255063      665.96194    
    402000   299.71877      0.017021443    25.302479      743.61054     -43.967596      699.64294    
    403000   305.29083      0.017021443    4.9804759      757.43497     -46.406797      711.02818    
    404000   297.39253      0.017021443    8.4401693      737.83907     -45.710938      692.12813    
    405000   301.1121       0.017021443    15.961058      747.06743     -43.657267      703.41016    
    406000   301.52911      0.017021443    2.1793348      748.10204     -48.215244      699.88679    
    407000   299.28805      0.017021443    2.3544925      742.5419      -47.659999      694.8819     
    408000   298.50872      0.017021443    15.085281      740.60836     -47.85106       692.7573     
    409000   300.89571      0.017021443    12.88491       746.53054     -49.181612      697.34893    
    410000   298.23669      0.017021443    1.9339943      739.93344     -51.077261      688.85618    
    411000   297.41252      0.017021443    7.8994122      737.88866     -50.290838      687.59782    
    412000   285.93569      0.017021443    14.346295      709.41434     -50.208061      659.20628    
    413000   307.12721      0.017021443    19.104268      761.99106     -48.336605      713.65446    
    414000   301.86515      0.017021443    5.5715032      748.93575     -50.314079      698.62167    
    415000   302.09365      0.017021443    7.6155613      749.50268     -44.258447      705.24423    
    416000   289.2165       0.017021443    8.8112433      717.5541      -38.8619        678.6922     
    417000   288.46246      0.017021443    12.964638      715.68331     -43.995953      671.68736    
    418000   318.59302      0.017021443    8.0375351      790.43807     -48.005116      742.43295    
    419000   297.69092      0.017021443    7.5529958      738.57938     -44.680751      693.89863    
    420000   295.73548      0.017021443    8.685704       733.72787     -44.216589      689.51128    
    421000   303.04179      0.017021443    8.8235957      751.85502     -43.199062      708.65596    
    422000   307.99795      0.017021443    10.150234      764.15141     -42.242118      721.90929    
    423000   292.23856      0.017021443    9.8505265      725.05192     -51.122192      673.92973    
    424000   295.77162      0.017021443    7.1813422      733.81754     -47.612699      686.20485    
    425000   312.27078      0.017021443    7.9183889      774.75241     -43.731752      731.02065    
    426000   312.79885      0.017021443    11.049526      776.06258     -41.620593      734.44198    
    427000   290.84315      0.017021443    13.962421      721.58987     -42.27417       679.3157     
    428000   291.78079      0.017021443    11.642821      723.91619     -40.159609      683.75658    
    429000   301.28167      0.017021443    11.064841      747.48812     -39.227737      708.26038    
    430000   293.44241      0.017021443    0.78585899     728.03871     -32.83925       695.19946    
    431000   307.9038       0.017021443    0.6819601      763.91782     -32.555852      731.36197    
    432000   303.0964       0.017021443    6.2306569      751.99052     -33.322022      718.6685     
    433000   306.11156      0.017021443    17.909358      759.47123     -35.278093      724.19313    
    434000   293.47465      0.017021443    16.601732      728.11869     -38.803125      689.31556    
    435000   306.54814      0.017021443   -1.2050688      760.55439     -35.98944       724.56495    
    436000   305.14305      0.017021443    10.471394      757.06831     -35.245357      721.82296    
    437000   307.38936      0.017021443    14.034075      762.64146     -37.543881      725.09758    
    438000   287.42433      0.017021443    11.059049      713.1077      -40.966699      672.141      
    439000   306.83507      0.017021443    11.920688      761.26626     -40.191697      721.07456    
    440000   297.54734      0.017021443   -9.6443099      738.22315     -40.055547      698.1676     
    441000   300.17021      0.017021443    14.750647      744.73057     -41.743793      702.98677    
    442000   305.90458      0.017021443    18.16309       758.9577      -39.466262      719.49143    
    443000   301.87129      0.017021443    6.2326151      748.951       -42.70588       706.24512    
    444000   297.75948      0.017021443    7.5120169      738.74947     -44.840566      693.90891    
    445000   296.98577      0.017021443    16.963565      736.82989     -38.786853      698.04304    
    446000   302.94325      0.017021443    8.0294268      751.61056     -38.613947      712.99661    
    447000   312.97673      0.017021443    2.3742989      776.5039      -34.690556      741.81335    
    448000   302.67501      0.017021443    11.866352      750.94505     -39.568976      711.37607    
    449000   297.26119      0.017021443    18.27918       737.51321     -32.231343      705.28187    
    450000   303.81084      0.017021443    13.929034      753.76308     -34.996644      718.76643    
    451000   298.7364       0.017021443    7.4423144      741.17324     -35.813287      705.35996    
    452000   298.57527      0.017021443    6.7166011      740.77347     -34.36796       706.40551    
    453000   301.96484      0.017021443    12.536035      749.1831      -32.262385      716.92071    
    454000   311.50119      0.017021443    13.872206      772.84304     -36.958558      735.88448    
    455000   297.50059      0.017021443    11.667859      738.10716     -38.372369      699.73479    
    456000   276.56155      0.017021443    12.232942      686.15683     -37.661878      648.49496    
    457000   304.30035      0.017021443    3.1336152      754.97755     -35.737546      719.24001    
    458000   318.89379      0.017021443    13.466216      791.18427     -34.557355      756.62692    
    459000   302.76796      0.017021443    9.8869864      751.17566     -33.17589       717.99977    
    460000   297.77103      0.017021443    0.13519266     738.77814     -34.147574      704.63056    
    461000   296.06952      0.017021443    6.2306979      734.55664     -30.554462      704.00218    
    462000   306.69895      0.017021443    21.728589      760.92855     -34.903435      726.02512    
    463000   288.08351      0.017021443    16.28335       714.74312     -28.388764      686.35436    
    464000   290.59005      0.017021443    1.7017947      720.96191     -33.782913      687.179      
    465000   309.25529      0.017021443    6.381162       767.2709      -31.827942      735.44296    
    466000   301.84714      0.017021443    14.339031      748.89107     -36.730674      712.16039    
    467000   286.81471      0.017021443    14.949993      711.5952      -36.257168      675.33803    
    468000   299.23539      0.017021443    6.3993836      742.41126     -35.189336      707.22192    
    469000   305.26057      0.017021443    5.5314836      757.35989     -32.569306      724.79058    
    470000   289.04391      0.017021443    12.892644      717.12591     -35.236596      681.88932    
    471000   296.67743      0.017021443    11.329602      736.06488     -29.732533      706.33235    
    472000   295.51704      0.017021443    6.2837295      733.18591     -29.565657      703.62025    
    473000   311.37073      0.017021443    7.3679992      772.51935     -28.162764      744.35659    
    474000   297.74081      0.017021443    12.462066      738.70317     -27.542844      711.16032    
    475000   292.71858      0.017021443    11.933224      726.24287     -29.153339      697.08953    
    476000   302.12248      0.017021443    8.9633077      749.57421     -28.538087      721.03612    
    477000   303.96933      0.017021443    9.8658988      754.15629     -32.223489      721.9328     
    478000   298.78758      0.017021443    9.3331162      741.30023     -32.120724      709.17951    
    479000   303.73943      0.017021443    8.2660149      753.5859      -33.407523      720.17837    
    480000   286.96552      0.017021443    8.5057353      711.96937     -35.182769      676.7866     
    481000   298.48435      0.017021443    8.0772305      740.5479      -33.893799      706.6541     
    482000   319.38254      0.017021443    13.128154      792.39688     -33.966252      758.43063    
    483000   294.46516      0.017021443    16.801933      730.57617     -32.909472      697.6667     
    484000   295.05353      0.017021443    4.1156572      732.03593     -30.240355      701.79558    
    485000   304.24168      0.017021443   -0.014570313    754.83199     -32.103243      722.72875    
    486000   309.0855       0.017021443    11.883389      766.84964     -27.474296      739.37534    
    487000   293.54716      0.017021443    14.308333      728.2986      -28.21939       700.07921    
    488000   285.00231      0.017021443    10.541763      707.09858     -29.237232      677.86135    
    489000   302.61255      0.017021443    8.0270034      750.79007     -31.744786      719.04529    
    490000   316.00521      0.017021443    10.484983      784.01765     -26.909795      757.10785    
    491000   285.70066      0.017021443    11.682014      708.8312      -25.618213      683.21299    
    492000   293.8485       0.017021443    9.7134128      729.04623     -25.096144      703.95009    
    493000   304.71684      0.017021443    7.8790939      756.01088     -28.254347      727.75653    
    494000   299.19219      0.017021443    7.7460077      742.30407     -26.359262      715.94481    
    495000   306.63275      0.017021443    10.125084      760.7643      -21.467632      739.29667    
    496000   299.00584      0.017021443    7.7851236      741.84174     -25.935853      715.90589    
    497000   294.85568      0.017021443    10.184278      731.54506     -27.653958      703.8911     
    498000   309.40712      0.017021443    10.650586      767.6476      -27.575984      740.07162    
    499000   298.40659      0.017021443    7.8866249      740.35497     -27.977814      712.37716    
    500000   284.66244      0.017021443    5.2222583      706.25536     -29.768755      676.48661    
    501000   297.60585      0.017021443    10.590464      738.36833     -29.993917      708.37441    
    502000   321.01943      0.017021443    11.159274      796.45807     -25.07064       771.38743    
    503000   296.64568      0.017021443    8.28873        735.98611     -28.108654      707.87745    
    504000   298.52107      0.017021443    9.1079378      740.639       -27.877225      712.76177    
    505000   322.61726      0.017021443    11.307205      800.42233     -26.31764       774.10469    
    506000   310.35557      0.017021443    9.9984592      770.00073     -25.68842       744.31231    
    507000   292.46135      0.017021443    8.3063866      725.60468     -26.905603      698.69908    
    508000   299.75195      0.017021443    9.6777201      743.69284     -30.370297      713.32255    
    509000   302.19376      0.017021443    9.6062561      749.75105     -28.039492      721.71155    
    510000   298.7066       0.017021443    8.7516521      741.09932     -25.48938       715.60994    
    511000   294.79084      0.017021443    8.514175       731.38419     -24.761964      706.62223    
    512000   310.16263      0.017021443    9.6184433      769.52203     -17.778148      751.74388    
    513000   311.99606      0.017021443    10.365136      774.07083     -21.546218      752.52462    
    514000   291.35011      0.017021443    8.9155496      722.84765     -20.667645      702.18001    
    515000   288.85516      0.017021443    9.6389137      716.65762     -19.344115      697.31351    
    516000   298.99834      0.017021443    14.072114      741.82312     -23.842881      717.98024    
    517000   300.19274      0.017021443    9.4743336      744.78646     -23.585672      721.20079    
    518000   297.19544      0.017021443    6.7737154      737.35009     -26.640412      710.70968    
    519000   294.51161      0.017021443    8.8503168      730.69141     -24.526976      706.16444    
    520000   288.50489      0.017021443    9.9153022      715.78859     -26.261926      689.52667    
    521000   303.19805      0.017021443    9.6518385      752.24271     -30.581828      721.66088    
    522000   299.51317      0.017021443    8.0960832      743.10042     -28.88667       714.21375    
    523000   286.18179      0.017021443    8.5206421      710.02492     -29.998041      680.02688    
    524000   299.50807      0.017021443    9.0175957      743.08778     -27.382138      715.70565    
    525000   307.36198      0.017021443    10.079404      762.57355     -23.614487      738.95906    
    526000   307.15696      0.017021443    2.1926123      762.06489     -27.021622      735.04327    
    527000   297.14859      0.017021443    9.8365006      737.23385     -23.272793      713.96105    
    528000   298.2899       0.017021443    9.3502342      740.06546     -26.606506      713.45895    
    529000   292.48309      0.017021443    8.4789383      725.6586      -25.45968       700.19892    
    530000   305.51561      0.017021443    9.701936       757.99265     -23.685267      734.30738    
    531000   304.36746      0.017021443    9.1477632      755.14407     -28.905356      726.23871    
    532000   291.62833      0.017021443    8.1680468      723.53791     -27.675626      695.86229    
    533000   303.17316      0.017021443    9.4415271      752.18097     -24.020894      728.16008    
    534000   300.55524      0.017021443    8.7073411      745.68585     -27.522706      718.16314    
    535000   284.09499      0.017021443    8.9038687      704.84751     -24.057882      680.78963    
    536000   296.72647      0.017021443    9.564618       736.18654     -20.822572      715.36397    
    537000   304.86207      0.017021443    6.719484       756.3712      -25.805502      730.5657     
    538000   302.76651      0.017021443    6.25737        751.17206     -26.408347      724.76371    
    539000   299.33122      0.017021443    13.490408      742.64901     -27.094595      715.55442    
    540000   302.33222      0.017021443    6.5747238      750.09458     -24.217515      725.87706    
    541000   304.47227      0.017021443   -0.47019273     755.40409     -29.156077      726.24801    
    542000   300.27627      0.017021443    16.191023      744.99371     -29.284149      715.70956    
    543000   284.42504      0.017021443    9.7222215      705.66637     -30.036383      675.62999    
    544000   304.952        0.017021443    7.0813641      756.59432     -24.249939      732.34438    
    545000   319.25296      0.017021443    9.1398244      792.07539     -26.094783      765.98061    
    546000   299.41697      0.017021443    11.754935      742.86177     -26.507774      716.35399    
    547000   287.0604       0.017021443    11.432414      712.20477     -25.721154      686.48361    
    548000   292.85733      0.017021443    7.5170816      726.5871      -20.783223      705.80387    
    549000   308.82581      0.017021443    10.980219      766.20535     -21.343399      744.86195    
    550000   304.22746      0.017021443    8.4911899      754.79672     -19.705237      735.09148    
    551000   300.33086      0.017021443    9.6184089      745.12915     -21.106859      724.02229    
    552000   311.9106       0.017021443    9.2804359      773.8588      -25.508518      748.35028    
    553000   297.36049      0.017021443    9.2386022      737.75958     -26.035111      711.72447    
    554000   282.94492      0.017021443    8.6143167      701.99415     -24.245166      677.74898    
    555000   299.55886      0.017021443    10.681949      743.2138      -26.078532      717.13527    
    556000   322.77056      0.017021443    9.5133472      800.80266     -29.739263      771.0634     
    557000   311.5418       0.017021443    9.1119987      772.9438      -28.793201      744.1506     
    558000   288.02794      0.017021443    9.969822       714.60525     -26.035671      688.56958    
    559000   290.47743      0.017021443    6.8816892      720.68251     -30.102274      690.58024    
    560000   310.14054      0.017021443    8.8680894      769.46724     -30.629343      738.8379     
    561000   300.26098      0.017021443    10.18239       744.95577     -28.900655      716.05512    
    562000   290.48629      0.017021443    8.9936146      720.7045      -27.641416      693.06309    
    563000   317.43216      0.017021443    10.818018      787.55794     -29.12649       758.43145    
    564000   301.68596      0.017021443    9.4030467      748.49118     -30.277156      718.21403    
    565000   287.97094      0.017021443    9.4471072      714.46385     -32.126106      682.33774    
    566000   304.50317      0.017021443    12.362909      755.48076     -32.369617      723.11114    
    567000   312.38395      0.017021443    7.5469046      775.03319     -33.12625       741.90694    
    568000   296.21633      0.017021443    7.9404207      734.92089     -30.93695       703.98394    
    569000   305.59478      0.017021443    12.932768      758.18908     -35.831866      722.35721    
    570000   296.3877       0.017021443    8.1495479      735.34605     -32.057517      703.28853    
    571000   286.95742      0.017021443    7.6830793      711.94927     -32.8201        679.12917    
    572000   296.48165      0.017021443    8.0911923      735.57914     -31.020341      704.5588     
    573000   304.47912      0.017021443    8.5929161      755.4211      -29.26859       726.15251    
    574000   298.69654      0.017021443    9.8322686      741.07434     -30.191951      710.88239    
    575000   297.34049      0.017021443    11.130984      737.70995     -31.188817      706.52113    
    576000   305.73222      0.017021443    9.8149149      758.53006     -30.308736      728.22132    
    577000   303.41578      0.017021443    7.6086061      752.78292     -30.864536      721.91838    
    578000   319.07308      0.017021443    8.3571373      791.62909     -31.700203      759.92889    
    579000   302.38058      0.017021443    13.320863      750.21456     -25.604853      724.60971    
    580000   297.65077      0.017021443    12.567106      738.47976     -29.277197      709.20256    
    581000   295.68336      0.017021443    10.421041      733.59857     -29.892259      703.70631    
    582000   296.7396       0.017021443    6.9467256      736.21912     -26.532629      709.68649    
    583000   290.30711      0.017021443   -1.1088         720.25994     -29.494406      690.76554    
    584000   304.45633      0.017021443    10.857265      755.36455     -32.99585       722.3687     
    585000   309.72045      0.017021443    11.677593      768.42498     -29.853546      738.57143    
    586000   293.85514      0.017021443    16.070503      729.06271     -31.240268      697.82244    
    587000   290.58135      0.017021443    18.13008       720.94034     -28.195501      692.74484    
    588000   304.30967      0.017021443    7.5282959      755.00069     -28.671106      726.32958    
    589000   311.48765      0.017021443   -1.1509891      772.80944     -27.959492      744.84994    
    590000   296.34397      0.017021443    11.399221      735.23755     -29.159305      706.07824    
    591000   286.39784      0.017021443    7.0599396      710.56093     -32.924994      677.63593    
    592000   296.52956      0.017021443    4.9010543      735.698       -28.719564      706.97844    
    593000   305.67105      0.017021443    6.3269547      758.37829     -35.137078      723.24121    
    594000   302.18554      0.017021443    4.6286018      749.73064     -30.574654      719.15599    
    595000   291.85642      0.017021443    13.014648      724.10381     -36.575717      687.5281     
    596000   286.92689      0.017021443    9.0237817      711.87352     -33.029913      678.8436     
    597000   299.76777      0.017021443    9.5597546      743.7321      -35.504022      708.22808    
    598000   298.01663      0.017021443    8.2834532      739.38748     -31.100248      708.28724    
    599000   299.56427      0.017021443    6.359706       743.22721     -31.420558      711.80666    
    600000   305.41838      0.017021443    12.36129       757.75142     -29.296301      728.45512    
    601000   296.41309      0.017021443    9.3092886      735.40904     -27.392281      708.01676    
    602000   303.17935      0.017021443    4.128351       752.19631     -28.227448      723.96887    
    603000   301.06237      0.017021443    9.8377413      746.94403     -28.260594      718.68343    
    604000   302.51645      0.017021443    10.208112      750.55164     -28.841478      721.71016    
    605000   291.06775      0.017021443    7.7326548      722.14712     -28.366865      693.78026    
    606000   311.31275      0.017021443    7.5535755      772.37552     -24.386699      747.98883    
    607000   302.40902      0.017021443    8.3378363      750.28511     -28.508368      721.77675    
    608000   307.6836       0.017021443    7.3336333      763.37148     -31.408342      731.96314    
    609000   288.58431      0.017021443    8.3459039      715.98564     -34.640059      681.34558    
    610000   310.69018      0.017021443    16.555737      770.8309      -36.587081      734.24381    
    611000   309.42592      0.017021443    8.4753255      767.69423     -31.375226      736.319      
    612000   292.44523      0.017021443    10.38811       725.56468     -28.216869      697.34782    
    613000   284.55884      0.017021443    17.38026       705.99831     -29.492734      676.50558    
    614000   307.12748      0.017021443    9.7469031      761.99174     -29.292095      732.69964    
    615000   315.03827      0.017021443    5.9569478      781.61863     -33.33934       748.27929    
    616000   290.64565      0.017021443    6.2904065      721.09986     -31.266577      689.83328    
    617000   289.61015      0.017021443    9.3929488      718.53077     -38.198621      680.33215    
    618000   305.83056      0.017021443    11.627536      758.77404     -33.198796      725.57525    
    619000   306.46157      0.017021443    10.985781      760.33959     -33.73753       726.60206    
    620000   298.60301      0.017021443    0.6543936      740.84229     -30.994773      709.84752    
    621000   290.78055      0.017021443    2.9894475      721.43456     -30.314806      691.11975    
    622000   303.1769       0.017021443    15.597249      752.19023     -27.266086      724.92415    
    623000   311.28082      0.017021443    3.0778171      772.29629     -28.314317      743.98197    
    624000   293.43893      0.017021443    5.1341842      728.03009     -25.917313      702.11277    
    625000   291.43609      0.017021443    8.6112053      723.06097     -26.634117      696.42686    
    626000   301.76176      0.017021443    9.4034811      748.67924     -25.530016      723.14922    
    627000   316.31654      0.017021443    12.090051      784.79005     -27.251965      757.53809    
    628000   300.00129      0.017021443    7.6929334      744.31146     -25.370324      718.94114    
    629000   295.34267      0.017021443    8.2757321      732.7533      -22.622176      710.13113    
    630000   305.03228      0.017021443    14.638112      756.7935      -24.902535      731.89097    
    631000   313.6214       0.017021443    3.7677117      778.10335     -24.054902      754.04844    
    632000   306.99203      0.017021443    3.4219059      761.65568     -26.541449      735.11424    
    633000   297.07996      0.017021443    9.6796255      737.06356     -21.408568      715.65499    
    634000   298.15095      0.017021443    14.58935       739.72072     -25.221738      714.49898    
    635000   315.59537      0.017021443    9.4844493      783.0008      -25.134806      757.866      
    636000   304.23509      0.017021443    7.1705093      754.81565     -27.424238      727.39141    
    637000   293.6211       0.017021443    8.0687275      728.48203     -25.29641       703.18562    
    638000   302.35717      0.017021443    9.1508946      750.15648     -32.732412      717.42407    
    639000   315.74752      0.017021443    10.105818      783.37831     -29.736914      753.64139    
    640000   293.75625      0.017021443    6.2369811      728.81736     -27.273418      701.54395    
    641000   290.74107      0.017021443    7.5850641      721.33662     -32.541685      688.79494    
    642000   305.69175      0.017021443    13.405485      758.42966     -27.262612      731.16704    
    643000   306.23076      0.017021443    6.4628248      759.76696     -23.939806      735.82715    
    644000   293.81859      0.017021443    7.8327097      728.97201     -28.879056      700.09296    
    645000   273.94176      0.017021443    10.422074      679.65706     -24.012259      655.6448     
    646000   308.84414      0.017021443    9.6064369      766.25083     -26.27678       739.97405    
    647000   312.43598      0.017021443    8.2000132      775.16227     -29.065902      746.09637    
    648000   289.58442      0.017021443    8.234225       718.46694     -30.760899      687.70604    
    649000   310.13445      0.017021443    14.870664      769.45211     -26.439641      743.01247    
    650000   309.86882      0.017021443    9.389357       768.79308     -29.888486      738.9046     
    651000   303.29267      0.017021443    9.64643        752.47749     -31.935423      720.54206    
    652000   298.47032      0.017021443    8.69256        740.5131      -28.32441       712.18869    
    653000   299.92215      0.017021443    9.2706301      744.11512     -30.981714      713.1334     
    654000   291.73559      0.017021443    4.5248217      723.80403     -31.039636      692.7644     
    655000   307.47033      0.017021443    10.276655      762.84236     -26.790099      736.05226    
    656000   291.6405       0.017021443    8.2067177      723.56812     -28.043801      695.52432    
    657000   296.3568       0.017021443    9.6302272      735.2694      -27.247094      708.0223     
    658000   298.15074      0.017021443    8.516621       739.72022     -30.908321      708.8119     
    659000   303.08288      0.017021443    9.193115       751.95697     -27.607257      724.34972    
    660000   301.84409      0.017021443    9.5377048      748.8835      -30.432083      718.45141    
    661000   308.9491       0.017021443    9.8618052      766.51123     -27.875577      738.63565    
    662000   296.15699      0.017021443    7.9434686      734.77366     -30.312537      704.46112    
    663000   293.12608      0.017021443    7.8653448      727.25389     -25.609561      701.64433    
    664000   299.74819      0.017021443    9.1997376      743.68352     -30.067902      713.61562    
    665000   291.24372      0.017021443    8.514344       722.58369     -28.621112      693.96258    
    666000   277.30938      0.017021443    14.948448      688.01223     -24.857668      663.15456    
    667000   305.3829       0.017021443    9.7815638      757.66339     -26.974819      730.68857    
    668000   308.72979      0.017021443    8.9306289      765.96712     -26.223693      739.74343    
    669000   294.44808      0.017021443    0.28805231     730.5338      -28.30369       702.23011    
    670000   294.70985      0.017021443    11.713519      731.18325     -30.235054      700.9482     
    671000   308.79397      0.017021443    11.774577      766.12634     -26.466075      739.66026    
    672000   308.0719       0.017021443    8.8671149      764.33488     -25.828153      738.50673    
    673000   290.08825      0.017021443    11.963432      719.71693     -23.114974      696.60196    
    674000   291.18329      0.017021443    20.390723      722.43376     -32.291755      690.14201    
    675000   308.22341      0.017021443    15.050447      764.71078     -36.763745      727.94703    
    676000   311.32145      0.017021443    7.3002163      772.39709     -31.521916      740.87518    
    677000   295.25201      0.017021443    7.0927336      732.52837     -33.801031      698.72734    
    678000   297.01381      0.017021443    9.6141261      736.89946     -31.922354      704.9771     
    679000   292.63084      0.017021443    8.6633431      726.02518     -28.150756      697.87443    
    680000   302.08968      0.017021443    10.0164        749.49282     -29.938744      719.55408    
    681000   295.35662      0.017021443    9.3794906      732.78792     -31.982         700.80592    
    682000   289.64823      0.017021443    8.9865428      718.62525     -32.388867      686.23639    
    683000   305.0367       0.017021443    9.7605671      756.80445     -28.604972      728.19948    
    684000   320.71418      0.017021443    10.54025       795.70072     -23.318515      772.38221    
    685000   289.76436      0.017021443    8.6347397      718.91336     -25.446791      693.46657    
    686000   300.58175      0.017021443    7.574236       745.75161     -25.621817      720.12979    
    687000   301.20949      0.017021443    11.520188      747.30905     -22.64115       724.6679     
    688000   312.80306      0.017021443    11.937393      776.07302     -27.094307      748.97871    
    689000   296.3952       0.017021443    8.5272183      735.36467     -25.318134      710.04653    
    690000   293.44324      0.017021443    6.9615836      728.04076     -36.869783      691.17098    
    691000   305.11052      0.017021443    8.8187826      756.9876      -37.834647      719.15296    
    692000   308.27917      0.017021443    9.0119326      764.84912     -32.316677      732.53245    
    693000   292.9827       0.017021443    10.567863      726.89815     -30.526875      696.37128    
    694000   303.05091      0.017021443    8.3965702      751.87766     -32.889925      718.98774    
    695000   303.04014      0.017021443    8.9741254      751.85095     -28.670626      723.18032    
    696000   288.19086      0.017021443    7.1228288      715.00947     -23.384183      691.62529    
    697000   309.64754      0.017021443    10.654055      768.24409     -22.084865      746.15923    
    698000   312.50559      0.017021443    8.6753642      775.33499     -24.101774      751.23321    
    699000   295.27984      0.017021443    10.961196      732.59743     -30.142334      702.45509    
    700000   304.28405      0.017021443    8.6071824      754.93712     -23.74396       731.19316    
    701000   301.88461      0.017021443    12.150941      748.98403     -25.39215       723.59188    
    702000   302.61448      0.017021443    8.738904       750.79487     -23.567459      727.22741    
    703000   293.33831      0.017021443    7.9605872      727.78043     -23.855711      703.92472    
    704000   299.83885      0.017021443    9.0933266      743.90844     -24.88371       719.02473    
    705000   295.4952       0.017021443    8.7373712      733.13174     -28.271454      704.86029    
    706000   301.25867      0.017021443    9.4463056      747.43107     -25.203748      722.22732    
    707000   305.13636      0.017021443    9.9390795      757.05172     -25.722448      731.32927    
    708000   298.66115      0.017021443    9.9999419      740.98654     -24.926915      716.05962    
    709000   305.27081      0.017021443    9.989629       757.3853      -23.762218      733.62308    
    710000   295.95808      0.017021443    8.8419966      734.28014     -25.18044       709.0997     
    711000   300.69597      0.017021443    4.50101        746.035       -23.111188      722.92381    
    712000   304.77495      0.017021443    10.0622        756.15506     -24.805592      731.34947    
    713000   295.86867      0.017021443    9.9464332      734.05832     -31.758591      702.29973    
    714000   273.34254      0.017021443    7.4786072      678.17039     -29.129219      649.04117    
    715000   307.47824      0.017021443    6.9953892      762.862       -32.253944      730.60805    
    716000   303.88971      0.017021443    10.589032      753.95875     -33.189151      720.7696     
    717000   301.0648       0.017021443    8.9010521      746.95006     -32.568326      714.38173    
    718000   302.27051      0.017021443    7.7007325      749.94147     -26.243146      723.69833    
    719000   306.4519       0.017021443    9.5221428      760.31562     -29.511218      730.8044     
    720000   300.35528      0.017021443    10.255193      745.18973     -32.126547      713.06318    
    721000   297.21146      0.017021443    8.621588       737.38982     -28.47355       708.91627    
    722000   319.98924      0.017021443    11.715415      793.90212     -26.845975      767.05614    
    723000   288.78023      0.017021443    9.0832239      716.47172     -31.176029      685.29569    
    724000   300.66687      0.017021443    6.5121705      745.96279     -32.428141      713.53465    
    725000   298.92444      0.017021443    10.824947      741.63978     -37.524199      704.11558    
    726000   294.40328      0.017021443    9.2252142      730.42265     -37.624133      692.79852    
    727000   308.92169      0.017021443    4.7611446      766.44323     -36.70059       729.74264    
    728000   301.80986      0.017021443    9.8898141      748.79859     -37.231135      711.56746    
    729000   290.44795      0.017021443    12.438601      720.60937     -34.068588      686.54078    
    730000   287.43683      0.017021443    8.6516251      713.13869     -29.928162      683.21053    
    731000   301.73308      0.017021443    1.2804711      748.6081      -31.069637      717.53846    
    732000   325.55714      0.017021443    7.7169344      807.71625     -33.752138      773.96411    
    733000   304.14123      0.017021443    10.901934      754.58278     -27.07049       727.51229    
    734000   299.14017      0.017021443    14.079885      742.17501     -29.196717      712.97829    
    735000   295.5881       0.017021443    10.128578      733.36222     -28.768121      704.5941     
    736000   300.41422      0.017021443    5.9962301      745.33596     -29.86569       715.47027    
    737000   300.00167      0.017021443    9.8203234      744.3124      -30.169473      714.14293    
    738000   286.77941      0.017021443    9.0669321      711.50762     -30.835711      680.67191    
    739000   299.56233      0.017021443    6.1808719      743.22239     -30.553296      712.6691     
    740000   306.54074      0.017021443    15.082018      760.53603     -29.953288      730.58275    
    741000   291.0835       0.017021443    7.0568258      722.18619     -33.262415      688.92378    
    742000   300.06496      0.017021443    6.1832051      744.46943     -32.806341      711.66309    
    743000   320.83335      0.017021443    8.6692884      795.99637     -31.602915      764.39346    
    744000   305.98146      0.017021443    9.2381681      759.14845     -33.64094       725.50751    
    745000   297.67104      0.017021443    10.281646      738.53007     -30.844109      707.68596    
    746000   295.53811      0.017021443    3.5897131      733.23819     -25.833375      707.40482    
    747000   300.53988      0.017021443    8.5308169      745.64773     -28.387454      717.26028    
    748000   316.97521      0.017021443    9.9323149      786.42425     -28.64624       757.77801    
    749000   299.80275      0.017021443    8.2528072      743.81888     -29.992915      713.82596    
    750000   298.54148      0.017021443    9.4914902      740.68965     -29.326814      711.36283    
    751000   292.38082      0.017021443    8.9974051      725.40488     -25.527222      699.87766    
    752000   305.90577      0.017021443    10.494738      758.96065     -27.78034       731.18031    
    753000   313.8492       0.017021443    9.1814106      778.66852     -31.733136      746.93539    
    754000   302.35119      0.017021443    3.2105147      750.14164     -36.144128      713.99752    
    755000   291.35672      0.017021443    10.243538      722.86404     -32.620605      690.24344    
    756000   312.37579      0.017021443    20.741281      775.01294     -35.155049      739.85789    
    757000   314.98972      0.017021443    11.870401      781.49818     -30.433028      751.06516    
    758000   307.74736      0.017021443    9.0670468      763.52969     -35.26942       728.26027    
    759000   283.64742      0.017021443    1.9824341      703.73707     -40.049035      663.68803    
    760000   288.13272      0.017021443    11.53242       714.86522     -38.691468      676.17376    
    761000   301.21894      0.017021443    13.021148      747.33248     -38.05895       709.27353    
    762000   305.62536      0.017021443    9.2755765      758.26493     -31.811369      726.45357    
    763000   295.55947      0.017021443    8.4116107      733.29119     -30.018165      703.27303    
    764000   293.84208      0.017021443    6.3214603      729.03029     -33.124935      695.90535    
    765000   307.09677      0.017021443    9.8374294      761.91556     -36.344542      725.57102    
    766000   302.40737      0.017021443    9.2625851      750.28102     -33.6408        716.64022    
    767000   297.45775      0.017021443    9.8611255      738.00089     -32.501253      705.49964    
    768000   289.02374      0.017021443    1.3232472      717.07586     -33.481976      683.59389    
    769000   312.20121      0.017021443    6.6456296      774.57981     -35.724871      738.85493    
    770000   309.64374      0.017021443    10.033855      768.23464     -31.909299      736.32535    
    771000   298.56832      0.017021443    8.1411211      740.75622     -33.175612      707.58061    
    772000   294.7779       0.017021443    8.7571628      731.3521      -33.588294      697.76381    
    773000   292.03217      0.017021443    9.3049447      724.53987     -32.899433      691.64044    
    774000   298.80188      0.017021443    8.4320069      741.33571     -38.437067      702.89865    
    775000   303.69578      0.017021443    8.5777001      753.47759     -36.30164       717.17595    
    776000   305.81436      0.017021443    7.1933785      758.73386     -39.168742      719.56511    
    777000   304.06755      0.017021443    9.3719035      754.39997     -42.914762      711.48521    
    778000   297.61453      0.017021443    8.3024833      738.38985     -37.752783      700.63706    
    779000   305.21066      0.017021443    9.0943971      757.23606     -33.269818      723.96625    
    780000   304.06248      0.017021443    9.7385289      754.38739     -29.582703      724.80469    
    781000   301.80304      0.017021443    7.7834673      748.78167     -29.417632      719.36404    
    782000   295.20142      0.017021443    7.5452863      732.40287     -27.943635      704.45924    
    783000   303.95703      0.017021443    10.422965      754.12576     -27.224145      726.90162    
    784000   298.44748      0.017021443    9.606885       740.45643     -29.309835      711.1466     
    785000   300.48335      0.017021443    9.0687137      745.50746     -33.395708      712.11175    
    786000   293.67365      0.017021443    8.1211104      728.61242     -27.560383      701.05203    
    787000   294.67593      0.017021443    3.7346757      731.09912     -28.532071      702.56705    
    788000   309.84029      0.017021443    10.509984      768.72229     -23.346877      745.37541    
    789000   293.93528      0.017021443    10.677927      729.26152     -28.533342      700.72818    
    790000   303.07832      0.017021443    7.4088344      751.94566     -28.67073       723.27493    
    791000   297.95977      0.017021443    9.5446025      739.24639     -28.578076      710.66832    
    792000   289.58097      0.017021443    9.9357061      718.45836     -32.005769      686.4526     
    793000   308.90939      0.017021443    8.489295       766.41271     -29.658101      736.75461    
    794000   304.80577      0.017021443    8.6894845      756.23153     -32.1914        724.04013    
    795000   296.98055      0.017021443    9.8213174      736.81693     -33.001328      703.81561    
    796000   305.77173      0.017021443    9.430964       758.6281      -32.867611      725.76049    
    797000   295.65085      0.017021443    8.9323767      733.51792     -33.430899      700.08702    
    798000   305.29489      0.017021443    9.4545669      757.44505     -33.547995      723.89705    
    799000   294.53664      0.017021443    9.9094837      730.75353     -32.378563      698.37497    
    800000   299.59344      0.017021443    8.6385076      743.29959     -34.721476      708.57812    
    801000   305.99556      0.017021443    11.067146      759.18341     -40.628815      718.5546     
    802000   299.01763      0.017021443    11.593801      741.87097     -37.485555      704.38542    
    803000   300.88133      0.017021443    7.4963837      746.49488     -35.95311       710.54177    
    804000   299.82295      0.017021443    7.4090877      743.86901     -31.466591      712.40242    
    805000   295.54028      0.017021443    12.732443      733.24358     -30.845776      702.3978     
    806000   305.76606      0.017021443    12.154736      758.61403     -25.598099      733.01593    
    807000   302.92967      0.017021443    9.0129413      751.57686     -31.546012      720.03085    
    808000   306.96875      0.017021443    8.8644807      761.59792     -30.660728      730.9372     
    809000   292.25901      0.017021443    9.4336021      725.10265     -29.993202      695.10945    
    810000   273.53822      0.017021443    8.9268645      678.65585     -28.823053      649.8328     
    811000   302.91793      0.017021443    9.6660288      751.54773     -32.555223      718.99251    
    812000   299.30281      0.017021443    8.2661003      742.57851     -35.170009      707.4085     
    813000   294.37559      0.017021443    8.9746331      730.35396     -37.929322      692.42464    
    814000   303.474        0.017021443    7.5355254      752.92737     -32.350884      720.57648    
    815000   303.72985      0.017021443    10.685781      753.56214     -37.56044       716.0017     
    816000   286.98791      0.017021443    9.7780369      712.02493     -33.469272      678.55565    
    817000   299.26721      0.017021443    6.674786       742.49019     -30.876021      711.61417    
    818000   308.96727      0.017021443    7.7050817      766.55632     -28.377939      738.17838    
    819000   295.33395      0.017021443    12.123429      732.73167     -29.234015      703.49766    
    820000   282.79639      0.017021443    6.7008932      701.62563     -29.591385      672.03425    
    821000   301.41498      0.017021443    8.4998077      747.81887     -32.318782      715.50009    
    822000   309.62634      0.017021443    8.1091275      768.1915      -28.001304      740.19019    
    823000   302.08734      0.017021443    14.119414      749.48703     -29.784861      719.70216    
    824000   293.59117      0.017021443    8.8412688      728.40778     -33.092244      695.31554    
    825000   304.91943      0.017021443    9.6269871      756.51351     -33.036771      723.47674    
    826000   298.64533      0.017021443    8.6088744      740.94729     -32.097019      708.85027    
    827000   296.44901      0.017021443    9.6842506      735.49817     -36.74928       698.74889    
    828000   321.07958      0.017021443    9.5061933      796.60728     -33.773088      762.83419    
    829000   300.94666      0.017021443    10.161306      746.65696     -27.864603      718.79235    
    830000   290.13143      0.017021443    9.9082689      719.82406     -33.542942      686.28112    
    831000   297.50352      0.017021443    8.8567067      738.11443     -32.391489      705.72294    
    832000   312.04302      0.017021443    4.5664785      774.18734     -25.627525      748.55981    
    833000   314.4696       0.017021443    10.084099      780.20776     -29.680062      750.52769    
    834000   292.18203      0.017021443    9.3727715      724.91168     -27.892111      697.01957    
    835000   291.08349      0.017021443   -1.082448       722.18615     -26.936712      695.24944    
    836000   303.54413      0.017021443    10.522084      753.10136     -26.115634      726.98573    
    837000   295.16852      0.017021443    10.385438      732.32123     -25.053769      707.26747    
    838000   297.07337      0.017021443    8.2531329      737.04722     -18.666741      718.38048    
    839000   305.91266      0.017021443    8.651137       758.97774     -23.791059      735.18668    
    840000   309.08581      0.017021443    9.5748205      766.85042     -26.446128      740.4043     
    841000   293.20583      0.017021443    11.181138      727.45175     -24.749684      702.70207    
    842000   293.37021      0.017021443    8.2048112      727.85959     -22.535931      705.32366    
    843000   297.18763      0.017021443    9.4229886      737.3307      -22.858513      714.47219    
    844000   305.05959      0.017021443    9.6549257      756.86124     -26.154968      730.70628    
    845000   315.10533      0.017021443    5.9074959      781.785       -26.918626      754.86637    
    846000   283.22248      0.017021443    8.60862        702.68277     -29.176341      673.50643    
    847000   298.86621      0.017021443    9.0557246      741.49531     -29.922694      711.57261    
    848000   317.98411      0.017021443    9.5107681      788.92735     -28.821801      760.10555    
    849000   304.21237      0.017021443    8.3183914      754.75929     -34.234968      720.52432    
    850000   294.73315      0.017021443    7.8864275      731.24107     -34.236825      697.00425    
    851000   293.47514      0.017021443    6.1000656      728.11991     -28.67356       699.44635    
    852000   309.26996      0.017021443    10.013675      767.3073      -34.728184      732.57912    
    853000   317.47596      0.017021443    9.7312082      787.6666      -29.36568       758.30092    
    854000   305.60836      0.017021443    13.702844      758.22276     -30.292255      727.93051    
    855000   288.75324      0.017021443    9.5004238      716.40474     -26.611109      689.79363    
    856000   288.78863      0.017021443    8.7008946      716.49255     -31.039336      685.45321    
    857000   306.1338       0.017021443    9.5271081      759.52639     -31.904021      727.62237    
    858000   316.58677      0.017021443    19.854377      785.46051     -32.982391      752.47812    
    859000   283.5464       0.017021443    9.4416777      703.48645     -29.337557      674.14889    
    860000   297.83604      0.017021443    6.4879306      738.93943     -29.225186      709.71424    
    861000   304.94258      0.017021443    9.1104485      756.57096     -29.676515      726.89444    
    862000   302.85276      0.017021443    9.302          751.38605     -29.810241      721.57581    
    863000   305.5024       0.017021443    10.07713       757.95987     -32.60502       725.35485    
    864000   294.75007      0.017021443    10.457754      731.28304     -33.980228      697.30281    
    865000   300.43416      0.017021443    8.9114154      745.38542     -36.882463      708.50296    
    866000   314.65727      0.017021443    10.965232      780.67336     -40.056351      740.61701    
    867000   300.26126      0.017021443    8.514697       744.95646     -38.983415      705.97304    
    868000   294.03455      0.017021443    7.9428638      729.50782     -34.251157      695.25666    
    869000   301.40488      0.017021443    9.5951487      747.79382     -43.494128      704.29969    
    870000   299.60398      0.017021443    10.7066        743.32574     -39.576385      703.74936    
    871000   305.15523      0.017021443    6.7950364      757.09853     -35.246427      721.8521     
    872000   307.52501      0.017021443    7.9095244      762.97802     -32.560653      730.41736    
    873000   299.1575       0.017021443    7.7561467      742.218       -36.085932      706.13207    
    874000   287.39811      0.017021443    8.4140559      713.04264     -40.472325      672.57031    
    875000   278.95978      0.017021443    7.6865513      692.10689     -35.59062       656.51627    
    876000   301.53587      0.017021443    9.7304764      748.11881     -32.284553      715.83425    
    877000   307.68054      0.017021443    9.9120323      763.3639      -35.912763      727.45113    
    878000   293.74083      0.017021443    8.577602       728.7791      -33.67334       695.10576    
    879000   300.62813      0.017021443    10.102185      745.86667     -29.652379      716.21429    
    880000   310.64941      0.017021443    7.9052185      770.72974     -32.290392      738.43935    
    881000   306.75259      0.017021443    7.1451802      761.06162     -31.85819       729.20343    
    882000   298.18661      0.017021443    8.6687682      739.80921     -35.708444      704.10076    
    883000   299.93098      0.017021443    6.1471396      744.13702     -32.102721      712.0343     
    884000   291.95624      0.017021443    8.3414241      724.35148     -31.673407      692.67807    
    885000   294.14702      0.017021443    13.77396       729.78686     -31.720921      698.06594    
    886000   300.98482      0.017021443    8.3430835      746.75165     -31.186689      715.56496    
    887000   298.84043      0.017021443    7.2103316      741.43136     -32.350255      709.0811     
    888000   311.73179      0.017021443    18.904341      773.41516     -30.272708      743.14245    
    889000   311.76578      0.017021443    6.7241954      773.4995      -25.051145      748.44835    
    890000   291.66122      0.017021443    4.9345763      723.61952     -26.773588      696.84593    
    891000   292.56314      0.017021443    12.863819      725.85722     -31.472024      694.38519    
    892000   306.87488      0.017021443    13.168487      761.36503     -31.336849      730.02818    
    893000   308.2593       0.017021443    11.300002      764.79983     -33.700306      731.09953    
    894000   302.4978       0.017021443   -3.6761177      750.50537     -27.646844      722.85853    
    895000   288.63792      0.017021443    2.0401534      716.11865     -29.310795      686.80785    
    896000   305.87409      0.017021443    15.182624      758.88205     -31.143402      727.73865    
    897000   302.687        0.017021443    13.469676      750.97478     -29.802796      721.17199    
    898000   304.41523      0.017021443    7.7319198      755.26257     -28.459739      726.80283    
    899000   309.77374      0.017021443    0.34603406     768.55718     -28.264424      740.29276    
    900000   301.10461      0.017021443    9.2766111      747.04884     -27.080968      719.96787    
    901000   296.41279      0.017021443    11.243148      735.4083      -32.881711      702.52658    
    902000   304.14535      0.017021443    9.1857271      754.593       -32.214886      722.37812    
    903000   300.65546      0.017021443    7.9745039      745.93448     -30.738781      715.1957     
    904000   297.47326      0.017021443    10.300932      738.03935     -33.290098      704.74926    
    905000   296.27313      0.017021443    11.494739      735.06181     -35.291935      699.76988    
    906000   302.14022      0.017021443    9.6686312      749.6182      -31.814577      717.80363    
    907000   293.93623      0.017021443    9.2814511      729.26388     -31.196269      698.06762    
    908000   296.15211      0.017021443    10.31853       734.76154     -28.706152      706.05539    
    909000   307.5534       0.017021443    8.5745609      763.04845     -28.337315      734.71114    
    910000   304.09113      0.017021443    5.6725265      754.45848     -29.307         725.15148    
    911000   293.42261      0.017021443    7.5601972      727.98958     -28.174024      699.81556    
    912000   304.29741      0.017021443    11.068122      754.97027     -31.247184      723.72309    
    913000   311.92711      0.017021443    8.8206495      773.89976     -36.850458      737.0493     
    914000   290.7742       0.017021443    9.0459812      721.41881     -35.727513      685.6913     
    915000   308.35423      0.017021443    11.498348      765.03536     -37.429887      727.60547    
    916000   314.29636      0.017021443    8.2687179      779.77793     -40.411312      739.36662    
    917000   313.32091      0.017021443    7.879561       777.35782     -36.217477      741.14034    
    918000   284.99732      0.017021443    5.7227748      707.0862      -32.077142      675.00905    
    919000   302.73514      0.017021443    8.8164322      751.09423     -31.082951      720.01128    
    920000   302.98699      0.017021443    11.385145      751.71907     -32.009107      719.70996    
    921000   301.48085      0.017021443    10.448198      747.98229     -29.155224      718.82707    
    922000   292.53745      0.017021443    8.9247739      725.79347     -27.090372      698.7031     
    923000   295.77272      0.017021443    8.3982072      733.82026     -23.930753      709.88951    
    924000   289.15988      0.017021443    9.0587852      717.41363     -31.733473      685.68016    
    925000   297.54904      0.017021443    8.8431595      738.22736     -36.777984      701.44937    
    926000   319.81877      0.017021443    9.0251628      793.47919     -27.637606      765.84158    
    927000   305.64209      0.017021443    9.0349734      758.30645     -25.745345      732.56111    
    928000   282.74381      0.017021443    4.7906099      701.4952      -31.038977      670.45622    
    929000   301.24323      0.017021443    7.0200801      747.39276     -32.179222      715.21354    
    930000   299.70135      0.017021443    14.514714      743.56731     -24.488853      719.07845    
    931000   303.73553      0.017021443    8.2048521      753.57623     -28.907819      724.66841    
    932000   300.97638      0.017021443    8.7227997      746.73071     -25.997183      720.73352    
    933000   293.59347      0.017021443    7.6517212      728.41348     -25.998291      702.41519    
    934000   302.19214      0.017021443    11.318895      749.74702     -29.115802      720.63122    
    935000   292.98421      0.017021443    9.1777004      726.9019      -34.251756      692.65014    
    936000   296.29005      0.017021443    8.0382488      735.10379     -33.733166      701.37063    
    937000   301.68103      0.017021443    8.8229577      748.47896     -35.956925      712.52204    
    938000   299.69617      0.017021443    9.5030714      743.55446     -34.617612      708.93684    
    939000   303.8761       0.017021443    11.338872      753.92498     -35.96897       717.95601    
    940000   304.00458      0.017021443    9.3917878      754.24375     -30.483725      723.76002    
    941000   296.91142      0.017021443    5.8354616      736.64541     -30.459894      706.18552    
    942000   304.70126      0.017021443    8.5769499      755.97223     -28.611813      727.36042    
    943000   301.21989      0.017021443    9.0339598      747.33486     -29.191093      718.14376    
    944000   304.81896      0.017021443    10.787543      756.26425     -31.067834      725.19642    
    945000   286.90632      0.017021443    13.533084      711.8225      -33.762827      678.05967    
    946000   302.04254      0.017021443    7.0899307      749.37587     -28.70855       720.66732    
    947000   312.04483      0.017021443    11.088813      774.19183     -28.969848      745.22198    
    948000   290.15365      0.017021443    10.450173      719.87919     -28.570117      691.30908    
    949000   293.35813      0.017021443    9.9800477      727.82961     -23.505436      704.32417    
    950000   306.89849      0.017021443    6.1654771      761.42362     -29.606034      731.81759    
    951000   308.37953      0.017021443    11.00787       765.09812     -27.286884      737.81124    
    952000   296.07639      0.017021443    17.865373      734.57369     -26.380389      708.19331    
    953000   292.13062      0.017021443    8.5746303      724.78412     -27.558724      697.2254     
    954000   310.28518      0.017021443    8.2974082      769.82607     -27.835881      741.99019    
    955000   313.8255       0.017021443    9.5902926      778.60973     -23.417479      755.19225    
    956000   298.93576      0.017021443    12.045318      741.66786     -24.991312      716.67655    
    957000   289.71543      0.017021443    8.3290717      718.79198     -25.996052      692.79593    
    958000   296.68898      0.017021443    8.5801607      736.09354     -28.624778      707.46876    
    959000   302.88422      0.017021443    7.2145932      751.46411     -32.833162      718.63095    
    960000   297.72306      0.017021443    8.7027173      738.65911     -29.591707      709.0674     
    961000   305.62447      0.017021443    9.2839707      758.26275     -26.455809      731.80694    
    962000   302.5714       0.017021443    10.138083      750.68798     -30.269946      720.41804    
    963000   288.33722      0.017021443    7.8835974      715.3726      -28.101337      687.27126    
    964000   299.52383      0.017021443    8.6357909      743.12688     -25.668235      717.45864    
    965000   299.19961      0.017021443    11.840528      742.32249     -26.734396      715.5881     
    966000   311.89948      0.017021443    8.9666305      773.83121     -31.584097      742.24712    
    967000   291.10959      0.017021443    11.190131      722.25091     -30.252005      691.99891    
    968000   289.69328      0.017021443    8.6500672      718.73702     -31.842132      686.89489    
    969000   298.98566      0.017021443    0.021260509    741.79166     -35.089726      706.70193    
    970000   304.51353      0.017021443    9.3323919      755.50646     -29.490294      726.01617    
    971000   308.59944      0.017021443    10.931545      765.64371     -30.522898      735.12082    
    972000   282.36069      0.017021443    6.2764241      700.54465     -28.733137      671.81152    
    973000   311.49191      0.017021443    8.6936502      772.82003     -34.269893      738.55013    
    974000   312.72612      0.017021443    12.636274      775.88212     -32.823577      743.05854    
    975000   299.07565      0.017021443    10.177711      742.01494     -34.094084      707.92086    
    976000   283.44248      0.017021443    9.9076994      703.22862     -31.482563      671.74605    
    977000   305.38324      0.017021443    5.1093327      757.66425     -31.164744      726.4995     
    978000   306.09924      0.017021443    15.008535      759.44065     -34.104667      725.33598    
    979000   294.12005      0.017021443    16.841806      729.71995     -27.646048      702.0739     
    980000   287.33648      0.017021443    8.2172129      712.88973     -34.196251      678.69348    
    981000   297.31798      0.017021443    8.1621233      737.6541      -31.01585       706.63825    
    982000   305.58014      0.017021443    19.080653      758.15274     -30.480811      727.67193    
    983000   297.82664      0.017021443    9.8346239      738.91611     -31.675592      707.24051    
    984000   305.42015      0.017021443    9.1715063      757.7558      -29.504192      728.25161    
    985000   299.87861      0.017021443    10.828691      744.0071      -22.952683      721.05442    
    986000   290.44622      0.017021443    7.059859       720.60508     -25.9641        694.64098    
    987000   313.02772      0.017021443    7.5450907      776.63039     -28.321087      748.30931    
    988000   305.91416      0.017021443    10.24137       758.98146     -29.302285      729.67917    
    989000   297.17211      0.017021443    10.520098      737.2922      -32.776267      704.51593    
    990000   302.40514      0.017021443    9.4295485      750.27549     -30.626005      719.64949    
    991000   302.1229       0.017021443    8.8670621      749.57524     -31.411521      718.16372    
    992000   288.73926      0.017021443    6.049423       716.37006     -30.093692      686.27637    
    993000   299.55273      0.017021443    9.6027472      743.19859     -32.76941       710.42918    
    994000   302.89692      0.017021443    11.604845      751.49562     -29.94391       721.55171    
    995000   291.4484       0.017021443    5.1308951      723.0915      -31.817631      691.27387    
    996000   298.16276      0.017021443    18.974327      739.75003     -27.971146      711.77888    
    997000   310.0782       0.017021443    16.190426      769.31256     -23.006627      746.30593    
    998000   307.31735      0.017021443    1.1976937      762.46282     -27.708195      734.75462    
    999000   281.27412      0.017021443   -2.9757066      697.84885     -25.822468      672.02638    
   1000000   298.97229      0.017021443    9.855107       741.75849     -27.965074      713.79341    
   1001000   312.07487      0.017021443    10.986708      774.26636     -29.976195      744.29016    
   1002000   300.15509      0.017021443    4.3914438      744.69306     -26.736903      717.95616    
   1003000   291.52862      0.017021443    11.294206      723.29055     -27.776451      695.5141     
   1004000   293.83722      0.017021443    12.022904      729.01823     -27.533232      701.485      
   1005000   317.42089      0.017021443    11.632097      787.52998     -27.663073      759.86691    
   1006000   302.58528      0.017021443   -1.2311885      750.72241     -25.274505      725.44791    
   1007000   293.4879       0.017021443    7.6242337      728.15157     -24.928834      703.22274    
   1008000   289.72114      0.017021443    9.2689147      718.80613     -27.433798      691.37233    
   1009000   301.42575      0.017021443    13.700931      747.8456      -30.798951      717.04665    
   1010000   311.26762      0.017021443    7.5599245      772.26355     -27.013676      745.24987    
   1011000   283.97077      0.017021443    6.8841762      704.5393      -31.348976      673.19033    
   1012000   287.79479      0.017021443    13.385623      714.0268      -31.431438      682.59537    
   1013000   307.96773      0.017021443    10.478437      764.07643     -28.416658      735.65977    
   1014000   305.44401      0.017021443    7.0053117      757.815       -25.637148      732.17785    
   1015000   298.83592      0.017021443    8.3923551      741.42015     -28.073752      713.3464     
   1016000   305.51972      0.017021443    19.857443      758.00284     -29.350217      728.65262    
   1017000   299.5311       0.017021443    4.2468252      743.14492     -28.796255      714.34867    
   1018000   298.00629      0.017021443    11.423407      739.36181     -27.513124      711.84869    
   1019000   306.76162      0.017021443    13.59564       761.08404     -24.597445      736.48659    
   1020000   295.94862      0.017021443    9.0278953      734.25668     -29.712167      704.54451    
   1021000   299.25852      0.017021443    4.9110582      742.46864     -31.278808      711.18984    
   1022000   295.61802      0.017021443    7.004574       733.43644     -25.143458      708.29299    
   1023000   293.53319      0.017021443    9.5715629      728.26393     -29.652614      698.61131    
   1024000   317.01912      0.017021443    12.119401      786.53318     -27.89218       758.641      
   1025000   296.5558       0.017021443    5.0910016      735.76311     -26.305569      709.45754    
   1026000   298.88098      0.017021443    9.7631515      741.53196     -24.389187      717.14277    
   1027000   291.41084      0.017021443    10.46581       722.99832     -24.160923      698.83739    
   1028000   294.38636      0.017021443    0.27559969     730.38068     -23.11135       707.26933    
   1029000   297.22475      0.017021443    9.8977138      737.42281     -23.11877       714.30404    
   1030000   303.59071      0.017021443    21.514315      753.21692     -22.529782      730.68714    
   1031000   304.30114      0.017021443    8.4954733      754.97951     -21.432658      733.54686    
   1032000   295.00843      0.017021443    8.3864677      731.92405     -24.609729      707.31432    
   1033000   290.86059      0.017021443    10.100211      721.63315     -23.679161      697.95399    
   1034000   313.22447      0.017021443    14.396818      777.11853     -24.584657      752.53388    
   1035000   297.82086      0.017021443    7.6434055      738.90175     -25.131373      713.77038    
   1036000   289.22093      0.017021443    9.4490024      717.56509     -21.890497      695.67459    
   1037000   290.80128      0.017021443    8.5721109      721.486       -18.556945      702.92905    
   1038000   303.24574      0.017021443    9.4163361      752.36104     -22.485727      729.87531    
   1039000   297.13982      0.017021443    8.7130352      737.21208     -25.092838      712.11924    
   1040000   300.02732      0.017021443    8.833579       744.37605     -26.598662      717.77739    
   1041000   303.13817      0.017021443    10.972273      752.09416     -24.879948      727.21421    
   1042000   309.65837      0.017021443    11.02886       768.27096     -20.719778      747.55118    
   1043000   300.73727      0.017021443    7.2410457      746.13746     -22.986745      723.15071    
   1044000   296.71648      0.017021443    8.6791943      736.16176     -24.156749      712.00501    
   1045000   297.42597      0.017021443    10.466357      737.92202     -23.146727      714.77529    
   1046000   314.86073      0.017021443    8.2025891      781.17815     -25.010559      756.16759    
   1047000   300.49111      0.017021443    8.3321498      745.52673     -27.190276      718.33645    
   1048000   298.87752      0.017021443    9.2302632      741.52337     -24.861665      716.6617     
   1049000   303.07961      0.017021443    9.5804055      751.94886     -23.074874      728.87398    
   1050000   291.4502       0.017021443    7.9857107      723.09598     -21.659299      701.43669    
   1051000   300.1051       0.017021443    9.2570282      744.56902     -26.672569      717.89645    
   1052000   312.75699      0.017021443    8.8200471      775.95871     -23.26282       752.69589    
   1053000   315.02517      0.017021443    11.097639      781.58614     -21.267184      760.31895    
   1054000   282.15699      0.017021443    9.5864895      700.03928     -21.744309      678.29497    
   1055000   299.31263      0.017021443    8.818057       742.60288     -22.64424       719.95865    
   1056000   316.19141      0.017021443    10.816193      784.47961     -19.568726      764.91088    
   1057000   308.0692       0.017021443    10.182257      764.32817     -21.731811      742.59636    
   1058000   289.03789      0.017021443    9.1343959      717.11098     -21.829237      695.28174    
   1059000   305.72434      0.017021443    7.7120005      758.51052     -21.671523      736.83899    
   1060000   305.87178      0.017021443    9.9941413      758.87631     -20.106767      738.76954    
   1061000   300.60917      0.017021443    11.63213       745.81963     -17.93603       727.8836     
   1062000   290.71752      0.017021443    10.954331      721.27818     -19.612704      701.66548    
   1063000   308.11447      0.017021443    9.3216154      764.44048     -23.081933      741.35855    
   1064000   301.54962      0.017021443    11.878091      748.15291     -20.274172      727.87874    
   1065000   293.45086      0.017021443    9.0616634      728.05968     -20.9959        707.06378    
   1066000   309.50271      0.017021443    9.692295       767.88475     -23.350501      744.53424    
   1067000   297.7096       0.017021443    8.5274969      738.62574     -23.848869      714.77687    
   1068000   288.94521      0.017021443    10.904098      716.88103     -25.808358      691.07267    
   1069000   298.06551      0.017021443    9.0684823      739.50875     -27.190454      712.3183     
   1070000   307.95195      0.017021443    10.164492      764.03727     -28.49576       735.54151    
   1071000   300.66168      0.017021443    8.5795057      745.94992     -28.689446      717.26047    
   1072000   306.53709      0.017021443    10.446349      760.52698     -27.469888      733.05709    
   1073000   294.30602      0.017021443    12.835119      730.18135     -24.165825      706.01553    
   1074000   300.20328      0.017021443    11.11643       744.81262     -25.415895      719.39673    
   1075000   303.0052       0.017021443    8.3602619      751.76425     -24.90593       726.85832    
   1076000   304.0054       0.017021443    7.8054958      754.24578     -22.023001      732.22277    
   1077000   305.73865      0.017021443    15.390604      758.54603     -26.774692      731.77133    
   1078000   293.93701      0.017021443    7.783256       729.26582     -25.883479      703.38234    
   1079000   310.10904      0.017021443    8.9361289      769.38907     -22.526872      746.8622     
   1080000   303.84272      0.017021443    10.533705      753.84216     -23.700197      730.14196    
   1081000   305.3118       0.017021443    12.344171      757.48698     -21.860328      735.62665    
   1082000   299.772        0.017021443    9.2198972      743.74261     -23.29833       720.44428    
   1083000   295.10125      0.017021443    7.5744128      732.15434     -25.937475      706.21687    
   1084000   310.14136      0.017021443    12.721565      769.46927     -23.539889      745.92939    
   1085000   306.77169      0.017021443    9.8007149      761.10903     -23.254222      737.85481    
   1086000   290.90809      0.017021443    9.5661445      721.751       -27.84572       693.90528    
   1087000   283.1613       0.017021443    8.5333666      702.531       -22.426934      680.10406    
   1088000   313.97676      0.017021443    8.9595692      778.98501     -25.789777      753.19523    
   1089000   302.67635      0.017021443    15.04909       750.94836     -28.060261      722.8881     
   1090000   291.10298      0.017021443    4.130237       722.23451     -24.843202      697.39131    
   1091000   310.73419      0.017021443    6.604034       770.94008     -29.132337      741.80774    
   1092000   298.82228      0.017021443    17.182689      741.38631     -28.197193      713.18911    
   1093000   292.17764      0.017021443    13.615098      724.90077     -26.212767      698.68801    
   1094000   300.55721      0.017021443    10.034514      745.69073     -24.694642      720.99609    
   1095000   298.79007      0.017021443    8.8695506      741.30639     -24.677163      716.62922    
   1096000   293.35775      0.017021443    4.4815842      727.82866     -27.907798      699.92086    
   1097000   319.39207      0.017021443    11.313665      792.42053     -28.530513      763.89002    
   1098000   289.5921       0.017021443    9.4042972      718.48599     -29.024732      689.46126    
   1099000   292.12806      0.017021443    6.6208215      724.77777     -28.225046      696.55272    
   1100000   310.9057       0.017021443    9.2146811      771.36561     -26.581395      744.78422    
   1101000   301.32801      0.017021443    11.113346      747.60309     -28.652682      718.95041    
   1102000   291.44347      0.017021443    9.5084719      723.07928     -26.754197      696.32508    
   1103000   289.6218       0.017021443    8.8865169      718.55967     -24.873356      693.68631    
   1104000   291.2536       0.017021443    9.1730361      722.60821     -25.318085      697.29013    
   1105000   307.79592      0.017021443    9.9142088      763.65015     -29.642938      734.00721    
   1106000   307.85129      0.017021443    9.1682124      763.78754     -28.5187        735.26884    
   1107000   302.79144      0.017021443    7.1526779      751.23391     -24.280028      726.95388    
   1108000   297.1726       0.017021443    9.496965       737.29342     -28.76491       708.52851    
   1109000   305.96706      0.017021443    10.900464      759.11271     -25.706145      733.40656    
   1110000   317.6843       0.017021443    5.8145582      788.18351     -26.340369      761.84314    
   1111000   305.81594      0.017021443   -1.3234524      758.73778     -24.496584      734.24119    
   1112000   293.50542      0.017021443    14.405411      728.19503     -26.314424      701.88061    
   1113000   301.3581       0.017021443    10.092878      747.67775     -23.585934      724.09181    
   1114000   314.35839      0.017021443    6.179995       779.93182     -18.85624       761.07558    
   1115000   299.9003       0.017021443    8.5605667      744.06092     -20.427837      723.63308    
   1116000   289.33794      0.017021443    9.2531657      717.8554      -19.864432      697.99097    
   1117000   304.85719      0.017021443    12.027103      756.35909     -23.098254      733.26083    
   1118000   304.95743      0.017021443   -8.239204       756.60779     -22.116838      734.49095    
   1119000   299.61499      0.017021443    11.549093      743.35304     -24.575909      718.77713    
   1120000   305.922        0.017021443    7.9208301      759.00091     -23.004055      735.99686    
   1121000   299.61339      0.017021443    6.5380808      743.34909     -24.63347       718.71562    
   1122000   308.28725      0.017021443    10.255299      764.86917     -23.43769       741.43148    
   1123000   311.05053      0.017021443    9.1315117      771.72493     -26.614146      745.11078    
   1124000   288.74496      0.017021443    8.0884157      716.38421     -24.127815      692.2564     
   1125000   299.58929      0.017021443    8.0827202      743.28928     -24.406817      718.88247    
   1126000   315.23615      0.017021443    8.6704669      782.10957     -22.4457        759.66387    
   1127000   296.73913      0.017021443    9.2608661      736.21795     -21.957408      714.26055    
   1128000   299.1131       0.017021443    9.5103298      742.10784     -22.741776      719.36607    
   1129000   297.22015      0.017021443    9.8692472      737.41139     -29.276132      708.13525    
   1130000   304.26854      0.017021443    7.7787899      754.89862     -31.443628      723.455      
   1131000   299.27084      0.017021443    8.992592       742.49921     -28.931755      713.56745    
   1132000   304.2557       0.017021443    11.565262      754.86678     -33.015197      721.85158    
   1133000   293.58149      0.017021443    9.5447106      728.38376     -28.314455      700.06931    
   1134000   305.00946      0.017021443    9.2808455      756.73688     -31.362367      725.37451    
   1135000   280.92565      0.017021443    9.0495596      696.98428     -30.36811       666.61617    
   1136000   294.0414       0.017021443    8.9258816      729.52483     -27.513512      702.01132    
   1137000   305.73274      0.017021443    11.644212      758.53136     -27.239305      731.29206    
   1138000   310.06691      0.017021443    8.7520382      769.28456     -29.364078      739.92048    
   1139000   291.43446      0.017021443    8.8519452      723.05694     -34.188557      688.86838    
   1140000   300.29928      0.017021443    6.1970947      745.05079     -34.081689      710.9691     
   1141000   301.27657      0.017021443    8.7339334      747.47547     -28.811488      718.66398    
   1142000   296.08583      0.017021443    8.4983154      734.59711     -27.792437      706.80467    
   1143000   304.6481       0.017021443    12.36669       755.84034     -29.72483       726.11551    
   1144000   302.50453      0.017021443    7.9346418      750.52209     -29.442719      721.07937    
   1145000   297.14525      0.017021443    8.5606488      737.22555     -29.926839      707.29871    
   1146000   299.96768      0.017021443    8.9244934      744.22808     -28.860775      715.3673     
   1147000   303.80701      0.017021443    10.913896      753.75356     -31.193048      722.56052    
   1148000   297.79645      0.017021443    4.0315081      738.84121     -31.001273      707.83994    
   1149000   290.43121      0.017021443    13.500641      720.56784     -32.819397      687.74844    
   1150000   307.30149      0.017021443    12.125689      762.42347     -31.757832      730.66564    
   1151000   314.91992      0.017021443    10.813271      781.32499     -26.119389      755.2056     
   1152000   296.02954      0.017021443    9.6749215      734.45745     -30.200114      704.25734    
   1153000   292.76325      0.017021443    9.4087204      726.35369     -30.425187      695.9285     
   1154000   310.09158      0.017021443    9.9059914      769.34575     -27.646739      741.69901    
   1155000   303.63269      0.017021443    9.6057084      753.32107     -26.748213      726.57286    
   1156000   295.00353      0.017021443    9.8860234      731.91189     -28.648881      703.26301    
   1157000   296.45351      0.017021443    13.277502      735.50932     -27.815704      707.69362    
   1158000   304.0832       0.017021443    9.4519315      754.4388      -22.555022      731.88378    
   1159000   315.09591      0.017021443    9.5327058      781.76163     -29.413788      752.34785    
   1160000   287.46942      0.017021443    10.092424      713.21956     -33.181412      680.03815    
   1161000   286.88369      0.017021443    7.4457063      711.76635     -31.529502      680.23685    
   1162000   306.34673      0.017021443    9.1684777      760.05468     -25.541954      734.51272    
   1163000   297.99241      0.017021443    9.9672936      739.32738     -25.802221      713.52516    
   1164000   291.21053      0.017021443    8.6929826      722.50136     -25.648331      696.85303    
   1165000   304.92841      0.017021443    9.2075897      756.53578     -23.931266      732.60451    
   1166000   298.58848      0.017021443    9.8864339      740.80624     -30.510455      710.29578    
   1167000   303.22071      0.017021443    7.7018731      752.29894     -29.922686      722.37625    
   1168000   306.24397      0.017021443    9.6874147      759.79974     -27.344089      732.45565    
   1169000   292.69679      0.017021443    5.2315538      726.18881     -28.764969      697.42384    
   1170000   291.87671      0.017021443    12.913603      724.15416     -28.791531      695.36263    
   1171000   308.47912      0.017021443    19.970282      765.3452      -28.575324      736.76988    
   1172000   299.74565      0.017021443    10.976732      743.67722     -27.714805      715.96241    
   1173000   309.54004      0.017021443    5.8862602      767.97738     -28.946726      739.03065    
   1174000   301.53484      0.017021443    2.5980578      748.11625     -27.713456      720.40279    
   1175000   294.33         0.017021443    13.644488      730.24086     -35.9753        694.26555    
   1176000   306.38597      0.017021443    14.221712      760.15203     -29.507709      730.64432    
   1177000   306.89006      0.017021443    4.5930135      761.40271     -33.822216      727.58049    
   1178000   303.50359      0.017021443   -3.6894074      753.00076     -37.231187      715.76958    
   1179000   274.85663      0.017021443    7.9864129      681.92688     -31.280425      650.64645    
   1180000   292.78604      0.017021443    11.577407      726.41023     -32.673348      693.73688    
   1181000   304.77428      0.017021443    8.3179305      756.15339     -28.161739      727.99165    
   1182000   296.04337      0.017021443    5.0135466      734.49176     -28.277011      706.21475    
   1183000   296.21401      0.017021443    16.178903      734.91514     -30.999919      703.91522    
   1184000   303.24243      0.017021443    14.477921      752.35282     -28.717826      723.63499    
   1185000   299.04188      0.017021443   -4.1942556      741.93115     -28.811628      713.11952    
   1186000   294.86695      0.017021443    10.768536      731.57302     -35.003092      696.56993    
   1187000   296.5925       0.017021443    16.713139      735.85416     -30.469673      705.38449    
   1188000   301.03344      0.017021443    14.61377       746.87225     -28.947415      717.92484    
   1189000   306.2943       0.017021443    2.9883018      759.92461     -22.749857      737.17475    
   1190000   304.75745      0.017021443    9.5153324      756.11163     -24.633868      731.47776    
   1191000   297.83355      0.017021443    17.095398      738.93325     -28.908898      710.02435    
   1192000   300.98416      0.017021443    6.4529799      746.74999     -31.071316      715.67867    
   1193000   290.02136      0.017021443   -1.8836174      719.55099     -29.010245      690.54074    
   1194000   304.58914      0.017021443    12.459937      755.69404     -32.054647      723.6394     
   1195000   306.40898      0.017021443    12.406473      760.20912     -32.848153      727.36097    
   1196000   298.9193       0.017021443    8.7585         741.62703     -27.305451      714.32158    
   1197000   296.14255      0.017021443    6.4798527      734.73783     -32.745274      701.99256    
   1198000   299.99481      0.017021443    11.265342      744.29539     -30.157349      714.13804    
   1199000   302.90723      0.017021443    10.309348      751.52118     -28.937622      722.58356    
   1200000   312.62895      0.017021443    5.3746016      775.64105     -36.309445      739.33161    
   1201000   303.66871      0.017021443    9.3545217      753.41043     -30.466938      722.94349    
   1202000   295.22226      0.017021443    9.0378067      732.45457     -36.359362      696.09521    
   1203000   312.67509      0.017021443    9.971862       775.75551     -36.14982       739.60569    
   1204000   308.29853      0.017021443    9.4236249      764.89716     -34.177907      730.71925    
   1205000   285.08228      0.017021443    11.626883      707.297       -31.058595      676.23841    
   1206000   295.33464      0.017021443    5.5801292      732.73339     -27.567952      705.16544    
   1207000   318.10897      0.017021443    5.8933419      789.23712     -26.688037      762.54908    
   1208000   309.87023      0.017021443    8.1114058      768.79659     -26.906832      741.88976    
   1209000   307.10475      0.017021443    25.411858      761.93535     -25.414257      736.5211     
   1210000   281.23779      0.017021443    13.779845      697.75872     -28.319615      669.4391     
   1211000   299.18545      0.017021443    6.3375865      742.28735     -29.130796      713.15655    
   1212000   307.523        0.017021443    7.8859651      762.97304     -29.033379      733.93966    
   1213000   304.44602      0.017021443    9.0814886      755.33896     -27.255353      728.08361    
   1214000   289.96671      0.017021443    11.362255      719.4154      -26.656873      692.75853    
   1215000   318.79904      0.017021443   -10.492638      790.9492      -29.436067      761.51313    
   1216000   306.35689      0.017021443    13.028118      760.07989     -27.516528      732.56336    
   1217000   292.71541      0.017021443    18.910775      726.23499     -27.373091      698.8619     
   1218000   291.30926      0.017021443    9.7116981      722.74631     -22.338518      700.40779    
   1219000   302.54022      0.017021443    0.69228477     750.61062     -24.097354      726.51327    
   1220000   302.60261      0.017021443    11.772959      750.76541     -22.394353      728.37106    
   1221000   295.81201      0.017021443    11.114111      733.91775     -18.145095      715.77266    
   1222000   292.32462      0.017021443    15.518656      725.26544     -23.335509      701.92993    
   1223000   299.63972      0.017021443    4.6516289      743.41441     -28.052304      715.36211    
   1224000   306.22668      0.017021443    10.83726       759.75683     -27.917309      731.83952    
   1225000   294.62204      0.017021443    11.008536      730.96541     -28.799778      702.16563    
   1226000   290.31467      0.017021443    2.4796017      720.27869     -28.0383        692.24039    
   1227000   309.68843      0.017021443    6.582947       768.34554     -26.516335      741.8292     
   1228000   313.15491      0.017021443    22.359934      776.94597     -33.602209      743.34376    
   1229000   290.11525      0.017021443    11.854589      719.78394     -30.763159      689.02078    
   1230000   293.58704      0.017021443    7.1571522      728.39755     -34.832809      693.56474    
   1231000   305.55569      0.017021443    8.4277373      758.09208     -31.545956      726.54612    
   1232000   294.23288      0.017021443    8.2770879      729.99989     -31.718254      698.28163    
   1233000   308.56008      0.017021443    11.995945      765.54606     -28.382164      737.16389    
   1234000   283.58285      0.017021443    13.583051      703.57686     -26.437046      677.13981    
   1235000   293.53803      0.017021443    1.8629804      728.27594     -27.073622      701.20232    
   1236000   313.36525      0.017021443    8.5116381      777.46783     -22.377662      755.09017    
   1237000   303.01747      0.017021443    15.694294      751.79469     -22.358862      729.43583    
   1238000   295.28707      0.017021443    9.8403923      732.61536     -24.53901       708.07635    
   1239000   293.07616      0.017021443    5.5487277      727.13002     -28.610837      698.51919    
   1240000   306.08679      0.017021443    8.672542       759.40976     -29.379805      730.02996    
   1241000   296.29206      0.017021443    15.63525       735.10877     -33.088424      702.02035    
   1242000   295.56736      0.017021443    5.1762628      733.31076     -32.529982      700.78078    
   1243000   311.14293      0.017021443    2.0633054      771.95419     -27.391971      744.56222    
   1244000   303.30481      0.017021443    12.728029      752.50758     -31.883635      720.62395    
   1245000   302.54539      0.017021443    15.389711      750.62345     -28.500876      722.12257    
   1246000   297.58207      0.017021443    11.181307      738.30933     -25.783092      712.52624    
   1247000   292.58974      0.017021443    9.8886215      725.92322     -27.589039      698.33418    
   1248000   299.56797      0.017021443    2.9855803      743.23639     -27.874778      715.36161    
   1249000   308.11494      0.017021443    5.7779307      764.44167     -30.274446      734.16722    
   1250000   300.44655      0.017021443    5.497842       745.41617     -31.715978      713.70019    
   1251000   287.63478      0.017021443   -7.7286334      713.62982     -30.26318       683.36664    
   1252000   304.79091      0.017021443    8.5485154      756.19465     -32.621737      723.57292    
   1253000   300.50761      0.017021443    14.246237      745.56766     -30.847944      714.71971    
   1254000   290.7374       0.017021443    5.8403298      721.32751     -35.906352      685.42116    
   1255000   298.04706      0.017021443    8.6471071      739.46296     -32.056062      707.4069     
   1256000   299.15821      0.017021443    9.2389819      742.21975     -32.56931       709.65044    
   1257000   310.33935      0.017021443    11.562738      769.96049     -32.366574      737.59392    
   1258000   295.05526      0.017021443    8.1796368      732.04024     -31.531537      700.50871    
   1259000   300.12779      0.017021443    9.6138345      744.62532     -29.466091      715.15923    
   1260000   309.88046      0.017021443    9.6146073      768.82196     -28.629411      740.19255    
   1261000   295.50806      0.017021443    8.9671342      733.16363     -31.572896      701.59073    
   1262000   288.63569      0.017021443    11.303255      716.1131      -27.137953      688.97515    
   1263000   312.01569      0.017021443   -1.7956707      774.11954     -33.505033      740.6145     
   1264000   295.31531      0.017021443    7.8823365      732.68543     -34.313881      698.37154    
   1265000   311.41796      0.017021443    11.461641      772.63655     -32.312545      740.324      
   1266000   313.62752      0.017021443    7.6493118      778.11852     -31.752652      746.36587    
   1267000   297.28122      0.017021443    6.6938035      737.56289     -35.880604      701.68229    
   1268000   295.95884      0.017021443    5.8311608      734.28204     -30.000508      704.28153    
   1269000   304.03132      0.017021443    12.646955      754.31009     -23.908951      730.40114    
   1270000   294.88366      0.017021443    2.6206756      731.6145      -25.090443      706.52405    
   1271000   279.98073      0.017021443    3.4262683      694.63991     -28.665447      665.97446    
   1272000   307.79724      0.017021443    12.286259      763.65343     -26.843437      736.81       
   1273000   305.52864      0.017021443    8.0917902      758.02498     -29.830957      728.19403    
   1274000   291.41122      0.017021443    5.7793001      722.99928     -27.540779      695.4585     
   1275000   290.36139      0.017021443    10.099233      720.39462     -25.943973      694.45065    
   1276000   315.16506      0.017021443    16.800451      781.93321     -23.841951      758.09125    
   1277000   304.52175      0.017021443    14.889695      755.52685     -25.404948      730.12191    
   1278000   303.10667      0.017021443    6.1502047      752.01599     -21.788021      730.22797    
   1279000   294.84321      0.017021443    5.8441799      731.51413     -24.992865      706.52126    
   1280000   301.3858       0.017021443    8.7949209      747.74648     -23.262691      724.48379    
   1281000   303.14817      0.017021443    16.604123      752.11896     -27.5386        724.58036    
   1282000   311.47467      0.017021443    5.2235016      772.77725     -27.889585      744.88767    
   1283000   299.7388       0.017021443    7.2372511      743.66022     -24.18222       719.478      
   1284000   307.00357      0.017021443    5.5674796      761.68432     -25.040678      736.64365    
   1285000   286.05984      0.017021443    15.298226      709.72236     -24.813126      684.90923    
   1286000   293.15049      0.017021443    11.222626      727.31445     -26.806561      700.50789    
   1287000   307.57674      0.017021443    12.659147      763.10636     -26.323323      736.78304    
   1288000   312.45641      0.017021443    3.272368       775.21298     -24.331478      750.8815     
   1289000   303.91128      0.017021443    5.2279701      754.01227     -26.202716      727.80955    
   1290000   295.17384      0.017021443    11.231179      732.33443     -23.729486      708.60494    
   1291000   299.25928      0.017021443    12.70303       742.47051     -22.260017      720.2105     
   1292000   316.83059      0.017021443    13.827367      786.06543     -21.273929      764.79151    
   1293000   302.18495      0.017021443    7.4553256      749.72918     -25.431417      724.29776    
   1294000   286.78673      0.017021443    9.2005909      711.52579     -21.291358      690.23443    
   1295000   301.90086      0.017021443    10.940831      749.02436     -22.138064      726.8863     
   1296000   300.79144      0.017021443    4.045746       746.27186     -24.697377      721.57448    
   1297000   294.97418      0.017021443    0.63360148     731.83907     -26.451511      705.38756    
   1298000   282.24893      0.017021443    1.6769562      700.26739     -27.420792      672.84659    
   1299000   295.87352      0.017021443    10.718989      734.07037     -31.222115      702.84825    
   1300000   318.00095      0.017021443    17.385502      788.96913     -30.131383      758.83775    
   1301000   296.2013       0.017021443    4.5934189      734.88358     -34.726249      700.15734    
   1302000   296.84687      0.017021443    10.163957      736.48528     -29.563387      706.92189    
   1303000   302.85247      0.017021443    14.193012      751.38533     -26.570199      724.81513    
   1304000   318.47676      0.017021443    6.9837126      790.14962     -29.239563      760.91006    
   1305000   303.17053      0.017021443    6.2177022      752.17444     -28.031833      724.14261    
   1306000   287.83885      0.017021443    8.6229624      714.13612     -29.123691      685.01243    
   1307000   317.13646      0.017021443    17.752224      786.8243      -26.81004       760.01426    
   1308000   302.29394      0.017021443    7.0663938      749.99959     -28.48906       721.51053    
   1309000   298.32898      0.017021443    8.8742769      740.16242     -24.405778      715.75664    
   1310000   299.21891      0.017021443    11.892678      742.37036     -27.348089      715.02227    
   1311000   301.69784      0.017021443    10.607421      748.52066     -26.127101      722.39356    
   1312000   289.23499      0.017021443    10.001121      717.59999     -28.192006      689.40798    
   1313000   296.21116      0.017021443    9.4237851      734.90806     -25.464639      709.44342    
   1314000   304.88502      0.017021443    8.3349272      756.42815     -26.591771      729.83638    
   1315000   308.35316      0.017021443    9.4143769      765.03269     -25.286963      739.74572    
   1316000   289.41406      0.017021443    9.6023535      718.04426     -25.160472      692.88379    
   1317000   293.80608      0.017021443    9.1513519      728.94098     -20.893098      708.04789    
   1318000   319.99508      0.017021443    11.554216      793.9166      -23.009333      770.90727    
   1319000   301.69355      0.017021443    8.1219568      748.51002     -22.927004      725.58302    
   1320000   295.26606      0.017021443    7.4499569      732.56325     -17.942404      714.62084    
   1321000   296.36899      0.017021443    8.7587364      735.29963     -17.074368      718.22526    
   1322000   294.96185      0.017021443    8.6269438      731.80848     -18.962836      712.84564    
   1323000   304.15275      0.017021443    10.110642      754.61137     -16.734738      737.87663    
   1324000   303.13244      0.017021443    8.8343767      752.07993     -18.562157      733.51777    
   1325000   293.10074      0.017021443    8.3947455      727.19101     -21.378731      705.81228    
   1326000   278.74934      0.017021443    7.7055068      691.5848      -19.907427      671.67737    
   1327000   311.81085      0.017021443    8.7725944      773.6113      -21.321926      752.28938    
   1328000   303.52409      0.017021443    10.284644      753.05162     -23.184015      729.86761    
   1329000   291.20273      0.017021443    8.5013079      722.482       -24.299377      698.18262    
   1330000   298.53862      0.017021443    8.2651409      740.68253     -23.687088      716.99545    
   1331000   311.69644      0.017021443    11.53839       773.32746     -26.089548      747.23791    
   1332000   305.97028      0.017021443    18.434285      759.12069     -25.62799       733.4927     
   1333000   281.22155      0.017021443    17.538971      697.71842     -24.196059      673.52236    
   1334000   289.89752      0.017021443    10.682453      719.24373     -22.660287      696.58344    
   1335000   302.85         0.017021443    2.0614775      751.3792      -18.57319       732.80601    
   1336000   293.91719      0.017021443    8.6882722      729.21665     -18.948154      710.2685     
   1337000   302.78994      0.017021443    12.181401      751.23019     -20.083626      731.14657    
   1338000   288.70036      0.017021443    1.838341       716.27356     -24.08705       692.18651    
   1339000   299.0417       0.017021443    1.1086084      741.93071     -21.931291      719.99942    
   1340000   313.14257      0.017021443    25.0933        776.91534     -23.288718      753.62662    
   1341000   300.07964      0.017021443    6.4927281      744.50587     -19.379869      725.126      
   1342000   300.99245      0.017021443    2.0626588      746.77057     -23.121873      723.6487     
   1343000   296.07485      0.017021443    16.780294      734.56986     -19.922321      714.64754    
   1344000   291.38828      0.017021443    4.6832795      722.94235     -20.159193      702.78316    
   1345000   310.0887       0.017021443    5.3519552      769.33861     -23.773674      745.56493    
   1346000   302.94977      0.017021443    23.689742      751.62672     -23.167222      728.4595     
   1347000   287.46985      0.017021443    17.271546      713.22062     -21.699117      691.52151    
   1348000   295.83448      0.017021443    2.9685119      733.97349     -19.939297      714.0342     
   1349000   312.82255      0.017021443   -3.8195445      776.12137     -21.868411      754.25296    
   1350000   302.56103      0.017021443    20.256272      750.66226     -20.690354      729.97191    
   1351000   289.09344      0.017021443    15.320026      717.2488      -20.475445      696.77335    
   1352000   314.95882      0.017021443    1.9567394      781.42151     -22.91199       758.50952    
   1353000   310.4195       0.017021443    6.183774       770.15934     -21.946573      748.21277    
   1354000   297.61604      0.017021443    13.619083      738.3936      -28.537071      709.85653    
   1355000   298.5028       0.017021443    7.9416179      740.59369     -27.704262      712.88942    
   1356000   313.48818      0.017021443    8.7535813      777.77281     -27.169361      750.60345    
   1357000   297.16761      0.017021443    11.202376      737.28104     -32.676286      704.60476    
   1358000   296.28537      0.017021443    5.8423488      735.09217     -29.619427      705.47274    
   1359000   308.73136      0.017021443    8.5229588      765.97101     -30.059019      735.91199    
   1360000   294.23271      0.017021443    11.218249      729.99947     -30.463277      699.53619    
   1361000   289.57607      0.017021443    9.3112159      718.44621     -27.511028      690.93518    
   1362000   312.48164      0.017021443    8.5026028      775.27556     -31.320565      743.95499    
   1363000   301.38995      0.017021443    11.040839      747.75677     -28.235464      719.52131    
   1364000   287.33358      0.017021443    8.2391562      712.88253     -29.819881      683.06265    
   1365000   304.06719      0.017021443    5.8641179      754.39907     -28.825769      725.5733     
   1366000   309.04849      0.017021443    12.125536      766.75783     -24.010943      742.74688    
   1367000   298.04121      0.017021443    9.7152902      739.44846     -29.046385      710.40208    
   1368000   296.17314      0.017021443    9.2326864      734.81372     -32.782153      702.03157    
   1369000   305.70298      0.017021443    8.6245752      758.45753     -27.652266      730.80527    
   1370000   295.82946      0.017021443    8.1679827      733.96105     -28.249418      705.71163    
   1371000   290.76886      0.017021443    13.951693      721.40556     -28.507711      692.89785    
   1372000   303.73694      0.017021443    6.9290435      753.57973     -28.011897      725.56783    
   1373000   300.05741      0.017021443    8.6746766      744.45072     -26.441597      718.00912    
   1374000   291.85791      0.017021443    9.6778789      724.10752     -29.994764      694.11276    
   1375000   312.02592      0.017021443    9.2254397      774.1449      -32.111999      742.0329     
   1376000   312.61609      0.017021443    9.3564255      775.60913     -30.321767      745.28736    
   1377000   297.60174      0.017021443    9.0293318      738.35812     -24.652289      713.70583    
   1378000   294.47282      0.017021443    11.312874      730.59518     -25.078795      705.51638    
   1379000   302.78225      0.017021443    9.1333285      751.2111      -24.870427      726.34067    
   1380000   312.0757       0.017021443    7.3693867      774.26842     -26.061991      748.20643    
   1381000   294.56461      0.017021443    5.3325698      730.82292     -28.682017      702.1409     
   1382000   291.85885      0.017021443    11.897444      724.10986     -24.809294      699.30057    
   1383000   290.17701      0.017021443    11.452449      719.93715     -26.532739      693.40441    
   1384000   314.83158      0.017021443    13.204183      781.10583     -26.503567      754.60227    
   1385000   308.2774       0.017021443    4.2440406      764.84472     -28.339108      736.50561    
   1386000   296.5411       0.017021443    3.9858383      735.72664     -25.81002       709.91662    
   1387000   281.35605      0.017021443    8.9409604      698.05212     -27.45805       670.59407    
   1388000   305.43627      0.017021443    17.795844      757.79581     -26.315844      731.47997    
   1389000   317.03206      0.017021443    1.4589316      786.56529     -28.449528      758.11576    
   1390000   295.25689      0.017021443    5.8820395      732.54049     -26.948473      705.59202    
   1391000   301.07323      0.017021443    16.947958      746.97099     -28.443126      718.52786    
   1392000   309.80227      0.017021443   -1.6836394      768.62796     -24.708636      743.91933    
   1393000   300.10122      0.017021443    2.8389252      744.55939     -28.05221       716.50718    
   1394000   300.55695      0.017021443    12.325302      745.69009     -31.810135      713.87995    
   1395000   303.59567      0.017021443    6.7674869      753.22921     -34.460773      718.76844    
   1396000   299.90013      0.017021443    7.9094458      744.06049     -31.583978      712.47651    
   1397000   293.99913      0.017021443    1.4991794      729.41994     -32.160763      697.25918    
   1398000   299.41001      0.017021443    17.650453      742.84449     -34.717325      708.12717    
   1399000   303.27219      0.017021443    0.20278286     752.42666     -31.30093       721.12573    
   1400000   286.01819      0.017021443   -7.9694902      709.61902     -27.560062      682.05895    
   1401000   297.74301      0.017021443    8.5836052      738.70862     -26.811188      711.89744    
   1402000   302.48072      0.017021443    11.619381      750.46301     -26.951794      723.51122    
   1403000   289.52099      0.017021443    0.19875837     718.30956     -24.64931       693.66025    
   1404000   298.28086      0.017021443    5.1428386      740.04304     -30.77357       709.26947    
   1405000   299.44728      0.017021443    14.12333       742.93696     -25.586188      717.35077    
   1406000   307.96134      0.017021443    9.7992039      764.06058     -27.940723      736.11986    
   1407000   287.71362      0.017021443    8.3475923      713.82543     -27.988302      685.83713    
   1408000   292.5576       0.017021443    5.0013839      725.84346     -27.061807      698.78165    
   1409000   289.72315      0.017021443    9.706131       718.81112     -31.392756      687.41837    
   1410000   312.69128      0.017021443    10.621183      775.7957      -34.257128      741.53857    
   1411000   309.6844       0.017021443    9.2767055      768.33553     -31.300285      737.03525    
   1412000   294.02381      0.017021443    2.1595524      729.48119     -34.4598        695.02139    
   1413000   283.70465      0.017021443    6.4572009      703.87905     -34.105641      669.77341    
   1414000   296.023        0.017021443    17.948232      734.44121     -31.646515      702.7947     
   1415000   306.29072      0.017021443    12.593998      759.91572     -31.254779      728.66094    
   1416000   296.98956      0.017021443    8.2359209      736.83928     -30.609654      706.22963    
   1417000   297.78606      0.017021443    9.5455642      738.81543     -27.082434      711.733      
   1418000   298.65254      0.017021443    8.4507667      740.96518     -27.272755      713.69243    
   1419000   314.21286      0.017021443    7.0012169      779.57078     -28.064042      751.50673    
   1420000   304.01567      0.017021443    11.576501      754.27127     -31.954609      722.31666    
   1421000   288.83835      0.017021443    9.5844217      716.6159      -30.787207      685.8287     
   1422000   303.29057      0.017021443    7.7630769      752.47225     -34.726686      717.74557    
   1423000   296.38254      0.017021443    6.2819082      735.33326     -35.074428      700.25883    
   1424000   301.89116      0.017021443    7.4781536      749.00028     -34.582245      714.41804    
   1425000   296.33179      0.017021443    8.9289194      735.20734     -32.872744      702.3346     
   1426000   300.71916      0.017021443    8.8242245      746.09252     -30.696944      715.39558    
   1427000   311.01172      0.017021443    8.8567938      771.62866     -27.621863      744.0068     
   1428000   305.54957      0.017021443    10.002244      758.07692     -27.822684      730.25423    
   1429000   305.17805      0.017021443    10.828884      757.15515     -24.265471      732.88968    
   1430000   292.53427      0.017021443    9.3848739      725.78559     -20.988727      704.79686    
   1431000   302.14488      0.017021443    8.1178657      749.62977     -25.687626      723.94214    
   1432000   311.48134      0.017021443    9.7941683      772.79379     -26.244233      746.54956    
   1433000   302.90568      0.017021443    10.974316      751.51734     -29.295859      722.22148    
   1434000   293.63274      0.017021443    10.833578      728.51092     -26.850181      701.66074    
   1435000   301.96238      0.017021443    8.3968506      749.17698     -22.458353      726.71863    
   1436000   305.64735      0.017021443    9.7272582      758.31951     -24.403492      733.91601    
   1437000   299.38819      0.017021443    7.6021212      742.79034     -28.125987      714.66436    
   1438000   310.05798      0.017021443    12.38906       769.26239     -24.280965      744.98143    
   1439000   299.62264      0.017021443    9.6520881      743.37202     -27.32901       716.04301    
   1440000   292.22401      0.017021443    8.1824238      725.01582     -27.13133       697.88449    
   1441000   314.71983      0.017021443    9.5902729      780.82856     -25.522425      755.30614    
   1442000   317.98752      0.017021443    11.527756      788.9358      -24.186949      764.74885    
   1443000   291.91213      0.017021443    9.0043034      724.24204     -26.459927      697.78211    
   1444000   286.33278      0.017021443    8.8386945      710.39951     -23.630192      686.76932    
   1445000   304.6917       0.017021443    0.81496925     755.94852     -27.513633      728.43488    
   1446000   315.86218      0.017021443    6.8753047      783.66278     -28.584381      755.0784     
   1447000   299.92842      0.017021443    14.426961      744.13069     -25.894908      718.23578    
   1448000   291.72482      0.017021443    6.7042785      723.77731     -33.966033      689.81128    
   1449000   303.20188      0.017021443    10.994923      752.25223     -32.288785      719.96344    
   1450000   303.35254      0.017021443    9.0299898      752.62602     -40.088408      712.53761    
   1451000   293.97986      0.017021443    10.637496      729.37213     -34.409366      694.96276    
   1452000   296.54441      0.017021443    9.2174401      735.73485     -36.170557      699.56429    
   1453000   313.59588      0.017021443    9.222251       778.04003     -39.2949        738.74513    
   1454000   302.34279      0.017021443    8.1138704      750.1208      -29.811265      720.30954    
   1455000   281.48664      0.017021443    10.044907      698.37612     -32.335458      666.04066    
   1456000   284.25587      0.017021443    11.66155       705.24666     -30.403716      674.84294    
   1457000   307.30012      0.017021443    8.220997       762.42008     -32.454399      729.96568    
   1458000   304.68193      0.017021443    8.5635754      755.92428     -31.953697      723.97058    
   1459000   292.87095      0.017021443    9.1712973      726.62089     -32.462987      694.1579     
   1460000   314.52256      0.017021443    6.7257355      780.33914     -31.615592      748.72355    
   1461000   302.26579      0.017021443    10.993071      749.92976     -33.262968      716.6668     
   1462000   284.50304      0.017021443    7.0958226      705.8599      -31.13476       674.72514    
   1463000   304.42599      0.017021443    8.7240963      755.28928     -27.345297      727.94398    
   1464000   308.40197      0.017021443    9.6731449      765.15379     -28.107096      737.0467     
   1465000   300.66908      0.017021443    7.9877092      745.96828     -30.153955      715.81432    
   1466000   298.26801      0.017021443    16.240292      740.01116     -31.553684      708.45747    
   1467000   297.67238      0.017021443    7.4970061      738.53338     -30.777362      707.75602    
   1468000   293.24225      0.017021443    6.7586085      727.54211     -36.660845      690.88127    
   1469000   296.50352      0.017021443    5.6239707      735.6334      -34.983874      700.64953    
   1470000   300.65569      0.017021443    11.844471      745.93504     -35.301499      710.63354    
   1471000   306.85522      0.017021443    12.754658      761.31626     -36.818522      724.49774    
   1472000   300.72651      0.017021443    6.3506985      746.11077     -40.398532      705.71224    
   1473000   302.82733      0.017021443    6.4994526      751.32296     -31.552744      719.77021    
   1474000   297.09206      0.017021443    10.892432      737.09358     -30.429763      706.66382    
   1475000   298.53979      0.017021443    14.102072      740.68544     -32.619668      708.06577    
   1476000   317.3583       0.017021443    12.175663      787.37468     -35.62406       751.75062    
   1477000   311.25569      0.017021443   -2.3628118      772.23394     -32.243038      739.9909     
   1478000   293.69023      0.017021443    3.6213164      728.65356     -33.367243      695.28631    
   1479000   293.83331      0.017021443    10.661277      729.00854     -35.692116      693.31643    
   1480000   316.3861       0.017021443    9.4879676      784.96264     -31.364652      753.59799    
   1481000   292.07085      0.017021443    2.5455647      724.63582     -32.820536      691.81529    
   1482000   299.38439      0.017021443    11.72846       742.78093     -29.096607      713.68432    
   1483000   304.7428       0.017021443    15.842232      756.07529     -30.467918      725.60737    
   1484000   290.71453      0.017021443    3.9777698      721.27075     -30.967882      690.30287    
   1485000   300.67118      0.017021443    7.3244381      745.97349     -26.81941       719.15408    
   1486000   306.59997      0.017021443    16.931053      760.68298     -34.741421      725.94156    
   1487000   295.79135      0.017021443    10.869863      733.86649     -36.368302      697.49819    
   1488000   299.08358      0.017021443    7.192563       742.0346      -33.649971      708.38463    
   1489000   299.8291       0.017021443    11.842261      743.88427     -35.252608      708.63166    
   1490000   296.53276      0.017021443    10.748278      735.70596     -34.634102      701.07186    
   1491000   297.47072      0.017021443    6.7807644      738.03307     -34.812375      703.22069    
   1492000   296.64324      0.017021443    11.443471      735.98005     -33.494114      702.48594    
   1493000   296.04454      0.017021443    12.486266      734.49467     -30.781091      703.71358    
   1494000   303.386        0.017021443    9.849122       752.70903     -29.983119      722.72591    
   1495000   302.66094      0.017021443    8.4942254      750.91013     -29.582687      721.32744    
   1496000   294.63049      0.017021443    7.747903       730.98636     -27.541727      703.44464    
   1497000   300.5664       0.017021443    9.075697       745.71352     -34.482898      711.23062    
   1498000   303.57504      0.017021443    10.778768      753.17804     -29.213975      723.96407    
   1499000   309.84956      0.017021443    17.254719      768.74529     -35.391089      733.3542     
   1500000   292.16694      0.017021443    8.3358988      724.87423     -36.3685        688.50573    
   1501000   283.67649      0.017021443    4.8329989      703.8092      -35.646156      668.16304    
   1502000   307.5038       0.017021443    14.359011      762.92541     -34.464331      728.46108    
   1503000   308.96428      0.017021443    9.3722765      766.5489      -36.173556      730.37535    
   1504000   299.11438      0.017021443    7.2764947      742.11102     -31.368718      710.7423     
   1505000   300.18826      0.017021443    5.9258605      744.77536     -27.984396      716.79096    
   1506000   302.30951      0.017021443    7.8103927      750.03823     -31.164802      718.87343    
   1507000   303.7053       0.017021443    12.029572      753.50121     -30.330784      723.17043    
   1508000   304.06955      0.017021443    13.265384      754.40494     -29.573852      724.83108    
   1509000   303.11378      0.017021443    6.4925711      752.03365     -34.523612      717.51004    
   1510000   303.46495      0.017021443   -2.9725983      752.90491     -31.31353       721.59138    
   1511000   302.05697      0.017021443    10.763473      749.41166     -36.044098      713.36757    
   1512000   293.19348      0.017021443    24.703641      727.42109     -41.792946      685.62815    
   1513000   306.59296      0.017021443    4.0928816      760.66558     -38.574813      722.09077    
   1514000   324.0891       0.017021443    7.6282684      804.074       -36.80415       767.26985    
   1515000   302.65441      0.017021443    15.670374      750.89393     -36.928663      713.96527    
   1516000   280.48777      0.017021443    3.3217851      695.89789     -29.293682      666.60421    
   1517000   302.39482      0.017021443    1.1965744      750.24987     -25.217903      725.03197    
   1518000   309.23079      0.017021443    9.3058082      767.21012     -24.508514      742.70161    
   1519000   305.77037      0.017021443    24.598511      758.62471     -30.312445      728.31226    
   1520000   283.51473      0.017021443    7.934811       703.40787     -30.940811      672.46706    
   1521000   299.83052      0.017021443    0.71652968     743.88778     -29.055257      714.83252    
   1522000   319.98223      0.017021443    5.471391       793.88473     -30.505792      763.37894    
   1523000   292.61785      0.017021443    19.153136      725.99296     -31.75211       694.24085    
   1524000   292.80841      0.017021443    5.5070015      726.46574     -27.896281      698.56946    
   1525000   303.7808       0.017021443   -0.24594753     753.68854     -33.765039      719.9235     
   1526000   306.17607      0.017021443    10.997263      759.63126     -32.413817      727.21744    
   1527000   300.90858      0.017021443    13.320803      746.56248     -29.042292      717.52019    
   1528000   283.10534      0.017021443    6.776423       702.39216     -32.835727      669.55643    
   1529000   309.12474      0.017021443    8.1971042      766.94699     -31.941608      735.00539    
   1530000   300.94384      0.017021443    10.072812      746.64996     -34.17446       712.4755     
   1531000   290.25873      0.017021443    12.052581      720.13991     -32.190672      687.94924    
   1532000   301.08245      0.017021443    7.7538172      746.99385     -31.123373      715.87047    
   1533000   318.08543      0.017021443    8.5671806      789.17873     -27.181429      761.9973     
   1534000   294.11483      0.017021443    8.8128384      729.70699     -25.328127      704.37887    
   1535000   295.16989      0.017021443    8.3518024      732.32464     -28.515644      703.80899    
   1536000   304.38612      0.017021443    8.9274784      755.19037     -25.548768      729.6416     
   1537000   302.80799      0.017021443    9.1361276      751.27496     -22.046792      729.22817    
   1538000   295.89641      0.017021443    8.295644       734.12715     -23.603337      710.52382    
   1539000   296.00715      0.017021443    8.6378048      734.4019      -31.055219      703.34668    
   1540000   297.26864      0.017021443    9.0262964      737.53169     -29.914646      707.61704    
   1541000   303.711        0.017021443    10.096471      753.51537     -31.387957      722.12741    
   1542000   303.79286      0.017021443    10.441927      753.71847     -30.622546      723.09592    
   1543000   300.27214      0.017021443    9.1846139      744.98345     -31.184288      713.79916    
   1544000   300.62433      0.017021443    9.4474998      745.85724     -36.029384      709.82786    
   1545000   308.89067      0.017021443    9.4215268      766.36628     -32.765117      733.60116    
   1546000   295.08869      0.017021443    7.8046707      732.12318     -30.291616      701.83156    
   1547000   295.71606      0.017021443    3.6036734      733.67971     -35.190692      698.48901    
   1548000   295.47349      0.017021443    9.2525562      733.07788     -35.575576      697.5023     
   1549000   307.58726      0.017021443    14.52729       763.13248     -34.007372      729.12511    
   1550000   297.84307      0.017021443    6.9500644      738.95686     -30.039653      708.9172     
   1551000   278.14761      0.017021443    10.003478      690.0919      -27.27677       662.81513    
   1552000   299.08473      0.017021443    11.350438      742.03747     -27.950105      714.08736    
   1553000   307.47102      0.017021443    16.118711      762.84407     -32.069458      730.77462    
   1554000   302.6672       0.017021443    8.3893416      750.92567     -30.758907      720.16676    
   1555000   308.05779      0.017021443    2.7522577      764.29987     -34.143746      730.15612    
   1556000   302.79126      0.017021443    8.6371824      751.23346     -32.801306      718.43215    
   1557000   295.59134      0.017021443    9.0642475      733.37027     -31.594589      701.77568    
   1558000   296.30967      0.017021443    20.318345      735.15245     -27.259309      707.89314    
   1559000   297.132        0.017021443    4.1691958      737.19269     -27.913788      709.2789     
   1560000   295.88757      0.017021443    14.24822       734.10523     -25.858012      708.24721    
   1561000   303.68676      0.017021443    11.575965      753.45522     -28.14368       725.31154    
   1562000   296.47721      0.017021443    5.5697837      735.56812     -23.698268      711.86985    
   1563000   301.42052      0.017021443    1.9402694      747.83263     -30.472287      717.36034    
   1564000   302.48787      0.017021443    15.806367      750.48075     -27.852399      722.62835    
   1565000   302.12799      0.017021443    9.3778167      749.58786     -31.570326      718.01753    
   1566000   298.33114      0.017021443    8.6490237      740.16777     -31.094867      709.07291    
   1567000   300.04031      0.017021443    8.8416555      744.40829     -30.483017      713.92527    
   1568000   306.62359      0.017021443    9.1947896      760.74158     -31.305888      729.4357     
   1569000   293.17235      0.017021443    5.0223458      727.36869     -35.798174      691.57052    
   1570000   300.2302       0.017021443    9.3057319      744.87939     -33.619883      711.25951    
   1571000   320.11734      0.017021443    8.8154345      794.21995     -30.027886      764.19206    
   1572000   293.53499      0.017021443    3.8863436      728.2684      -24.585556      703.68285    
   1573000   292.50673      0.017021443    9.9336986      725.71727     -24.884989      700.83228    
   1574000   298.20936      0.017021443    8.9228402      739.86565     -24.422784      715.44286    
   1575000   293.06192      0.017021443    8.4331406      727.0947      -27.855245      699.23945    
   1576000   299.06807      0.017021443    7.9325108      741.99613     -28.005251      713.99088    
   1577000   297.32314      0.017021443    10.706007      737.66691     -26.811989      710.85493    
   1578000   308.06297      0.017021443    6.3733376      764.31271     -25.368831      738.94388    
   1579000   304.01515      0.017021443    7.3627676      754.26996     -22.094624      732.17533    
   1580000   314.2642       0.017021443    16.344798      779.69814     -18.95853       760.73961    
   1581000   301.43548      0.017021443    6.8493094      747.86974     -22.741677      725.12806    
   1582000   282.8737       0.017021443    7.6423366      701.81744     -24.126358      677.69108    
   1583000   290.3188       0.017021443    12.258028      720.28893     -23.455777      696.83316    
   1584000   302.2276       0.017021443    7.8961719      749.83501     -25.742203      724.09281    
   1585000   309.25487      0.017021443    1.6439802      767.26985     -27.121266      740.14858    
   1586000   289.56325      0.017021443    13.787099      718.41441     -27.301968      691.11245    
   1587000   295.0312       0.017021443    17.238571      731.98054     -25.567369      706.41318    
   1588000   299.2304       0.017021443    4.1825325      742.39886     -26.208008      716.19086    
   1589000   292.33188      0.017021443    12.459992      725.28345     -26.193773      699.08968    
   1590000   305.34797      0.017021443    17.834824      757.57674     -27.207651      730.36909    
   1591000   304.08183      0.017021443    12.229243      754.43541     -28.458196      725.97721    
   1592000   296.8641       0.017021443    2.4545049      736.52802     -24.291419      712.2366     
   1593000   302.24777      0.017021443    10.715023      749.88504     -24.927         724.95804    
   1594000   304.69869      0.017021443    13.89028       755.96584     -27.132428      728.83341    
   1595000   300.61645      0.017021443    10.200152      745.83769     -26.398307      719.43938    
   1596000   295.15034      0.017021443   -4.7477283      732.27613     -28.295451      703.98068    
   1597000   293.30722      0.017021443    1.6765303      727.7033      -30.042354      697.66094    
   1598000   288.85476      0.017021443    7.0620504      716.65662     -28.629607      688.02702    
   1599000   287.15782      0.017021443    15.897671      712.44647     -24.717255      687.72922    
   1600000   292.78674      0.017021443    12.814777      726.41198     -24.578418      701.83356    
   1601000   310.55043      0.017021443    9.2656966      770.48417     -28.692948      741.79123    
   1602000   305.89916      0.017021443    4.9025407      758.94425     -26.469783      732.47447    
   1603000   307.58515      0.017021443    4.5493327      763.12724     -32.48832       730.63892    
   1604000   289.15172      0.017021443    0.72842833     717.3934      -30.398338      686.99506    
   1605000   303.73644      0.017021443    12.200675      753.57848     -33.737414      719.84107    
   1606000   305.72498      0.017021443    6.9171458      758.5121      -31.246823      727.26528    
   1607000   296.88142      0.017021443    7.4034312      736.57099     -29.853628      706.71736    
   1608000   296.64926      0.017021443    9.8829261      735.995       -28.760427      707.23457    
   1609000   303.31026      0.017021443    9.4138069      752.52111     -23.520169      729.00094    
   1610000   299.79576      0.017021443    9.7008221      743.80154     -24.406747      719.39479    
   1611000   302.56217      0.017021443    9.8250617      750.66508     -30.966526      719.69855    
   1612000   294.95487      0.017021443    7.4288845      731.79115     -31.762769      700.02838    
   1613000   303.46636      0.017021443    9.8953195      752.90841     -33.812598      719.09581    
   1614000   307.80194      0.017021443    8.017834       763.6651      -33.513257      730.15184    
   1615000   294.68053      0.017021443    5.8563914      731.11051     -28.128822      702.98169    
   1616000   294.95271      0.017021443    10.898756      731.7858      -29.040516      702.74528    
   1617000   307.5149       0.017021443    16.621536      762.95294     -27.122024      735.83092    
   1618000   304.35212      0.017021443    8.0334159      755.10599     -34.659876      720.44612    
   1619000   293.67539      0.017021443    8.5537349      728.61673     -32.158842      696.45788    
   1620000   296.2636       0.017021443    11.590608      735.03815     -31.218452      703.81969    
   1621000   309.91768      0.017021443    8.720177       768.91431     -27.410722      741.50358    
   1622000   298.6707       0.017021443    7.0068798      741.01024     -25.88431       715.12593    
   1623000   301.39867      0.017021443    9.0167354      747.77841     -28.484308      719.2941     
   1624000   294.35214      0.017021443    19.302319      730.29578     -32.559418      697.73636    
   1625000   310.09197      0.017021443    10.781292      769.34673     -31.256244      738.09049    
   1626000   310.86223      0.017021443    5.680769       771.25776     -31.162417      740.09534    
   1627000   286.37926      0.017021443    7.8301642      710.51483     -28.939845      681.57498    
   1628000   301.63114      0.017021443    9.8324816      748.35517     -28.02352       720.33165    
   1629000   308.47552      0.017021443    10.187041      765.33628     -30.466215      734.87006    
   1630000   304.19903      0.017021443    8.1975613      754.72617     -31.865499      722.86068    
   1631000   299.78174      0.017021443    9.9073469      743.76676     -29.059901      714.70686    
   1632000   290.97034      0.017021443    14.044937      721.90543     -32.015566      689.88986    
   1633000   309.51036      0.017021443    10.783353      767.90373     -33.319236      734.5845     
   1634000   300.17657      0.017021443   -7.9304882      744.74634     -32.542554      712.20378    
   1635000   295.3951       0.017021443    11.566992      732.8834      -34.606175      698.27722    
   1636000   295.30123      0.017021443    11.75559       732.65049     -26.118847      706.53164    
   1637000   300.57946      0.017021443    6.8354613      745.74592     -30.739938      715.00599    
   1638000   301.21288      0.017021443    9.0158149      747.31746     -31.586713      715.73074    
   1639000   305.30383      0.017021443    10.969651      757.46723     -32.050319      725.41691    
   1640000   298.87031      0.017021443    8.9282682      741.50548     -30.363579      711.1419     
   1641000   292.01725      0.017021443    8.7823823      724.50285     -29.003767      695.49908    
   1642000   301.59322      0.017021443    9.8948755      748.26109     -27.933202      720.32789    
   1643000   301.51244      0.017021443    9.2646726      748.06067     -30.746186      717.31448    
   1644000   289.0879       0.017021443    2.9018548      717.23505     -32.057628      685.17742    
   1645000   285.77981      0.017021443    9.951453       709.0276      -31.061257      677.96634    
   1646000   305.04063      0.017021443    12.258944      756.81421     -40.831869      715.98234    
   1647000   302.71053      0.017021443    7.4337925      751.03317     -39.114963      711.91821    
   1648000   296.75668      0.017021443    6.3453637      736.26149     -39.414675      696.84682    
   1649000   312.55375      0.017021443    8.9586682      775.45446     -38.859115      736.59535    
   1650000   297.9542       0.017021443    7.5267375      739.23258     -30.166387      709.06619    
   1651000   291.91161      0.017021443    7.9700498      724.24075     -31.072015      693.16873    
   1652000   304.27524      0.017021443    10.815436      754.91527     -39.694124      715.22114    
   1653000   303.75106      0.017021443    9.5907344      753.61475     -30.399912      723.21484    
   1654000   292.00311      0.017021443    7.4362176      724.46776     -33.593103      690.87465    
   1655000   297.47872      0.017021443    8.492699       738.0529      -26.865202      711.1877     
   1656000   305.04148      0.017021443    10.343703      756.81633     -24.375541      732.44079    
   1657000   300.18397      0.017021443    8.4444754      744.76471     -26.766044      717.99867    
   1658000   295.87799      0.017021443    8.7899636      734.08145     -27.898541      706.1829     
   1659000   307.16159      0.017021443    9.522926       762.07638     -26.644457      735.43192    
   1660000   300.48091      0.017021443    8.8056802      745.50142     -27.669297      717.83213    
   1661000   290.1973       0.017021443    9.3036502      719.9875      -31.210767      688.77673    
   1662000   296.07772      0.017021443    10.028024      734.57699     -27.007154      707.56983    
   1663000   311.28872      0.017021443    9.1154881      772.3159      -26.947972      745.36793    
   1664000   303.07271      0.017021443    8.0793284      751.93175     -22.09738       729.83437    
   1665000   296.83505      0.017021443    8.9704878      736.45594     -25.27129       711.18465    
   1666000   307.38765      0.017021443    7.9208175      762.63724     -25.207557      737.42969    
   1667000   310.27216      0.017021443    9.8396081      769.79379     -29.914015      739.87977    
   1668000   300.53336      0.017021443    9.4816496      745.63156     -24.54592       721.08564    
   1669000   284.60962      0.017021443    6.9316755      706.12431     -23.393112      682.7312     
   1670000   297.27352      0.017021443    9.3848893      737.5438      -25.247583      712.29622    
   1671000   307.77789      0.017021443    11.629411      763.60543     -28.983085      734.62235    
   1672000   304.08511      0.017021443    9.6865664      754.44353     -27.518714      726.92482    
   1673000   285.03214      0.017021443    8.0252624      707.1726      -25.271601      681.901      
   1674000   301.56634      0.017021443    8.1418879      748.1944      -27.168253      721.02614    
   1675000   315.92636      0.017021443    9.2018138      783.82202     -23.941745      759.88027    
   1676000   292.55378      0.017021443    8.5027735      725.834       -28.162548      697.67145    
   1677000   296.22124      0.017021443    9.7331974      734.93305     -28.036578      706.89648    
   1678000   306.86213      0.017021443    9.2655349      761.33341     -29.77116       731.56225    
   1679000   303.05306      0.017021443    7.4343591      751.88301     -25.064006      726.819      
   1680000   284.58927      0.017021443    6.4003808      706.07383     -26.185055      679.88878    
   1681000   297.98111      0.017021443    7.905328       739.29935     -26.031847      713.2675     
   1682000   294.95636      0.017021443    9.6947678      731.79487     -27.310064      704.4848     
   1683000   303.25892      0.017021443    9.1077841      752.39375     -30.39921       721.99454    
   1684000   305.69209      0.017021443   -3.8599941      758.4305      -28.624568      729.80593    
   1685000   294.32768      0.017021443    10.077179      730.23508     -27.500954      702.73412    
   1686000   306.18149      0.017021443    9.9516535      759.6447      -29.047089      730.59762    
   1687000   288.82086      0.017021443    11.563249      716.57252     -29.738829      686.83369    
   1688000   308.63376      0.017021443    5.5613525      765.72886     -28.624617      737.10424    
   1689000   303.53796      0.017021443    8.7111992      753.08605     -30.440657      722.64539    
   1690000   298.42049      0.017021443    13.291244      740.38946     -29.572229      710.81723    
   1691000   294.47994      0.017021443    14.090023      730.61285     -27.865375      702.74747    
   1692000   305.22835      0.017021443   -3.280784       757.27995     -26.278351      731.0016     
   1693000   314.03145      0.017021443    7.3478154      779.12068     -28.819926      750.30076    
   1694000   301.06731      0.017021443    17.420604      746.95631     -26.425919      720.53039    
   1695000   298.26573      0.017021443    8.8425914      740.0055      -23.290632      716.71487    
   1696000   291.33163      0.017021443    7.6185113      722.80181     -22.981195      699.82061    
   1697000   295.94765      0.017021443    3.1719399      734.25427     -18.680082      715.57418    
   1698000   317.20686      0.017021443    3.7655941      786.99896     -23.5915        763.40746    
   1699000   300.37661      0.017021443    8.9357893      745.24265     -24.591114      720.65154    
   1700000   291.28362      0.017021443    4.5243759      722.6827      -23.805099      698.8776     
   1701000   307.39216      0.017021443    1.7204269      762.64842     -21.800569      740.84785    
   1702000   307.60755      0.017021443    10.328032      763.1828      -20.415362      742.76744    
   1703000   290.5475       0.017021443    22.872766      720.85635     -24.039246      696.81711    
   1704000   289.8059       0.017021443    1.7746898      719.01642     -26.792744      692.22367    
   1705000   315.38027      0.017021443    14.544659      782.46715     -27.964175      754.50298    
   1706000   304.38214      0.017021443    11.391546      755.18047     -28.236337      726.94413    
   1707000   293.30755      0.017021443   -0.012332279    727.70413     -28.264909      699.43922    
   1708000   294.60766      0.017021443    7.0299908      730.92973     -25.715411      705.21432    
   1709000   308.39359      0.017021443    13.110357      765.13301     -26.331585      738.80142    
   1710000   297.29464      0.017021443    11.006869      737.59619     -29.109933      708.48626    
   1711000   296.28516      0.017021443    7.5175055      735.09165     -28.136766      706.95488    
   1712000   308.27428      0.017021443    9.6286512      764.83699     -25.212531      739.62446    
   1713000   297.06259      0.017021443    15.364665      737.02046     -22.274586      714.74588    
   1714000   288.31665      0.017021443    12.903521      715.32154     -25.053088      690.26846    
   1715000   300.76086      0.017021443    3.9791936      746.19598     -24.798892      721.39709    
   1716000   291.91628      0.017021443    5.0279463      724.25233     -26.737663      697.51467    
   1717000   300.1212       0.017021443    15.784851      744.60898     -26.10169       718.50729    
   1718000   295.45034      0.017021443    8.0280855      733.02043     -28.148161      704.87227    
   1719000   308.24571      0.017021443   -1.8014026      764.76611     -26.286216      738.47989    
   1720000   304.48142      0.017021443    11.406902      755.42678     -24.340692      731.08609    
   1721000   286.97101      0.017021443    15.902036      711.98299     -25.621422      686.36157    
   1722000   291.59185      0.017021443    7.2521639      723.44742     -24.882889      698.56453    
   1723000   301.16362      0.017021443    7.5416036      747.19524     -21.432381      725.76286    
   1724000   305.72563      0.017021443    7.4072771      758.5137      -24.842199      733.67151    
   1725000   300.22865      0.017021443    10.20636       744.87555     -22.5771        722.29845    
   1726000   295.31536      0.017021443    17.291354      732.68554     -26.832439      705.8531     
   1727000   295.60124      0.017021443    14.526023      733.39483     -24.328578      709.06626    
   1728000   294.95685      0.017021443    5.6790277      731.79607     -27.641969      704.1541     
   1729000   307.15665      0.017021443    12.192834      762.06413     -22.376052      739.68807    
   1730000   303.7498       0.017021443    12.508194      753.61162     -21.561405      732.05022    
   1731000   292.58772      0.017021443    2.6627429      725.91819     -21.021657      704.89653    
   1732000   301.44325      0.017021443    8.1372659      747.889       -22.126329      725.76267    
   1733000   308.03401      0.017021443    12.379885      764.24087     -20.297114      743.94375    
   1734000   299.78389      0.017021443    11.832688      743.77208     -24.021495      719.75059    
   1735000   292.01892      0.017021443    7.9835605      724.50699     -27.318906      697.18809    
   1736000   297.88266      0.017021443    9.0190932      739.05508     -32.012934      707.04215    
   1737000   298.48815      0.017021443    9.9339734      740.55734     -31.192062      709.36528    
   1738000   303.61991      0.017021443    7.3586215      753.28937     -30.624126      722.66524    
   1739000   296.77894      0.017021443    8.5419961      736.31673     -26.145543      710.17119    
   1740000   302.05958      0.017021443    12.955362      749.41815     -25.835074      723.58308    
   1741000   303.37233      0.017021443    10.057565      752.67511     -30.84282       721.83229    
   1742000   311.3513       0.017021443    6.0261646      772.47115     -31.30891       741.16224    
   1743000   288.19222      0.017021443    4.7707681      715.01283     -31.809061      683.20377    
   1744000   298.2096       0.017021443    10.922587      739.86624     -33.364171      706.50207    
   1745000   320.65067      0.017021443    6.2868661      795.54316     -30.412106      765.13105    
   1746000   324.59513      0.017021443    13.843976      805.32947     -31.847224      773.48225    
   1747000   301.20762      0.017021443    5.2067821      747.3044      -34.248345      713.05606    
   1748000   287.73917      0.017021443    14.907498      713.8888      -26.045612      687.84319    
   1749000   307.34202      0.017021443    15.089888      762.52402     -27.747043      734.77698    
   1750000   308.89396      0.017021443    5.9342447      766.37444     -30.368917      736.00552    
   1751000   293.07657      0.017021443   -1.2935482      727.13105     -29.213992      697.91706    
   1752000   291.72025      0.017021443    13.924734      723.76599     -29.701629      694.06436    
   1753000   315.21397      0.017021443    11.794718      782.05456     -25.123887      756.93067    
   1754000   310.74847      0.017021443   -1.3250362      770.97553     -24.113385      746.86214    
   1755000   282.90686      0.017021443    8.7178873      701.89971     -27.1102        674.78951    
   1756000   294.86229      0.017021443    9.1750331      731.56146     -25.81331       705.74815    
   1757000   323.04477      0.017021443    10.621755      801.48299     -26.897185      774.5858     
   1758000   304.52773      0.017021443    9.3365318      755.54168     -25.900509      729.64117    
   1759000   294.10292      0.017021443    9.524134       729.67745     -23.49878       706.17867    
   1760000   296.77966      0.017021443    11.049706      736.31853     -25.883062      710.43547    
   1761000   301.81218      0.017021443    8.8217441      748.80434     -25.251374      723.55297    
   1762000   294.93661      0.017021443    7.6519059      731.74586     -26.629718      705.11614    
   1763000   305.26005      0.017021443    11.520707      757.35861     -27.787595      729.57101    
   1764000   304.78266      0.017021443    8.7044093      756.17419     -25.291354      730.88284    
   1765000   301.87035      0.017021443    8.834327       748.94867     -28.304779      720.64389    
   1766000   304.1105       0.017021443    10.247312      754.50653     -29.217816      725.28872    
   1767000   298.56971      0.017021443    8.6807901      740.75967     -29.467882      711.29179    
   1768000   308.19888      0.017021443    9.3560266      764.64993     -26.060726      738.5892     
   1769000   303.38908      0.017021443    9.2508683      752.71668     -22.870611      729.84607    
   1770000   316.81824      0.017021443    9.2080035      786.03478     -26.034324      760.00045    
   1771000   292.54619      0.017021443    8.2763952      725.81517     -21.020219      704.79495    
   1772000   291.51174      0.017021443    9.8500183      723.24867     -23.108069      700.1406     
   1773000   313.71734      0.017021443    14.418372      778.34136     -22.992008      755.34935    
   1774000   301.42299      0.017021443    4.626019       747.83874     -24.657529      723.18121    
   1775000   287.09967      0.017021443    11.642759      712.3022      -24.238978      688.06322    
   1776000   307.98592      0.017021443    9.8738826      764.12157     -21.467705      742.65386    
   1777000   312.49458      0.017021443    4.4013616      775.30767     -27.073458      748.23422    
   1778000   285.41164      0.017021443    7.3901403      708.11416     -27.942994      680.17116    
   1779000   302.1701       0.017021443    9.6866272      749.69235     -30.978461      718.71388    
   1780000   304.242        0.017021443    13.661346      754.83278     -28.12905       726.70373    
   1781000   303.5284       0.017021443    7.6969649      753.06232     -27.654742      725.40757    
   1782000   300.69797      0.017021443    8.3831877      746.03995     -26.426354      719.6136     
   1783000   300.6614       0.017021443    11.413705      745.94922     -28.432707      717.51651    
   1784000   296.21287      0.017021443    9.391095       734.91229     -24.186103      710.72619    
   1785000   304.16753      0.017021443    9.6695199      754.64804     -18.085874      736.56216    
   1786000   296.0327       0.017021443    9.3181617      734.46528     -24.681553      709.78373    
   1787000   290.24921      0.017021443    9.0662919      720.11628     -27.06446       693.05182    
   1788000   302.17649      0.017021443    10.480389      749.7082      -27.825969      721.88223    
   1789000   308.52955      0.017021443    10.180505      765.47032     -26.104683      739.36564    
   1790000   279.31998      0.017021443    8.0476612      693.00057     -26.107375      666.89319    
   1791000   296.19616      0.017021443    9.3407139      734.87083     -25.827359      709.04347    
   1792000   311.67323      0.017021443    11.205571      773.26987     -26.245514      747.02435    
   1793000   301.15757      0.017021443    8.6227367      747.18024     -24.891173      722.28906    
   1794000   300.47979      0.017021443    6.5068398      745.49864     -22.733564      722.76507    
   1795000   288.99704      0.017021443    8.4143187      717.00961     -25.880848      691.12876    
   1796000   302.0958       0.017021443    10.892969      749.50802     -33.376573      716.13144    
   1797000   312.29945      0.017021443    9.3542592      774.82355     -31.005598      743.81795    
   1798000   309.82146      0.017021443    5.0326664      768.67558     -27.180223      741.49536    
   1799000   282.8574       0.017021443    7.520112       701.777       -29.386556      672.39045    
   1800000   304.30174      0.017021443    9.9206991      754.98101     -30.791741      724.18927    
   1801000   313.75083      0.017021443    11.288625      778.42446     -24.840691      753.58377    
   1802000   291.36931      0.017021443    8.7924286      722.8953      -26.561897      696.3334     
   1803000   296.11127      0.017021443    9.2714917      734.66023     -24.42156       710.23867    
   1804000   302.82801      0.017021443    9.023314       751.32465     -25.068011      726.25664    
   1805000   296.27881      0.017021443    7.108316       735.07589     -22.706486      712.3694     
   1806000   300.69129      0.017021443    9.9211366      746.02338     -22.767225      723.25616    
   1807000   297.90541      0.017021443    10.507885      739.11154     -19.83071       719.28083    
   1808000   312.07178      0.017021443    8.4327756      774.25868     -25.732274      748.5264     
   1809000   292.67286      0.017021443    8.8884939      726.12943     -22.439436      703.68999    
   1810000   307.3952       0.017021443    9.8538607      762.65596     -21.892294      740.76366    
   1811000   298.53277      0.017021443    8.7876585      740.66803     -25.46745       715.20058    
   1812000   306.50821      0.017021443    6.9441584      760.45531     -29.80386       730.65145    
   1813000   316.05104      0.017021443    9.7224984      784.13135     -30.896307      753.23504    
   1814000   294.37542      0.017021443    8.7236273      730.35354     -31.94957       698.40397    
   1815000   300.08461      0.017021443    8.6522072      744.51819     -30.320922      714.19727    
   1816000   302.74805      0.017021443    9.9542414      751.12626     -28.825712      722.30054    
   1817000   297.13327      0.017021443    9.0514541      737.19584     -30.837196      706.35864    
   1818000   286.79867      0.017021443    9.7014165      711.55542     -31.742865      679.81255    
   1819000   316.12651      0.017021443    10.179869      784.31859     -27.823078      756.49552    
   1820000   297.25881      0.017021443    8.7494299      737.5073      -30.199038      707.30827    
   1821000   303.18828      0.017021443    10.763941      752.21847     -30.001352      722.21712    
   1822000   298.36949      0.017021443    11.372701      740.26293     -32.007497      708.25543    
   1823000   299.23405      0.017021443    10.351876      742.40792     -30.574698      711.83323    
   1824000   303.61101      0.017021443    9.38283        753.2673      -28.214543      725.05275    
   1825000   297.56332      0.017021443    8.8561915      738.2628      -30.45649       707.80631    
   1826000   313.86685      0.017021443    9.4972618      778.7123      -38.694246      740.01806    
   1827000   296.91213      0.017021443    8.4558514      736.64719     -40.980527      695.66666    
   1828000   292.03573      0.017021443    10.692337      724.54869     -37.719372      686.82932    
   1829000   312.09365      0.017021443    7.6189675      774.31296     -37.361098      736.95186    
   1830000   302.84898      0.017021443    7.7226504      751.37666     -38.443587      712.93307    
   1831000   290.79921      0.017021443    11.228239      721.48085     -33.225632      688.25522    
   1832000   295.52214      0.017021443    12.113137      733.19857     -29.428052      703.77051    
   1833000   310.68495      0.017021443    6.3327278      770.81793     -28.165839      742.65209    
   1834000   298.9671       0.017021443    8.6385564      741.74561     -26.38045       715.36516    
   1835000   301.21998      0.017021443    12.855074      747.33508     -25.573308      721.76177    
   1836000   298.02954      0.017021443    3.7527682      739.41951     -23.732172      715.68734    
   1837000   294.51532      0.017021443    10.595838      730.70062     -25.156515      705.54411    
   1838000   303.3121       0.017021443    14.50618       752.52569     -25.527123      726.99857    
   1839000   315.38261      0.017021443    6.0297782      782.47294     -29.084418      753.38853    
   1840000   295.48204      0.017021443    7.8151918      733.09909     -26.99945       706.09964    
   1841000   299.08762      0.017021443    10.369011      742.04462     -27.376558      714.66806    
   1842000   310.10077      0.017021443    8.5578623      769.36857     -27.142707      742.22586    
   1843000   298.79274      0.017021443    9.3954686      741.31302     -22.65997       718.65305    
   1844000   286.28943      0.017021443    8.364577       710.29196     -24.049962      686.242      
   1845000   300.80865      0.017021443    10.275879      746.31455     -24.495779      721.81877    
   1846000   319.55187      0.017021443    8.4477846      792.817       -25.861859      766.95514    
   1847000   314.16664      0.017021443    8.7869468      779.45609     -28.737161      750.71893    
   1848000   296.06184      0.017021443    4.7149409      734.53758     -29.717171      704.82041    
   1849000   304.80074      0.017021443    9.0232509      756.21903     -27.939907      728.27913    
   1850000   305.3694       0.017021443    9.0000317      757.6299      -26.943943      730.68596    
   1851000   298.7244       0.017021443    9.3039283      741.14347     -23.092165      718.05131    
   1852000   297.91468      0.017021443    9.5060295      739.13453     -22.434398      716.70014    
   1853000   303.08411      0.017021443    10.141297      751.96002     -25.571118      726.3889     
   1854000   302.25755      0.017021443    9.9092903      749.90931     -25.889478      724.01983    
   1855000   289.35539      0.017021443    8.3323153      717.89869     -27.318128      690.58056    
   1856000   304.18641      0.017021443    9.6170261      754.69487     -29.885183      724.80968    
   1857000   303.33554      0.017021443    9.1743512      752.58384     -30.564837      722.01901    
   1858000   308.32087      0.017021443    10.260811      764.95257     -28.656857      736.29571    
   1859000   297.79586      0.017021443    11.847094      738.83973     -27.3158        711.52393    
   1860000   284.09347      0.017021443    7.4576534      704.84372     -28.144689      676.69903    
   1861000   296.73997      0.017021443    7.9401337      736.22004     -26.144453      710.07559    
   1862000   309.2892       0.017021443    9.6035242      767.35504     -27.206         740.14904    
   1863000   299.10026      0.017021443    9.3078513      742.07599     -30.114454      711.96153    
   1864000   293.25293      0.017021443    8.0814582      727.56859     -31.711626      695.85697    
   1865000   314.66893      0.017021443    10.788719      780.70228     -27.046167      753.65612    
   1866000   283.38925      0.017021443    14.065031      703.09654     -32.749451      670.34709    
   1867000   290.33027      0.017021443    9.1621572      720.31741     -30.355421      689.96199    
   1868000   315.03215      0.017021443    7.8175251      781.60344     -29.770674      751.83277    
   1869000   307.68732      0.017021443    12.899905      763.38073     -28.987038      734.39369    
   1870000   290.37366      0.017021443    13.46236       720.42506     -32.030385      688.39467    
   1871000   290.73294      0.017021443   -3.8790848      721.31643     -31.087017      690.22941    
   1872000   294.15337      0.017021443    4.0068421      729.80262     -31.253175      698.54944    
   1873000   309.52881      0.017021443    16.062116      767.9495      -28.433972      739.51553    
   1874000   294.64008      0.017021443    16.731062      731.01015     -33.625143      697.38501    
   1875000   290.99644      0.017021443    3.8130545      721.97019     -30.528396      691.4418     
   1876000   318.78058      0.017021443    8.5379514      790.90339     -32.867104      758.03629    
   1877000   296.73795      0.017021443    20.957783      736.21504     -33.490578      702.72446    
   1878000   296.52992      0.017021443    11.256169      735.69891     -33.639428      702.05948    
   1879000   291.92802      0.017021443    0.29621022     724.28147     -33.743068      690.5384     
   1880000   311.04181      0.017021443   -2.4082344      771.7033      -32.3624        739.3409     
   1881000   313.43609      0.017021443    12.362745      777.64359     -30.944771      746.69882    
   1882000   286.36434      0.017021443    10.74928       710.47782     -29.706606      680.77121    
   1883000   293.97953      0.017021443    6.1329631      729.37133     -32.968208      696.40312    
   1884000   302.4709       0.017021443    8.2590809      750.43865     -28.471996      721.96665    
   1885000   308.31299      0.017021443    21.702483      764.93304     -32.182944      732.75009    
   1886000   293.67763      0.017021443    8.6031996      728.6223      -33.445436      695.17687    
   1887000   302.99195      0.017021443    7.4863323      751.73138     -40.817537      710.91384    
   1888000   306.17711      0.017021443    9.3660315      759.63386     -36.183372      723.45049    
   1889000   297.53197      0.017021443    11.413572      738.18501     -39.590369      698.59464    
   1890000   292.73353      0.017021443    8.9149806      726.27996     -40.009175      686.27079    
   1891000   296.89713      0.017021443    5.3356099      736.60995     -38.442405      698.16755    
   1892000   311.75369      0.017021443    9.8555724      773.4695      -39.337634      734.13186    
   1893000   305.59821      0.017021443    10.674863      758.19759     -32.332738      725.86485    
   1894000   282.84022      0.017021443    8.9470498      701.73437     -33.96994       667.76443    
   1895000   293.61985      0.017021443    8.43661        728.47895     -31.747873      696.73107    
   1896000   317.80035      0.017021443    10.329023      788.47142     -29.805622      758.6658     
   1897000   310.74604      0.017021443    11.047329      770.96949     -27.296482      743.67301    
   1898000   301.00896      0.017021443    8.9630218      746.81153     -26.355144      720.45638    
   1899000   293.97101      0.017021443    8.7772241      729.35017     -26.930305      702.41987    
   1900000   290.63348      0.017021443    8.8105835      721.06967     -26.030506      695.03916    
   1901000   301.19234      0.017021443    8.5005807      747.2665      -29.177993      718.0885     
   1902000   300.48475      0.017021443    9.5007994      745.51095     -28.308909      717.20204    
   1903000   290.70068      0.017021443    8.5972184      721.2364      -29.145226      692.09117    
   1904000   309.29044      0.017021443    6.4119652      767.35812     -23.718121      743.64       
   1905000   306.0912       0.017021443    10.776212      759.42071     -27.112279      732.30843    
   1906000   296.84933      0.017021443    9.0689216      736.49137     -29.468374      707.023      
   1907000   295.43683      0.017021443    6.7656203      732.98692     -29.714008      703.27292    
   1908000   301.86852      0.017021443    9.8315929      748.94411     -28.352933      720.59118    
   1909000   300.2435       0.017021443    13.697366      744.91241     -31.10784       713.80457    
   1910000   305.02399      0.017021443    0.25132972     756.77292     -26.667652      730.10526    
   1911000   305.36757      0.017021443    11.672373      757.62537     -30.030153      727.59521    
   1912000   288.91523      0.017021443    8.0618563      716.80664     -29.949119      686.85753    
   1913000   306.87259      0.017021443    2.0723344      761.35935     -30.827279      730.53208    
   1914000   317.60803      0.017021443    10.309365      787.99428     -32.685472      755.30881    
   1915000   297.97283      0.017021443    22.798714      739.2788      -26.959273      712.31953    
   1916000   290.72333      0.017021443    12.652862      721.29259     -33.209978      688.08261    
   1917000   303.0068       0.017021443    8.2644603      751.76823     -35.226632      716.5416     
   1918000   300.14099      0.017021443    0.65588459     744.65807     -33.207895      711.45017    
   1919000   302.80503      0.017021443    9.5947165      751.26763     -37.737348      713.53028    
   1920000   312.8918       0.017021443    10.794383      776.29318     -36.249167      740.04402    
   1921000   296.8032       0.017021443    11.215228      736.37692     -32.505971      703.87095    
   1922000   286.37759      0.017021443    7.1275221      710.51069     -34.57345       675.93724    
   1923000   298.47571      0.017021443    5.048424       740.52645     -35.792543      704.73391    
   1924000   310.13344      0.017021443    9.3850762      769.44962     -34.5988        734.85082    
   1925000   298.32049      0.017021443    9.4926662      740.14137     -32.394348      707.74702    
   1926000   300.86705      0.017021443    8.5169395      746.45945     -36.227303      710.23214    
   1927000   298.1469       0.017021443    7.7878068      739.71068     -33.355047      706.35563    
   1928000   301.23963      0.017021443    13.228533      747.38383     -30.423048      716.96078    
   1929000   298.16106      0.017021443    11.44066       739.74581     -32.085523      707.66028    
   1930000   306.64206      0.017021443    4.0936329      760.7874      -25.839696      734.9477     
   1931000   312.42095      0.017021443    7.1390535      775.12498     -29.154772      745.97021    
   1932000   286.83843      0.017021443    9.4890565      711.65406     -28.570133      683.08392    
   1933000   287.87689      0.017021443    15.049891      714.2305      -23.953172      690.27733    
   1934000   312.38015      0.017021443    9.225295       775.02377     -23.745837      751.27793    
   1935000   292.71226      0.017021443    5.2122866      726.22718     -25.985914      700.24127    
   1936000   288.93153      0.017021443    10.513283      716.84709     -28.646974      688.20011    
   1937000   299.31581      0.017021443    13.710034      742.61078     -35.38154       707.22924    
   1938000   306.1036       0.017021443    3.8435835      759.45148     -29.301748      730.14973    
   1939000   301.11765      0.017021443    0.55039676     747.08118     -32.556999      714.52418    
   1940000   289.09472      0.017021443    14.423448      717.25198     -29.342854      687.90913    
   1941000   304.2102       0.017021443    8.9355743      754.75389     -27.521484      727.23241    
   1942000   297.93498      0.017021443   -5.5215295      739.18491     -30.89171       708.2932     
   1943000   297.66601      0.017021443    9.8043699      738.51757     -29.086524      709.43105    
   1944000   282.58424      0.017021443    10.767916      701.09928     -28.737026      672.36226    
   1945000   303.88939      0.017021443    14.067         753.95794     -26.568791      727.38915    
   1946000   311.94674      0.017021443    3.6496531      773.94846     -24.092473      749.85599    
   1947000   291.64991      0.017021443    6.2895215      723.59147     -28.72325       694.86822    
   1948000   299.40327      0.017021443    27.395123      742.82777     -28.105525      714.72225    
   1949000   312.25826      0.017021443    5.6831912      774.72135     -26.230184      748.49117    
   1950000   283.57266      0.017021443    9.8194246      703.55158     -26.999881      676.5517     
   1951000   295.76248      0.017021443    16.666238      733.79487     -23.028474      710.76639    
   1952000   308.04418      0.017021443    7.7619151      764.26611     -26.760133      737.50597    
   1953000   313.63813      0.017021443   -1.251369       778.14486     -29.663389      748.48147    
   1954000   300.81309      0.017021443    9.3687943      746.32556     -28.135235      718.19032    
   1955000   310.80768      0.017021443    10.100607      771.12243     -26.009255      745.11317    
   1956000   298.37662      0.017021443    6.6548112      740.28061     -23.388657      716.89195    
   1957000   297.66125      0.017021443    8.4390005      738.50576     -28.480998      710.02476    
   1958000   293.89189      0.017021443    6.1604517      729.15388     -28.093071      701.06081    
   1959000   296.68911      0.017021443    9.9649589      736.09386     -25.021087      711.07277    
   1960000   308.12807      0.017021443    9.8688606      764.47424     -33.216288      731.25795    
   1961000   298.46881      0.017021443    7.2158408      740.50936     -23.229444      717.27991    
   1962000   302.88384      0.017021443    11.72596       751.46315     -27.707457      723.75569    
   1963000   302.44542      0.017021443    10.224635      750.37543     -27.161745      723.21368    
   1964000   303.0062       0.017021443    9.0550594      751.76673     -29.164712      722.60201    
   1965000   304.62645      0.017021443    6.9389874      755.78662     -28.823478      726.96314    
   1966000   292.80011      0.017021443    10.879344      726.44514     -27.598554      698.84659    
   1967000   305.87634      0.017021443    9.9209078      758.88762     -27.558212      731.32941    
   1968000   297.20994      0.017021443    9.9017065      737.38605     -26.432855      710.9532     
   1969000   297.4955       0.017021443    8.5438559      738.09454     -25.820577      712.27396    
   1970000   301.93957      0.017021443    10.395251      749.12039     -22.15736       726.96303    
   1971000   300.24057      0.017021443    9.3916376      744.90512     -25.074465      719.83066    
   1972000   310.28007      0.017021443    9.2618431      769.8134      -22.946924      746.86648    
   1973000   295.59045      0.017021443    8.4961295      733.36806     -22.891646      710.47641    
   1974000   302.28657      0.017021443    10.747882      749.9813      -26.967788      723.01351    
   1975000   308.50423      0.017021443    9.8480633      765.40751     -23.946131      741.46138    
   1976000   296.43889      0.017021443    7.2286611      735.47306     -19.538395      715.93466    
   1977000   290.64029      0.017021443    10.927661      721.08658     -22.972261      698.11431    
   1978000   290.31979      0.017021443    7.7778293      720.29141     -23.402031      696.88938    
   1979000   295.23762      0.017021443    14.98351       732.49267     -23.91031       708.58236    
   1980000   322.0482       0.017021443    8.6714864      799.01047     -23.132355      775.87812    
   1981000   299.65742      0.017021443    6.1471093      743.45832     -22.763707      720.69461    
   1982000   287.63415      0.017021443    13.61103       713.62827     -24.225231      689.40303    
   1983000   298.83513      0.017021443    10.205337      741.41819     -23.220334      718.19786    
   1984000   300.41796      0.017021443    6.8286445      745.34525     -28.32596       717.01929    
   1985000   303.88855      0.017021443    7.0975041      753.95586     -30.070757      723.8851     
   1986000   296.06314      0.017021443    21.112671      734.54081     -33.393356      701.14746    
   1987000   302.04064      0.017021443    10.871427      749.37114     -29.935261      719.43588    
   1988000   312.64635      0.017021443    9.3098692      775.68422     -25.712241      749.97198    
   1989000   291.50509      0.017021443    4.7736679      723.23217     -26.35892       696.87325    
   1990000   305.6855       0.017021443    23.252849      758.41416     -24.502692      733.91147    
   1991000   307.15467      0.017021443   -8.1350215      762.05921     -27.708168      734.35104    
   1992000   307.55417      0.017021443    6.7107032      763.05036     -30.561512      732.48885    
   1993000   292.61708      0.017021443    13.102748      725.99103     -29.673276      696.31775    
   1994000   292.07886      0.017021443    12.180803      724.65571     -30.576101      694.07961    
   1995000   309.99386      0.017021443    10.843015      769.10332     -35.606879      733.49644    
   1996000   295.20919      0.017021443   -10.061356      732.42213     -32.187725      700.2344     
   1997000   287.62782      0.017021443    15.422054      713.61254     -33.003188      680.60935    
   1998000   293.50657      0.017021443    9.5721963      728.19788     -31.377072      696.82081    
   1999000   306.6999       0.017021443    10.923681      760.93092     -27.648501      733.28242    
   2000000   307.96532      0.017021443    0.21696292     764.07044     -30.37482       733.69562    
   2001000   297.79021      0.017021443    9.4667202      738.82571     -28.944834      709.88087    
   2002000   298.03486      0.017021443    9.2579784      739.43271     -33.946898      705.48581    
   2003000   320.22613      0.017021443    10.739519      794.48985     -30.269147      764.22071    
   2004000   312.89138      0.017021443    8.2810211      776.29213     -31.328426      744.96371    
   2005000   291.76958      0.017021443    2.4289388      723.88837     -29.845333      694.04304    
   2006000   304.85484      0.017021443    12.001834      756.35326     -30.084438      726.26882    
   2007000   312.23608      0.017021443    11.254834      774.66633     -27.589845      747.07648    
   2008000   295.86224      0.017021443    7.0103534      734.04238     -26.515336      707.52705    
   2009000   293.56812      0.017021443    8.2872386      728.35059     -28.601347      699.74924    
   2010000   309.68116      0.017021443    13.132836      768.3275      -28.527726      739.79978    
   2011000   303.95755      0.017021443    6.1291318      754.12706     -33.078272      721.04879    
   2012000   297.84204      0.017021443    9.9555253      738.9543      -28.694291      710.26001    
   2013000   300.91033      0.017021443    10.813603      746.56681     -30.386328      716.18049    
   2014000   293.29474      0.017021443    5.1082254      727.67233     -31.531167      696.14116    
   2015000   304.38086      0.017021443    11.693734      755.1773      -33.21726       721.96004    
   2016000   315.16622      0.017021443    9.4990712      781.93608     -32.350157      749.58592    
   2017000   301.61413      0.017021443    4.014732       748.31297     -33.529195      714.78378    
   2018000   291.95278      0.017021443    7.9550174      724.34289     -38.605105      685.73779    
   2019000   298.12479      0.017021443    12.118141      739.65583     -35.923295      703.73254    
   2020000   301.39164      0.017021443    8.5541327      747.76098     -30.813163      716.94782    
   2021000   302.34217      0.017021443    7.7625849      750.11925     -26.156735      723.96252    
   2022000   293.86034      0.017021443    14.525011      729.0756      -23.707983      705.36761    
   2023000   312.95679      0.017021443    7.3777277      776.45443     -25.669139      750.78529    
   2024000   294.36486      0.017021443    4.7932754      730.32734     -27.317277      703.01006    
   2025000   285.56537      0.017021443    12.550497      708.49555     -23.393173      685.10238    
   2026000   306.29404      0.017021443    12.518337      759.92395     -21.770713      738.15324    
   2027000   303.6584       0.017021443    6.9261864      753.38487     -26.465618      726.91925    
   2028000   290.47909      0.017021443    7.4332879      720.68662     -26.769245      693.91738    
   2029000   316.11157      0.017021443    17.682996      784.28151     -26.577471      757.70404    
   2030000   310.58936      0.017021443    7.9345741      770.58076     -24.752942      745.82782    
   2031000   287.60597      0.017021443    2.9626876      713.55834     -31.181541      682.37679    
   2032000   288.83679      0.017021443    8.5291598      716.61204     -28.447581      688.16446    
   2033000   302.19054      0.017021443    10.480627      749.74307     -29.748001      719.99507    
   2034000   312.0006       0.017021443    8.8153271      774.08209     -25.710017      748.37208    
   2035000   297.73596      0.017021443    6.7497087      738.69113     -23.8289        714.86223    
   2036000   293.02213      0.017021443    8.3732018      726.99597     -21.605363      705.39061    
   2037000   312.36696      0.017021443    11.229749      774.99104     -24.431399      750.55964    
   2038000   304.08597      0.017021443    11.749948      754.44568     -27.20499       727.24069    
   2039000   286.08773      0.017021443    6.8139577      709.79153     -28.919433      680.8721     
   2040000   302.49321      0.017021443    2.8040132      750.49398     -34.994232      715.49975    
   2041000   312.444        0.017021443    9.0031128      775.18217     -30.066917      745.11526    
   2042000   303.59995      0.017021443    13.418955      753.23985     -34.48869       718.75116    
   2043000   296.55635      0.017021443    9.6218769      735.76448     -32.530841      703.23364    
   2044000   295.56458      0.017021443    7.603462       733.30388     -28.256609      705.04727    
   2045000   307.12836      0.017021443    10.142648      761.99392     -23.898152      738.09577    
   2046000   307.12291      0.017021443    9.1792648      761.98042     -27.418826      734.56159    
   2047000   304.65035      0.017021443    10.54972       755.84591     -28.259382      727.58653    
   2048000   288.62229      0.017021443    8.444811       716.07985     -31.198674      684.88118    
   2049000   288.89727      0.017021443    7.2301045      716.76208     -34.163847      682.59823    
   2050000   302.33499      0.017021443    8.2458474      750.10145     -33.192193      716.90926    
   2051000   312.9107       0.017021443    9.1995523      776.34006     -32.054149      744.28591    
   2052000   299.68827      0.017021443    13.797147      743.53486     -29.078555      714.45631    
   2053000   290.81408      0.017021443    8.8604584      721.51774     -31.367279      690.15046    
   2054000   299.93867      0.017021443    2.5494804      744.15611     -25.189133      718.96697    
   2055000   310.96403      0.017021443    10.347185      771.51034     -23.85761       747.65273    
   2056000   288.56562      0.017021443    8.4902669      715.93925     -25.335839      690.60341    
   2057000   301.42029      0.017021443    1.8534011      747.83205     -25.714392      722.11765    
   2058000   300.28188      0.017021443    10.959958      745.00763     -22.452569      722.55506    
   2059000   290.94121      0.017021443    20.551607      721.83316     -21.742962      700.0902     
   2060000   286.76831      0.017021443    2.8602796      711.48009     -19.494112      691.98597    
   2061000   302.69859      0.017021443    5.2457354      751.00356     -20.704306      730.29925    
   2062000   313.27702      0.017021443    10.599176      777.24891     -21.676348      755.57256    
   2063000   297.86407      0.017021443    10.479271      739.00898     -17.590375      721.4186     
   2064000   297.02355      0.017021443    8.2425033      736.92362     -18.999689      717.92393    
   2065000   303.61105      0.017021443    9.2449107      753.2674      -20.16182       733.10558    
   2066000   313.35191      0.017021443    11.303514      777.43472     -22.579488      754.85523    
   2067000   296.12994      0.017021443    11.070192      734.70655     -23.286998      711.41955    
   2068000   282.10311      0.017021443    11.417645      699.90559     -26.009702      673.89589    
   2069000   300.70929      0.017021443    5.6923528      746.06803     -27.515576      718.55246    
   2070000   314.81535      0.017021443    13.013167      781.06555     -25.819498      755.24605    
   2071000   296.66242      0.017021443    14.49667       736.02765     -27.439429      708.58822    
   2072000   290.09547      0.017021443   -0.16430105     719.73486     -28.39745       691.33741    
   2073000   309.09907      0.017021443    8.0630057      766.8833      -24.96077       741.92253    
   2074000   310.67122      0.017021443    12.287564      770.78386     -24.141303      746.64256    
   2075000   285.34867      0.017021443    8.4886741      707.95792     -32.372499      675.58542    
   2076000   295.95709      0.017021443    6.333808       734.2777      -29.558469      704.71923    
   2077000   305.64153      0.017021443    13.080021      758.30505     -30.628935      727.67611    
   2078000   307.46671      0.017021443    18.614837      762.83339     -24.06237       738.77102    
   2079000   294.92352      0.017021443    1.2598714      731.71338     -26.910674      704.8027     
   2080000   300.68364      0.017021443    5.1845013      746.00439     -24.118689      721.8857     
   2081000   310.36926      0.017021443    17.60037       770.03469     -23.08389       746.9508     
   2082000   295.88111      0.017021443    7.9090618      734.08918     -24.164655      709.92453    
   2083000   298.81722      0.017021443    8.1046788      741.37377     -25.730143      715.64363    
   2084000   312.88358      0.017021443    9.3160894      776.27278     -26.459868      749.81291    
   2085000   299.25031      0.017021443    11.763255      742.44826     -26.103905      716.34435    
   2086000   277.93771      0.017021443    8.0037444      689.57111     -28.278876      661.29223    
   2087000   297.92741      0.017021443    4.9032075      739.16611     -30.231971      708.93413    
   2088000   309.11881      0.017021443    8.4301201      766.93228     -32.861227      734.07105    
   2089000   301.87115      0.017021443    17.377356      748.95063     -31.739812      717.21082    
   2090000   290.05247      0.017021443    8.0873734      719.62816     -31.772184      687.85598    
   2091000   302.48265      0.017021443    6.7185934      750.46779     -29.20841       721.25938    
   2092000   322.03925      0.017021443    10.582586      798.98827     -27.398175      771.59009    
   2093000   296.36739      0.017021443    7.0905943      735.29567     -26.334082      708.96159    
   2094000   297.90662      0.017021443    4.8744026      739.11453     -25.428052      713.68648    
   2095000   299.37446      0.017021443    11.157046      742.75629     -24.636569      718.11972    
   2096000   306.6392       0.017021443    12.450019      760.78031     -21.800755      738.97956    
   2097000   295.18276      0.017021443    2.7645142      732.35657     -29.516741      702.83983    
   2098000   298.99559      0.017021443    16.96352       741.81629     -26.774967      715.04132    
   2099000   288.17449      0.017021443    3.3696455      714.96886     -26.121762      688.8471     
   2100000   308.78516      0.017021443    7.1906016      766.1045      -27.361406      738.74309    
   2101000   299.47916      0.017021443    8.8375727      743.01606     -22.208488      720.80757    
   2102000   297.93456      0.017021443    12.389918      739.18384     -25.737432      713.44641    
   2103000   309.84708      0.017021443    9.2649943      768.73914     -26.078711      742.66043    
   2104000   310.6722       0.017021443    7.7435535      770.78628     -28.797825      741.98846    
   2105000   294.38076      0.017021443    9.9003894      730.36678     -25.553136      704.81364    
   2106000   293.76137      0.017021443    9.9339383      728.83005     -21.464498      707.36555    
   2107000   300.98508      0.017021443    10.903481      746.75229     -25.878129      720.87416    
   2108000   297.52716      0.017021443    10.173724      738.17309     -23.82029       714.3528     
   2109000   305.48327      0.017021443    8.087733       757.91242     -23.652128      734.26029    
   2110000   304.69923      0.017021443    8.2911299      755.96719     -27.283938      728.68325    
   2111000   294.99066      0.017021443    8.9139933      731.87995     -23.254817      708.62514    
   2112000   289.0239       0.017021443    12.144175      717.07627     -25.786604      691.28967    
   2113000   298.7019       0.017021443    13.981812      741.08765     -25.360857      715.72679    
   2114000   318.73799      0.017021443    6.9821003      790.79774     -25.927229      764.87051    
   2115000   299.71483      0.017021443    5.3379614      743.60076     -28.825699      714.77507    
   2116000   292.33548      0.017021443    9.5124746      725.29239     -28.512691      696.7797     
   2117000   312.8135       0.017021443    12.077753      776.09892     -31.190295      744.90863    
   2118000   320.54379      0.017021443    8.0260389      795.27797     -27.475599      767.80237    
   2119000   286.99272      0.017021443    10.296852      712.03686     -32.867453      679.1694     
   2120000   296.10977      0.017021443    8.5608237      734.65651     -31.115027      703.54148    
   2121000   306.17866      0.017021443    12.446074      759.6377      -26.753788      732.88391    
   2122000   288.1797       0.017021443    8.0402781      714.98177     -28.237888      686.74388    
   2123000   297.9839       0.017021443    9.1264304      739.30628     -25.314595      713.99169    
   2124000   307.9857       0.017021443    7.9425118      764.12101     -24.745628      739.37539    
   2125000   299.62016      0.017021443    5.1008302      743.36588     -22.867177      720.4987     
   2126000   282.96028      0.017021443    8.6428515      702.03225     -27.242897      674.78935    
   2127000   306.40804      0.017021443    11.008902      760.20679     -26.449475      733.75732    
   2128000   311.47037      0.017021443    10.695965      772.76658     -20.450083      752.31649    
   2129000   307.24067      0.017021443    10.795739      762.27256     -22.223285      740.04928    
   2130000   295.06097      0.017021443    9.0739017      732.05441     -19.843972      712.21044    
   2131000   293.06872      0.017021443    8.1833823      727.11156     -17.928981      709.18258    
   2132000   311.78968      0.017021443    8.5801542      773.5588      -18.398754      755.16005    
   2133000   305.38076      0.017021443    16.771233      757.65809     -17.543491      740.1146     
   2134000   280.76899      0.017021443    8.4843897      696.59562     -21.229898      675.36572    
   2135000   284.23465      0.017021443    3.8039598      705.19401     -20.239615      684.95439    
   2136000   316.7796       0.017021443    5.3721966      785.93892     -21.112622      764.8263     
   2137000   301.14866      0.017021443    11.670768      747.15813     -23.563237      723.5949     
   2138000   286.28501      0.017021443    5.784156       710.28099     -21.074937      689.20605    
   2139000   308.43395      0.017021443    8.3840807      765.23312     -20.378407      744.85472    
   2140000   310.02545      0.017021443    11.870897      769.18169     -20.460207      748.72149    
   2141000   294.45967      0.017021443    12.791828      730.56255     -23.693226      706.86933    
   2142000   296.47526      0.017021443    5.019887       735.56328     -24.034216      711.52906    
   2143000   303.64185      0.017021443    9.4093826      753.3438      -27.232391      726.11141    
   2144000   291.64535      0.017021443    9.8909322      723.58015     -22.260541      701.31961    
   2145000   285.64125      0.017021443    10.028354      708.68382     -25.043255      683.64056    
   2146000   300.75179      0.017021443    8.6860186      746.17349     -19.260622      726.91287    
   2147000   301.08578      0.017021443    9.7876669      747.00212     -19.465789      727.53634    
   2148000   298.64332      0.017021443    8.3609885      740.94231     -20.474472      720.46784    
   2149000   302.85859      0.017021443    8.5117914      751.4005      -19.940839      731.45966    
   2150000   297.62828      0.017021443    8.5197924      738.42396     -20.315498      718.10846    
   2151000   301.71359      0.017021443    8.76393        748.55973     -20.450975      728.10875    
   2152000   326.89544      0.017021443    12.973895      811.0366      -22.931505      788.1051     
   2153000   302.93795      0.017021443    9.2261074      751.59741     -23.83775       727.75966    
   2154000   300.9487       0.017021443    8.5468268      746.66203     -27.540455      719.12157    
   2155000   302.40195      0.017021443    9.7847834      750.26758     -23.42493       726.84265    
   2156000   297.57124      0.017021443    8.8043337      738.28245     -25.270782      713.01166    
   2157000   306.45179      0.017021443    10.5155        760.31534     -23.752885      736.56246    
   2158000   303.29931      0.017021443    6.0842986      752.49395     -18.515929      733.97802    
   2159000   282.41041      0.017021443    8.164188       700.66801     -20.038612      680.6294     
   2160000   301.47225      0.017021443    10.417462      747.96096     -18.944122      729.01684    
   2161000   315.12862      0.017021443    9.386187       781.84278     -19.156099      762.68669    
   2162000   293.12465      0.017021443    9.5395451      727.25035     -19.751128      707.49922    
   2163000   294.24086      0.017021443    8.5114132      730.01968     -20.870669      709.14901    
   2164000   305.20942      0.017021443    11.295026      757.23298     -21.73925       735.49373    
   2165000   323.90742      0.017021443    10.459937      803.62325     -27.216616      776.40663    
   2166000   303.62303      0.017021443    10.737129      753.2971      -21.328932      731.96817    
   2167000   299.24627      0.017021443    8.3902687      742.43824     -25.288451      717.14978    
   2168000   306.06301      0.017021443    8.5622147      759.35075     -28.834306      730.51645    
   2169000   309.2068       0.017021443    10.933955      767.1506      -28.119032      739.03156    
   2170000   294.02874      0.017021443    8.6978688      729.49342     -24.056605      705.43681    
   2171000   291.01526      0.017021443    8.531783       722.01687     -25.888044      696.12883    
   2172000   312.9305       0.017021443    8.3951944      776.3892      -25.52376       750.86544    
   2173000   304.96048      0.017021443    9.3509271      756.61537     -28.572601      728.04277    
   2174000   290.96431      0.017021443    7.1759773      721.89048     -32.396698      689.49378    
   2175000   291.1587       0.017021443    9.6190319      722.37276     -31.315669      691.05709    
   2176000   307.40139      0.017021443    10.44249       762.67131     -30.490164      732.18115    
   2177000   309.92923      0.017021443    9.2209461      768.94296     -32.701389      736.24157    
   2178000   292.02816      0.017021443    8.2016148      724.52991     -30.391413      694.1385     
   2179000   296.08571      0.017021443    11.454407      734.5968      -30.57645       704.02035    
   2180000   306.53263      0.017021443    9.4390614      760.51591     -28.505868      732.01004    
   2181000   309.9408       0.017021443    8.9093699      768.97167     -30.834348      738.13733    
   2182000   301.35716      0.017021443    7.8621792      747.67543     -32.388591      715.28684    
   2183000   294.20896      0.017021443    11.46838       729.94053     -30.234484      699.70605    
   2184000   305.35826      0.017021443    11.595032      757.60225     -32.285705      725.31654    
   2185000   306.55211      0.017021443    7.3837896      760.56423     -37.945725      722.61851    
   2186000   289.68758      0.017021443    7.6428774      718.72286     -35.487432      683.23543    
   2187000   295.23244      0.017021443    13.641445      732.47983     -32.016342      700.46349    
   2188000   321.11941      0.017021443    11.630918      796.70611     -35.001376      761.70474    
   2189000   308.76366      0.017021443    8.987776       766.05115     -36.279702      729.77144    
   2190000   291.38581      0.017021443    7.6846461      722.93623     -37.058258      685.87797    
   2191000   288.44547      0.017021443    14.588642      715.64115     -37.877153      677.764      
   2192000   305.2183       0.017021443    9.6818942      757.25502     -27.597162      729.65785    
   2193000   303.24935      0.017021443    8.0431694      752.37        -28.61974       723.75026    
   2194000   289.66563      0.017021443    6.9046536      718.66842     -29.748608      688.91981    
   2195000   300.22834      0.017021443    11.687214      744.87479     -27.610337      717.26446    
   2196000   329.97806      0.017021443    9.4600232      818.68466     -25.722529      792.96213    
   2197000   316.31359      0.017021443    8.4613922      784.78273     -29.341626      755.4411     
   2198000   286.90882      0.017021443    9.9069778      711.82869     -25.107867      686.72082    
   2199000   301.60808      0.017021443    10.45016       748.29795     -26.414946      721.883      
   2200000   297.96393      0.017021443    8.0151729      739.25672     -26.223055      713.03367    
   2201000   300.89475      0.017021443    9.3580069      746.52817     -27.283239      719.24494    
   2202000   300.8327       0.017021443    8.2877137      746.37422     -31.450575      714.92364    
   2203000   300.6347       0.017021443    9.2477887      745.88297     -26.663774      719.2192     
   2204000   311.80563      0.017021443    7.6704017      773.59836     -25.982105      747.61626    
   2205000   288.37684      0.017021443    8.3084924      715.47088     -27.662334      687.80855    
   2206000   301.51818      0.017021443    9.8347491      748.07491     -25.272988      722.80193    
   2207000   313.00926      0.017021443    9.7604957      776.5846      -24.292538      752.29207    
   2208000   287.41833      0.017021443    5.5631233      713.09281     -25.199503      687.89331    
   2209000   285.28831      0.017021443    11.28354       707.80816     -27.627713      680.18044    
   2210000   310.44234      0.017021443    9.8375439      770.216       -27.073844      743.14215    
   2211000   312.97848      0.017021443    7.9091925      776.50824     -29.342629      747.16562    
   2212000   290.58285      0.017021443    8.2215452      720.94407     -28.926811      692.01726    
   2213000   301.37931      0.017021443    14.244212      747.73038     -29.876208      717.85417    
   2214000   308.24557      0.017021443    10.50733       764.76575     -27.156629      737.60912    
   2215000   312.49273      0.017021443    0.61982172     775.30307     -26.933067      748.37       
   2216000   287.70864      0.017021443    4.1028618      713.81306     -30.268022      683.54504    
   2217000   292.6715       0.017021443    13.296515      726.12607     -30.75368       695.37239    
   2218000   301.18108      0.017021443    12.766892      747.23855     -29.813169      717.42538    
   2219000   321.25734      0.017021443   -0.34329462     797.04832     -31.59119       765.45713    
   2220000   292.74407      0.017021443    8.2747341      726.30612     -29.809348      696.49677    
   2221000   285.62708      0.017021443    12.455413      708.64866     -31.723898      676.92476    
   2222000   308.56988      0.017021443    11.416049      765.57038     -32.359131      733.21125    
   2223000   296.28974      0.017021443    8.4329566      735.10301     -34.480557      700.62245    
   2224000   292.57193      0.017021443    8.5277687      725.87903     -34.602311      691.27672    
   2225000   304.38299      0.017021443    8.5686722      755.18258     -34.19555       720.98703    
   2226000   291.79928      0.017021443    12.898088      723.96205     -32.332502      691.62955    
   2227000   296.4281       0.017021443    7.7795744      735.44628     -34.457106      700.98917    
   2228000   307.4092       0.017021443    8.8578716      762.69071     -31.502817      731.18789    
   2229000   298.23748      0.017021443    7.7502979      739.93541     -30.205317      709.73009    
   2230000   295.09893      0.017021443    8.9831639      732.14857     -26.172527      705.97604    
   2231000   312.02825      0.017021443    9.7298019      774.1507      -27.163909      746.98679    
   2232000   303.22671      0.017021443    9.0471409      752.31382     -31.012653      721.30117    
   2233000   285.87912      0.017021443    9.5388326      709.27398     -22.893178      686.38081    
   2234000   305.19092      0.017021443    9.5508342      757.18708     -28.409123      728.77796    
   2235000   315.2588       0.017021443    9.9486304      782.16576     -29.019982      753.14578    
   2236000   296.43749      0.017021443    10.517779      735.46958     -29.436204      706.03337    
   2237000   294.85149      0.017021443    8.3833694      731.53468     -29.903447      701.63123    
   2238000   320.25382      0.017021443    7.4727068      794.55854     -29.449785      765.10876    
   2239000   289.36296      0.017021443    10.945366      717.91749     -31.466992      686.4505     
   2240000   298.86756      0.017021443    8.5543228      741.49865     -35.214247      706.28441    
   2241000   303.27327      0.017021443    8.5050677      752.42934     -38.737638      713.6917     
   2242000   318.18204      0.017021443    9.9355864      789.41842     -46.075818      743.3426     
   2243000   292.62354      0.017021443    8.8015206      726.00707     -40.557146      685.44992    
   2244000   295.7992       0.017021443    10.083249      733.88596     -35.799208      698.08675    
   2245000   323.24375      0.017021443    9.4075572      801.97664     -33.560524      768.41612    
   2246000   297.90833      0.017021443    9.2697846      739.11878     -25.641696      713.47709    
   2247000   289.38053      0.017021443    7.0078923      717.96107     -25.81782       692.14325    
   2248000   305.65482      0.017021443    9.9847159      758.33803     -26.02508       732.31295    
   2249000   307.89984      0.017021443    9.8338269      763.908       -29.856668      734.05133    
   2250000   300.65644      0.017021443    12.228655      745.93691     -29.846169      716.09074    
   2251000   296.84164      0.017021443    9.7658707      736.47229     -27.813624      708.65867    
   2252000   299.7597       0.017021443    6.6335615      743.71208     -27.032058      716.68002    
   2253000   310.35109      0.017021443    10.398076      769.9896      -22.528379      747.46122    
   2254000   304.20109      0.017021443    9.1144732      754.7313      -26.755228      727.97607    
   2255000   283.32009      0.017021443    9.0111552      702.92496     -26.791081      676.13388    
   2256000   294.76697      0.017021443    7.8574407      731.32499     -29.369955      701.95504    
   2257000   305.0161       0.017021443    9.5815905      756.75335     -21.48556       735.26779    
   2258000   309.61106      0.017021443    8.6722804      768.15357     -27.988938      740.16463    
   2259000   296.05407      0.017021443    9.3338151      734.51831     -27.30138       707.21693    
   2260000   289.83927      0.017021443    8.5850903      719.09921     -29.272427      689.82678    
   2261000   299.02014      0.017021443    9.0734493      741.87722     -28.59463       713.28259    
   2262000   317.89292      0.017021443    8.509535       788.70109     -24.859144      763.84195    
   2263000   298.28607      0.017021443    9.4847338      740.05595     -25.325715      714.73024    
   2264000   293.34316      0.017021443    9.1195771      727.79246     -27.205809      700.58665    
   2265000   302.55358      0.017021443    9.1887461      750.64376     -24.20102       726.44274    
   2266000   307.44696      0.017021443    9.6145517      762.78438     -21.552194      741.23218    
   2267000   309.63127      0.017021443    12.058056      768.20373     -22.739957      745.46377    
   2268000   289.37615      0.017021443    9.4996527      717.95021     -24.630948      693.31926    
   2269000   298.42904      0.017021443    5.9330477      740.41068     -29.899885      710.5108     
   2270000   302.14853      0.017021443    8.7996491      749.63883     -26.293418      723.34542    
   2271000   305.24119      0.017021443    10.562143      757.31182     -27.011051      730.30077    
   2272000   300.40014      0.017021443    8.0144397      745.30103     -28.704331      716.5967     
   2273000   294.32468      0.017021443    7.8715984      730.22765     -28.065243      702.16241    
   2274000   311.04131      0.017021443    7.6313413      771.70206     -25.310634      746.39142    
   2275000   319.47094      0.017021443    9.2269893      792.61622     -21.143499      771.47272    
   2276000   308.26103      0.017021443    9.5167701      764.80411     -22.929599      741.87451    
   2277000   290.7729       0.017021443    9.5285431      721.41557     -23.010222      698.40535    
   2278000   304.99864      0.017021443    10.676368      756.71003     -23.070693      733.63933    
   2279000   308.51375      0.017021443    8.827012       765.43111     -22.999948      742.43116    
   2280000   312.52608      0.017021443    9.0135562      775.38581     -24.830417      750.55539    
   2281000   285.41064      0.017021443    8.7628174      708.11166     -22.66976       685.4419     
   2282000   295.93201      0.017021443    8.8373697      734.21548     -24.335233      709.88025    
   2283000   314.2985       0.017021443    10.46014       779.78324     -26.333943      753.4493     
   2284000   316.2745       0.017021443    9.8568803      784.68576     -28.239607      756.44616    
   2285000   291.98281      0.017021443    8.7737266      724.41739     -24.884295      699.5331     
   2286000   289.73167      0.017021443    9.8079073      718.83227     -26.020298      692.81197    
   2287000   305.53785      0.017021443    9.7284145      758.04784     -28.530851      729.51699    
   2288000   309.91505      0.017021443    8.7389117      768.90778     -26.860932      742.04685    
   2289000   296.48409      0.017021443    8.8262282      735.58521     -25.486358      710.09885    
   2290000   286.53144      0.017021443    6.7285925      710.8924      -31.308384      679.58402    
   2291000   301.02679      0.017021443    12.056661      746.85575     -28.486422      718.36933    
   2292000   308.13393      0.017021443    8.6659459      764.48877     -24.227621      740.26115    
   2293000   297.49627      0.017021443    8.2298001      738.09644     -29.795933      708.30051    
   2294000   294.90396      0.017021443    8.3996943      731.66485     -31.039709      700.62514    
   2295000   301.44329      0.017021443    11.448036      747.88912     -29.821896      718.06722    
   2296000   307.66944      0.017021443    9.6488692      763.33635     -32.706602      730.62975    
   2297000   299.73613      0.017021443    8.9822942      743.65361     -36.354105      707.29951    
   2298000   305.75235      0.017021443    9.6933123      758.58001     -37.067546      721.51247    
   2299000   293.01838      0.017021443    8.8576769      726.98669     -34.908833      692.07785    
   2300000   306.23149      0.017021443    11.355254      759.76876     -34.655771      725.11299    
   2301000   298.36997      0.017021443    8.1910299      740.26412     -41.11998       699.14414    
   2302000   307.12213      0.017021443    9.7744288      761.97847     -38.904895      723.07357    
   2303000   302.51299      0.017021443    8.7052231      750.54307     -31.169221      719.37385    
   2304000   302.82495      0.017021443    6.5942071      751.31706     -33.34319       717.97387    
   2305000   309.71421      0.017021443    9.0118665      768.40949     -32.229559      736.17993    
   2306000   311.87916      0.017021443    10.331968      773.78079     -30.379009      743.40178    
   2307000   298.00786      0.017021443    9.2036237      739.36571     -29.559408      709.8063     
   2308000   296.63771      0.017021443    8.1198559      735.96632     -27.908975      708.05735    
   2309000   296.66242      0.017021443    9.7938814      736.02765     -25.201932      710.82571    
   2310000   312.44792      0.017021443    13.473581      775.19189     -25.124849      750.06704    
   2311000   299.6474       0.017021443    6.5572382      743.43346     -27.161707      716.27175    
   2312000   287.83391      0.017021443    8.8854927      714.12386     -29.6407        684.48316    
   2313000   292.87839      0.017021443    10.991818      726.63935     -33.010827      693.62853    
   2314000   309.37436      0.017021443    3.3018714      767.56632     -25.162373      742.40395    
   2315000   300.62247      0.017021443    5.8287429      745.85264     -32.743465      713.10918    
   2316000   301.16035      0.017021443    10.062784      747.18714     -31.304073      715.88307    
   2317000   304.4932       0.017021443    5.4600657      755.45601     -34.310065      721.14595    
   2318000   310.87972      0.017021443   -1.0491886      771.30115     -38.086802      733.21435    
   2319000   298.17784      0.017021443    6.637159       739.78745     -33.87036       705.91709    
   2320000   289.3528       0.017021443    18.217623      717.89228     -31.540031      686.35225    
   2321000   293.40523      0.017021443    11.929614      727.94646     -30.114742      697.83172    
   2322000   309.53414      0.017021443   -12.864666      767.96274     -31.779798      736.18294    
   2323000   297.46533      0.017021443    14.205959      738.01969     -28.924794      709.0949     
   2324000   302.03355      0.017021443    16.522237      749.35357     -28.694303      720.65926    
   2325000   305.47348      0.017021443    7.1990849      757.88813     -27.068108      730.82003    
   2326000   306.6572       0.017021443    6.3340068      760.82496     -27.888782      732.93618    
   2327000   298.29503      0.017021443    12.00364       740.07819     -24.865039      715.21315    
   2328000   303.70132      0.017021443    14.4388        753.49134     -24.550913      728.94043    
   2329000   302.01317      0.017021443    5.2699637      749.303       -24.885859      724.41714    
   2330000   290.44167      0.017021443    9.0804184      720.5938      -24.11482       696.47898    
   2331000   296.12088      0.017021443    13.661902      734.68406     -28.131931      706.55213    
   2332000   313.55441      0.017021443    11.539797      777.93712     -22.81713       755.11999    
   2333000   295.77882      0.017021443   -4.8620662      733.8354      -24.483549      709.35185    
   2334000   280.7431       0.017021443    11.496515      696.53138     -25.953         670.57838    
   2335000   305.17787      0.017021443    10.829898      757.15471     -23.976346      733.17836    
   2336000   312.68145      0.017021443    14.031717      775.7713      -25.056336      750.71496    
   2337000   296.94574      0.017021443    0.26907388     736.73056     -27.894543      708.83602    
   2338000   292.51442      0.017021443    9.5196925      725.73634     -28.844442      696.8919     
   2339000   300.15208      0.017021443    12.346197      744.68559     -27.07619       717.6094     
   2340000   324.43413      0.017021443    4.3275168      804.93001     -30.732043      774.19797    
   2341000   294.30687      0.017021443    7.4282056      730.18345     -26.906073      703.27737    
   2342000   300.73349      0.017021443    13.240456      746.12808     -27.45813       718.66995    
   2343000   302.30106      0.017021443    9.5350274      750.01725     -29.484177      720.53307    
   2344000   293.47958      0.017021443    8.1886511      728.13093     -27.537299      700.59363    
   2345000   286.97291      0.017021443    10.617329      711.98769     -30.109299      681.87839    
   2346000   289.74989      0.017021443    9.1804809      718.87745     -29.06874       689.80871    
   2347000   310.38255      0.017021443    8.9481424      770.06765     -28.126985      741.94067    
   2348000   301.08211      0.017021443    8.6547399      746.99301     -29.784297      717.20871    
   2349000   293.89904      0.017021443    9.4743837      729.17163     -30.306995      698.86463    
   2350000   306.2012       0.017021443    11.231971      759.69362     -34.377877      725.31574    
   2351000   308.57872      0.017021443    6.2308444      765.59231     -33.204725      732.38758    
   2352000   295.22967      0.017021443    7.519681       732.47296     -33.538767      698.93419    
   2353000   283.67523      0.017021443    11.826436      703.80607     -31.148059      672.65802    
   2354000   312.38157      0.017021443    10.708692      775.02729     -27.289541      747.73775    
   2355000   299.08429      0.017021443    6.4419436      742.03636     -24.666909      717.36945    
   2356000   293.6818       0.017021443    8.8267655      728.63264     -22.816633      705.81601    
   2357000   306.23594      0.017021443    10.960914      759.77981     -21.267097      738.51271    
   2358000   306.83676      0.017021443    7.3599079      761.27047     -22.737194      738.53328    
   2359000   296.39635      0.017021443    9.0526138      735.36751     -30.255024      705.11249    
   2360000   291.35458      0.017021443    9.4524244      722.85873     -30.118046      692.74069    
   2361000   308.88059      0.017021443    9.5053085      766.34125     -32.588289      733.75297    
   2362000   303.05544      0.017021443    9.742907       751.8889      -32.671992      719.21691    
   2363000   284.88468      0.017021443    8.5924508      706.80676     -33.615378      673.19138    
   2364000   296.733        0.017021443    7.281841       736.20276     -31.463477      704.73928    
   2365000   319.16693      0.017021443    11.742834      791.86195     -25.800635      766.06131    
   2366000   294.33524      0.017021443    9.3503425      730.25384     -31.195375      699.05846    
   2367000   301.82226      0.017021443    3.4342663      748.82934     -29.833127      718.99621    
   2368000   310.823        0.017021443    10.94294       771.16043     -30.360371      740.80006    
   2369000   309.11375      0.017021443    13.061675      766.91973     -33.077976      733.84175    
   2370000   287.11705      0.017021443    10.370659      712.34533     -27.708037      684.63729    
   2371000   296.36692      0.017021443    7.8183493      735.29451     -28.879528      706.41498    
   2372000   304.60053      0.017021443    9.6968663      755.7223      -31.175788      724.54651    
   2373000   297.97726      0.017021443    8.3103977      739.28979     -31.00442       708.28537    
   2374000   287.67353      0.017021443    7.9268395      713.72597     -27.126408      686.59956    
   2375000   309.0639       0.017021443    10.261633      766.79606     -24.275675      742.52038    
   2376000   302.02313      0.017021443    9.6093356      749.3277      -23.40448       725.92322    
   2377000   297.26701      0.017021443    8.9251489      737.52765     -25.316198      712.21145    
   2378000   296.8365       0.017021443    8.968932       736.45955     -26.373801      710.08575    
   2379000   302.90774      0.017021443    7.507661       751.52245     -25.715586      725.80686    
   2380000   299.458        0.017021443    9.7101534      742.96354     -26.595645      716.3679     
   2381000   292.55652      0.017021443    9.5911592      725.8408      -26.662315      699.17849    
   2382000   285.86243      0.017021443    7.9265308      709.23256     -31.819026      677.41354    
   2383000   315.68388      0.017021443    9.306206       783.22041     -27.677818      755.5426     
   2384000   296.4934       0.017021443    6.7946735      735.60829     -29.241922      706.36637    
   2385000   283.71233      0.017021443    12.280071      703.89812     -28.653035      675.24508    
   2386000   295.4329       0.017021443    9.1275253      732.97717     -29.588178      703.38899    
   2387000   314.57529      0.017021443    11.682236      780.46996     -30.350278      750.11968    
   2388000   299.36476      0.017021443    9.3941424      742.73222     -32.277303      710.45492    
   2389000   286.54625      0.017021443    7.8045655      710.92914     -26.397283      684.53186    
   2390000   299.33201      0.017021443    8.7919214      742.65096     -27.331726      715.31923    
   2391000   301.03268      0.017021443    8.4145185      746.87037     -26.951484      719.91888    
   2392000   297.80926      0.017021443    9.3598768      738.87299     -28.546775      710.32622    
   2393000   300.56933      0.017021443    8.4346564      745.72079     -28.200077      717.52071    
   2394000   305.74881      0.017021443    10.554834      758.57122     -31.435941      727.13528    
   2395000   300.52694      0.017021443    9.4827411      745.61563     -35.269044      710.34658    
   2396000   298.96919      0.017021443    5.2492892      741.75081     -35.456031      706.29478    
   2397000   309.97656      0.017021443    9.0534682      769.06038     -33.847678      735.2127     
   2398000   310.51729      0.017021443    10.75031       770.40196     -33.531958      736.87       
   2399000   302.20117      0.017021443    8.3381835      749.76944     -31.452662      718.31678    
   2400000   281.99289      0.017021443    8.0312543      699.63212     -31.156445      668.47568    
   2401000   295.768        0.017021443    10.857923      733.80855     -27.778379      706.03018    
   2402000   304.29983      0.017021443    12.007161      754.97626     -31.167887      723.80837    
   2403000   292.46133      0.017021443    9.2569259      725.60463     -31.977822      693.62681    
   2404000   284.57426      0.017021443    5.3707431      706.03657     -29.719922      676.31665    
   2405000   306.38138      0.017021443    11.833283      760.14064     -34.952677      725.18797    
   2406000   308.41674      0.017021443    5.9103284      765.19043     -31.748371      733.44205    
   2407000   280.51855      0.017021443    3.2894315      695.97426     -32.255783      663.71847    
   2408000   291.53689      0.017021443    8.0570377      723.31107     -33.83585       689.47522    
   2409000   302.41799      0.017021443    10.794735      750.30738     -27.710684      722.5967     
   2410000   304.32377      0.017021443    8.9482337      755.03566     -25.56601       729.46965    
   2411000   305.78225      0.017021443    5.7452908      758.65418     -26.557791      732.09639    
   2412000   297.07565      0.017021443    8.9058911      737.05288     -27.772299      709.28058    
   2413000   296.40123      0.017021443    11.139369      735.37963     -30.372327      705.0073     
   2414000   300.14872      0.017021443    10.208402      744.67724     -28.104246      716.57299    
   2415000   299.64175      0.017021443    8.5320108      743.41943     -22.025789      721.39364    
   2416000   298.85008      0.017021443    8.7669521      741.4553      -20.559414      720.89588    
   2417000   308.12258      0.017021443    9.8312658      764.46061     -23.605018      740.85559    
   2418000   301.05334      0.017021443    6.9173742      746.92163     -28.878447      718.04318    
   2419000   301.16385      0.017021443    8.5346546      747.1958      -31.675245      715.52056    
   2420000   312.28808      0.017021443    18.230387      774.79533     -27.907156      746.88818    
   2421000   298.6159       0.017021443    6.3760781      740.87427     -27.342738      713.53153    
   2422000   293.60894      0.017021443    4.782959       728.45186     -27.201274      701.25059    
   2423000   300.48601      0.017021443    12.287079      745.51408     -26.565669      718.94841    
   2424000   307.18269      0.017021443    8.5571103      762.12872     -26.363688      735.76503    
   2425000   285.14767      0.017021443    6.1693165      707.45922     -25.393769      682.06545    
   2426000   288.19926      0.017021443    10.265591      715.03032     -25.589913      689.44041    
   2427000   315.29847      0.017021443    10.856884      782.26419     -26.557239      755.70695    
   2428000   301.04902      0.017021443    8.8480966      746.91091     -27.046375      719.86454    
   2429000   295.84668      0.017021443    11.20432       734.00377     -26.033891      707.96988    
   2430000   296.7631       0.017021443    10.078106      736.27743     -27.371621      708.90581    
   2431000   307.39276      0.017021443    9.4911915      762.64992     -26.97925       735.67067    
   2432000   303.20819      0.017021443    3.7972279      752.26789     -30.11632       722.15157    
   2433000   299.64096      0.017021443    9.9667367      743.41747     -28.081323      715.33615    
   2434000   300.6359       0.017021443    15.177339      745.88596     -29.41753       716.46843    
   2435000   309.45389      0.017021443    11.683509      767.76364     -29.461773      738.30187    
   2436000   307.62248      0.017021443    8.3190556      763.21986     -24.971644      738.24822    
   2437000   289.79317      0.017021443    6.2352025      718.98485     -24.142944      694.84191    
   2438000   291.82127      0.017021443    10.726843      724.01662     -29.299085      694.71753    
   2439000   310.14472      0.017021443    11.322725      769.47761     -26.823711      742.6539     
   2440000   305.18861      0.017021443    17.222127      757.18135     -25.43495       731.7464     
   2441000   297.52686      0.017021443   -2.1631421      738.17235     -26.551564      711.62078    
   2442000   284.90528      0.017021443    18.580054      706.85785     -28.280029      678.57782    
   2443000   312.91987      0.017021443    18.995193      776.36283     -30.257605      746.10523    
   2444000   297.67215      0.017021443    6.031207       738.53281     -32.20308       706.32973    
   2445000   292.37936      0.017021443    6.7174126      725.40125     -28.404913      696.99634    
   2446000   300.54253      0.017021443    14.411984      745.65431     -30.752133      714.90218    
   2447000   298.84396      0.017021443    16.881083      741.44011     -30.257847      711.18226    
   2448000   305.77888      0.017021443    4.7838112      758.64584     -27.871644      730.7742     
   2449000   297.15515      0.017021443    8.2406577      737.25012     -22.885124      714.36499    
   2450000   287.55241      0.017021443    9.2983362      713.42545     -20.322754      693.1027     
   2451000   299.0666       0.017021443    10.839368      741.99247     -26.135621      715.85685    
   2452000   308.54357      0.017021443    10.649207      765.50511     -24.452491      741.05262    
   2453000   307.46208      0.017021443    6.6087837      762.82189     -22.452022      740.36987    
   2454000   302.94554      0.017021443    8.3560426      751.61622     -23.699526      727.9167     
   2455000   294.00341      0.017021443    9.9232233      729.43055     -24.896077      704.53448    
   2456000   297.67135      0.017021443    10.735001      738.53082     -25.691039      712.83978    
   2457000   301.31684      0.017021443    8.334523       747.57539     -27.660124      719.91527    
   2458000   300.0496       0.017021443    8.5903505      744.43133     -26.366514      718.06482    
   2459000   287.52066      0.017021443    11.352679      713.34669     -21.641959      691.70473    
   2460000   304.36807      0.017021443    8.2913228      755.14558     -19.995103      735.15048    
   2461000   293.9336       0.017021443    5.0712835      729.25736     -26.342476      702.91489    
   2462000   294.61261      0.017021443    10.912125      730.942       -24.2042        706.7378     
   2463000   306.92036      0.017021443    11.972189      761.47788     -25.605111      735.87277    
   2464000   290.89859      0.017021443    1.0265314      721.72741     -28.563062      693.16435    
   2465000   296.01905      0.017021443    11.872426      734.43143     -27.056871      707.37456    
   2466000   305.12435      0.017021443    11.224652      757.02191     -28.584544      728.43737    
   2467000   297.1181       0.017021443    10.781363      737.1582      -26.852694      710.3055     
   2468000   289.68479      0.017021443    8.4537535      718.71596     -26.872583      691.84337    
   2469000   276.94213      0.017021443    8.6860067      687.10107     -28.130705      658.97036    
   2470000   308.78648      0.017021443    8.2515838      766.10776     -24.274307      741.83346    
   2471000   320.40953      0.017021443    14.563821      794.94488     -25.268116      769.67676    
   2472000   303.31376      0.017021443    9.2574125      752.52981     -26.459952      726.06985    
   2473000   293.04545      0.017021443    9.3388264      727.05383     -25.402478      701.65135    
   2474000   297.92654      0.017021443    10.66063       739.16397     -26.271667      712.8923     
   2475000   302.84821      0.017021443    9.6800573      751.37476     -21.461632      729.91313    
   2476000   307.69449      0.017021443    9.282595       763.39851     -21.959813      741.43869    
   2477000   294.50736      0.017021443    10.986576      730.68088     -21.779123      708.90176    
   2478000   284.48372      0.017021443    8.1745871      705.81194     -25.534127      680.27782    
   2479000   286.60396      0.017021443    8.5945481      711.07234     -23.795248      687.27709    
   2480000   320.16235      0.017021443    9.72933        794.33161     -23.670563      770.66105    
   2481000   303.25937      0.017021443    11.491311      752.39485     -21.570725      730.82412    
   2482000   282.65768      0.017021443    4.4295439      701.28151     -25.751523      675.52998    
   2483000   282.06911      0.017021443    9.9178594      699.82124     -28.381065      671.44018    
   2484000   310.01254      0.017021443    6.9302752      769.14967     -26.067179      743.08249    
   2485000   305.88643      0.017021443    8.5339772      758.91267     -27.751188      731.16148    
   2486000   315.68236      0.017021443    14.863003      783.21664     -29.436785      753.77985    
   2487000   286.50829      0.017021443    13.373872      710.83496     -33.051376      677.78358    
   2488000   298.26331      0.017021443    7.7618455      739.99949     -28.572225      711.42727    
   2489000   312.91846      0.017021443    7.5357649      776.35933     -25.830266      750.52907    
   2490000   305.06297      0.017021443    10.497002      756.86963     -21.104462      735.76517    
   2491000   286.99591      0.017021443    12.263196      712.04476     -24.509067      687.5357     
   2492000   289.2542       0.017021443    6.1232579      717.64763     -22.378032      695.2696     
   2493000   313.1717       0.017021443    5.3631826      776.98761     -21.88606       755.10155    
   2494000   302.7324       0.017021443    24.030851      751.08743     -22.758014      728.32941    
   2495000   302.71806      0.017021443    5.9274947      751.05186     -25.959618      725.09224    
   2496000   300.55519      0.017021443   -2.8777648      745.68571     -25.58944       720.09627    
   2497000   301.14601      0.017021443    8.4553018      747.15156     -25.744237      721.40732    
   2498000   296.90479      0.017021443    19.272021      736.62898     -27.970168      708.65881    
   2499000   298.11921      0.017021443    11.525547      739.64198     -30.634075      709.0079     
   2500000   301.4581       0.017021443    8.5680264      747.92585     -29.277137      718.64871    
   2501000   290.3448       0.017021443    4.0859141      720.35345     -28.265334      692.08811    
   2502000   314.30648      0.017021443    5.4148429      779.80304     -31.350926      748.45211    
   2503000   302.99225      0.017021443    12.954265      751.73212     -33.502948      718.22918    
   2504000   285.6976       0.017021443    8.5120507      708.82362     -33.914943      674.90868    
   2505000   301.29527      0.017021443    8.6497157      747.52187     -31.375205      716.14666    
   2506000   322.3639       0.017021443    11.783421      799.79371     -25.984653      773.80906    
   2507000   292.66691      0.017021443    8.1833662      726.11466     -29.892104      696.22256    
   2508000   297.67017      0.017021443    9.1583274      738.52789     -32.780335      705.74755    
   2509000   301.52523      0.017021443    9.2670496      748.09241     -31.680422      716.41199    
   2510000   315.49422      0.017021443    13.163235      782.74985     -27.587256      755.16259    
   2511000   299.01977      0.017021443    8.9175815      741.87629     -21.24965       720.62664    
   2512000   307.07926      0.017021443    8.5158313      761.8721      -25.833062      736.03904    
   2513000   294.59282      0.017021443    8.90529        730.8929      -26.957948      703.93495    
   2514000   301.80556      0.017021443    8.7610681      748.78792     -26.508109      722.27981    
   2515000   302.09669      0.017021443    10.078437      749.51021     -24.479975      725.03024    
   2516000   312.32597      0.017021443    9.7179689      774.88933     -26.152655      748.73668    
   2517000   298.95715      0.017021443    8.9909914      741.72094     -26.570002      715.15093    
   2518000   292.25886      0.017021443    9.0390199      725.10228     -24.111256      700.99103    
   2519000   302.05011      0.017021443    7.8323695      749.39464     -24.643192      724.75145    
   2520000   308.21386      0.017021443    8.5337663      764.68709     -22.815757      741.87134    
   2521000   291.74755      0.017021443    10.186349      723.83371     -23.292966      700.54074    
   2522000   286.47013      0.017021443    9.2495992      710.74029     -23.301109      687.43918    
   2523000   314.42623      0.017021443    7.9842551      780.10015     -22.144463      757.95569    
   2524000   299.52336      0.017021443    14.637917      743.12571     -24.271147      718.85456    
   2525000   291.07218      0.017021443    6.4771061      722.15811     -22.366662      699.79144    
   2526000   295.57748      0.017021443    8.3237711      733.33587     -27.658285      705.67759    
   2527000   303.15694      0.017021443    11.95048       752.14073     -25.091759      727.04898    
   2528000   296.46307      0.017021443    15.246948      735.53304     -25.937996      709.59505    
   2529000   295.97127      0.017021443   -0.69051029     734.31288     -28.500001      705.81288    
   2530000   289.48423      0.017021443   -2.584558       718.21836     -22.771492      695.44687    
   2531000   302.15391      0.017021443    4.6354647      749.65219     -24.494962      725.15723    
   2532000   300.971        0.017021443    15.45295       746.71735     -24.338865      722.37849    
   2533000   300.38718      0.017021443    11.309446      745.26887     -27.906309      717.36256    
   2534000   291.04773      0.017021443    2.5570895      722.09743     -25.26249       696.83494    
   2535000   298.28091      0.017021443    8.9245343      740.04316     -25.74526       714.2979     
   2536000   303.15266      0.017021443    11.903152      752.13011     -24.756924      727.37318    
   2537000   299.02076      0.017021443    5.1576055      741.87876     -25.276174      716.60258    
   2538000   301.10591      0.017021443    5.4281136      747.05206     -24.444041      722.60802    
   2539000   303.58994      0.017021443    6.5458636      753.21501     -25.614523      727.60049    
   2540000   308.19006      0.017021443    9.6189666      764.62805     -19.017213      745.61083    
   2541000   302.89045      0.017021443    18.24367       751.47957     -27.287919      724.19165    
   2542000   304.20326      0.017021443    5.7606018      754.73667     -25.499571      729.2371     
   2543000   304.20739      0.017021443    8.1435063      754.74693     -27.185071      727.56186    
   2544000   294.13735      0.017021443    20.049728      729.76287     -31.298267      698.4646     
   2545000   298.93558      0.017021443    8.5422736      741.66742     -32.002589      709.66483    
   2546000   306.51643      0.017021443   -2.1335204      760.47572     -27.384196      733.09152    
   2547000   308.81881      0.017021443    1.5046913      766.18799     -28.218805      737.96919    
   2548000   290.82651      0.017021443    10.548011      721.54859     -30.710591      690.838      
   2549000   294.32275      0.017021443    9.524801       730.22285     -28.445862      701.77699    
   2550000   298.03465      0.017021443    2.3160772      739.43219     -31.491576      707.94061    
   2551000   316.69491      0.017021443    12.515903      785.72881     -32.141284      753.58752    
   2552000   292.84458      0.017021443    8.3497368      726.55549     -33.691327      692.86416    
   2553000   301.11061      0.017021443    8.3565911      747.06373     -32.829247      714.23448    
   2554000   297.75639      0.017021443    14.000718      738.74182     -30.140517      708.6013     
   2555000   292.38378      0.017021443    7.5359874      725.41222     -29.819869      695.59235    
   2556000   305.53928      0.017021443    5.7532324      758.05138     -29.397682      728.65369    
   2557000   302.33285      0.017021443    12.545269      750.09615     -31.915454      718.18069    
   2558000   297.46788      0.017021443    7.7837939      738.02602     -28.013346      710.01267    
   2559000   301.88899      0.017021443    8.8617877      748.9949      -24.695703      724.2992     
   2560000   302.33246      0.017021443    9.2230346      750.09517     -25.47158       724.62359    
   2561000   298.59646      0.017021443    8.0937226      740.82604     -30.828039      709.998      
   2562000   294.55251      0.017021443    11.248264      730.79289     -24.263544      706.52934    
   2563000   314.47407      0.017021443    10.850649      780.21884     -25.158015      755.06082    
   2564000   305.67664      0.017021443    4.3033259      758.39218     -27.221771      731.17041    
   2565000   287.94251      0.017021443    9.6625462      714.39329     -22.602309      691.79098    
   2566000   293.03493      0.017021443    9.1596155      727.02775     -24.711264      702.31649    
   2567000   316.90033      0.017021443    14.742336      786.23847     -29.765769      756.4727     
   2568000   305.06197      0.017021443    5.4389412      756.86716     -31.081302      725.78586    
   2569000   292.76017      0.017021443    9.4538107      726.34605     -29.164339      697.18171    
   2570000   290.75195      0.017021443    11.984203      721.3636      -32.402036      688.96156    
   2571000   313.00509      0.017021443    10.110742      776.57426     -34.347345      742.22692    
   2572000   298.47588      0.017021443   -2.1607418      740.52688     -33.461258      707.06562    
   2573000   299.64051      0.017021443    5.0144178      743.41635     -33.284227      710.13213    
   2574000   296.84647      0.017021443    14.511138      736.48428     -38.371285      698.113      
   2575000   308.05639      0.017021443    14.317271      764.29639     -28.509316      735.78707    
   2576000   307.45534      0.017021443    6.6598509      762.80517     -23.683896      739.12127    
   2577000   305.46156      0.017021443    5.5939331      757.85854     -26.029752      731.82879    
   2578000   302.89205      0.017021443    12.033556      751.48353     -26.707513      724.77602    
   2579000   314.17518      0.017021443    9.6996751      779.47727     -30.851165      748.6261     
   2580000   308.37555      0.017021443    9.7371755      765.08825     -30.52018       734.56807    
   2581000   301.9508       0.017021443    5.7350493      749.14827     -32.122713      717.02555    
   2582000   289.53207      0.017021443    3.7188486      718.33704     -32.479056      685.85798    
   2583000   294.95701      0.017021443    10.786022      731.79647     -31.946031      699.85044    
   2584000   299.29665      0.017021443    10.248416      742.56324     -28.160947      714.4023     
   2585000   298.91323      0.017021443    9.9568855      741.61197     -27.315688      714.29629    
   2586000   312.01221      0.017021443    10.033283      774.11089     -25.206013      748.90488    
   2587000   294.61132      0.017021443    8.4082778      730.93881     -31.334665      699.60414    
   2588000   304.03231      0.017021443    10.346904      754.31255     -33.605848      720.70671    
   2589000   308.56663      0.017021443    9.718981       765.56232     -30.969383      734.59294    
   2590000   295.25744      0.017021443    8.0893654      732.54185     -35.944711      696.59714    
   2591000   290.02672      0.017021443    8.5481674      719.56428     -38.999476      680.56481    
   2592000   302.89306      0.017021443    8.8847807      751.48602     -35.412108      716.07392    
   2593000   312.04866      0.017021443    8.7881101      774.20132     -36.820309      737.38101    
   2594000   299.0697       0.017021443    4.9484875      742.00016     -34.076118      707.92404    
   2595000   289.44134      0.017021443    7.5692543      718.11194     -33.628593      684.48334    
   2596000   305.48923      0.017021443    11.828178      757.92721     -33.254339      724.67287    
   2597000   298.57708      0.017021443    9.4759012      740.77796     -30.788069      709.98989    
   2598000   311.60488      0.017021443    9.6810988      773.10031     -34.700919      738.39939    
   2599000   301.8405       0.017021443    11.119856      748.87459     -33.031503      715.84309    
   2600000   291.21636      0.017021443    8.4714862      722.51581     -30.64938       691.86643    
   2601000   290.8437       0.017021443    8.1387756      721.59123     -28.88382       692.70741    
   2602000   302.8655       0.017021443    8.6731566      751.41765     -30.349837      721.06782    
   2603000   312.44627      0.017021443    10.849795      775.18781     -28.219172      746.96863    
   2604000   300.39101      0.017021443    9.0338586      745.27838     -23.365589      721.91279    
   2605000   308.87279      0.017021443    8.3920759      766.3219      -27.896598      738.42531    
   2606000   304.0114       0.017021443    9.754333       754.26067     -29.081231      725.17943    
   2607000   302.59634      0.017021443    9.1433876      750.74985     -33.758101      716.99175    
   2608000   287.42748      0.017021443    7.860159       713.1155      -35.681057      677.43445    
   2609000   309.49983      0.017021443    10.437555      767.8776      -32.434527      735.44307    
   2610000   292.72271      0.017021443    15.571926      726.25312     -32.451885      693.80123    
   2611000   297.97595      0.017021443    8.17466        739.28655     -35.230399      704.05615    
   2612000   299.32009      0.017021443    9.1982855      742.62139     -38.692651      703.92874    
   2613000   292.276        0.017021443    10.634027      725.14482     -30.562348      694.58247    
   2614000   293.2147       0.017021443    7.2570432      727.47376     -28.230843      699.24292    
   2615000   305.1178       0.017021443    9.7752308      757.00568     -31.37055       725.63512    
   2616000   306.30938      0.017021443    9.8646622      759.96202     -27.757827      732.20419    
   2617000   289.19525      0.017021443    7.9938424      717.5014      -31.256596      686.2448     
   2618000   297.21023      0.017021443    13.059262      737.38676     -32.354441      705.03232    
   2619000   306.78668      0.017021443    7.9997122      761.14621     -28.543729      732.60248    
   2620000   287.1242       0.017021443    7.053092       712.36306     -30.908213      681.45484    
   2621000   288.70733      0.017021443    8.7441494      716.29084     -34.554471      681.73637    
   2622000   293.99641      0.017021443    9.2512981      729.4132      -35.466457      693.94674    
   2623000   319.49255      0.017021443    9.7225869      792.66983     -32.310057      760.35978    
   2624000   305.90335      0.017021443    6.060491       758.95465     -26.759923      732.19472    
   2625000   296.6593       0.017021443    6.3254429      736.0199      -26.008144      710.01176    
   2626000   296.35585      0.017021443    8.6267243      735.26704     -26.946695      708.32034    
   2627000   299.977        0.017021443    10.501275      744.2512      -29.699985      714.55122    
   2628000   299.64474      0.017021443    8.9908604      743.42685     -29.724106      713.70275    
   2629000   307.21633      0.017021443    8.9830099      762.21219     -26.72469       735.4875     
   2630000   290.21519      0.017021443    8.6240508      720.0319      -29.97837       690.05353    
   2631000   301.47923      0.017021443    7.241157       747.97828     -32.151467      715.82682    
   2632000   303.34856      0.017021443    10.963636      752.61614     -30.273207      722.34293    
   2633000   296.35698      0.017021443    10.242483      735.26984     -32.020493      703.24935    
   2634000   297.08568      0.017021443    7.0358805      737.07776     -35.183707      701.89405    
   2635000   299.41548      0.017021443    8.7855291      742.85807     -31.689091      711.16898    
   2636000   302.28247      0.017021443    9.7535767      749.97114     -28.557175      721.41396    
   2637000   303.40615      0.017021443    9.7518217      752.75903     -29.384847      723.37419    
   2638000   298.04863      0.017021443    5.7013514      739.46687     -33.395916      706.07096    
   2639000   297.24036      0.017021443    10.022269      737.46152     -30.919367      706.54215    
   2640000   296.17932      0.017021443    10.847157      734.82906     -31.736038      703.09302    
   2641000   314.77612      0.017021443    6.5049721      780.96823     -32.722918      748.24531    
   2642000   304.70759      0.017021443    10.757393      755.98794     -32.920678      723.06726    
   2643000   307.86366      0.017021443    15.068429      763.81823     -33.52746       730.29077    
   2644000   303.82056      0.017021443    9.2846637      753.78719     -33.252033      720.53516    
   2645000   309.93522      0.017021443    7.3320205      768.95783     -33.332312      735.62552    
   2646000   304.57269      0.017021443    12.033646      755.65323     -34.874391      720.77884    
   2647000   302.12544      0.017021443    9.1275847      749.58155     -30.622094      718.95946    
   2648000   304.16709      0.017021443    6.2999124      754.64693     -29.776895      724.87003    
   2649000   292.78754      0.017021443    9.7873593      726.41396     -30.375849      696.03811    
   2650000   301.61817      0.017021443    11.881352      748.323       -36.878037      711.44496    
   2651000   298.41817      0.017021443    7.4828863      740.3837      -31.359183      709.02452    
   2652000   304.63852      0.017021443    6.5618929      755.81657     -36.917135      718.89943    
   2653000   300.43736      0.017021443    8.5882548      745.39338     -33.565764      711.82761    
   2654000   295.64192      0.017021443    10.492143      733.49575     -29.291761      704.20399    
   2655000   294.99301      0.017021443    8.0504926      731.8858      -32.935501      698.9503     
   2656000   314.69367      0.017021443    8.8465547      780.76367     -32.474259      748.28941    
   2657000   303.10929      0.017021443    8.2863372      752.02251     -34.633787      717.38872    
   2658000   297.74771      0.017021443    8.2993476      738.72028     -32.353034      706.36725    
   2659000   296.5991       0.017021443    8.8375558      735.87055     -29.072829      706.79772    
   2660000   310.99752      0.017021443    9.4524446      771.59343     -30.23019       741.36324    
   2661000   307.86272      0.017021443    9.1538689      763.8159      -27.059696      736.7562     
   2662000   279.43257      0.017021443    8.4798953      693.27991     -30.961642      662.31826    
   2663000   287.21639      0.017021443    7.6352589      712.59179     -32.166057      680.42573    
   2664000   308.68187      0.017021443    8.7480919      765.84822     -35.707102      730.14112    
   2665000   304.6606       0.017021443    9.2063168      755.87133     -30.889492      724.98184    
   2666000   293.8888       0.017021443    8.7854995      729.14622     -33.511252      695.63497    
   2667000   295.89314      0.017021443    10.439791      734.11903     -30.619471      703.49956    
   2668000   314.17363      0.017021443    11.010188      779.47344     -33.390662      746.08277    
   2669000   303.83656      0.017021443    5.0716119      753.82688     -33.424198      720.40268    
   2670000   301.49348      0.017021443    2.6320452      748.01363     -29.863926      718.1497     
   2671000   294.3554       0.017021443    8.4732634      730.30387     -32.42119       697.88268    
   2672000   301.39953      0.017021443    13.927172      747.78054     -30.673115      717.10743    
   2673000   297.04578      0.017021443    10.983266      736.97878     -29.88328       707.0955     
   2674000   297.13759      0.017021443   -2.5035266      737.20656     -28.580404      708.62615    
   2675000   303.34791      0.017021443    11.908214      752.61453     -29.386739      723.22779    
   2676000   298.11006      0.017021443    8.7644065      739.61927     -32.768172      706.8511     
   2677000   301.3143       0.017021443    6.7103206      747.56909     -25.314725      722.25437    
   2678000   289.22749      0.017021443    9.5914222      717.58137     -26.145212      691.43616    
   2679000   302.93451      0.017021443    11.901097      751.58886     -26.329624      725.25924    
   2680000   313.5077       0.017021443    8.2922535      777.82124     -25.478205      752.34304    
   2681000   294.47495      0.017021443    6.7221497      730.60048     -26.744027      703.85645    
   2682000   293.94858      0.017021443    6.9241203      729.29452     -27.437933      701.85659    
   2683000   292.75738      0.017021443    8.8597514      726.33912     -28.796627      697.54249    
   2684000   307.81826      0.017021443    9.7650959      763.7056      -30.446605      733.25899    
   2685000   290.47583      0.017021443    7.2062047      720.67854     -26.813577      693.86496    
   2686000   287.27958      0.017021443    10.046531      712.74855     -23.779182      688.96937    
   2687000   314.41064      0.017021443    10.140345      780.06146     -25.501509      754.55995    
   2688000   308.83624      0.017021443    8.3422691      766.23122     -26.862177      739.36904    
   2689000   292.81725      0.017021443    9.5110031      726.48766     -26.483224      700.00444    
   2690000   289.85482      0.017021443    12.879498      719.13779     -23.9973        695.14049    
   2691000   300.22479      0.017021443    10.179609      744.86597     -26.194071      718.6719     
   2692000   298.05972      0.017021443    9.0328574      739.49439     -27.142705      712.35169    
   2693000   314.07272      0.017021443    13.832227      779.22309     -25.148432      754.07465    
   2694000   291.33751      0.017021443    13.984577      722.8164      -29.561361      693.25504    
   2695000   282.01474      0.017021443    7.9860607      699.68635     -26.751192      672.93516    
   2696000   294.02543      0.017021443    9.2552392      729.48519     -27.400847      702.08434    
   2697000   300.7678       0.017021443    12.116169      746.21321     -24.677078      721.53614    
   2698000   313.89309      0.017021443    9.5180898      778.7774      -26.228011      752.54939    
   2699000   310.2578       0.017021443    8.1210875      769.75816     -23.235827      746.52234    
   2700000   291.85582      0.017021443    6.9908494      724.10233     -24.482362      699.61997    
   2701000   289.04235      0.017021443    9.6601472      717.12204     -23.449594      693.67245    
   2702000   315.33613      0.017021443    6.6645226      782.35762     -27.673958      754.68366    
   2703000   308.09589      0.017021443    8.3518562      764.3944      -33.260759      731.13364    
   2704000   297.39698      0.017021443    8.607447       737.85011     -30.616591      707.23352    
   2705000   305.16196      0.017021443    9.517747       757.11524     -31.393188      725.72206    
   2706000   312.56734      0.017021443    12.384224      775.48818     -29.736153      745.75203    
   2707000   301.38767      0.017021443    9.3601033      747.75111     -31.190915      716.5602     
   2708000   284.99529      0.017021443    7.9190277      707.08116     -26.327638      680.75352    
   2709000   306.76522      0.017021443    9.5572695      761.09295     -32.454731      728.63822    
   2710000   300.25566      0.017021443    10.220285      744.94258     -30.452414      714.49016    
   2711000   294.61052      0.017021443    8.9643591      730.93681     -33.867025      697.06979    
   2712000   291.26806      0.017021443    8.6969929      722.64408     -35.059939      687.58414    
   2713000   317.35663      0.017021443    12.116126      787.37056     -35.655291      751.71527    
   2714000   304.73681      0.017021443    6.9324266      756.06043     -32.612172      723.44826    
   2715000   289.88528      0.017021443    3.1773229      719.21337     -31.8251        687.38827    
   2716000   297.31082      0.017021443    12.088481      737.63633     -27.85099       709.78534    
   2717000   303.12212      0.017021443    12.973183      752.05433     -30.599942      721.45439    
   2718000   298.67137      0.017021443    4.531501       741.01191     -28.608282      712.40363    
   2719000   292.30058      0.017021443    7.2177033      725.20579     -30.2827        694.92309    
   2720000   312.67513      0.017021443    14.410871      775.75563     -27.151918      748.60371    
   2721000   314.47818      0.017021443    6.7721052      780.22904     -27.802945      752.4261     
   2722000   300.62604      0.017021443    5.6934206      745.8615      -28.591598      717.2699     
   2723000   289.06643      0.017021443    18.962538      717.18177     -33.34592       683.83585    
   2724000   304.87787      0.017021443    11.261467      756.4104      -32.651258      723.75914    
   2725000   307.67135      0.017021443    1.6495779      763.34111     -27.803183      735.53793    
   2726000   298.23128      0.017021443    7.821141       739.92003     -26.197397      713.72263    
   2727000   287.56804      0.017021443    6.8837656      713.46424     -25.815137      687.6491     
   2728000   300.80511      0.017021443    15.568358      746.30577     -31.270481      715.03529    
   2729000   322.03762      0.017021443    10.841996      798.98422     -24.611952      774.37226    
   2730000   291.92262      0.017021443    1.8989286      724.26807     -28.327895      695.94017    
   2731000   292.63795      0.017021443    12.854246      726.04282     -28.33306       697.70976    
   2732000   307.95239      0.017021443    8.6732391      764.03837     -28.233731      735.80464    
   2733000   296.13954      0.017021443    8.3293547      734.73037     -27.926766      706.8036     
   2734000   314.17685      0.017021443    11.898542      779.48141     -23.780869      755.70054    
   2735000   301.00973      0.017021443    11.848387      746.81345     -24.848782      721.96466    
   2736000   300.96816      0.017021443    6.1551515      746.7103      -23.929614      722.78069    
   2737000   297.74411      0.017021443    7.4836867      738.71134     -29.744235      708.9671     
   2738000   303.62077      0.017021443    13.185955      753.29149     -26.610888      726.6806     
   2739000   305.40553      0.017021443    5.9893715      757.71955     -27.515308      730.20424    
   2740000   291.87333      0.017021443    7.2591785      724.14577     -26.12761       698.01816    
   2741000   300.49606      0.017021443    9.793902       745.53901     -27.766428      717.77259    
   2742000   305.17423      0.017021443    10.940851      757.14568     -29.292314      727.85336    
   2743000   294.97987      0.017021443    3.318692       731.85319     -36.265053      695.58813    
   2744000   292.86144      0.017021443    2.1124052      726.59732     -31.512992      695.08432    
   2745000   307.16008      0.017021443    12.468758      762.07263     -24.456522      737.61611    
   2746000   312.61792      0.017021443    10.641961      775.61367     -29.359656      746.25402    
   2747000   307.71691      0.017021443    1.9735039      763.45413     -24.25792       739.19621    
   2748000   299.06046      0.017021443    8.1781652      741.97725     -28.716929      713.26032    
   2749000   299.90253      0.017021443    8.8986923      744.06645     -25.234213      718.83224    
   2750000   295.62559      0.017021443    10.732922      733.45524     -29.109738      704.3455     
   2751000   292.58348      0.017021443    13.923168      725.90768     -23.199134      702.70855    
   2752000   307.08759      0.017021443    9.3374786      761.89278     -27.019405      734.87337    
   2753000   299.51106      0.017021443    5.0304602      743.0952      -28.876836      714.21836    
   2754000   297.53454      0.017021443    7.2871526      738.19139     -27.633636      710.55776    
   2755000   287.97442      0.017021443    9.3424034      714.47248     -25.608766      688.86372    
   2756000   301.07469      0.017021443    12.770104      746.97461     -27.394645      719.57996    
   2757000   311.28648      0.017021443    8.564813       772.31034     -27.159674      745.15067    
   2758000   305.10816      0.017021443    7.836445       756.98175     -30.622784      726.35897    
   2759000   293.5796       0.017021443    10.235045      728.37907     -29.128447      699.25062    
   2760000   298.1562       0.017021443    16.302536      739.73374     -29.255461      710.47828    
   2761000   320.66662      0.017021443    11.852287      795.58272     -28.346094      767.23663    
   2762000   301.64415      0.017021443    8.8125682      748.38746     -30.305243      718.08221    
   2763000   300.1197       0.017021443    9.7939976      744.60525     -23.825709      720.77955    
   2764000   312.4762       0.017021443    8.8015079      775.26207     -27.132729      748.12934    
   2765000   298.54874      0.017021443    7.6437295      740.70765     -29.262538      711.44511    
   2766000   324.30011      0.017021443    13.696928      804.59752     -26.288771      778.30875    
   2767000   298.88361      0.017021443    9.2391902      741.53847     -28.995801      712.54267    
   2768000   297.11174      0.017021443    7.7770453      737.14241     -27.794079      709.34833    
   2769000   308.51205      0.017021443    9.6992064      765.4269      -22.905822      742.52108    
   2770000   295.23819      0.017021443    11.661442      732.49409     -24.894335      707.59975    
   2771000   299.43969      0.017021443    6.7763787      742.91813     -22.755429      720.1627     
   2772000   311.27991      0.017021443    6.2456112      772.29403     -26.16702       746.12701    
   2773000   294.92955      0.017021443    8.8426742      731.72833     -25.766889      705.96144    
   2774000   294.81963      0.017021443    9.9854913      731.45563     -31.400566      700.05507    
   2775000   299.69321      0.017021443    7.017611       743.54712     -29.157786      714.38934    
   2776000   300.26945      0.017021443    4.3447071      744.97678     -35.078282      709.8985     
   2777000   292.4161       0.017021443    9.1047373      725.49239     -29.521241      695.97115    
   2778000   301.84905      0.017021443    9.652522       748.89581     -26.59263       722.30318    
   2779000   302.44534      0.017021443    8.5614364      750.37523     -23.900445      726.47478    
   2780000   292.15048      0.017021443    3.682682       724.8334      -25.930887      698.90251    
   2781000   284.56051      0.017021443    0.44152579     706.00247     -27.110117      678.89235    
   2782000   309.32892      0.017021443    5.2977674      767.45358     -27.487018      739.96656    
   2783000   299.28666      0.017021443    12.598774      742.53845     -27.439756      715.09869    
   2784000   297.14797      0.017021443    0.23327967     737.23231     -28.387707      708.8446     
   2785000   301.35584      0.017021443    3.6413324      747.67214     -26.966246      720.7059     
   2786000   306.89797      0.017021443    8.0217407      761.42232     -24.411877      737.01044    
   2787000   307.36486      0.017021443    10.822108      762.58068     -27.043249      735.53743    
   2788000   293.95663      0.017021443    10.37277       729.31451     -26.506682      702.80783    
   2789000   287.56428      0.017021443    7.9674819      713.4549      -26.159306      687.2956     
   2790000   299.69474      0.017021443    9.2723973      743.55092     -27.81954       715.73138    
   2791000   310.95635      0.017021443    8.1309434      771.49128     -28.39431       743.09697    
   2792000   302.66792      0.017021443    12.066892      750.92746     -29.034017      721.89344    
   2793000   286.07593      0.017021443    8.352443       709.76228     -30.11789       679.64439    
   2794000   298.97436      0.017021443    3.935731       741.76362     -30.258454      711.50517    
   2795000   315.28098      0.017021443    18.273213      782.22081     -32.185288      750.03552    
   2796000   301.08096      0.017021443    9.2749995      746.99015     -27.895321      719.09483    
   2797000   306.74052      0.017021443    5.7686422      761.03168     -33.125324      727.90636    
   2798000   302.43644      0.017021443    10.573447      750.35315     -31.173924      719.17922    
   2799000   299.90193      0.017021443    8.4529392      744.06494     -34.804617      709.26033    
   2800000   298.07409      0.017021443    6.8881987      739.53003     -30.762514      708.76752    
   2801000   298.80524      0.017021443    7.8813805      741.34404     -31.146116      710.19793    
   2802000   313.97499      0.017021443    11.909056      778.98061     -31.296987      747.68362    
   2803000   294.67951      0.017021443    6.7090667      731.108       -30.500475      700.60752    
   2804000   297.77767      0.017021443    7.9435556      738.79461     -32.376289      706.41832    
   2805000   299.30187      0.017021443    7.7419765      742.57619     -28.313233      714.26296    
   2806000   303.8464       0.017021443    14.369623      753.8513      -28.985907      724.86539    
   2807000   293.97757      0.017021443    13.411981      729.36647     -28.899379      700.46709    
   2808000   295.5192       0.017021443    5.6723401      733.19128     -24.007971      709.18331    
   2809000   299.53412      0.017021443    1.7005292      743.15241     -23.003763      720.14864    
   2810000   294.08989      0.017021443    10.949115      729.64513     -21.502777      708.14235    
   2811000   294.76873      0.017021443    13.680487      731.32935     -23.229224      708.10013    
   2812000   306.93669      0.017021443    6.2318033      761.51839     -16.391681      745.12671    
   2813000   295.12997      0.017021443    4.3061004      732.2256      -21.991191      710.23441    
   2814000   304.05427      0.017021443    7.9619844      754.36703     -27.534606      726.83242    
   2815000   299.42439      0.017021443    13.715868      742.88018     -30.314497      712.56568    
   2816000   295.37022      0.017021443    10.071145      732.82165     -25.95544       706.86621    
   2817000   288.56799      0.017021443    9.0021488      715.94513     -27.867911      688.07722    
   2818000   303.74322      0.017021443    7.3624455      753.5953      -27.174876      726.42042    
   2819000   308.03542      0.017021443    11.764127      764.24437     -24.690258      739.55411    
   2820000   287.34174      0.017021443    11.060143      712.90279     -26.829566      686.07322    
   2821000   287.50555      0.017021443    9.3934991      713.30918     -25.929468      687.37972    
   2822000   304.73729      0.017021443    8.7748167      756.06162     -27.504679      728.55694    
   2823000   310.80493      0.017021443    7.1514649      771.11561     -26.54877       744.56684    
   2824000   291.4323       0.017021443    12.956001      723.05157     -22.847579      700.204      
   2825000   300.23409      0.017021443    8.2458468      744.88905     -24.864918      720.02413    
   2826000   304.67348      0.017021443    7.3528057      755.9033      -22.164361      733.73894    
   2827000   309.69615      0.017021443    9.9034023      768.36468     -23.061611      745.30307    
   2828000   290.9232       0.017021443    12.264054      721.78849     -27.924685      693.8638     
   2829000   297.30607      0.017021443    10.478208      737.62456     -23.383588      714.24097    
   2830000   294.77322      0.017021443    7.0591256      731.34048     -21.68453       709.65595    
   2831000   300.34124      0.017021443    6.0420448      745.15491     -24.617836      720.53707    
   2832000   304.18158      0.017021443    9.8045871      754.68288     -21.068954      733.61393    
   2833000   287.49437      0.017021443    8.2130137      713.28146     -23.663911      689.61755    
   2834000   295.65049      0.017021443    8.315165       733.51702     -20.44564       713.07138    
   2835000   305.24717      0.017021443    9.9070954      757.32664     -21.606473      735.72017    
   2836000   298.71527      0.017021443    7.6978476      741.12082     -26.151134      714.96969    
   2837000   296.91859      0.017021443    7.7933626      736.6632      -29.707157      706.95605    
   2838000   291.12418      0.017021443    14.409893      722.28711     -26.685933      695.60117    
   2839000   309.00738      0.017021443    8.6788595      766.65582     -23.614619      743.0412     
   2840000   302.65564      0.017021443    7.0226886      750.897       -22.687371      728.20962    
   2841000   295.51176      0.017021443    8.6983659      733.17281     -25.367329      707.80548    
   2842000   305.0274       0.017021443    15.209352      756.78139     -30.743559      726.03784    
   2843000   306.98098      0.017021443    8.6026114      761.62826     -28.223466      733.4048     
   2844000   297.69665      0.017021443    5.3514034      738.59358     -25.146667      713.44692    
   2845000   291.48853      0.017021443    10.739302      723.19109     -22.987528      700.20356    
   2846000   304.1206       0.017021443    8.8831103      754.5316      -29.089154      725.44244    
   2847000   318.58865      0.017021443    0.82772528     790.42721     -23.929595      766.49762    
   2848000   290.8781       0.017021443    6.7282037      721.67659     -28.785434      692.89116    
   2849000   293.58627      0.017021443    2.3840234      728.39563     -30.150847      698.24479    
   2850000   300.4901       0.017021443    12.313922      745.52423     -27.644412      717.87982    
   2851000   312.57117      0.017021443    22.148871      775.49769     -27.589544      747.90814    
   2852000   298.21034      0.017021443    4.3621446      739.86807     -32.269933      707.59814    
   2853000   287.89977      0.017021443   -2.0627252      714.28727     -23.031459      691.25581    
   2854000   310.67326      0.017021443    22.308022      770.78891     -25.649562      745.13935    
   2855000   310.7392       0.017021443    6.8393418      770.95253     -27.463836      743.48869    
   2856000   301.94031      0.017021443   -3.6035812      749.12222     -27.827901      721.29432    
   2857000   296.65034      0.017021443    1.309247       735.99768     -28.389529      707.60815    
   2858000   286.04396      0.017021443    13.589607      709.68295     -29.748212      679.93473    
   2859000   322.93205      0.017021443    10.357073      801.20331     -28.855638      772.34767    
   2860000   291.33906      0.017021443    2.612222       722.82024     -33.264695      689.55554    
   2861000   288.10533      0.017021443   -3.3997793      714.79727     -30.424626      684.37265    
   2862000   296.99907      0.017021443    8.6866626      736.86289     -26.850039      710.01285    
   2863000   308.36069      0.017021443    14.574645      765.05136     -29.773849      735.27751    
   2864000   309.54145      0.017021443    11.419683      767.98088     -30.264355      737.71652    
   2865000   292.36085      0.017021443    5.6227023      725.35532     -33.915255      691.44006    
   2866000   303.10818      0.017021443    16.650491      752.01975     -29.390949      722.62881    
   2867000   304.31372      0.017021443    11.184069      755.01072     -26.540919      728.4698     
   2868000   297.31919      0.017021443    8.6258714      737.65711     -24.594353      713.06275    
   2869000   305.98488      0.017021443    9.4314747      759.15693     -25.570778      733.58615    
   2870000   295.32633      0.017021443    8.7818972      732.71276     -27.096338      705.61642    
   2871000   307.43497      0.017021443    11.268262      762.75464     -24.399088      738.35555    
   2872000   305.16169      0.017021443    9.6429914      757.11457     -26.638982      730.47559    
   2873000   301.05255      0.017021443    5.9035363      746.91969     -27.319034      719.60065    
   2874000   299.71941      0.017021443    10.652861      743.61212     -29.904475      713.70764    
   2875000   320.6173       0.017021443    13.218736      795.46037     -31.606915      763.85345    
   2876000   297.99527      0.017021443    9.3793533      739.33449     -30.085353      709.24914    
   2877000   300.72488      0.017021443    7.4560025      746.10672     -33.942451      712.16427    
   2878000   302.28983      0.017021443    9.9935616      749.98939     -29.994612      719.99478    
   2879000   300.15617      0.017021443    12.119577      744.69574     -30.636948      714.05879    
   2880000   298.03673      0.017021443    9.0224278      739.43733     -32.281828      707.1555     
   2881000   291.14208      0.017021443    9.7294218      722.33154     -25.631854      696.69968    
   2882000   309.77593      0.017021443    10.385737      768.56262     -26.541053      742.02156    
   2883000   305.35112      0.017021443    8.9605308      757.58455     -27.329184      730.25537    
   2884000   300.18077      0.017021443    7.2345127      744.75677     -26.326711      718.43006    
   2885000   283.65086      0.017021443    11.854777      703.74561     -29.662049      674.08356    
   2886000   285.33476      0.017021443    9.2714412      707.9234      -26.43658       681.48682    
   2887000   305.63961      0.017021443    12.238364      758.30029     -27.157409      731.14288    
   2888000   311.36108      0.017021443    8.5318341      772.49541     -24.121539      748.37387    
   2889000   293.74985      0.017021443    6.6664447      728.80147     -22.285266      706.5162     
   2890000   291.18394      0.017021443    10.82759       722.43538     -27.044672      695.39071    
   2891000   302.28445      0.017021443    9.2965581      749.97606     -26.816543      723.15952    
   2892000   309.94939      0.017021443    7.4671746      768.99299     -28.332319      740.66067    
   2893000   290.41664      0.017021443    7.7737244      720.5317      -26.882136      693.64956    
   2894000   297.10965      0.017021443    11.020672      737.13724     -28.899714      708.23753    
   2895000   310.78086      0.017021443    9.1054419      771.05588     -28.851478      742.2044     
   2896000   311.98711      0.017021443    5.5144199      774.04863     -24.957759      749.09087    
   2897000   287.72928      0.017021443    4.8804884      713.86428     -23.506861      690.35742    
   2898000   293.88889      0.017021443    12.98726       729.14645     -25.630849      703.5156     
   2899000   313.97345      0.017021443    11.987321      778.97678     -26.360385      752.61639    
   2900000   304.69241      0.017021443    9.2909708      755.95026     -27.795764      728.15449    
   2901000   294.21947      0.017021443    9.5046562      729.96662     -29.026462      700.94016    
   2902000   296.25247      0.017021443    8.4938938      735.01054     -25.63922       709.37132    
   2903000   318.11263      0.017021443    10.439957      789.24621     -25.987865      763.25835    
   2904000   308.86549      0.017021443    10.549472      766.3038      -28.757513      737.54629    
   2905000   296.39145      0.017021443    8.8661755      735.35537     -26.72568       708.62969    
   2906000   290.11311      0.017021443    8.8704707      719.77862     -28.132373      691.64625    
   2907000   298.83277      0.017021443    6.2953258      741.41234     -23.524118      717.88822    
   2908000   304.77649      0.017021443    8.9529933      756.15886     -27.43743       728.72143    
   2909000   309.7882       0.017021443    10.432428      768.59307     -23.219197      745.37387    
   2910000   299.23253      0.017021443    9.218762       742.40416     -24.945456      717.4587     
   2911000   303.23984      0.017021443    8.0197328      752.34639     -28.600622      723.74577    
   2912000   304.96589      0.017021443    6.9078232      756.62879     -21.577425      735.05136    
   2913000   303.96477      0.017021443    10.394074      754.14498     -20.330528      733.81445    
   2914000   299.5827       0.017021443    10.290321      743.27293     -23.870818      719.40211    
   2915000   287.02518      0.017021443    12.024834      712.11738     -25.086067      687.03131    
   2916000   294.29505      0.017021443    1.0825674      730.15414     -24.128192      706.02595    
   2917000   311.49128      0.017021443    7.2671503      772.81845     -29.001839      743.81661    
   2918000   302.69425      0.017021443    14.463003      750.99279     -25.087197      725.90559    
   2919000   296.66951      0.017021443    10.950696      736.04524     -30.358256      705.68698    
   2920000   301.36984      0.017021443    2.7993427      747.70688     -26.205406      721.50147    
   2921000   311.36609      0.017021443    9.8557249      772.50786     -22.450571      750.05729    
   2922000   300.19776      0.017021443    13.072966      744.79893     -20.867088      723.93184    
   2923000   294.11956      0.017021443    9.1314126      729.71873     -23.90579       705.81294    
   2924000   311.37233      0.017021443    6.4599761      772.52334     -19.356085      753.16725    
   2925000   319.67111      0.017021443    11.568934      793.11285     -21.380494      771.73235    
   2926000   294.05729      0.017021443    8.3806624      729.56423     -22.004403      707.55983    
   2927000   311.90578      0.017021443    8.8745336      773.84683     -22.34057       751.50627    
   2928000   312.54803      0.017021443    12.833874      775.44028     -19.753547      755.68673    
   2929000   287.82053      0.017021443    3.6880618      714.09068     -22.560133      691.53055    
   2930000   282.57133      0.017021443    9.5696777      701.06727     -20.435776      680.63149    
   2931000   303.54609      0.017021443    8.363618       753.10621     -22.842684      730.26353    
   2932000   307.4982       0.017021443    13.691073      762.91151     -23.717883      739.19363    
   2933000   296.81077      0.017021443    9.7214722      736.39569     -22.105818      714.28988    
   2934000   287.57721      0.017021443    7.1466045      713.48699     -24.394468      689.09252    
   2935000   315.9682       0.017021443    9.0353463      783.9258      -23.758697      760.16711    
   2936000   305.02078      0.017021443    11.022255      756.76497     -28.281706      728.48327    
   2937000   296.19251      0.017021443    12.101143      734.86179     -27.454385      707.4074     
   2938000   295.21249      0.017021443    7.4773319      732.43032     -27.117358      705.31297    
   2939000   302.21349      0.017021443    8.2368949      749.8         -27.475795      722.32421    
   2940000   325.91964      0.017021443    12.052186      808.61561     -24.120053      784.49555    
   2941000   305.08489      0.017021443    10.686219      756.92401     -24.211996      732.71202    
   2942000   289.28185      0.017021443    8.3379738      717.71625     -24.719503      692.99675    
   2943000   298.51592      0.017021443    9.0076526      740.62622     -25.685305      714.94091    
   2944000   303.94487      0.017021443    9.5807505      754.09559     -23.457931      730.63766    
   2945000   308.63632      0.017021443    9.9469055      765.73521     -25.866515      739.8687     
   2946000   289.80424      0.017021443    8.8992286      719.0123      -25.559203      693.4531     
   2947000   300.34602      0.017021443    6.5487325      745.16675     -25.358706      719.80804    
   2948000   316.56952      0.017021443    9.1157934      785.41771     -23.451191      761.96652    
   2949000   300.76133      0.017021443    12.415219      746.19714     -20.832437      725.36471    
   2950000   282.36865      0.017021443    10.013424      700.56441     -22.514724      678.04969    
   2951000   298.13326      0.017021443    8.5543468      739.67684     -17.892895      721.78394    
   2952000   309.16632      0.017021443    6.8756712      767.05015     -21.465013      745.58514    
   2953000   302.34605      0.017021443    11.694176      750.12889     -25.479532      724.64936    
   2954000   290.21068      0.017021443    10.260141      720.02068     -23.488818      696.53187    
   2955000   304.05849      0.017021443    0.62172        754.37749     -23.899904      730.47758    
   2956000   302.78498      0.017021443    11.809414      751.21789     -21.440403      729.77749    
   2957000   302.43638      0.017021443    18.635013      750.35299     -21.812346      728.54064    
   2958000   304.4452       0.017021443    9.5789581      755.33694     -27.080688      728.25626    
   2959000   300.10659      0.017021443    5.7275557      744.57273     -23.322976      721.24976    
   2960000   301.85384      0.017021443    6.6307922      748.90769     -23.43655       725.47114    
   2961000   307.23876      0.017021443    8.0802688      762.26782     -22.281204      739.98662    
   2962000   310.40052      0.017021443    12.510885      770.11224     -23.510987      746.60125    
   2963000   304.77202      0.017021443    12.454791      756.14779     -19.679745      736.46804    
   2964000   288.08504      0.017021443    4.9988558      714.74692     -22.871105      691.87582    
   2965000   300.50973      0.017021443    5.8913465      745.57293     -27.053765      718.51917    
   2966000   302.89316      0.017021443    10.63087       751.48627     -30.613546      720.87272    
   2967000   298.8869       0.017021443    7.9761975      741.54664     -25.141436      716.4052     
   2968000   295.54663      0.017021443    9.7727996      733.25933     -20.66115       712.59818    
   2969000   300.84956      0.017021443    16.859644      746.41605     -21.558949      724.8571     
   2970000   307.64047      0.017021443    9.7465471      763.26449     -26.052235      737.21225    
   2971000   306.93575      0.017021443    7.9987227      761.51605     -24.536209      736.97984    
   2972000   302.9595       0.017021443    5.5752433      751.65088     -25.062715      726.58816    
   2973000   289.18557      0.017021443    7.2365533      717.47737     -29.208206      688.26917    
   2974000   293.95353      0.017021443    12.088947      729.30681     -25.011714      704.29509    
   2975000   314.02487      0.017021443    9.8481749      779.10436     -25.029084      754.07528    
   2976000   307.90768      0.017021443    4.9279158      763.92745     -23.302726      740.62473    
   2977000   291.43122      0.017021443    8.0300909      723.04889     -22.984714      700.06418    
   2978000   299.63808      0.017021443    8.946924       743.41034     -26.238404      717.17194    
   2979000   294.48274      0.017021443    9.7070188      730.61981     -26.119708      704.5001     
   2980000   295.84546      0.017021443    14.964559      734.00073     -26.180251      707.82048    
   2981000   318.04812      0.017021443    10.663488      789.08614     -25.20253       763.88361    
   2982000   299.37637      0.017021443    8.1400249      742.76102     -25.637303      717.12371    
   2983000   279.12917      0.017021443    10.280402      692.52716     -19.952246      672.57491    
   2984000   305.20002      0.017021443    9.5908155      757.20967     -22.755583      734.45409    
   2985000   306.07012      0.017021443    9.0324841      759.36841     -17.049199      742.31921    
   2986000   294.13121      0.017021443    8.6734545      729.74763     -19.334135      710.4135     
   2987000   285.06188      0.017021443    8.2851945      707.24638     -16.490032      690.75635    
   2988000   297.35097      0.017021443    9.6868662      737.73595     -22.469254      715.26669    
   2989000   313.6729       0.017021443    10.070707      778.23112     -22.442957      755.78816    
   2990000   312.34079      0.017021443    8.8269123      774.92612     -22.704794      752.22133    
   2991000   293.67775      0.017021443    8.403552       728.6226      -21.117556      707.50505    
   2992000   294.80926      0.017021443    11.509061      731.4299      -27.87868       703.55122    
   2993000   316.76976      0.017021443    10.052879      785.91451     -27.079769      758.83474    
   2994000   285.72579      0.017021443    9.2077102      708.89356     -23.089258      685.8043     
   2995000   295.10815      0.017021443    9.4664319      732.17146     -28.365667      703.80579    
   2996000   308.04037      0.017021443    8.1400382      764.25664     -27.131149      737.12549    
   2997000   315.35205      0.017021443    9.6526037      782.39712     -29.288476      753.10865    
   2998000   314.3631       0.017021443    11.108489      779.94352     -28.845524      751.098      
   2999000   290.85043      0.017021443    8.4536206      721.60794     -26.944134      694.6638     
   3000000   291.90222      0.017021443    8.4009828      724.21746     -32.104382      692.11308    
   3001000   316.93651      0.017021443    9.7837847      786.32823     -28.908692      757.41953    
   3002000   301.88711      0.017021443    10.779857      748.99024     -33.666332      715.32391    
   3003000   295.82249      0.017021443    9.2121255      733.94375     -29.327453      704.61629    
   3004000   293.22713      0.017021443    7.4347058      727.5046      -33.402768      694.10184    
   3005000   314.26786      0.017021443    10.378536      779.70722     -28.855766      750.85145    
   3006000   304.84135      0.017021443    10.393087      756.31979     -27.911396      728.40839    
   3007000   299.65837      0.017021443    11.451433      743.46066     -28.934716      714.52595    
   3008000   289.24401      0.017021443    8.1695734      717.62237     -34.803986      682.81839    
   3009000   306.58619      0.017021443    9.4059528      760.6488      -34.702995      725.9458     
   3010000   308.84504      0.017021443    9.3899649      766.25307     -34.028956      732.22411    
   3011000   315.04346      0.017021443    8.6124579      781.63151     -36.017335      745.61418    
   3012000   284.21166      0.017021443    6.40902        705.13696     -36.07607       669.06089    
   3013000   290.97442      0.017021443    9.8036489      721.91555     -29.281991      692.63356    
   3014000   319.56517      0.017021443    9.5716681      792.84998     -38.583991      754.26599    
   3015000   295.15833      0.017021443    9.0550207      732.29594     -43.737083      688.55886    
   3016000   297.57426      0.017021443    6.8193088      738.28994     -37.14122       701.14872    
   3017000   312.60138      0.017021443    9.8471366      775.57263     -39.226017      736.34662    
   3018000   299.01299      0.017021443    12.502527      741.85946     -32.640216      709.21924    
   3019000   286.3205       0.017021443    7.0524587      710.36905     -37.706791      672.66226    
   3020000   303.451        0.017021443    6.6879468      752.8703      -40.474594      712.39571    
   3021000   303.01899      0.017021443    13.297491      751.79848     -37.290339      714.50814    
   3022000   299.2073       0.017021443    10.286001      742.34157     -32.609223      709.73234    
   3023000   289.42969      0.017021443    5.3008569      718.08305     -33.210773      684.87227    
   3024000   304.41561      0.017021443    9.7853896      755.26352     -38.757408      716.50611    
   3025000   296.91054      0.017021443    10.066967      736.64324     -37.832797      698.81045    
   3026000   294.19772      0.017021443    8.593241       729.91265     -39.293558      690.61909    
   3027000   304.73573      0.017021443    9.8497952      756.05774     -46.832788      709.22495    
   3028000   297.6275       0.017021443    10.505277      738.42203     -46.196373      692.22565    
   3029000   296.13756      0.017021443    6.0386977      734.72546     -45.535556      689.1899     
   3030000   313.96273      0.017021443    9.3945335      778.95019     -41.42309       737.5271     
   3031000   305.91305      0.017021443    8.6308589      758.97872     -40.871594      718.10712    
   3032000   288.34932      0.017021443    6.3025036      715.4026      -40.258904      675.1437     
   3033000   292.18966      0.017021443    8.4240395      724.9306      -45.0206        679.91       
   3034000   307.02186      0.017021443    9.7688143      761.7297      -41.707372      720.02233    
   3035000   301.72689      0.017021443    9.2256763      748.59272     -40.299363      708.29336    
   3036000   304.42525      0.017021443    10.285536      755.28743     -37.860886      717.42655    
   3037000   291.42532      0.017021443    7.788277       723.03425     -45.638315      677.39594    
   3038000   300.49988      0.017021443    7.1706035      745.54848     -39.51899       706.02949    
   3039000   303.22979      0.017021443    9.4692814      752.32147     -38.547626      713.77384    
   3040000   299.80726      0.017021443    10.41609       743.83007     -36.348784      707.48129    
   3041000   293.22237      0.017021443    11.58841       727.49278     -32.864435      694.62835    
   3042000   295.06323      0.017021443    5.0875712      732.06001     -32.017921      700.04209    
   3043000   305.82021      0.017021443    13.415301      758.74838     -37.382986      721.3654     
   3044000   308.58493      0.017021443    11.389688      765.60772     -37.262515      728.34521    
   3045000   295.03268      0.017021443    9.5617725      731.98422     -33.670713      698.31351    
   3046000   285.02093      0.017021443    8.7109104      707.1448      -34.004451      673.14034    
   3047000   303.76959      0.017021443    3.6412456      753.66073     -37.866591      715.79414    
   3048000   308.65401      0.017021443    9.8797369      765.77911     -37.726972      728.05214    
   3049000   293.57168      0.017021443    10.224242      728.35942     -37.713886      690.64554    
   3050000   292.2047       0.017021443    9.4653399      724.96791     -37.635135      687.33277    
   3051000   313.21444      0.017021443    10.434943      777.09365     -34.561484      742.53217    
   3052000   311.71356      0.017021443    7.8039331      773.36993     -32.058063      741.31187    
   3053000   295.72247      0.017021443    9.1906514      733.69559     -30.548789      703.1468     
   3054000   299.42592      0.017021443    16.343738      742.88396     -30.504955      712.379      
   3055000   293.73864      0.017021443    6.314284       728.77367     -26.805417      701.96825    
   3056000   295.32329      0.017021443    8.4572528      732.70522     -32.245864      700.45936    
   3057000   292.97822      0.017021443    12.337814      726.88704     -32.945174      693.94187    
   3058000   305.06583      0.017021443    14.033855      756.87674     -35.117169      721.75957    
   3059000   295.62548      0.017021443    3.7415053      733.45496     -41.669598      691.78536    
   3060000   293.9414       0.017021443    6.7490431      729.27671     -39.042789      690.23392    
   3061000   306.75588      0.017021443    14.873992      761.0698      -34.822441      726.24736    
   3062000   317.54465      0.017021443   -2.5340885      787.83703     -33.999593      753.83743    
   3063000   295.35071      0.017021443    9.5503911      732.77326     -35.471871      697.30139    
   3064000   302.64154      0.017021443    20.152953      750.862       -31.030065      719.83194    
   3065000   308.18408      0.017021443    9.0663316      764.61321     -28.869046      735.74416    
   3066000   308.1295       0.017021443    5.3977728      764.47778     -29.980195      734.49759    
   3067000   295.66515      0.017021443    15.388188      733.5534      -29.036789      704.51661    
   3068000   308.99605      0.017021443    9.0699886      766.62771     -28.539858      738.08785    
   3069000   314.98572      0.017021443    9.2693946      781.48826     -32.569288      748.91898    
   3070000   291.17263      0.017021443    6.4448524      722.40733     -27.711962      694.69537    
   3071000   294.79032      0.017021443    6.8518921      731.38292     -30.840292      700.54263    
   3072000   306.88214      0.017021443    11.669792      761.38304     -35.01348       726.36956    
   3073000   292.98878      0.017021443    8.6228052      726.91324     -32.139286      694.77395    
   3074000   296.40339      0.017021443    8.3386793      735.38498     -33.960819      701.42416    
   3075000   304.10996      0.017021443    9.1551357      754.5052      -33.551785      720.95342    
   3076000   315.04665      0.017021443    9.1894463      781.63942     -35.176071      746.46335    
   3077000   298.09913      0.017021443    8.0026594      739.59217     -36.154291      703.43787    
   3078000   293.2838       0.017021443    9.7200169      727.64519     -32.864042      694.78115    
   3079000   302.80534      0.017021443    10.326358      751.26839     -38.199788      713.0686     
   3080000   316.60203      0.017021443    10.494743      785.49835     -37.838192      747.66016    
   3081000   292.90099      0.017021443    8.6743311      726.69544     -39.865624      686.82981    
   3082000   294.82734      0.017021443    8.9961352      731.47477     -38.862891      692.61188    
   3083000   305.02231      0.017021443    8.4913011      756.76876     -31.621277      725.14749    
   3084000   312.04099      0.017021443    9.5664645      774.18229     -34.453748      739.72854    
   3085000   307.90285      0.017021443    10.773029      763.91545     -31.343805      732.57164    
   3086000   312.23277      0.017021443    7.8382526      774.65812     -34.410983      740.24713    
   3087000   288.04563      0.017021443    7.0775546      714.64915     -35.383407      679.26574    
   3088000   290.00971      0.017021443    8.2486626      719.52207     -32.429008      687.09306    
   3089000   306.25129      0.017021443    7.887677       759.81788     -31.37849       728.43939    
   3090000   298.64057      0.017021443    8.8946574      740.93548     -31.930221      709.00526    
   3091000   299.23608      0.017021443    9.409341       742.41295     -28.044469      714.36848    
   3092000   302.90041      0.017021443    8.4412302      751.50427     -34.172012      717.33226    
   3093000   290.48077      0.017021443    10.342527      720.69081     -38.507682      682.18312    
   3094000   299.23008      0.017021443    9.1837505      742.39809     -34.066747      708.33134    
   3095000   298.12071      0.017021443    11.619648      739.64569     -31.720196      707.92549    
   3096000   287.2292       0.017021443    8.4047169      712.62356     -27.727313      684.89625    
   3097000   302.65433      0.017021443    8.9401155      750.89374     -30.470051      720.42369    
   3098000   303.03186      0.017021443    8.926378       751.83039     -28.572393      723.258      
   3099000   299.82736      0.017021443    9.0919062      743.87996     -28.593899      715.28606    
   3100000   282.34361      0.017021443    8.9478993      700.50228     -26.825284      673.677      
   3101000   305.32026      0.017021443    12.702524      757.50797     -26.57455       730.93342    
   3102000   302.86859      0.017021443    12.687886      751.42533     -27.076887      724.34844    
   3103000   299.59565      0.017021443    7.2576496      743.30507     -27.125292      716.17978    
   3104000   292.28134      0.017021443    9.4548528      725.15805     -29.085192      696.07286    
   3105000   302.60033      0.017021443    11.549357      750.75975     -30.796496      719.96325    
   3106000   313.76197      0.017021443    7.0943798      778.45209     -26.659304      751.79278    
   3107000   285.24979      0.017021443    1.5542673      707.71259     -25.754556      681.95803    
   3108000   287.94077      0.017021443    8.8405404      714.38898     -27.679016      686.70997    
   3109000   300.75954      0.017021443    11.547014      746.19272     -25.516426      720.67629    
   3110000   304.40131      0.017021443    6.6593162      755.22804     -27.078988      728.14905    
   3111000   281.97672      0.017021443    9.0885166      699.59201     -25.262234      674.32977    
   3112000   314.6307       0.017021443    13.150987      780.60744     -26.797716      753.80973    
   3113000   306.88517      0.017021443    5.8875158      761.39058     -32.52619       728.86439    
   3114000   288.70809      0.017021443    5.5360942      716.29272     -25.655185      690.63754    
   3115000   300.30852      0.017021443    8.5776944      745.07372     -28.619777      716.45395    
   3116000   302.60239      0.017021443    20.09742       750.76488     -24.533579      726.2313     
   3117000   305.18338      0.017021443    9.9949123      757.16838     -25.156759      732.01163    
   3118000   307.24212      0.017021443    8.410395       762.27618     -27.853305      734.42287    
   3119000   291.9897       0.017021443    8.4541876      724.43451     -26.69398       697.74053    
   3120000   300.97166      0.017021443    10.306191      746.71898     -26.679152      720.03983    
   3121000   303.60934      0.017021443    3.7612747      753.26315     -25.025602      728.23755    
   3122000   289.75043      0.017021443    6.3778879      718.8788      -29.669808      689.209      
   3123000   300.91359      0.017021443    11.998055      746.57491     -29.69885       716.87606    
   3124000   309.05053      0.017021443    10.35993       766.76289     -31.227455      735.53544    
   3125000   291.99213      0.017021443    10.170772      724.44053     -32.99165       691.44888    
   3126000   294.3229       0.017021443    7.9822689      730.22324     -32.553358      697.66988    
   3127000   314.1581       0.017021443    8.4791022      779.43491     -31.133165      748.30175    
   3128000   302.14828      0.017021443    8.5112754      749.6382      -25.879347      723.75886    
   3129000   294.33422      0.017021443    10.524654      730.25132     -25.764873      704.48645    
   3130000   294.38486      0.017021443    10.779664      730.37695     -29.045164      701.33178    
   3131000   293.14202      0.017021443    6.824237       727.29344     -28.109517      699.18393    
   3132000   310.46258      0.017021443    8.7684288      770.26621     -25.799453      744.46676    
   3133000   296.93743      0.017021443    9.0896084      736.70994     -29.731246      706.9787     
   3134000   298.51892      0.017021443    9.9534095      740.63366     -27.979706      712.65395    
   3135000   299.70055      0.017021443    8.238404       743.56532     -31.302036      712.26328    
   3136000   302.34672      0.017021443    8.3279674      750.13054     -26.406995      723.72354    
   3137000   308.65763      0.017021443    11.393322      765.7881      -26.980702      738.8074     
   3138000   306.83041      0.017021443    10.145512      761.25472     -29.408867      731.84585    
   3139000   288.44184      0.017021443    9.5769287      715.63217     -24.257747      691.37442    
   3140000   288.89959      0.017021443    9.2109934      716.76785     -23.502977      693.26487    
   3141000   296.25416      0.017021443    8.4057355      735.01473     -22.988327      712.0264     
   3142000   309.00493      0.017021443    9.8739861      766.64974     -25.769034      740.88071    
   3143000   300.89104      0.017021443    9.4566946      746.51896     -21.914425      724.60454    
   3144000   293.00085      0.017021443    8.6158096      726.94319     -25.147063      701.79613    
   3145000   297.01749      0.017021443    9.0217299      736.90858     -25.200747      711.70783    
   3146000   312.82815      0.017021443    10.733811      776.13527     -23.81027       752.325      
   3147000   293.23981      0.017021443    8.035518       727.53606     -23.328262      704.2078     
   3148000   288.02752      0.017021443    12.567267      714.60423     -24.882435      689.72179    
   3149000   311.73119      0.017021443    19.87888       773.41368     -24.384856      749.02883    
   3150000   297.51228      0.017021443    7.5706019      738.13616     -21.000216      717.13595    
   3151000   287.69255      0.017021443    2.363964       713.77316     -28.281971      685.49119    
   3152000   309.30403      0.017021443    12.229451      767.39184     -27.653516      739.73832    
   3153000   308.69994      0.017021443    6.4441397      765.89307     -27.67585       738.21722    
   3154000   293.24946      0.017021443    5.780179       727.55998     -28.756361      698.80362    
   3155000   305.34506      0.017021443    11.421301      757.56951     -26.898216      730.67129    
   3156000   307.73758      0.017021443    12.566804      763.50541     -26.399228      737.10618    
   3157000   309.87529      0.017021443   -5.3184774      768.80914     -29.047464      739.76167    
   3158000   298.59651      0.017021443    11.31854       740.82618     -29.473255      711.35292    
   3159000   290.6548       0.017021443    9.4134468      721.12258     -26.593414      694.52917    
   3160000   306.10766      0.017021443    20.839688      759.46155     -31.588106      727.87344    
   3161000   315.88642      0.017021443    3.5027411      783.72292     -29.846837      753.87608    
   3162000   303.58932      0.017021443    0.42334486     753.21346     -27.875252      725.33821    
   3163000   289.22786      0.017021443    6.3838348      717.5823      -29.859683      687.72262    
   3164000   299.08172      0.017021443    11.523656      742.02999     -31.096605      710.93338    
   3165000   303.58053      0.017021443    8.6781294      753.19167     -31.012136      722.17953    
   3166000   311.71078      0.017021443    7.6990913      773.36304     -32.002452      741.36059    
   3167000   295.14723      0.017021443    8.9506295      732.2684      -28.763627      703.50478    
   3168000   293.32046      0.017021443    8.8096003      727.73615     -29.224869      698.51128    
   3169000   310.32081      0.017021443    20.218787      769.91449     -32.436899      737.47759    
   3170000   310.76754      0.017021443    7.6816774      771.02284     -29.403436      741.61941    
   3171000   297.79358      0.017021443    4.5150678      738.83407     -29.02215       709.81192    
   3172000   289.58486      0.017021443    12.025368      718.46802     -29.648117      688.8199     
   3173000   306.88556      0.017021443    14.456722      761.39154     -30.006515      731.38503    
   3174000   312.563        0.017021443    10.194635      775.47742     -28.228132      747.24929    
   3175000   306.29925      0.017021443    6.3282416      759.93687     -33.393754      726.54312    
   3176000   300.28928      0.017021443    11.416952      745.02599     -31.605243      713.42074    
   3177000   309.52419      0.017021443    9.5630675      767.93805     -25.859201      742.07885    
   3178000   304.85517      0.017021443    6.423398       756.35407     -20.302506      736.05157    
   3179000   310.02128      0.017021443    1.9261027      769.17134     -22.621504      746.54983    
   3180000   304.64191      0.017021443    9.9784569      755.82498     -25.594496      730.23049    
   3181000   317.3019       0.017021443    10.277064      787.23477     -22.39577       764.839      
   3182000   294.32275      0.017021443    7.6204705      730.22286     -22.089592      708.13327    
   3183000   299.99086      0.017021443    8.6263562      744.2856      -24.173589      720.11201    
   3184000   307.19139      0.017021443    13.570476      762.1503      -22.680262      739.47004    
   3185000   306.72281      0.017021443    9.1519824      760.98774     -23.562922      737.42481    
   3186000   297.97356      0.017021443    10.866573      739.28062     -28.057874      711.22275    
   3187000   286.8861       0.017021443    8.6021333      711.77232     -25.920537      685.85179    
   3188000   295.43817      0.017021443    7.7228569      732.99024     -23.611433      709.37881    
   3189000   306.61992      0.017021443    9.5938588      760.73247     -25.340308      735.39216    
   3190000   307.37925      0.017021443    9.7734311      762.6164      -31.181761      731.43464    
   3191000   290.83092      0.017021443    10.006076      721.55952     -28.508332      693.05119    
   3192000   304.82351      0.017021443    6.620334       756.27554     -28.700469      727.57507    
   3193000   324.00291      0.017021443    10.209185      803.86015     -26.970952      776.88919    
   3194000   291.10737      0.017021443    15.04882       722.24541     -28.637248      693.60816    
   3195000   287.54167      0.017021443    8.1175266      713.39881     -31.375601      682.02321    
   3196000   300.20043      0.017021443    8.3663599      744.80555     -29.486593      715.31896    
   3197000   305.74279      0.017021443    1.7623071      758.55628     -28.234288      730.32199    
   3198000   284.82655      0.017021443    10.46181       706.66253     -27.960989      678.70154    
   3199000   289.78572      0.017021443   -6.8916541      718.96635     -26.148069      692.81829    
   3200000   312.26821      0.017021443    8.2663585      774.74603     -26.564716      748.18132    
   3201000   304.67856      0.017021443    20.250186      755.91591     -27.244138      728.67177    
   3202000   294.68869      0.017021443    11.352838      731.13077     -24.618366      706.5124     
   3203000   283.84863      0.017021443    8.6242222      704.23629     -26.94511       677.29118    
   3204000   307.99412      0.017021443    6.0586441      764.1419      -31.286244      732.85565    
   3205000   313.5212       0.017021443    13.578037      777.85475     -28.702551      749.1522     
   3206000   287.59048      0.017021443    12.334062      713.51991     -32.569213      680.95069    
   3207000   298.93679      0.017021443    3.6884139      741.67041     -32.592611      709.0778     
   3208000   319.98546      0.017021443    6.640203       793.89275     -30.956516      762.93623    
   3209000   314.59835      0.017021443    6.9034621      780.52717     -29.53995       750.98722    
   3210000   301.18969      0.017021443    19.136414      747.25993     -26.656169      720.60376    
   3211000   289.93187      0.017021443    12.092624      719.32895     -26.39991       692.92904    
   3212000   304.38624      0.017021443    0.83519011     755.19065     -24.535357      730.65529    
   3213000   307.40829      0.017021443    13.349261      762.68845     -25.893067      736.79538    
   3214000   293.56849      0.017021443    16.760613      728.35152     -24.902068      703.44946    
   3215000   289.75015      0.017021443    4.1970019      718.87812     -27.754361      691.12376    
   3216000   316.59304      0.017021443    16.638953      785.47607     -23.934117      761.54195    
   3217000   299.40086      0.017021443    15.859311      742.82178     -22.325665      720.49611    
   3218000   294.42281      0.017021443    9.0602619      730.4711      -22.821377      707.64972    
   3219000   300.75575      0.017021443    3.9978135      746.18331     -27.109309      719.074      
   3220000   307.2783       0.017021443    10.491929      762.36593     -25.168072      737.19786    
   3221000   301.8791       0.017021443    10.556898      748.97036     -28.713275      720.25709    
   3222000   292.98792      0.017021443    7.3424146      726.91111     -30.653081      696.25803    
   3223000   303.02693      0.017021443    9.8782801      751.81817     -30.431193      721.38698    
   3224000   292.7416       0.017021443    9.468119       726.29999     -33.296221      693.00377    
   3225000   293.22833      0.017021443    8.1561334      727.50758     -29.984645      697.52294    
   3226000   293.81532      0.017021443    8.8398222      728.9639      -31.211654      697.75225    
   3227000   302.42227      0.017021443    9.1517485      750.31798     -32.649001      717.66898    
   3228000   306.34869      0.017021443    12.111548      760.05954     -29.943846      730.11569    
   3229000   283.78057      0.017021443    12.324622      704.06741     -31.886641      672.18077    
   3230000   299.71922      0.017021443    8.1642462      743.61165     -34.418117      709.19354    
   3231000   315.1311       0.017021443    14.779249      781.84894     -32.614026      749.23491    
   3232000   283.98314      0.017021443    13.447321      704.56999     -33.286815      671.28317    
   3233000   289.55765      0.017021443    6.9478142      718.4005      -28.214086      690.18642    
   3234000   302.70546      0.017021443    4.4211719      751.02058     -31.240519      719.78006    
   3235000   322.63558      0.017021443    4.9098777      800.46776     -28.195371      772.27239    
   3236000   298.12979      0.017021443    12.155611      739.66822     -31.244223      708.424      
   3237000   283.1697       0.017021443    9.1386805      702.55183     -30.375201      672.17663    
   3238000   305.38908      0.017021443    6.4347269      757.67873     -28.43136       729.24737    
   3239000   308.42635      0.017021443    7.3899212      765.21426     -24.882268      740.332      
   3240000   310.17221      0.017021443    14.491671      769.54581     -28.448185      741.09763    
   3241000   295.5601       0.017021443    11.496308      733.29276     -23.72352       709.56924    
   3242000   294.68211      0.017021443    5.6785249      731.11443     -24.260069      706.85436    
   3243000   311.54515      0.017021443    8.8593338      772.9521      -26.405936      746.54616    
   3244000   302.01486      0.017021443    11.884722      749.30719     -24.190426      725.11677    
   3245000   297.92228      0.017021443    9.7471733      739.1534      -28.532486      710.62091    
   3246000   304.24663      0.017021443    10.246017      754.84428     -23.103108      731.74118    
   3247000   300.83853      0.017021443    3.3563733      746.38868     -26.192724      720.19596    
   3248000   298.29683      0.017021443    14.903736      740.08266     -23.521756      716.56091    
   3249000   294.70295      0.017021443    12.717074      731.16615     -30.768515      700.39764    
   3250000   310.32692      0.017021443    1.5172299      769.92965     -26.828872      743.10078    
   3251000   307.14231      0.017021443    12.164661      762.02854     -23.202573      738.82596    
   3252000   292.06047      0.017021443    12.844235      724.61007     -27.510206      697.09986    
   3253000   298.30582      0.017021443    4.8553944      740.10495     -28.59744       711.50751    
   3254000   308.13588      0.017021443    0.57255736     764.49362     -24.562663      739.93095    
   3255000   301.30107      0.017021443    3.1661876      747.53625     -28.862921      718.67333    
   3256000   310.65083      0.017021443    6.3266746      770.73327     -32.342086      738.39118    
   3257000   306.21361      0.017021443    11.399217      759.7244      -32.541506      727.18289    
   3258000   294.81677      0.017021443    3.2972508      731.44854     -33.698735      697.74981    
   3259000   296.23758      0.017021443    10.285942      734.9736      -31.410562      703.56304    
   3260000   305.10082      0.017021443    12.063004      756.96354     -35.727897      721.23564    
   3261000   301.3465       0.017021443    12.394785      747.64898     -34.280957      713.36803    
   3262000   300.31849      0.017021443    6.9907744      745.09844     -33.241932      711.85651    
   3263000   308.75728      0.017021443    4.4282621      766.03533     -29.429204      736.60613    
   3264000   305.51172      0.017021443    8.2675873      757.983       -32.646299      725.33671    
   3265000   302.60187      0.017021443    24.06788       750.76358     -33.430341      717.33324    
   3266000   300.24289      0.017021443    12.269979      744.91089     -36.730943      708.17995    
   3267000   301.42763      0.017021443    2.2555162      747.85025     -28.997522      718.85273    
   3268000   304.71233      0.017021443    14.760565      755.99968     -30.003753      725.99592    
   3269000   294.7409       0.017021443    13.222106      731.2603      -29.865         701.3953     
   3270000   308.32485      0.017021443   -5.7030175      764.96245     -29.303823      735.65863    
   3271000   291.29961      0.017021443    13.721404      722.72237     -32.103443      690.61892    
   3272000   298.65906      0.017021443    7.6987168      740.98136     -35.349796      705.63156    
   3273000   300.19003      0.017021443    3.4623335      744.77974     -31.851168      712.92857    
   3274000   313.7804       0.017021443    10.738229      778.49781     -33.657851      744.83996    
   3275000   309.30905      0.017021443    13.814807      767.40428     -32.966656      734.43762    
   3276000   301.6122       0.017021443    9.0510019      748.30819     -34.15898       714.14921    
   3277000   300.91983      0.017021443    7.6256622      746.59039     -34.488258      712.10213    
   3278000   302.21126      0.017021443    9.4815734      749.79446     -35.336786      714.45768    
   3279000   300.30936      0.017021443    8.4236934      745.07579     -30.1656        714.91019    
   3280000   296.75712      0.017021443    9.3116958      736.26258     -35.691206      700.57138    
   3281000   298.83224      0.017021443    9.7086011      741.41102     -35.547598      705.86342    
   3282000   305.85404      0.017021443    6.8680386      758.8323      -32.998176      725.83412    
   3283000   302.51568      0.017021443    8.1851883      750.54975     -33.941062      716.60869    
   3284000   294.16762      0.017021443    8.7484122      729.83797     -31.051308      698.78666    
   3285000   297.39177      0.017021443    9.4301477      737.83719     -29.286916      708.55027    
   3286000   304.76101      0.017021443    7.5153574      756.12047     -28.429661      727.6908     
   3287000   305.54916      0.017021443    7.1366231      758.07589     -30.293241      727.78265    
   3288000   290.47169      0.017021443    12.406679      720.66827     -36.604726      684.06355    
   3289000   301.82835      0.017021443    9.5486661      748.84446     -34.436992      714.40747    
   3290000   296.76928      0.017021443    3.4457712      736.29275     -29.549163      706.74359    
   3291000   294.25533      0.017021443    7.6880543      730.05557     -27.687413      702.36816    
   3292000   309.11314      0.017021443    13.557067      766.91823     -33.408722      733.50951    
   3293000   307.45696      0.017021443    8.5069395      762.80919     -34.604597      728.20459    
   3294000   287.64294      0.017021443    2.4355869      713.65006     -36.684499      676.96556    
   3295000   289.27816      0.017021443    8.1282623      717.70708     -32.057206      685.64987    
   3296000   306.02221      0.017021443    16.497743      759.24953     -27.566647      731.68289    
   3297000   296.83858      0.017021443    8.8942934      736.46471     -26.274535      710.19018    
   3298000   299.73779      0.017021443    6.9892251      743.65772     -24.880451      718.77726    
   3299000   291.8766       0.017021443   -0.97356069     724.15389     -26.746909      697.40698    
   3300000   286.98563      0.017021443    9.7557177      712.01925     -25.525681      686.49357    
   3301000   289.1485       0.017021443    10.083229      717.38539     -29.023274      688.36212    
   3302000   316.01292      0.017021443    13.27821       784.03676     -25.495212      758.54154    
   3303000   313.24564      0.017021443    3.8322546      777.17106     -27.865506      749.30555    
   3304000   288.41364      0.017021443    11.668686      715.56219     -28.435319      687.12687    
   3305000   308.5565       0.017021443    9.9769387      765.53718     -28.286268      737.25091    
   3306000   309.92454      0.017021443   -0.21896561     768.93132     -26.083349      742.84797    
   3307000   296.32137      0.017021443    8.5245354      735.18149     -28.631898      706.54959    
   3308000   295.62568      0.017021443    15.375021      733.45545     -27.014642      706.44081    
   3309000   305.66597      0.017021443    6.6098734      758.3657      -26.280637      732.08506    
   3310000   310.29714      0.017021443    3.7380754      769.85576     -25.86295       743.99281    
   3311000   302.06671      0.017021443    19.260737      749.43583     -26.042535      723.3933     
   3312000   301.9395       0.017021443    20.058671      749.12023     -25.3281        723.79213    
   3313000   310.51023      0.017021443    12.601031      770.38445     -28.002501      742.38195    
   3314000   305.01819      0.017021443    3.0850236      756.75855     -26.143162      730.61538    
   3315000   295.66946      0.017021443    13.994482      733.56407     -27.859983      705.70409    
   3316000   297.21709      0.017021443    16.522799      737.40378     -36.69991       700.70387    
   3317000   307.05464      0.017021443   -5.9705265      761.81103     -28.887594      732.92344    
   3318000   292.15804      0.017021443    5.3230579      724.85215     -25.869789      698.98236    
   3319000   293.37764      0.017021443    11.521896      727.878       -25.995658      701.88235    
   3320000   293.55321      0.017021443    11.609055      728.3136      -29.289295      699.0243     
   3321000   304.34974      0.017021443    9.5099692      755.10009     -27.616167      727.48393    
   3322000   304.54147      0.017021443    4.9520358      755.57578     -28.051562      727.52422    
   3323000   298.26638      0.017021443    17.15985       740.00711     -25.263132      714.74398    
   3324000   301.09209      0.017021443    10.151148      747.01776     -26.469236      720.54853    
   3325000   296.9769       0.017021443    4.4292462      736.80788     -25.713339      711.09454    
   3326000   299.81926      0.017021443    9.5866126      743.85984     -28.511041      715.3488     
   3327000   303.06357      0.017021443    13.764963      751.90908     -28.477213      723.43186    
   3328000   303.91805      0.017021443    5.3807966      754.02907     -27.906335      726.12273    
   3329000   292.86774      0.017021443    6.8175518      726.61293     -27.997177      698.61575    
   3330000   304.38152      0.017021443    11.810065      755.17893     -30.897459      724.28147    
   3331000   303.80789      0.017021443    9.3524434      753.75575     -33.354973      720.40077    
   3332000   294.26645      0.017021443    10.741666      730.08318     -32.34801       697.73517    
   3333000   300.56725      0.017021443    14.182644      745.71564     -31.828704      713.88693    
   3334000   300.61914      0.017021443    7.4148861      745.84437     -29.413524      716.43085    
   3335000   295.48807      0.017021443    7.8986239      733.11406     -31.09728       702.01678    
   3336000   298.17685      0.017021443    9.742292       739.78498     -29.919923      709.86506    
   3337000   312.08466      0.017021443    9.1177915      774.29064     -27.442148      746.84849    
   3338000   306.34829      0.017021443    9.0734565      760.05855     -21.342339      738.71621    
   3339000   297.34406      0.017021443    9.0417566      737.71881     -24.306968      713.41184    
   3340000   301.96986      0.017021443    9.2347815      749.19554     -26.078036      723.1175     
   3341000   309.21292      0.017021443    10.486223      767.16578     -26.713523      740.45225    
   3342000   281.66261      0.017021443    9.1894549      698.8127      -21.592615      677.22008    
   3343000   296.26471      0.017021443    8.6220127      735.04092     -20.370066      714.67085    
   3344000   305.73666      0.017021443    9.9921632      758.54109     -16.466581      742.07451    
   3345000   305.49055      0.017021443    8.9084096      757.93047     -19.995088      737.93538    
   3346000   308.42817      0.017021443    9.2157508      765.21879     -25.23742       739.98137    
   3347000   287.7033       0.017021443    9.1378797      713.79983     -24.440217      689.35961    
   3348000   295.54164      0.017021443    10.100685      733.24696     -23.504729      709.74223    
   3349000   318.72556      0.017021443    11.076673      790.76691     -18.401394      772.36551    
   3350000   306.67375      0.017021443    14.686735      760.86602     -20.707916      740.15811    
   3351000   284.0307       0.017021443    12.774724      704.68799     -25.094722      679.59327    
   3352000   294.72109      0.017021443    7.0759685      731.21115     -22.916749      708.29441    
   3353000   304.07687      0.017021443    8.3647221      754.4231      -23.074164      731.34894    
   3354000   302.50342      0.017021443    10.719125      750.51933     -21.206565      729.31276    
   3355000   312.34817      0.017021443    9.9621311      774.94442     -24.146217      750.7982     
   3356000   288.32564      0.017021443    8.4094941      715.34385     -27.618282      687.72557    
   3357000   283.3905       0.017021443    8.7764116      703.09964     -26.355469      676.74417    
   3358000   303.39324      0.017021443    10.015132      752.72698     -30.501855      722.22513    
   3359000   313.99334      0.017021443    8.899049       779.02613     -27.041544      751.98459    
   3360000   290.59018      0.017021443   -0.33138902     720.96225     -23.339607      697.62264    
   3361000   290.54133      0.017021443    7.6209783      720.84104     -24.006253      696.83479    
   3362000   303.20407      0.017021443    12.356262      752.25765     -22.583946      729.6737     
   3363000   296.41488      0.017021443    7.7558594      735.41348     -22.906776      712.50671    
   3364000   306.24122      0.017021443    9.1238335      759.7929      -23.218013      736.57489    
   3365000   304.64795      0.017021443    8.5553397      755.83996     -24.488603      731.35135    
   3366000   297.5174       0.017021443    8.6598023      738.14886     -24.633275      713.51559    
   3367000   295.11757      0.017021443    8.5971299      732.19484     -28.256776      703.93806    
   3368000   306.8734       0.017021443    9.2091501      761.36137     -30.382155      730.97922    
   3369000   309.01761      0.017021443    11.648303      766.68121     -30.119428      736.56178    
   3370000   297.41631      0.017021443    7.0405614      737.89807     -31.946875      705.95119    
   3371000   291.32038      0.017021443    9.7311177      722.77389     -32.381644      690.39224    
   3372000   310.1591       0.017021443    13.194328      769.51328     -30.935683      738.57759    
   3373000   297.86488      0.017021443    7.6244674      739.01099     -35.673869      703.33712    
   3374000   307.62375      0.017021443    7.4723591      763.223       -33.992486      729.23051    
   3375000   289.30148      0.017021443    6.4553433      717.76494     -32.478843      685.28609    
   3376000   297.99776      0.017021443    16.273619      739.34066     -27.776362      711.56429    
   3377000   301.78995      0.017021443    11.56101       748.74919     -25.700304      723.04888    
   3378000   298.21122      0.017021443    0.97360517     739.87025     -26.225329      713.64492    
   3379000   302.92032      0.017021443    13.040521      751.55366     -30.313863      721.23979    
   3380000   319.10647      0.017021443    3.7344901      791.71195     -26.252721      765.45923    
   3381000   293.31774      0.017021443   -6.8522396      727.72939     -24.67441       703.05498    
   3382000   289.36786      0.017021443    12.180793      717.92965     -27.152008      690.77764    
   3383000   311.9163       0.017021443    14.961226      773.87295     -28.216251      745.6567     
   3384000   307.14673      0.017021443    8.0711253      762.03949     -31.205253      730.83424    
   3385000   286.99888      0.017021443    8.1777896      712.05213     -32.728026      679.32411    
   3386000   285.83381      0.017021443    10.847425      709.16155     -26.855968      682.30558    
   3387000   301.70915      0.017021443    10.085264      748.54872     -33.554782      714.99394    
   3388000   304.35892      0.017021443    6.6389692      755.12287     -30.716815      724.40606    
   3389000   284.93669      0.017021443    8.6129189      706.93579     -28.7662        678.16959    
   3390000   301.72715      0.017021443    14.351163      748.59338     -24.033233      724.56015    
   3391000   305.36534      0.017021443    7.7404787      757.61982     -28.96862       728.6512     
   3392000   283.23012      0.017021443    7.9209428      702.70172     -25.574478      677.12725    
   3393000   305.36132      0.017021443    13.003106      757.60986     -28.326725      729.28314    
   3394000   302.28061      0.017021443    11.036348      749.96653     -25.802971      724.16356    
   3395000   299.9094       0.017021443    9.3617137      744.08348     -25.210931      718.87255    
   3396000   299.04915      0.017021443    9.9602999      741.94918     -23.342886      718.60629    
   3397000   308.23148      0.017021443    10.841877      764.7308      -28.156552      736.57425    
   3398000   299.57869      0.017021443    1.385742       743.26299     -26.703993      716.559      
   3399000   291.67208      0.017021443    11.133926      723.64646     -23.896414      699.75005    
   3400000   306.11111      0.017021443    9.5169338      759.47009     -22.496717      736.97337    
   3401000   295.07481      0.017021443    8.2397316      732.08874     -22.906833      709.18191    
   3402000   298.03974      0.017021443    10.262012      739.44481     -22.613463      716.83135    
   3403000   318.12993      0.017021443    9.1782568      789.28913     -24.846952      764.44218    
   3404000   290.91266      0.017021443    8.3612827      721.76233     -29.969984      691.79235    
   3405000   288.76508      0.017021443    9.0659075      716.43412     -24.793282      691.64084    
   3406000   301.12501      0.017021443    10.677876      747.09944     -23.560832      723.53861    
   3407000   305.45806      0.017021443    9.6790915      757.84988     -25.701454      732.14842    
   3408000   304.03098      0.017021443    8.2662609      754.30924     -27.064828      727.24441    
   3409000   308.71753      0.017021443    9.63846        765.93671     -27.018802      738.91791    
   3410000   295.37768      0.017021443    8.3185052      732.84018     -31.190018      701.65016    
   3411000   293.64621      0.017021443    9.1943896      728.54433     -25.118958      703.42537    
   3412000   309.62084      0.017021443    11.634621      768.17783     -27.842057      740.33578    
   3413000   306.30045      0.017021443    8.8233561      759.93985     -28.943092      730.99676    
   3414000   295.98054      0.017021443    10.673566      734.33589     -28.021325      706.31457    
   3415000   282.83027      0.017021443    8.9372457      701.70969     -22.698099      679.01159    
   3416000   295.78097      0.017021443    7.6948112      733.84074     -21.685771      712.15497    
   3417000   304.38991      0.017021443    6.912779       755.19975     -26.184053      729.01569    
   3418000   302.34783      0.017021443    11.521432      750.13329     -25.521515      724.61178    
   3419000   289.85017      0.017021443    9.2463814      719.12627     -20.398557      698.72771    
   3420000   292.33948      0.017021443    6.0052553      725.30232     -21.484739      703.81758    
   3421000   313.40291      0.017021443    6.4792425      777.56127     -23.611136      753.95013    
   3422000   296.90276      0.017021443    13.957362      736.62393     -25.341223      711.28271    
   3423000   286.5022       0.017021443    7.2391289      710.81986     -26.105744      684.71411    
   3424000   311.06114      0.017021443    10.011038      771.75125     -28.761725      742.98953    
   3425000   297.98933      0.017021443    12.844361      739.31973     -25.460046      713.85968    
   3426000   289.7423       0.017021443    8.6444481      718.85863     -28.265508      690.59312    
   3427000   312.54285      0.017021443    4.7326195      775.42742     -26.28149       749.14593    
   3428000   303.14784      0.017021443    16.008033      752.11814     -27.585953      724.53219    
   3429000   283.56551      0.017021443    6.1688995      703.53385     -27.775164      675.75869    
   3430000   292.47493      0.017021443    16.13147       725.63836     -27.16147       698.47689    
   3431000   302.47754      0.017021443    8.9020222      750.4551      -27.24409       723.21101    
   3432000   298.15028      0.017021443    6.1701539      739.71905     -26.199687      713.51937    
   3433000   298.31488      0.017021443    7.4213716      740.12744     -27.477447      712.64999    
   3434000   313.97043      0.017021443    13.628568      778.9693      -29.351164      749.61814    
   3435000   293.97086      0.017021443    12.595324      729.34981     -27.069915      702.2799     
   3436000   290.01268      0.017021443    3.838783       719.52944     -27.822154      691.70729    
   3437000   313.30682      0.017021443    7.8401125      777.32286     -27.619249      749.70361    
   3438000   318.64364      0.017021443    15.245252      790.56364     -25.381128      765.18252    
   3439000   287.24085      0.017021443    8.8079756      712.65248     -31.42102       681.23146    
   3440000   305.83449      0.017021443    4.3031011      758.7838      -29.886397      728.89741    
   3441000   309.17472      0.017021443    16.172829      767.071       -31.888303      735.1827     
   3442000   296.44102      0.017021443    10.426806      735.47835     -28.37944       707.09891    
   3443000   295.67046      0.017021443    8.833285       733.56657     -26.085429      707.48114    
   3444000   310.9593       0.017021443    7.7535055      771.4986      -31.250312      740.24829    
   3445000   296.58434      0.017021443    10.849843      735.83392     -31.363888      704.47003    
   3446000   291.67201      0.017021443    9.5665853      723.6463      -27.899672      695.74662    
   3447000   299.47669      0.017021443    6.3653566      743.00992     -34.773012      708.23691    
   3448000   287.76007      0.017021443    3.4913479      713.94067     -35.396715      678.54396    
   3449000   301.25114      0.017021443    8.8666268      747.41239     -32.312471      715.09992    
   3450000   304.55627      0.017021443    13.081845      755.61251     -29.773884      725.83863    
   3451000   295.17341      0.017021443    9.3105867      732.33337     -32.664719      699.66865    
   3452000   295.04428      0.017021443    8.9025394      732.013       -32.377706      699.6353     
   3453000   301.44873      0.017021443    9.0145159      747.9026      -31.34174       716.56086    
   3454000   315.98697      0.017021443    9.3649407      783.97238     -33.498555      750.47383    
   3455000   304.15163      0.017021443    9.501355       754.60859     -32.384108      722.22448    
   3456000   293.76798      0.017021443    8.0572275      728.84645     -29.293393      699.55305    
   3457000   309.22869      0.017021443    9.4770261      767.20491     -26.103122      741.10178    
   3458000   302.39424      0.017021443    9.027401       750.24846     -24.030962      726.21749    
   3459000   294.31748      0.017021443    9.057685       730.20977     -26.577774      703.63199    
   3460000   302.34502      0.017021443    9.4551213      750.12633     -25.421975      724.70435    
   3461000   304.83672      0.017021443    10.38576       756.30829     -26.450546      729.85775    
   3462000   308.29241      0.017021443    9.2761887      764.88197     -26.198341      738.68362    
   3463000   296.07932      0.017021443    10.909954      734.58096     -29.101637      705.47932    
   3464000   295.44923      0.017021443    8.707579       733.01767     -25.253577      707.7641     
   3465000   295.5418       0.017021443    10.258592      733.24734     -29.245989      704.00135    
   3466000   299.64941      0.017021443    9.1252652      743.43843     -28.699989      714.73845    
   3467000   298.27143      0.017021443    4.4479859      740.01965     -28.808597      711.21105    
   3468000   303.69211      0.017021443    11.199161      753.4685      -25.65875       727.80975    
   3469000   320.53822      0.017021443    8.7777422      795.26416     -29.893314      765.37084    
   3470000   291.0139       0.017021443    7.9662166      722.0135      -27.063212      694.95029    
   3471000   287.8814       0.017021443    9.8703263      714.24168     -22.337395      691.90428    
   3472000   307.72326      0.017021443    11.648201      763.46989     -27.934574      735.53531    
   3473000   307.42697      0.017021443    9.3575559      762.73479     -26.574741      736.16005    
   3474000   290.90626      0.017021443    7.2655737      721.74644     -27.218198      694.52824    
   3475000   289.51149      0.017021443    9.3206528      718.286       -24.732055      693.55394    
   3476000   303.51349      0.017021443    10.169582      753.02533     -27.578914      725.44642    
   3477000   295.49036      0.017021443    4.863238       733.11972     -27.832693      705.28703    
   3478000   306.66913      0.017021443    13.460129      760.85456     -23.409779      737.44478    
   3479000   302.35243      0.017021443    10.773576      750.14473     -26.72554       723.41919    
   3480000   290.95723      0.017021443    7.560655       721.8729      -27.108274      694.76463    
   3481000   304.01034      0.017021443    8.8614345      754.25804     -29.212354      725.04568    
   3482000   308.51517      0.017021443    10.36733       765.43464     -34.439431      730.99521    
   3483000   296.95995      0.017021443    12.466094      736.76582     -31.714577      705.05125    
   3484000   309.78201      0.017021443    10.736699      768.5777      -34.886422      733.69128    
   3485000   314.65207      0.017021443    4.9311302      780.66046     -33.698666      746.96179    
   3486000   307.27236      0.017021443    3.4535008      762.3512      -26.870076      735.48112    
   3487000   312.49965      0.017021443    0.55188869     775.32024     -23.3652        751.95504    
   3488000   297.08528      0.017021443    3.0153439      737.07678     -26.680185      710.39659    
   3489000   297.25451      0.017021443    9.3020656      737.49664     -28.262837      709.2338     
   3490000   289.87255      0.017021443    17.45739       719.18178     -22.921877      696.2599     
   3491000   302.26797      0.017021443    26.442512      749.93517     -21.137958      728.79721    
   3492000   309.51199      0.017021443    25.761934      767.90777     -26.528586      741.37919    
   3493000   308.90059      0.017021443    8.4430119      766.39089     -26.587109      739.80378    
   3494000   294.67906      0.017021443   -3.6993535      731.10688     -29.038474      702.06841    
   3495000   294.85103      0.017021443    15.13091       731.53352     -26.309244      705.22428    
   3496000   311.677        0.017021443    9.0201712      773.27924     -25.372348      747.90689    
   3497000   308.40459      0.017021443    5.7766502      765.16029     -25.099784      740.06051    
   3498000   281.27739      0.017021443    1.5819192      697.85696     -27.64586       670.2111     
   3499000   297.93025      0.017021443    9.2527364      739.17317     -25.681625      713.49154    
   3500000   306.12089      0.017021443    24.142931      759.49437     -24.975666      734.51871    
   3501000   304.33921      0.017021443    12.054846      755.07397     -23.421968      731.652      
   3502000   290.97608      0.017021443   -4.2555214      721.91968     -21.95997       699.95971    
   3503000   290.30027      0.017021443    30.352143      720.24298     -25.0147        695.22828    
   3504000   311.33464      0.017021443    3.0510987      772.42981     -34.356477      738.07333    
   3505000   296.26512      0.017021443    9.8785947      735.04194     -34.256249      700.78569    
   3506000   307.77206      0.017021443    31.393652      763.59096     -29.661078      733.92988    
   3507000   318.12823      0.017021443    10.173136      789.2849      -31.560893      757.72401    
   3508000   292.03985      0.017021443    2.201294       724.55892     -29.219332      695.33959    
   3509000   291.46986      0.017021443    26.975413      723.14476     -25.707287      697.43747    
   3510000   300.76445      0.017021443    38.030497      746.20489     -29.111568      717.09332    
   3511000   304.77578      0.017021443    7.6712799      756.15712     -27.856821      728.3003     
   3512000   294.643        0.017021443    6.2859733      731.01741     -29.334123      701.68328    
   3513000   294.59803      0.017021443    1.8659239      730.90583     -28.488391      702.41744    
   3514000   303.25214      0.017021443    19.186384      752.37691     -31.228745      721.14816    
   3515000   307.28148      0.017021443    6.4499507      762.37383     -35.097995      727.27584    
   3516000   296.76648      0.017021443    3.8314008      736.28581     -34.320534      701.96528    
   3517000   293.84592      0.017021443    10.680306      729.03982     -30.338716      698.70111    
   3518000   313.66033      0.017021443    13.187415      778.19993     -34.174238      744.0257     
   3519000   308.8461       0.017021443    1.0728853      766.2557      -37.157198      729.0985     
   3520000   292.40118      0.017021443    6.0605378      725.45539     -36.317516      689.13787    
   3521000   305.5727       0.017021443    17.463147      758.13429     -32.699012      725.43528    
   3522000   305.43481      0.017021443    5.5008242      757.79218     -33.548788      724.24339    
   3523000   278.0769       0.017021443    11.636094      689.91646     -34.997509      654.91895    
   3524000   295.31787      0.017021443    14.742602      732.69178     -31.144959      701.54683    
   3525000   306.31506      0.017021443    8.7965651      759.9761      -34.402277      725.57382    
   3526000   304.25142      0.017021443    2.8415643      754.85617     -36.036572      718.81959    
   3527000   296.07881      0.017021443    7.1722301      734.57969     -35.19025       699.38944    
   3528000   294.65399      0.017021443    12.744012      731.04468     -33.18098       697.8637     
   3529000   292.59088      0.017021443    15.543782      725.92603     -35.11008       690.81595    
   3530000   302.68855      0.017021443    3.0153404      750.97865     -37.310693      713.66795    
   3531000   297.80783      0.017021443    9.7198649      738.86944     -36.034441      702.835      
   3532000   304.65263      0.017021443    5.0959252      755.85157     -29.693063      726.1585     
   3533000   299.99786      0.017021443    8.7993922      744.30297     -32.971107      711.33186    
   3534000   300.95658      0.017021443    10.168452      746.68158     -32.7246        713.95698    
   3535000   300.85042      0.017021443    10.020445      746.41818     -28.764792      717.65339    
   3536000   313.36525      0.017021443    12.654016      777.46783     -28.594073      748.87376    
   3537000   293.4654       0.017021443    10.330135      728.09576     -28.138642      699.95711    
   3538000   299.41364      0.017021443    2.5631876      742.8535      -30.756233      712.09726    
   3539000   317.17309      0.017021443    10.77779       786.91517     -31.262586      755.65258    
   3540000   295.44461      0.017021443    13.831669      733.00623     -35.467385      697.53884    
   3541000   280.07376      0.017021443    10.048957      694.87073     -30.9739        663.89683    
   3542000   312.04392      0.017021443    0.70857708     774.18957     -33.98829       740.20128    
   3543000   305.45288      0.017021443    12.932111      757.83702     -32.174006      725.66302    
   3544000   295.49393      0.017021443    9.5218532      733.12858     -28.302702      704.82588    
   3545000   296.32684      0.017021443    5.3861755      735.19507     -27.950333      707.24473    
   3546000   298.33959      0.017021443    9.1897015      740.18874     -30.555203      709.63353    
   3547000   311.98922      0.017021443    10.566688      774.05386     -30.96662       743.08724    
   3548000   296.12248      0.017021443    9.713526       734.68804     -32.785752      701.90229    
   3549000   286.35061      0.017021443    6.4398987      710.44375     -38.605408      671.83834    
   3550000   313.73962      0.017021443    9.7729408      778.39665     -33.644643      744.75201    
   3551000   304.42631      0.017021443    10.643534      755.29007     -29.166005      726.12407    
   3552000   293.11156      0.017021443    2.307678       727.21786     -32.528167      694.68969    
   3553000   300.36565      0.017021443    8.1481617      745.21544     -29.419352      715.79609    
   3554000   293.43485      0.017021443    10.25033       728.01996     -29.096539      698.92342    
   3555000   305.66054      0.017021443    9.0904631      758.35221     -29.087092      729.26512    
   3556000   298.3297       0.017021443    7.1435571      740.1642      -31.231353      708.93285    
   3557000   305.14214      0.017021443    7.0889845      757.06607     -26.995505      730.07057    
   3558000   296.58302      0.017021443    9.6469649      735.83066     -32.352294      703.47837    
   3559000   300.18675      0.017021443    12.619301      744.77159     -25.970869      718.80072    
   3560000   298.82674      0.017021443    7.6812588      741.39739     -33.279833      708.11756    
   3561000   298.43368      0.017021443    8.9216955      740.42218     -31.442398      708.97978    
   3562000   296.20635      0.017021443    11.640837      734.89613     -28.570405      706.32573    
   3563000   306.00797      0.017021443    9.7012135      759.21421     -30.469134      728.74508    
   3564000   292.14357      0.017021443    5.2738344      724.81626     -29.540664      695.2756     
   3565000   285.96724      0.017021443    4.003016       709.4926      -24.710833      684.78176    
   3566000   294.34787      0.017021443    9.1523343      730.28519     -28.306264      701.97893    
   3567000   303.65824      0.017021443    11.902062      753.38446     -26.095842      727.28862    
   3568000   295.53083      0.017021443    8.9177365      733.22014     -23.194375      710.02577    
   3569000   306.95499      0.017021443    7.0336934      761.5638      -21.918593      739.64521    
   3570000   316.08286      0.017021443    9.7581456      784.21028     -24.757076      759.45321    
   3571000   300.91316      0.017021443    15.759804      746.57385     -25.702218      720.87163    
   3572000   283.48275      0.017021443    10.822545      703.32853     -26.325951      677.00258    
   3573000   296.04934      0.017021443    6.8421185      734.50657     -24.464273      710.0423     
   3574000   317.38683      0.017021443    8.4526024      787.44548     -23.79396       763.65152    
   3575000   309.12008      0.017021443    11.39658       766.93543     -24.62609       742.30934    
   3576000   298.65838      0.017021443    10.082519      740.97967     -27.012094      713.96757    
   3577000   296.31605      0.017021443    3.5230474      735.16829     -27.466328      707.70196    
   3578000   309.30064      0.017021443    7.6776852      767.38342     -31.496613      735.88681    
   3579000   298.34342      0.017021443    15.039085      740.19825     -26.341988      713.85626    
   3580000   297.25854      0.017021443    7.6777578      737.50664     -26.110116      711.39652    
   3581000   294.50266      0.017021443    8.3850125      730.66921     -21.263593      709.40562    
   3582000   301.78453      0.017021443    7.9617461      748.73574     -23.185481      725.55026    
   3583000   302.47147      0.017021443    16.542899      750.44006     -25.208819      725.23124    
   3584000   289.8169       0.017021443    13.339097      719.04372     -23.951349      695.09237    
   3585000   302.68397      0.017021443    6.0691956      750.96728     -25.117484      725.84979    
   3586000   305.49194      0.017021443    8.8778065      757.93393     -25.940421      731.99351    
   3587000   290.74738      0.017021443    14.767476      721.35226     -30.625128      690.72714    
   3588000   296.67192      0.017021443    4.1176997      736.05122     -30.63188       705.41934    
   3589000   305.62426      0.017021443    10.851681      758.2622      -25.688765      732.57344    
   3590000   315.77779      0.017021443    25.283143      783.4534      -25.968457      757.48494    
   3591000   300.59629      0.017021443    8.7611633      745.78769     -22.713678      723.07402    
   3592000   299.74269      0.017021443    7.3758195      743.66987     -23.09211       720.57776    
   3593000   313.091        0.017021443    10.993412      776.7874      -19.042948      757.74445    
   3594000   303.73443      0.017021443    10.278616      753.57349     -18.22053       735.35296    
   3595000   292.80597      0.017021443    13.245336      726.45967     -19.72069       706.73898    
   3596000   303.38592      0.017021443    8.1797901      752.70884     -20.409511      732.29933    
   3597000   305.77023      0.017021443    8.4754251      758.62437     -21.603278      737.0211     
   3598000   303.81378      0.017021443    9.3748527      753.77036     -21.832101      731.93826    
   3599000   307.31942      0.017021443    11.426041      762.46795     -23.725907      738.74204    
   3600000   300.95259      0.017021443    8.4655709      746.67166     -22.424524      724.24714    
   3601000   300.96576      0.017021443    6.2819212      746.70434     -21.486714      725.21763    
   3602000   304.35116      0.017021443    9.2569392      755.10363     -23.988793      731.11484    
   3603000   293.09249      0.017021443    9.4284611      727.17055     -18.619796      708.55076    
   3604000   302.19014      0.017021443    6.644243       749.74207     -20.855244      728.88682    
   3605000   302.40283      0.017021443    10.496911      750.26977     -21.183974      729.08579    
   3606000   289.1171       0.017021443    13.857011      717.30749     -24.904401      692.40308    
   3607000   298.57869      0.017021443    2.7093733      740.78196     -26.304611      714.47734    
   3608000   305.16563      0.017021443    5.2784481      757.12435     -28.089614      729.03473    
   3609000   306.35381      0.017021443    11.025931      760.07225     -25.261803      734.81045    
   3610000   291.21701      0.017021443    9.7563848      722.51742     -27.633943      694.88348    
   3611000   298.07975      0.017021443   -7.5112237      739.54408     -25.632713      713.91136    
   3612000   306.2572       0.017021443    11.515996      759.83255     -25.957378      733.87517    
   3613000   303.43573      0.017021443    18.275316      752.83241     -27.695804      725.1366     
   3614000   283.94674      0.017021443    3.4284859      704.47969     -29.032056      675.44764    
   3615000   300.48108      0.017021443    3.327338       745.50183     -27.391839      718.10999    
   3616000   302.34862      0.017021443   -2.3656164      750.13527     -23.911976      726.22329    
   3617000   302.65424      0.017021443    11.010864      750.8935      -24.078046      726.81546    
   3618000   302.3366       0.017021443    21.663501      750.10543     -21.545755      728.55968    
   3619000   302.5775       0.017021443    1.7893185      750.70313     -19.238873      731.46425    
   3620000   295.64683      0.017021443    0.908439       733.50792     -19.132737      714.37519    
   3621000   303.63937      0.017021443    11.250949      753.33764     -22.611794      730.72585    
   3622000   296.07725      0.017021443    8.5629823      734.57582     -20.227585      714.34823    
   3623000   305.35267      0.017021443    2.5438731      757.5884      -24.158888      733.42951    
   3624000   288.0435       0.017021443    10.405473      714.64387     -21.918381      692.72549    
   3625000   290.04734      0.017021443    18.001653      719.61545     -22.621893      696.99356    
   3626000   298.54758      0.017021443    13.557941      740.70477     -23.546097      717.15867    
   3627000   293.09294      0.017021443   -4.0331877      727.17167     -22.73322       704.43845    
   3628000   303.63631      0.017021443    12.615654      753.33005     -22.577765      730.75228    
   3629000   299.72117      0.017021443    13.688696      743.61649     -25.877732      717.73876    
   3630000   287.32642      0.017021443    8.4932057      712.86477     -29.639417      683.22536    
   3631000   308.89864      0.017021443    8.5266988      766.38603     -26.623605      739.76243    
   3632000   311.91188      0.017021443    12.978539      773.86196     -28.710066      745.1519     
   3633000   291.09634      0.017021443    13.118885      722.21803     -30.591842      691.62619    
   3634000   282.25047      0.017021443    11.901951      700.2712      -24.671452      675.59974    
   3635000   301.13094      0.017021443    3.835931       747.11417     -26.121103      720.99307    
   3636000   309.05353      0.017021443    10.385913      766.77033     -22.284803      744.48552    
   3637000   290.73302      0.017021443    11.073143      721.31663     -24.261456      697.05518    
   3638000   286.02484      0.017021443    7.8862392      709.63552     -25.302462      684.33306    
   3639000   306.56571      0.017021443    5.3913405      760.59797     -28.744333      731.85364    
   3640000   305.27104      0.017021443    9.9724764      757.38587     -26.707815      730.67805    
   3641000   315.09345      0.017021443    13.516928      781.75553     -30.583395      751.17214    
   3642000   288.98748      0.017021443    10.82003       716.9859      -30.44592       686.53998    
   3643000   302.24972      0.017021443    7.9820406      749.88988     -30.550121      719.33976    
   3644000   301.97779      0.017021443    8.994621       749.21521     -24.438355      724.77686    
   3645000   305.90233      0.017021443    14.106347      758.95211     -27.648232      731.30388    
   3646000   289.86385      0.017021443    8.3225491      719.1602      -31.748726      687.41147    
   3647000   297.28201      0.017021443    7.5524271      737.56486     -31.031277      706.53358    
   3648000   309.99336      0.017021443    7.1015805      769.10208     -24.312604      744.78948    
   3649000   319.25712      0.017021443    19.867547      792.08571     -23.181132      768.90458    
   3650000   291.44931      0.017021443    13.104611      723.09377     -23.706268      699.38751    
   3651000   292.21827      0.017021443   -1.1340742      725.00158     -26.209489      698.79209    
   3652000   305.21315      0.017021443    8.2883255      757.24224     -27.788806      729.45343    
   3653000   304.55991      0.017021443    18.320699      755.62153     -20.922087      734.69944    
   3654000   297.24431      0.017021443    12.573393      737.47134     -24.582914      712.88842    
   3655000   302.85447      0.017021443    2.7210225      751.39028     -23.866261      727.52402    
   3656000   299.15726      0.017021443    6.799535       742.21742     -23.80564       718.41178    
   3657000   299.96245      0.017021443    9.3624157      744.2151      -26.191985      718.02311    
   3658000   319.92476      0.017021443    12.44078       793.74214     -26.770032      766.97211    
   3659000   298.24011      0.017021443    8.7557043      739.94194     -24.954629      714.98732    
   3660000   308.16697      0.017021443    10.752278      764.57074     -27.651888      736.91885    
   3661000   302.27837      0.017021443    8.6249193      749.96097     -27.374782      722.58619    
   3662000   305.99444      0.017021443    8.3033796      759.18063     -29.887698      729.29294    
   3663000   299.44893      0.017021443    8.4503298      742.94105     -32.794602      710.14645    
   3664000   286.44095      0.017021443    5.9965606      710.66788     -32.89274       677.77514    
   3665000   274.21164      0.017021443    12.825369      680.32664     -32.956442      647.3702     
   3666000   302.43043      0.017021443    11.368373      750.33822     -33.677723      716.6605     
   3667000   313.22806      0.017021443    7.987764       777.12746     -31.523955      745.60351    
   3668000   294.50355      0.017021443    6.6179372      730.67143     -31.169855      699.50158    
   3669000   294.9043       0.017021443    10.180074      731.66571     -29.131369      702.53434    
   3670000   319.13516      0.017021443    9.9820798      791.78314     -35.470026      756.31311    
   3671000   300.59754      0.017021443    7.2304397      745.79078     -29.165582      716.6252     
   3672000   305.93523      0.017021443    17.285059      759.03373     -28.736911      730.29682    
   3673000   301.41455      0.017021443    8.508225       747.8178      -28.861471      718.95632    
   3674000   295.12632      0.017021443    3.825863       732.21653     -23.908485      708.30805    
   3675000   295.23597      0.017021443    7.5081217      732.48858     -30.089457      702.39912    
   3676000   300.14886      0.017021443    13.17682       744.6776      -28.391492      716.28611    
   3677000   306.32967      0.017021443    12.828903      760.01236     -31.49198       728.52038    
   3678000   291.07455      0.017021443    9.2337313      722.16397     -30.890599      691.27337    
   3679000   285.67669      0.017021443    6.2981779      708.77174     -28.968916      679.80282    
   3680000   301.82041      0.017021443    9.3461594      748.82475     -24.171841      724.65291    
   3681000   308.58609      0.017021443    8.9027902      765.6106      -28.599335      737.01126    
   3682000   307.19667      0.017021443    10.737901      762.1634      -27.577935      734.58546    
   3683000   290.85298      0.017021443    8.5635636      721.61426     -26.282527      695.33173    
   3684000   302.3824       0.017021443    9.2303868      750.21906     -22.333656      727.8854     
   3685000   321.86373      0.017021443    9.9872263      798.55279     -29.644672      768.90812    
   3686000   298.28662      0.017021443    9.6931023      740.05732     -26.187427      713.86989    
   3687000   295.62235      0.017021443    9.048505       733.4472      -26.717245      706.72996    
   3688000   303.96955      0.017021443    7.9602091      754.15683     -25.962791      728.19404    
   3689000   310.31204      0.017021443    9.7199249      769.89273     -24.02993       745.8628     
   3690000   292.13091      0.017021443    10.045312      724.78483     -23.788146      700.99669    
   3691000   293.62653      0.017021443    7.2724573      728.49552     -27.273401      701.22212    
   3692000   299.58283      0.017021443    9.4236339      743.27326     -27.950868      715.32239    
   3693000   315.18017      0.017021443    13.178681      781.97069     -26.487176      755.48351    
   3694000   290.46965      0.017021443    9.810973       720.6632      -27.545789      693.11741    
   3695000   298.7576       0.017021443    9.0266381      741.22583     -31.832623      709.39321    
   3696000   305.49135      0.017021443    9.5672511      757.93245     -28.033686      729.89877    
   3697000   291.71588      0.017021443    8.9477794      723.75514     -24.457437      699.29771    
   3698000   318.22352      0.017021443    8.1241975      789.52133     -25.602066      763.91927    
   3699000   301.84361      0.017021443    9.4431342      748.88231     -27.082022      721.80029    
   3700000   288.72782      0.017021443    8.707248       716.34169     -27.849302      688.49238    
   3701000   307.59736      0.017021443    9.4570064      763.15753     -30.71896       732.43857    
   3702000   300.20334      0.017021443    9.6302166      744.81276     -35.593683      709.21908    
   3703000   291.60736      0.017021443    8.6471736      723.4859      -36.323357      687.16254    
   3704000   297.37407      0.017021443    10.207619      737.79327     -34.426223      703.36705    
   3705000   300.7167       0.017021443    11.149806      746.08641     -28.601747      717.48467    
   3706000   305.5774       0.017021443    6.438027       758.14595     -27.012352      731.1336     
   3707000   293.4997       0.017021443    8.3741015      728.18085     -31.344909      696.83594    
   3708000   303.55342      0.017021443    26.378824      753.12441     -34.933734      718.19067    
   3709000   313.10545      0.017021443    5.7175829      776.82325     -34.558239      742.26501    
   3710000   293.17199      0.017021443    7.3820829      727.36779     -30.963564      696.40422    
   3711000   310.78323      0.017021443    14.303404      771.06177     -39.56734       731.49443    
   3712000   308.4342       0.017021443    8.8333486      765.23376     -37.589241      727.64451    
   3713000   296.77579      0.017021443    8.4518853      736.30893     -32.549092      703.75984    
   3714000   293.43452      0.017021443    12.236247      728.01913     -40.703636      687.3155     
   3715000   319.28808      0.017021443    8.9217427      792.16252     -37.53445       754.62807    
   3716000   289.62523      0.017021443    8.8914147      718.56818     -39.114558      679.45363    
   3717000   293.89524      0.017021443    8.896064       729.16219     -36.362048      692.80015    
   3718000   315.03698      0.017021443    9.5364136      781.61542     -33.425062      748.19036    
   3719000   311.0856       0.017021443    6.8987141      771.81195     -35.426676      736.38528    
   3720000   289.25656      0.017021443    8.5155585      717.65349     -35.289363      682.36413    
   3721000   292.02357      0.017021443    8.2278028      724.51852     -30.293467      694.22505    
   3722000   307.18226      0.017021443    8.9565141      762.12765     -33.585667      728.54198    
   3723000   300.79276      0.017021443    9.0225232      746.27514     -29.8747        716.40044    
   3724000   302.36886      0.017021443    8.817206       750.18549     -27.610089      722.5754     
   3725000   308.63883      0.017021443    9.1887122      765.74143     -26.849467      738.89197    
   3726000   308.39661      0.017021443    10.095584      765.14048     -29.399124      735.74136    
   3727000   312.30668      0.017021443    10.466166      774.84149     -25.488818      749.35267    
   3728000   299.83716      0.017021443    10.367062      743.90427     -25.073093      718.83118    
   3729000   286.5177       0.017021443    5.8518441      710.85831     -26.156338      684.70197    
   3730000   295.34194      0.017021443    9.3618246      732.7515      -21.07454       711.67696    
   3731000   319.43596      0.017021443    7.908689       792.52942     -23.914805      768.61462    
   3732000   303.44861      0.017021443    10.385022      752.86436     -20.603997      732.26036    
   3733000   283.4229       0.017021443    15.184037      703.18004     -21.486683      681.69335    
   3734000   290.8357       0.017021443    6.2690576      721.57139     -23.380179      698.19121    
   3735000   307.08573      0.017021443    8.4109068      761.88815     -27.927056      733.9611     
   3736000   305.2493       0.017021443    10.335024      757.33192     -30.232983      727.09894    
   3737000   296.85843      0.017021443    10.619662      736.51395     -29.433514      707.08043    
   3738000   290.32935      0.017021443    10.495879      720.31512     -22.474289      697.84083    
   3739000   298.83152      0.017021443    7.9381169      741.40923     -32.645559      708.76367    
   3740000   310.71494      0.017021443    9.8388378      770.89233     -27.883477      743.00885    
   3741000   295.7775       0.017021443    10.12116       733.83212     -28.972588      704.85954    
   3742000   284.23323      0.017021443    8.0471152      705.19048     -25.074565      680.11592    
   3743000   312.3553       0.017021443    7.1072767      774.9621      -25.422041      749.54006    
   3744000   303.56796      0.017021443    10.481566      753.16048     -25.148758      728.01172    
   3745000   284.12237      0.017021443    9.7490872      704.91542     -25.865853      679.04957    
   3746000   301.31727      0.017021443    8.4836267      747.57645     -29.516421      718.06003    
   3747000   308.30454      0.017021443    9.5585235      764.91207     -26.625876      738.2862     
   3748000   293.93673      0.017021443    7.0741169      729.26512     -26.216451      703.04867    
   3749000   293.69967      0.017021443    7.3082586      728.67697     -26.655627      702.02134    
   3750000   298.81064      0.017021443    9.7837726      741.35744     -22.915781      718.44166    
   3751000   307.87539      0.017021443    12.097643      763.84732     -25.556578      738.29074    
   3752000   304.64665      0.017021443    7.0009454      755.83675     -28.410122      727.42663    
   3753000   297.113        0.017021443    7.536815       737.14553     -25.986773      711.15876    
   3754000   294.51492      0.017021443    9.2484671      730.69963     -27.957152      702.74248    
   3755000   302.35526      0.017021443    7.9665111      750.15174     -23.805942      726.34579    
   3756000   301.12467      0.017021443    8.2488672      747.0986      -22.647504      724.45109    
   3757000   294.80087      0.017021443    11.19861       731.40909     -23.277601      708.13148    
   3758000   307.46616      0.017021443    8.7799777      762.83202     -25.994229      736.83779    
   3759000   305.61292      0.017021443    5.6574077      758.23408     -29.586579      728.6475     
   3760000   291.83033      0.017021443    9.3220078      724.03909     -30.356198      693.68289    
   3761000   302.02597      0.017021443    11.54954       749.33475     -30.006828      719.32792    
   3762000   306.17532      0.017021443    7.7955973      759.62941     -29.353673      730.27573    
   3763000   299.20031      0.017021443    6.4796105      742.32421     -27.036821      715.28739    
   3764000   290.71264      0.017021443    9.4754298      721.26608     -28.77871       692.48737    
   3765000   296.50396      0.017021443    11.408349      735.6345      -27.461031      708.17347    
   3766000   318.72121      0.017021443    10.81752       790.7561      -27.145657      763.61045    
   3767000   295.38979      0.017021443    3.8266921      732.87021     -33.082858      699.78735    
   3768000   284.06978      0.017021443    8.9236402      704.78495     -32.270392      672.51455    
   3769000   292.66436      0.017021443    11.574594      726.10834     -25.528564      700.57977    
   3770000   307.84751      0.017021443    9.8352233      763.77817     -28.016109      735.76206    
   3771000   299.97075      0.017021443    8.3570378      744.2357      -30.602094      713.63361    
   3772000   312.95509      0.017021443    8.0185086      776.45019     -30.733017      745.71718    
   3773000   284.19474      0.017021443    6.8818882      705.09499     -33.110625      671.98437    
   3774000   302.82474      0.017021443    12.188748      751.31652     -33.072493      718.24402    
   3775000   307.90429      0.017021443    9.2015093      763.91904     -28.41284       735.5062     
   3776000   298.15284      0.017021443    8.0121806      739.72542     -33.44733       706.27809    
   3777000   305.4302       0.017021443    15.117825      757.78076     -28.258724      729.52203    
   3778000   299.82956      0.017021443    9.8668595      743.88541     -26.100476      717.78494    
   3779000   294.33553      0.017021443    9.4748621      730.25456     -26.391942      703.86262    
   3780000   296.61044      0.017021443    7.9378794      735.89867     -27.313488      708.58518    
   3781000   313.0317       0.017021443    8.5228754      776.64029     -28.268134      748.37215    
   3782000   301.50592      0.017021443    10.644399      748.04451     -32.466931      715.57758    
   3783000   296.70633      0.017021443    12.717318      736.13658     -29.302836      706.83375    
   3784000   298.10784      0.017021443    3.2844624      739.61377     -35.760336      703.85343    
   3785000   302.61703      0.017021443    8.9559787      750.8012      -27.557246      723.24396    
   3786000   295.71661      0.017021443    9.2929999      733.68105     -26.153136      707.52791    
   3787000   293.99689      0.017021443    9.5112918      729.41439     -24.283259      705.13113    
   3788000   311.50114      0.017021443    9.2583367      772.84291     -25.538214      747.30469    
   3789000   297.82108      0.017021443    8.9254537      738.9023      -24.908504      713.99379    
   3790000   288.29395      0.017021443    9.0541597      715.26524     -28.312781      686.95246    
   3791000   302.06473      0.017021443    10.153927      749.43093     -29.061011      720.36991    
   3792000   305.71065      0.017021443    9.1719163      758.47655     -25.323385      733.15317    
   3793000   292.65361      0.017021443    8.0936344      726.08168     -30.285777      695.7959     
   3794000   287.27383      0.017021443    8.6230211      712.7343      -29.875597      682.8587     
   3795000   302.26826      0.017021443    8.9546482      749.93587     -30.924509      719.01136    
   3796000   314.89074      0.017021443    8.7156485      781.2526      -33.80429       747.44831    
   3797000   290.0823       0.017021443    7.8085374      719.70218     -31.222375      688.4798     
   3798000   294.16427      0.017021443    8.7652935      729.82965     -32.039928      697.78972    
   3799000   322.42052      0.017021443    10.367111      799.93419     -27.371592      772.5626     
   3800000   305.03571      0.017021443    8.0480025      756.802       -30.560111      726.24189    
   3801000   296.05087      0.017021443    10.757709      734.51037     -31.758981      702.75138    
   3802000   303.44394      0.017021443    9.9948217      752.85278     -32.10161       720.75117    
   3803000   301.65601      0.017021443    5.6237846      748.41687     -30.114519      718.30235    
   3804000   295.18379      0.017021443    15.666676      732.35913     -31.186344      701.17278    
   3805000   304.41642      0.017021443    10.802034      755.26554     -26.34638       728.91916    
   3806000   296.88862      0.017021443   -1.8198981      736.58885     -30.959478      705.62937    
   3807000   296.00803      0.017021443    2.2625861      734.40408     -35.007807      699.39627    
   3808000   302.27001      0.017021443    17.849577      749.94022     -33.641439      716.29878    
   3809000   308.2429       0.017021443    16.11936       764.75912     -30.667506      734.09162    
   3810000   298.31884      0.017021443    8.0107174      740.13727     -31.530049      708.60722    
   3811000   306.28722      0.017021443    1.3658029      759.90705     -36.296931      723.61011    
   3812000   287.03438      0.017021443    3.470384       712.1402      -34.18871       677.95149    
   3813000   290.90355      0.017021443    10.099536      721.73972     -32.449036      689.29068    
   3814000   301.20061      0.017021443    10.359269      747.28702     -32.591403      714.69562    
   3815000   298.33053      0.017021443    8.4843732      740.16628     -25.929831      714.23645    
   3816000   307.56224      0.017021443   -2.1140123      763.07038     -31.075891      731.99449    
   3817000   298.35818      0.017021443    11.057608      740.23488     -29.356777      710.8781     
   3818000   300.23457      0.017021443    12.095313      744.89024     -27.358114      717.53213    
   3819000   304.29738      0.017021443    10.188086      754.97019     -24.509103      730.46109    
   3820000   312.19496      0.017021443    9.52404        774.5643      -20.546432      754.01786    
   3821000   309.21817      0.017021443    9.0363282      767.1788      -24.247117      742.93169    
   3822000   294.97769      0.017021443    8.3380188      731.84777     -31.917504      699.93027    
   3823000   294.92945      0.017021443    9.0772328      731.72809     -26.580827      705.14726    
   3824000   300.35106      0.017021443    10.952366      745.17927     -27.856378      717.32289    
   3825000   305.34796      0.017021443    8.9460428      757.57671     -28.453089      729.12363    
   3826000   304.7069       0.017021443    8.3197091      755.98622     -28.382593      727.60363    
   3827000   282.9859       0.017021443    8.9590062      702.09581     -33.52471       668.5711     
   3828000   307.84615      0.017021443    12.141597      763.77477     -30.477923      733.29685    
   3829000   301.4659       0.017021443    8.5662856      747.9452      -31.50611       716.43909    
   3830000   296.89996      0.017021443    9.0571477      736.61697     -27.771871      708.8451     
   3831000   308.01856      0.017021443    8.4273737      764.20254     -31.228589      732.97395    
   3832000   294.65495      0.017021443    9.6942224      731.04705     -28.341825      702.70522    
   3833000   303.38683      0.017021443    9.5718955      752.71108     -26.682022      726.02906    
   3834000   299.48233      0.017021443    9.4599491      743.02392     -25.328122      717.6958     
   3835000   304.65487      0.017021443    9.6842112      755.85714     -29.546467      726.31067    
   3836000   308.55462      0.017021443    10.103969      765.53252     -34.871501      730.66102    
   3837000   290.4332       0.017021443    9.1141374      720.57278     -32.70182       687.87096    
   3838000   282.83616      0.017021443    9.3466483      701.72432     -31.075954      670.64836    
   3839000   308.09222      0.017021443    10.125928      764.38528     -31.477375      732.9079     
   3840000   307.18273      0.017021443    6.6652038      762.12881     -27.575164      734.55365    
   3841000   286.23953      0.017021443    8.0199881      710.16816     -29.869556      680.2986     
   3842000   296.25319      0.017021443    10.969806      735.01233     -27.430142      707.58218    
   3843000   311.82384      0.017021443    9.6227195      773.64355     -27.610955      746.03259    
   3844000   296.06311      0.017021443    8.7290044      734.54073     -30.524121      704.01661    
   3845000   296.6435       0.017021443    11.151959      735.98069     -30.372038      705.60865    
   3846000   304.10014      0.017021443    10.00358       754.48084     -34.63124       719.8496     
   3847000   297.90325      0.017021443    11.488061      739.10619     -30.613872      708.49231    
   3848000   290.40989      0.017021443    9.68052        720.51495     -28.690426      691.82452    
   3849000   305.55423      0.017021443    6.3394054      758.08846     -31.906567      726.18189    
   3850000   314.69241      0.017021443    10.721523      780.76055     -28.451924      752.30862    
   3851000   296.11491      0.017021443    9.2979557      734.66925     -22.950966      711.71828    
   3852000   297.13712      0.017021443    8.4965286      737.20539     -23.894312      713.31108    
   3853000   302.94697      0.017021443    9.0038146      751.61978     -24.159175      727.46061    
   3854000   311.46495      0.017021443    7.9543723      772.75313     -28.664228      744.0889     
   3855000   299.80006      0.017021443    12.561746      743.81221     -25.00131       718.8109     
   3856000   277.52701      0.017021443    7.5059026      688.55217     -30.757681      657.79449    
   3857000   307.52873      0.017021443    7.5187355      762.98726     -34.537098      728.45016    
   3858000   305.32849      0.017021443    12.956725      757.5284      -33.165365      724.36304    
   3859000   289.08098      0.017021443    13.714598      717.21788     -35.314012      681.90387    
   3860000   300.58479      0.017021443    5.4465764      745.75916     -29.641015      716.11814    
   3861000   323.03805      0.017021443    10.771895      801.4663      -27.699307      773.76699    
   3862000   295.65325      0.017021443    12.709844      733.52387     -26.407368      707.11651    
   3863000   287.6309       0.017021443    6.5848183      713.6202      -30.25475       683.36545    
   3864000   300.0846       0.017021443    7.1896535      744.51818     -31.32438       713.1938     
   3865000   311.89967      0.017021443    12.975086      773.83167     -32.527498      741.30418    
   3866000   296.42938      0.017021443    7.4702496      735.44946     -31.888704      703.56076    
   3867000   291.0217       0.017021443    5.9084064      722.03285     -31.477727      690.55512    
   3868000   303.10458      0.017021443    9.2653647      752.01081     -32.63675       719.37406    
   3869000   315.50917      0.017021443    12.992104      782.78694     -28.160242      754.6267     
   3870000   289.29003      0.017021443    16.284043      717.73654     -25.696809      692.03973    
   3871000   300.82849      0.017021443    8.2767484      746.36379     -35.500151      710.86363    
   3872000   307.54422      0.017021443    5.0395529      763.02568     -38.345575      724.6801     
   3873000   295.87542      0.017021443    11.870981      734.07506     -37.754082      696.32098    
   3874000   287.53205      0.017021443    10.341681      713.37495     -36.749187      676.62576    
   3875000   302.1319       0.017021443    5.3940228      749.59756     -30.942492      718.65507    
   3876000   300.49475      0.017021443    3.7255437      745.53575     -35.011767      710.52398    
   3877000   311.99428      0.017021443    14.009095      774.06641     -34.038071      740.02834    
   3878000   293.70699      0.017021443    11.212447      728.69513     -33.089194      695.60594    
   3879000   295.9125       0.017021443    7.2938889      734.16707     -31.890111      702.27696    
   3880000   324.38232      0.017021443    2.3173045      804.80147     -29.786748      775.01472    
   3881000   301.96781      0.017021443    12.132048      749.19047     -24.710279      724.48019    
   3882000   300.19013      0.017021443    14.940285      744.77999     -25.656015      719.12398    
   3883000   299.7737       0.017021443    11.816074      743.74682     -27.068563      716.67825    
   3884000   296.3951       0.017021443    1.2169657      735.3644      -28.071246      707.29316    
   3885000   321.31137      0.017021443    7.3097576      797.18237     -27.155467      770.0269     
   3886000   299.46898      0.017021443    12.249412      742.99079     -30.983887      712.0069     
   3887000   291.66882      0.017021443    9.230805       723.63838     -28.03064       695.60774    
   3888000   297.99257      0.017021443    7.093314       739.32778     -32.321776      707.00601    
   3889000   301.88614      0.017021443    4.188317       748.98783     -32.293791      716.69404    
   3890000   300.59536      0.017021443    11.541124      745.78537     -31.850012      713.93536    
   3891000   291.34134      0.017021443    11.939213      722.82588     -32.67521       690.15067    
   3892000   306.62676      0.017021443    20.558227      760.74944     -33.241996      727.50744    
   3893000   300.16467      0.017021443    9.767576       744.71683     -27.080591      717.63623    
   3894000   296.34167      0.017021443    3.260307       735.23184     -33.177645      702.0542     
   3895000   297.40024      0.017021443    8.612437       737.8582      -35.024225      702.83398    
   3896000   309.54717      0.017021443    12.959059      767.99507     -30.703412      737.29166    
   3897000   292.70101      0.017021443    10.192074      726.19926     -31.398291      694.80097    
   3898000   292.0656       0.017021443    2.5298589      724.6228      -28.15804       696.46476    
   3899000   312.4693       0.017021443    4.7810795      775.24496     -26.298738      748.94622    
   3900000   305.38681      0.017021443    9.3697184      757.6731      -26.838839      730.83427    
   3901000   285.44365      0.017021443    8.7534786      708.19355     -29.89051       678.30304    
   3902000   297.02751      0.017021443    8.79554        736.93345     -27.551306      709.38214    
   3903000   314.35095      0.017021443    9.9001312      779.91338     -28.226824      751.68655    
   3904000   303.4578       0.017021443    12.026894      752.88717     -37.956312      714.93086    
   3905000   283.46763      0.017021443    8.8342033      703.29101     -40.423774      662.86724    
   3906000   296.35662      0.017021443    7.5082456      735.26895     -33.573007      701.69594    
   3907000   300.82223      0.017021443    5.2173991      746.34823     -33.90128       712.44695    
   3908000   309.44797      0.017021443    10.569791      767.74894     -35.534011      732.21493    
   3909000   283.35827      0.017021443    10.082096      703.01967     -31.753974      671.2657     
   3910000   287.40657      0.017021443    5.3957723      713.06361     -33.390871      679.67274    
   3911000   313.78047      0.017021443    0.53228462     778.498       -31.50845       746.98955    
   3912000   305.33967      0.017021443    13.988569      757.55613     -31.857124      725.69901    
   3913000   296.79753      0.017021443    11.910697      736.36284     -38.296293      698.06655    
   3914000   295.19012      0.017021443    12.72934       732.37482     -38.818912      693.55591    
   3915000   294.88923      0.017021443    8.1645938      731.62831     -31.601341      700.02697    
   3916000   302.88048      0.017021443    6.6759446      751.45481     -30.989399      720.46541    
   3917000   311.02144      0.017021443    12.074453      771.65276     -30.999382      740.65338    
   3918000   304.85566      0.017021443    9.4233475      756.3553      -33.890935      722.46437    
   3919000   284.14333      0.017021443    7.9919936      704.96744     -34.859197      670.10824    
   3920000   295.363        0.017021443    9.5056747      732.80374     -37.577782      695.22595    
   3921000   319.11838      0.017021443    9.6026255      791.7415      -40.933664      750.80784    
   3922000   295.84768      0.017021443    9.2016832      734.00624     -37.812332      696.19391    
   3923000   294.54066      0.017021443    8.7783301      730.76349     -35.312214      695.45128    
   3924000   299.5244       0.017021443    10.504884      743.12829     -40.560056      702.56823    
   3925000   309.59092      0.017021443    7.1004463      768.1036      -36.707063      731.39653    
   3926000   294.50719      0.017021443    8.8214603      730.68046     -38.36156       692.3189     
   3927000   303.815        0.017021443    8.0266963      753.77339     -36.174437      717.59895    
   3928000   307.10061      0.017021443    10.362885      761.92507     -35.331274      726.5938     
   3929000   309.41764      0.017021443    12.932175      767.67369     -35.660692      732.013      
   3930000   296.97244      0.017021443    11.398366      736.79682     -37.023329      699.77349    
   3931000   304.89703      0.017021443    1.4941316      756.45793     -34.534206      721.92373    
   3932000   306.94232      0.017021443    11.556306      761.53235     -31.198605      730.33374    
   3933000   297.0082       0.017021443    8.2442035      736.88553     -32.687807      704.19772    
   3934000   286.66289      0.017021443    8.0867931      711.21854     -39.603833      671.61471    
   3935000   295.70557      0.017021443    7.4933168      733.65367     -33.287429      700.36624    
   3936000   311.16277      0.017021443    9.0252055      772.00341     -36.006156      735.99725    
   3937000   295.77304      0.017021443    12.93179       733.82106     -29.340591      704.48047    
   3938000   279.99228      0.017021443    9.8116089      694.66855     -28.686693      665.98186    
   3939000   296.31071      0.017021443    5.5267051      735.15503     -31.388926      703.7661     
   3940000   327.75804      0.017021443    14.12319       813.17674     -32.423167      780.75357    
   3941000   303.72723      0.017021443    13.402629      753.55563     -31.221426      722.33421    
   3942000   282.26235      0.017021443    8.5607945      700.30067     -27.228394      673.07227    
   3943000   303.56774      0.017021443    3.7693279      753.15992     -25.296748      727.86317    
   3944000   317.64291      0.017021443    9.1603366      788.08082     -26.18286       761.89796    
   3945000   285.20645      0.017021443    11.876085      707.60506     -29.694596      677.91046    
   3946000   292.98993      0.017021443    9.1409043      726.9161      -24.035664      702.88043    
   3947000   300.79688      0.017021443    7.2758642      746.28535     -30.294161      715.99119    
   3948000   303.48089      0.017021443    7.6686279      752.94445     -29.621934      723.32252    
   3949000   304.60513      0.017021443    9.6440756      755.73371     -29.066864      726.66685    
   3950000   282.13898      0.017021443    9.4465812      699.99458     -32.75913       667.23545    
   3951000   279.28769      0.017021443    8.1460287      692.92046     -34.615214      658.30525    
   3952000   299.61001      0.017021443    9.554105       743.34068     -36.14962       707.19106    
   3953000   310.63664      0.017021443    9.5540772      770.69807     -34.225309      736.47276    
   3954000   305.26145      0.017021443    7.3350198      757.36207     -31.754461      725.6076     
   3955000   295.13229      0.017021443    9.2009964      732.23134     -30.591901      701.63944    
   3956000   296.11377      0.017021443    9.56642        734.66643     -29.704145      704.96229    
   3957000   313.98661      0.017021443    10.005126      779.00943     -30.501348      748.50808    
   3958000   302.85798      0.017021443    9.0439879      751.39899     -25.41308       725.98591    
   3959000   301.14022      0.017021443    10.26183       747.13718     -28.550724      718.58645    
   3960000   303.31462      0.017021443    10.354215      752.53194     -26.26426       726.26768    
   3961000   303.05978      0.017021443    6.6726596      751.89967     -27.409607      724.49007    
   3962000   296.34025      0.017021443    5.316661       735.22832     -23.9419        711.28642    
   3963000   298.32248      0.017021443    10.343846      740.14629     -25.504006      714.64228    
   3964000   321.76002      0.017021443    11.44742       798.29548     -21.938867      776.35661    
   3965000   296.84063      0.017021443    6.7833229      736.46978     -25.61508       710.8547     
   3966000   295.12517      0.017021443    5.073121       732.21367     -22.676053      709.53762    
   3967000   296.4582       0.017021443    12.919997      735.52097     -20.64255       714.87842    
   3968000   295.97645      0.017021443    9.4200287      734.32573     -23.83272       710.49301    
   3969000   300.8745       0.017021443    0.63361484     746.47793     -24.227469      722.25047    
   3970000   296.3465       0.017021443    8.4251601      735.24384     -23.181565      712.06228    
   3971000   313.53664      0.017021443    17.805739      777.89305     -21.590928      756.30212    
   3972000   293.52491      0.017021443   -2.0947025      728.24339     -23.600684      704.64271    
   3973000   292.41207      0.017021443    12.197079      725.4824      -26.149962      699.33244    
   3974000   296.61176      0.017021443    19.121415      735.90195     -26.713715      709.18824    
   3975000   324.45498      0.017021443    20.746378      804.98175     -24.756256      780.22549    
   3976000   302.70201      0.017021443    5.6239376      751.01204     -28.299855      722.71219    
   3977000   289.16348      0.017021443    11.165511      717.42256     -26.743925      690.67863    
   3978000   301.44012      0.017021443    16.73175       747.88124     -29.142822      718.73842    
   3979000   326.52267      0.017021443   -3.5145544      810.11176     -31.864115      778.24764    
   3980000   298.30137      0.017021443   -7.1013965      740.09392     -29.720258      710.37366    
   3981000   286.70964      0.017021443    15.562701      711.33451     -27.607672      683.72684    
   3982000   296.13813      0.017021443    17.259815      734.72686     -29.201057      705.52581    
   3983000   317.74645      0.017021443    13.250568      788.33771     -30.137817      758.19989    
   3984000   297.40179      0.017021443    5.4304734      737.86203     -32.096685      705.76535    
   3985000   288.9687       0.017021443    2.8790983      716.9393      -34.564193      682.37511    
   3986000   302.04501      0.017021443    13.646042      749.38199     -27.225739      722.15625    
   3987000   307.01593      0.017021443    19.185449      761.71498     -26.65724       735.05774    
   3988000   306.48733      0.017021443    2.9862159      760.40351     -26.650342      733.75317    
   3989000   291.75364      0.017021443    6.6672309      723.84883     -27.282572      696.56626    
   3990000   293.90127      0.017021443    11.983885      729.17716     -28.211017      700.96614    
   3991000   306.76331      0.017021443    13.191388      761.08824     -28.280791      732.80745    
   3992000   322.03831      0.017021443    5.6977257      798.98593     -26.800928      772.185      
   3993000   290.8248       0.017021443    2.7164121      721.54435     -25.404221      696.14013    
   3994000   293.62339      0.017021443    10.720109      728.48771     -28.88061       699.6071     
   3995000   307.71223      0.017021443    11.447878      763.44252     -23.79358       739.64894    
   3996000   322.54992      0.017021443    7.6815236      800.25525     -28.444881      771.81037    
   3997000   299.84769      0.017021443    4.4433377      743.93037     -26.271528      717.65885    
   3998000   293.38739      0.017021443    22.553945      727.90219     -26.957218      700.94498    
   3999000   307.7834       0.017021443    5.6834891      763.61911     -24.140223      739.47888    
   4000000   295.58243      0.017021443    3.7587562      733.34817     -24.079024      709.26914    
Loop time of 10544 on 1 procs for 4000000 steps with 1500 atoms

Performance: 8.194 ns/day, 2.929 hours/ns, 379.362 timesteps/s, 569.043 katom-step/s
99.2% CPU use with 1 MPI tasks x 1 OpenMP threads

MPI task timing breakdown:
Section |  min time  |  avg time  |  max time  |%varavg| %total
---------------------------------------------------------------
Pair    | 710.58     | 710.58     | 710.58     |   0.0 |  6.74
Bond    | 181.99     | 181.99     | 181.99     |   0.0 |  1.73
Kspace  | 8806.1     | 8806.1     | 8806.1     |   0.0 | 83.52
Neigh   | 0.039855   | 0.039855   | 0.039855   |   0.0 |  0.00
Comm    | 27.628     | 27.628     | 27.628     |   0.0 |  0.26
Output  | 0.12529    | 0.12529    | 0.12529    |   0.0 |  0.00
Modify  | 800.44     | 800.44     | 800.44     |   0.0 |  7.59
Other   |            | 17.09      |            |       |  0.16

Nlocal:           1500 ave        1500 max        1500 min
Histogram: 1 0 0 0 0 0 0 0 0 0
Nghost:           1204 ave        1204 max        1204 min
Histogram: 1 0 0 0 0 0 0 0 0 0
Neighs:              0 ave           0 max           0 min
Histogram: 1 0 0 0 0 0 0 0 0 0

Total # of neighbors = 0
Ave neighs/atom = 0
Ave special neighs/atom = 2
Neighbor list builds = 16445
Dangerous builds = 0
write_data	last_conf.data pair ij
System init for write_data ...
PPPM initialization ...
  using 12-bit tables for long-range coulomb (src/kspace.cpp:342)
  G vector (1/distance) = 0.16458777
  grid = 27 27 27
  stencil order = 5
  estimated absolute RMS force accuracy = 0.035513361
  estimated relative force accuracy = 0.00010694743
  using double precision FFTW3
  3d grid and FFT values/proc = 32768 19683
Generated 1 of 1 mixed pair_coeff terms from arithmetic mixing rule
Total wall time: 2:55:44
