LAMMPS (29 Aug 2024 - Update 1)
  using 1 OpenMP thread(s) per MPI task
package gpu 1 gpuID 0
# GCMC for CO2 molecular fluid, rigid/small/nvt dynamics
# Rigid CO2 TraPPE model
# [Potoff and J.I. Siepmann, Vapor-liquid equilibria of
# mixtures containing alkanes, carbon dioxide and
# nitrogen AIChE J., 47,1676-1682 (2001)].

# global model settings

units           real
atom_style      full
boundary        p p p
pair_style      lj/cut/coul/long  12
pair_modify     mix arithmetic shift yes
kspace_style    pppm 1.0e-4
bond_style      harmonic
angle_style     harmonic
neigh_modify    one 4000

# box, start molecules on simple cubic lattice
region          mbox block 0 ${lbox} 0 ${lbox} 0 ${lbox} units box
region          mbox block 0 130 0 ${lbox} 0 ${lbox} units box
region          mbox block 0 130 0 130 0 ${lbox} units box
region          mbox block 0 130 0 130 0 130 units box
create_box      2 mbox                                       bond/types 1                                angle/types 1                               extra/bond/per/atom 2                       extra/angle/per/atom 1                      extra/special/per/atom 2
Created orthogonal box = (0 0 0) to (130 130 130)
  1 by 1 by 1 MPI processor grid
molecule        co2mol ../CO2.txt
Read molecule template co2mol:
# CO2 molecule file. TraPPE model.
  1 molecules
  0 fragments
  3 atoms with max type 2
  2 bonds with max type 1
  1 angles with max type 1
  0 dihedrals with max type 0
  0 impropers with max type 0
create_atoms   	0 random ${nmols} 34578 mbox mol co2mol 464563 overlap 1.2
create_atoms   	0 random 500 34578 mbox mol co2mol 464563 overlap 1.2
Created 1500 atoms
  using lattice units in orthogonal box = (0 0 0) to (130 130 130)
  create_atoms CPU = 0.008 seconds

# rigid CO2 TraPPE model

pair_coeff      1   1  0.053649   2.800
pair_coeff      2   2  0.156973   3.050
bond_coeff      1       0       1.16
angle_coeff     1       0       180

# masses

mass 1 12.0107
mass 2 15.9994

write_data init_conf.data  pair ij
System init for write_data ...
PPPM initialization ...
  using 12-bit tables for long-range coulomb (src/kspace.cpp:342)
  G vector (1/distance) = 0.163967
  grid = 27 27 27
  stencil order = 5
  estimated absolute RMS force accuracy = 0.036150669
  estimated relative force accuracy = 0.00010886667
  using double precision FFTW3
  3d grid and FFT values/proc = 32768 19683
Generated 1 of 1 mixed pair_coeff terms from arithmetic mixing rule

# MD settings

group           co2 type 1 2
1500 atoms in group co2
velocity       	all create 300 54654
timestep        0.25

# rigid constraints with thermostat
fix             myrigidnvt co2 rigid/nvt molecule temp 300 300 $(100*dt)
fix             myrigidnvt co2 rigid/nvt molecule temp 300 300 25
  500 rigid bodies with 1500 atoms

thermo 1000
thermo_style custom step temp density press ke pe etotal


variable    mvol equal vol
variable    mden equal density
variable	mtmp equal temp
variable    mpre equal press

fix mydat all ave/time 1 4000 4000 v_mtmp v_mden v_mpre file statistics.dat ## every 1ps

run 4000000 ## 1ns

CITE-CITE-CITE-CITE-CITE-CITE-CITE-CITE-CITE-CITE-CITE-CITE-CITE

Your simulation uses code contributions which should be cited:

- GPU package (short-range, long-range and three-body potentials): doi:10.1016/j.cpc.2010.12.021, doi:10.1016/j.cpc.2011.10.012, doi:10.1016/j.cpc.2013.08.002, doi:10.1016/j.commatsci.2014.10.068, doi:10.1016/j.cpc.2016.10.020, doi:10.3233/APC200086

@Article{Brown11,
 author = {W. M. Brown and P. Wang and S. J. Plimpton and A. N. Tharrington},
 title = {Implementing Molecular Dynamics on Hybrid High Performance Computers---Short Range Forces},
 journal = {Comput.\ Phys.\ Commun.},
 year =    2011,
 volume =  182,
 pages =   {898--911},
 doi =     {10.1016/j.cpc.2010.12.021}
}

@Article{Brown12,
 author = {W. M. Brown and A. Kohlmeyer and S. J. Plimpton and A. N. Tharrington},
 title = {Implementing Molecular Dynamics on Hybrid High Performance Computers - Particle-Particle Particle-Mesh},
 journal = {Comput.\ Phys.\ Commun.},
 year =    2012,
 volume =  183,
 doi =     {10.1016/j.cpc.2011.10.012},
 pages =   {449--459}
}

@Article{Brown13,
 author = {W. M. Brown and Y. Masako},
 title = {Implementing Molecular Dynamics on Hybrid High Performance Computers---Three-Body Potentials},
 journal = {Comput.\ Phys.\ Commun.},
 year =    2013,
 volume =  184,
 pages =   {2785--2793},
 doi =     {10.1016/j.cpc.2013.08.002},
}

@Article{Trung15,
 author = {T. D. Nguyen and S. J. Plimpton},
 title = {Accelerating Dissipative Particle Dynamics Simulations for Soft Matter Systems},
 journal = {Comput.\ Mater.\ Sci.},
 year =    2015,
 doi =     {10.1016/j.commatsci.2014.10.068},
 volume =  100,
 pages =   {173--180}
}

@Article{Trung17,
 author = {T. D. Nguyen},
 title = {{GPU}-Accelerated {T}ersoff Potentials for Massively Parallel
    Molecular Dynamics Simulations},
 journal = {Comput.\ Phys.\ Commun.},
 year =    2017,
 doi =     {10.1016/j.cpc.2016.10.020},
 volume =  212,
 pages =   {113--122}
}

@inproceedings{Nikolskiy19,
 author = {V. Nikolskiy and V. Stegailov},
 title = {{GPU} Acceleration of Four-Site Water Models in {LAMMPS}},
 booktitle = {Proceedings of the International Conference on Parallel
    Computing (ParCo 2019), Prague, Czech Republic},
 doi =     {10.3233/APC200086},
 year =    2019
}

CITE-CITE-CITE-CITE-CITE-CITE-CITE-CITE-CITE-CITE-CITE-CITE-CITE

PPPM initialization ...
  using 12-bit tables for long-range coulomb (src/kspace.cpp:342)
  G vector (1/distance) = 0.163967
  grid = 27 27 27
  stencil order = 5
  estimated absolute RMS force accuracy = 0.036150669
  estimated relative force accuracy = 0.00010886667
  using double precision FFTW3
  3d grid and FFT values/proc = 32768 19683
Generated 1 of 1 mixed pair_coeff terms from arithmetic mixing rule
Per MPI rank memory allocation (min/avg/max) = 10.39 | 10.39 | 10.39 Mbytes
   Step          Temp         Density         Press          KinEng         PotEng         TotEng    
         0   307.41471      0.016631654   -194.39631      762.70438      45585.431      46348.135    
      1000   306.52332      0.016631654    12.521776      760.49281     -20.033507      740.4593     
      2000   318.66911      0.016631654    14.114243      790.62684     -27.92237       762.70447    
      3000   295.68985      0.016631654    18.54989       733.61467     -32.89954       700.71513    
      4000   306.67163      0.016631654    10.021181      760.86077     -39.275337      721.58543    
      5000   303.84509      0.016631654    8.9878924      753.84804     -43.2126        710.63544    
      6000   298.80851      0.016631654    8.2068776      741.35214     -45.391902      695.96024    
      7000   292.71426      0.016631654    5.6325289      726.23215     -49.996046      676.2361     
      8000   299.17568      0.016631654    8.9695137      742.26311     -56.914585      685.34853    
      9000   300.08472      0.016631654    7.8939444      744.51846     -59.734024      684.78444    
     10000   297.51373      0.016631654    9.0801435      738.13975     -68.348579      669.79117    
     11000   305.68582      0.016631654    10.949169      758.41494     -65.658009      692.75693    
     12000   303.72375      0.016631654    7.6631679      753.54699     -64.895539      688.65145    
     13000   286.50842      0.016631654    7.2615862      710.83528     -60.69434       650.14094    
     14000   306.55479      0.016631654    8.4046135      760.57087     -63.995889      696.57498    
     15000   308.6507       0.016631654    17.212102      765.7709      -66.271216      699.49969    
     16000   297.89073      0.016631654   -12.137736      739.0751      -72.076374      666.99873    
     17000   302.59854      0.016631654    8.1381909      750.75531     -72.816077      677.93923    
     18000   303.03574      0.016631654    8.5807411      751.84002     -72.25581       679.58421    
     19000   299.73385      0.016631654    9.204981       743.64793     -74.526375      669.12156    
     20000   291.43973      0.016631654    3.6078421      723.07002     -80.042543      643.02747    
     21000   313.40232      0.016631654    8.0180844      777.5598      -81.399213      696.16059    
     22000   304.37361      0.016631654    9.808833       755.15931     -84.941596      670.21771    
     23000   323.48916      0.016631654    16.185086      802.58553     -84.628134      717.9574     
     24000   297.87294      0.016631654    11.459942      739.03097     -81.906115      657.12485    
     25000   298.75597      0.016631654    9.9123355      741.22178     -85.955705      655.26608    
     26000   297.82589      0.016631654    7.5853452      738.91424     -88.182032      650.73221    
     27000   304.93027      0.016631654    10.610461      756.5404      -85.644592      670.89581    
     28000   311.57259      0.016631654    15.121967      773.02018     -89.25487       683.76531    
     29000   303.40895      0.016631654    6.0220948      752.76596     -92.736534      660.02943    
     30000   293.97279      0.016631654    3.0045631      729.3546      -98.644793      630.70981    
     31000   301.00452      0.016631654    10.711952      746.80052     -99.616721      647.1838     
     32000   315.41729      0.016631654    11.781083      782.559       -100.56585      681.99315    
     33000   287.39689      0.016631654    7.1221824      713.03961     -102.76154      610.27807    
     34000   297.30414      0.016631654    6.9221681      737.61976     -100.10991      637.50985    
     35000   301.93921      0.016631654    7.6484524      749.11951     -105.21152      643.90799    
     36000   301.10412      0.016631654    8.7131527      747.04763     -100.68819      646.35944    
     37000   282.65344      0.016631654    8.8730381      701.27098     -107.81501      593.45597    
     38000   294.81082      0.016631654    8.7941365      731.43377     -102.86693      628.56683    
     39000   299.53353      0.016631654    8.1194233      743.15094     -107.7757       635.37524    
     40000   293.9573       0.016631654    8.8932674      729.31616     -114.11915      615.197      
     41000   309.88514      0.016631654    8.1900134      768.83358     -117.10405      651.72953    
     42000   294.75501      0.016631654    8.4408535      731.29529     -110.36519      620.9301     
     43000   299.8334       0.016631654    8.083988       743.89493     -101.53701      642.35792    
     44000   305.29992      0.016631654    9.8878513      757.45752     -107.8748       649.58272    
     45000   311.84464      0.016631654    7.224122       773.69514     -105.42073      668.27441    
     46000   293.11671      0.016631654    8.8278972      727.23064     -106.46923      620.76142    
     47000   290.48174      0.016631654    12.758497      720.6932      -107.45641      613.23679    
     48000   316.5493       0.016631654    10.71689       785.36753     -111.86923      673.4983     
     49000   293.2332       0.016631654    7.7760853      727.51965     -111.28955      616.2301     
     50000   286.59875      0.016631654    12.665832      711.05941     -110.72951      600.32989    
     51000   301.52067      0.016631654    10.272991      748.0811      -108.26727      639.81383    
     52000   308.82953      0.016631654    8.1044798      766.21458     -106.36969      659.84488    
     53000   296.39351      0.016631654    3.4200236      735.36047     -106.64459      628.71588    
     54000   286.00622      0.016631654    14.26703       709.58932     -102.96644      606.62288    
     55000   307.63835      0.016631654    17.486841      763.25922     -105.80816      657.45106    
     56000   312.04891      0.016631654    8.2372959      774.20194     -106.88457      667.31737    
     57000   291.32613      0.016631654   -0.46477692     722.78816     -110.2244       612.56376    
     58000   294.70714      0.016631654    0.13157116     731.17654     -109.97176      621.20478    
     59000   294.21372      0.016631654    16.142433      729.95234     -106.09988      623.85246    
     60000   308.43227      0.016631654    13.452104      765.22896     -107.76251      657.46646    
     61000   310.88736      0.016631654   -7.2822937      771.32011     -111.97629      659.34382    
     62000   300.39807      0.016631654   -5.0585186      745.29588     -107.95023      637.34566    
     63000   290.03022      0.016631654    15.956909      719.57297     -109.78836      609.78461    
     64000   301.71572      0.016631654    12.027215      748.56503     -113.11638      635.44865    
     65000   323.15711      0.016631654   -3.6996628      801.7617      -117.49512      684.26658    
     66000   300.46965      0.016631654   -10.017162      745.47348     -117.3489       628.12458    
     67000   292.60346      0.016631654    15.668489      725.95726     -120.92683      605.03043    
     68000   296.91007      0.016631654   -6.9998994      736.64207     -116.59253      620.04954    
     69000   297.04893      0.016631654    6.5963898      736.9866      -114.02005      622.96655    
     70000   308.42449      0.016631654    11.390571      765.20966     -101.34018      663.86948    
     71000   286.69746      0.016631654    10.099597      711.3043      -107.99011      603.3142     
     72000   295.39683      0.016631654    7.4574582      732.88767     -105.17343      627.71424    
     73000   310.43404      0.016631654    8.9647887      770.19542     -106.482        663.71342    
     74000   303.55732      0.016631654    9.1588939      753.13407     -105.57565      647.55842    
     75000   297.57115      0.016631654    9.0638226      738.28223     -107.81821      630.46401    
     76000   299.71343      0.016631654    7.0822507      743.59729     -107.78583      635.81146    
     77000   309.58835      0.016631654    13.287759      768.09722     -108.30713      659.79009    
     78000   297.86989      0.016631654    8.9129484      739.02341     -108.59554      630.42787    
     79000   310.40158      0.016631654    4.2467951      770.11489     -115.69551      654.41938    
     80000   300.42174      0.016631654    9.3468679      745.35462     -115.8564       629.49822    
     81000   286.29235      0.016631654    8.2270122      710.29922     -117.07701      593.22221    
     82000   303.90682      0.016631654    8.4716792      754.00119     -122.22167      631.77953    
     83000   319.71424      0.016631654    8.7450281      793.21985     -119.04911      674.17074    
     84000   295.01715      0.016631654    7.3330538      731.94569     -122.01194      609.93374    
     85000   302.43995      0.016631654    7.697068       750.36184     -121.76963      628.59221    
     86000   299.33934      0.016631654    6.8420611      742.66915     -121.31595      621.35321    
     87000   299.10217      0.016631654    8.8101179      742.08072     -121.64142      620.4393     
     88000   309.40001      0.016631654    10.94888       767.62995     -119.29151      648.33844    
     89000   298.99686      0.016631654    5.7684627      741.81944     -124.73374      617.0857     
     90000   307.70988      0.016631654    11.698766      763.4367      -119.65342      643.78329    
     91000   298.73165      0.016631654    20.677749      741.16145     -117.54712      623.61434    
     92000   298.43707      0.016631654    8.9603364      740.4306      -124.4339       615.99671    
     93000   304.96217      0.016631654    2.2900674      756.61954     -120.47982      636.13972    
     94000   292.56459      0.016631654    10.016764      725.86082     -122.43218      603.42864    
     95000   300.01668      0.016631654    9.2575861      744.34965     -125.64353      618.70611    
     96000   302.90801      0.016631654    7.5007037      751.52313     -120.63257      630.89056    
     97000   306.70404      0.016631654    8.349443       760.94118     -114.73336      646.20783    
     98000   295.22383      0.016631654    8.8192495      732.45847     -115.33357      617.12489    
     99000   303.53972      0.016631654    6.8048619      753.09041     -110.09754      642.99286    
    100000   314.09899      0.016631654    8.446938       779.28825     -114.7806       664.50765    
    101000   305.02343      0.016631654    9.8096477      756.77154     -118.61683      638.15471    
    102000   289.95091      0.016631654    7.0923459      719.3762      -111.26316      608.11303    
    103000   287.40287      0.016631654    7.9505067      713.05444     -112.50462      600.54982    
    104000   312.07851      0.016631654    8.7130318      774.27539     -113.7232       660.55219    
    105000   300.22777      0.016631654    9.1193197      744.87338     -110.40149      634.4719     
    106000   290.44766      0.016631654    8.0602908      720.60866     -98.475932      622.13273    
    107000   297.93861      0.016631654    8.8173894      739.1939      -107.44565      631.74825    
    108000   308.45943      0.016631654    10.441767      765.29636     -107.27744      658.01892    
    109000   297.46634      0.016631654    11.016247      738.02218     -99.926284      638.09589    
    110000   307.8379       0.016631654    8.4362491      763.75432     -104.09589      659.65843    
    111000   295.60989      0.016631654    6.2882853      733.41628     -112.92426      620.49202    
    112000   277.30897      0.016631654    7.4904794      688.01121     -111.89126      576.11995    
    113000   306.10705      0.016631654    7.7660341      759.46002     -109.78744      649.67258    
    114000   308.8162       0.016631654    8.6503918      766.1815      -109.86518      656.31631    
    115000   280.905        0.016631654    7.8061528      696.93304     -110.90801      586.02503    
    116000   308.88119      0.016631654    6.9921332      766.34274     -110.52972      655.81302    
    117000   304.1122       0.016631654    9.0266108      754.51076     -118.91565      635.59511    
    118000   287.38999      0.016631654    9.941606       713.02248     -117.12741      595.89506    
    119000   306.61098      0.016631654    5.6534142      760.7103      -122.25053      638.45977    
    120000   313.72742      0.016631654    8.6360689      778.36638     -115.92304      662.44334    
    121000   296.04486      0.016631654    9.3602191      734.49546     -119.18214      615.31332    
    122000   299.44926      0.016631654    7.6200637      742.94187     -111.12297      631.81889    
    123000   314.11763      0.016631654    10.067925      779.33451     -115.74123      663.59328    
    124000   297.91075      0.016631654    8.4022056      739.12477     -110.11115      629.01363    
    125000   297.88137      0.016631654    4.8465674      739.0519      -114.77491      624.27699    
    126000   307.28749      0.016631654    8.5271915      762.38873     -110.63419      651.75453    
    127000   286.04465      0.016631654    10.850837      709.68466     -103.35099      606.33367    
    128000   300.58494      0.016631654    8.3576795      745.75953     -107.08656      638.67297    
    129000   303.91994      0.016631654    9.4994968      754.03374     -109.40031      644.63343    
    130000   301.25493      0.016631654    7.4009873      747.42178     -111.17037      636.25141    
    131000   302.6686       0.016631654    9.324154       750.92914     -109.10583      641.82331    
    132000   301.54472      0.016631654    8.3804161      748.14076     -111.93002      636.21074    
    133000   285.23163      0.016631654    3.5530164      707.66755     -109.43725      598.2303     
    134000   297.29618      0.016631654    4.8404205      737.60002     -115.7265       621.87352    
    135000   312.77105      0.016631654    8.8368522      775.9936      -113.32167      662.67192    
    136000   296.01075      0.016631654    12.39071       734.41083     -111.14627      623.26456    
    137000   297.39479      0.016631654    8.7499928      737.84468     -108.83755      629.00713    
    138000   298.26072      0.016631654    3.233457       739.99307     -102.76888      637.22418    
    139000   298.09425      0.016631654    7.7787612      739.58005     -98.921965      640.65808    
    140000   307.26314      0.016631654    8.7057911      762.32832     -102.52397      659.80435    
    141000   293.96957      0.016631654    7.7574491      729.3466      -108.21666      621.12994    
    142000   290.65496      0.016631654    8.4048531      721.12297     -104.01539      617.10759    
    143000   293.19422      0.016631654    5.958738       727.42294     -99.50424       627.9187     
    144000   300.86268      0.016631654    7.1962666      746.44861     -99.325149      647.12346    
    145000   305.43537      0.016631654    6.6225437      757.79357     -95.636368      662.1572     
    146000   298.24486      0.016631654    7.4087396      739.95373     -96.913883      643.03985    
    147000   298.87577      0.016631654    8.0100315      741.51903     -98.057473      643.46156    
    148000   306.27364      0.016631654    11.106328      759.87334     -98.614841      661.2585     
    149000   298.92093      0.016631654    8.9492952      741.63106     -101.31746      640.3136     
    150000   296.63683      0.016631654    6.0195045      735.96414     -102.27406      633.69008    
    151000   295.26068      0.016631654    8.9883542      732.54988     -96.048409      636.50147    
    152000   307.64889      0.016631654    8.7607734      763.28538     -94.470387      668.81499    
    153000   302.22655      0.016631654    7.3379387      749.8324      -96.735639      653.09676    
    154000   286.72142      0.016631654    7.3383873      711.36375     -95.272571      616.09118    
    155000   302.64708      0.016631654    7.9600311      750.87575     -92.23828       658.63747    
    156000   318.74477      0.016631654    11.304005      790.81457     -94.51206       696.30251    
    157000   302.41576      0.016631654    8.5108865      750.30183     -98.227517      652.07431    
    158000   295.15543      0.016631654    7.6113193      732.28876     -99.99358       632.29518    
    159000   297.9544       0.016631654    6.0412916      739.23307     -98.814858      640.41821    
    160000   292.55838      0.016631654    1.4369782      725.8454      -96.945679      628.89973    
    161000   298.514        0.016631654    8.1001203      740.62146     -97.499722      643.12174    
    162000   311.63031      0.016631654    8.879911       773.16338     -96.504676      676.65871    
    163000   291.77827      0.016631654    11.370255      723.90993     -96.834929      627.07501    
    164000   292.53196      0.016631654    5.9620711      725.77985     -99.478084      626.30177    
    165000   312.44444      0.016631654    7.5212691      775.18327     -96.894683      678.28858    
    166000   297.7772       0.016631654    12.237938      738.79344     -99.400466      639.39297    
    167000   299.05186      0.016631654    6.5022708      741.95591     -108.34349      633.61242    
    168000   306.51325      0.016631654    0.29680776     760.46783     -98.7428        661.72503    
    169000   298.01122      0.016631654    12.804845      739.37405     -89.662835      649.71121    
    170000   292.39774      0.016631654    7.6616321      725.44685     -90.001376      635.44547    
    171000   298.01064      0.016631654    1.767907       739.37262     -95.467737      643.90489    
    172000   286.79712      0.016631654    16.555143      711.55157     -96.417911      615.13366    
    173000   296.65935      0.016631654    8.7459542      736.02003     -95.935517      640.08451    
    174000   296.26711      0.016631654    7.3577162      735.04687     -91.570597      643.47627    
    175000   303.53675      0.016631654    4.1391383      753.08304     -87.895292      665.18775    
    176000   308.0622       0.016631654    13.971173      764.31082     -83.807468      680.50335    
    177000   294.24664      0.016631654    22.638811      730.03402     -82.440165      647.59385    
    178000   312.1187       0.016631654    7.7241975      774.3751      -81.142349      693.23276    
    179000   298.47426      0.016631654    3.9530985      740.52287     -83.16107       657.3618     
    180000   292.02417      0.016631654    2.9176747      724.52002     -80.040804      644.47922    
    181000   307.17406      0.016631654    7.1429898      762.10731     -81.667315      680.43999    
    182000   306.3259       0.016631654    15.047841      760.00299     -74.259608      685.74339    
    183000   286.77172      0.016631654    8.5169545      711.48854     -75.141868      636.34667    
    184000   287.16337      0.016631654    1.5699213      712.46023     -73.450984      639.00924    
    185000   313.65406      0.016631654    8.3927041      778.18436     -76.172708      702.01165    
    186000   293.74697      0.016631654    16.679143      728.79432     -81.26348       647.53084    
    187000   304.19443      0.016631654    5.5367106      754.71476     -84.691507      670.02325    
    188000   318.92165      0.016631654    8.6283257      791.25339     -84.068188      707.18521    
    189000   296.33826      0.016631654    10.827594      735.22338     -74.664319      660.55906    
    190000   297.98172      0.016631654    3.9576127      739.30085     -74.861638      664.43922    
    191000   302.39027      0.016631654    8.8152505      750.2386      -81.266551      668.97205    
    192000   326.97561      0.016631654    9.5983028      811.23551     -77.001089      734.23442    
    193000   298.41797      0.016631654    10.846112      740.3832      -85.063789      655.31941    
    194000   286.12957      0.016631654    6.3889674      709.89534     -84.822417      625.07293    
    195000   282.43297      0.016631654    6.4144438      700.72398     -84.087117      616.63686    
    196000   292.90012      0.016631654    7.8621283      726.69328     -77.109963      649.58332    
    197000   294.19923      0.016631654    9.1568753      729.91641     -78.809277      651.10713    
    198000   306.65851      0.016631654    8.9183805      760.82822     -73.121047      687.70717    
    199000   318.35096      0.016631654    2.47899        789.83752     -72.2803        717.55722    
    200000   289.36069      0.016631654    1.3192357      717.91184     -73.919659      643.99218    
    201000   282.13348      0.016631654    9.2897522      699.98093     -74.072351      625.90858    
    202000   308.62294      0.016631654    9.7862287      765.70202     -74.72185       690.98017    
    203000   310.68567      0.016631654    7.8097204      770.8197      -75.380487      695.43922    
    204000   298.2527       0.016631654    3.9986756      739.97317     -78.51822       661.45495    
    205000   297.51862      0.016631654    10.345308      738.1519      -73.832258      664.31965    
    206000   312.90987      0.016631654    8.3049961      776.33802     -73.29737       703.04065    
    207000   291.95271      0.016631654    5.9866787      724.34271     -74.187603      650.15511    
    208000   307.59061      0.016631654    11.156097      763.14078     -75.780538      687.36024    
    209000   300.57466      0.016631654    10.138644      745.73401     -67.125684      678.60833    
    210000   303.56813      0.016631654    6.9559299      753.16089     -62.731206      690.42968    
    211000   283.68614      0.016631654    5.7664891      703.83312     -66.934717      636.89841    
    212000   293.14335      0.016631654    8.0267434      727.29673     -66.524224      660.77251    
    213000   320.84715      0.016631654    9.2232786      796.03061     -65.599172      730.43144    
    214000   297.42522      0.016631654    6.191101       737.92017     -68.844787      669.07539    
    215000   294.6267       0.016631654    8.6763589      730.97697     -72.443314      658.53365    
    216000   311.76354      0.016631654    10.182598      773.49394     -71.117344      702.3766     
    217000   300.4215       0.016631654    7.9594643      745.35401     -73.583056      671.77095    
    218000   294.03126      0.016631654    7.0129036      729.49966     -74.121864      655.37779    
    219000   290.30594      0.016631654    10.270685      720.25704     -68.578119      651.67892    
    220000   304.57008      0.016631654    9.2959914      755.64676     -69.452742      686.19402    
    221000   302.25389      0.016631654    8.3471553      749.90022     -65.836899      684.06332    
    222000   284.4212       0.016631654    8.4808725      705.65683     -63.627898      642.02893    
    223000   311.11934      0.016631654    9.376453       771.89565     -64.271822      707.62383    
    224000   303.42536      0.016631654    8.6943198      752.80669     -66.052922      686.75376    
    225000   290.23342      0.016631654    8.5417011      720.07711     -62.166639      657.91047    
    226000   299.74426      0.016631654    9.910844       743.67378     -66.098913      677.57486    
    227000   312.73415      0.016631654    8.6974213      775.90204     -69.277458      706.62458    
    228000   307.16497      0.016631654    10.115815      762.08475     -69.483661      692.60109    
    229000   285.53708      0.016631654    9.2265886      708.42537     -71.333064      637.09231    
    230000   294.21014      0.016631654    5.9445791      729.94346     -65.939724      664.00373    
    231000   308.28351      0.016631654   -1.1254417      764.8599      -71.309146      693.55075    
    232000   304.59875      0.016631654    3.8352304      755.71789     -66.887925      688.82997    
    233000   307.96567      0.016631654    14.517962      764.07132     -66.867077      697.20425    
    234000   296.49495      0.016631654    16.352721      735.61214     -66.402476      669.20966    
    235000   298.6609       0.016631654    7.8542908      740.98592     -60.954814      680.03111    
    236000   296.40311      0.016631654    6.4649947      735.38429     -65.986132      669.39816    
    237000   295.51201      0.016631654    8.1378725      733.17344     -69.425814      663.74763    
    238000   306.50706      0.016631654    8.6828092      760.45246     -69.124486      691.32798    
    239000   305.79012      0.016631654    13.097222      758.67372     -63.851821      694.8219     
    240000   294.12461      0.016631654    9.4731541      729.73126     -61.20522       668.52604    
    241000   295.29307      0.016631654    2.8497555      732.63025     -66.202205      666.42805    
    242000   309.54929      0.016631654    9.8861409      768.00032     -65.184544      702.81578    
    243000   305.0238       0.016631654    10.707655      756.77246     -68.692576      688.07988    
    244000   296.37074      0.016631654    8.6016422      735.30398     -68.136714      667.16727    
    245000   308.06274      0.016631654    0.53786957     764.31214     -66.906221      697.40592    
    246000   306.36231      0.016631654    13.616666      760.09333     -62.522717      697.57061    
    247000   306.1736       0.016631654    10.07821       759.62513     -63.147148      696.47798    
    248000   291.88921      0.016631654    8.0813765      724.18518     -65.231098      658.95408    
    249000   297.59107      0.016631654    9.4407746      738.33165     -62.85883       675.47282    
    250000   301.53742      0.016631654    3.0919239      748.12265     -60.639367      687.48329    
    251000   303.2753       0.016631654    2.0696211      752.43438     -59.918508      692.51587    
    252000   302.7726       0.016631654    4.5841179      751.18717     -66.73416       684.45301    
    253000   317.13042      0.016631654    5.1716361      786.80931     -62.652682      724.15663    
    254000   295.91044      0.016631654    11.476856      734.16197     -62.146136      672.01583    
    255000   285.9587       0.016631654    5.1629646      709.47141     -60.598209      648.8732     
    256000   306.53618      0.016631654    2.2586244      760.5247      -60.02611       700.49859    
    257000   308.58927      0.016631654    10.547239      765.61849     -62.413877      703.20462    
    258000   299.03388      0.016631654    13.239181      741.91129     -56.607092      685.3042     
    259000   291.39131      0.016631654    6.1714028      722.94988     -58.794225      664.15566    
    260000   294.4052       0.016631654    4.9439453      730.42742     -62.912154      667.51526    
    261000   294.5839       0.016631654    6.1820157      730.87077     -61.264534      669.60623    
    262000   302.48664      0.016631654    8.152952       750.4777      -60.552823      689.92488    
    263000   289.37961      0.016631654    13.350114      717.9588      -58.759332      659.19947    
    264000   305.88601      0.016631654    5.5899789      758.91163     -56.759422      702.15221    
    265000   307.81521      0.016631654    11.345187      763.69803     -57.141607      706.55642    
    266000   286.74455      0.016631654    8.3193899      711.42112     -60.568638      650.85248    
    267000   294.03457      0.016631654    5.4598721      729.50787     -68.831129      660.67674    
    268000   314.03694      0.016631654    8.8705896      779.13431     -61.906848      717.22746    
    269000   300.82878      0.016631654    21.06655       746.3645      -60.952415      685.41209    
    270000   291.21743      0.016631654    4.4698493      722.51846     -56.368992      666.14947    
    271000   309.29181      0.016631654    5.0821907      767.36152     -54.818364      712.54315    
    272000   302.69723      0.016631654    22.254934      751.00017     -56.524453      694.47571    
    273000   289.16095      0.016631654    13.08775       717.41629     -54.984661      662.43163    
    274000   302.92892      0.016631654    8.6288092      751.57499     -63.321112      688.25388    
    275000   302.50115      0.016631654    3.0078457      750.51368     -59.407887      691.1058     
    276000   305.26742      0.016631654    8.3933977      757.37689     -60.070306      697.30659    
    277000   306.48731      0.016631654    19.132823      760.40346     -60.003294      700.40016    
    278000   288.42729      0.016631654    13.24914       715.59605     -61.442557      654.15349    
    279000   302.6138       0.016631654   -9.5004007      750.79319     -62.916673      687.87652    
    280000   310.92943      0.016631654    9.4897058      771.42449     -61.679071      709.74542    
    281000   311.41455      0.016631654    14.046604      772.62807     -61.555559      711.07252    
    282000   289.36772      0.016631654    10.512541      717.92929     -57.81407       660.11522    
    283000   294.9214       0.016631654   -3.1127193      731.70813     -55.982069      675.72606    
    284000   310.29671      0.016631654    7.1242605      769.85469     -58.668772      711.18592    
    285000   301.81689      0.016631654    10.658549      748.81601     -53.989977      694.82604    
    286000   297.3119       0.016631654    10.128082      737.63902     -57.770401      679.86862    
    287000   302.68918      0.016631654    9.3974669      750.98019     -53.16862       697.81157    
    288000   301.27753      0.016631654    8.4047144      747.47786     -58.091721      689.38614    
    289000   282.91545      0.016631654    1.6761928      701.92104     -47.88957       654.03147    
    290000   310.48314      0.016631654    9.9123466      770.31722     -45.330617      724.9866     
    291000   305.73772      0.016631654    13.169923      758.5437      -46.569952      711.97375    
    292000   292.89505      0.016631654    9.4754326      726.68068     -49.098387      677.5823     
    293000   282.89548      0.016631654    4.831883       701.8715      -49.489415      652.38208    
    294000   302.3759       0.016631654    5.4771473      750.20294     -49.163959      701.03898    
    295000   312.41203      0.016631654    16.281331      775.10285     -45.594886      729.50796    
    296000   314.84604      0.016631654    12.800125      781.1417      -49.201618      731.94008    
    297000   299.32729      0.016631654    6.416661       742.63925     -47.541373      695.09788    
    298000   302.44979      0.016631654    1.620013       750.38627     -44.007075      706.37919    
    299000   303.75601      0.016631654    10.716693      753.62703     -48.537846      705.08919    
    300000   301.55555      0.016631654    10.539754      748.16762     -47.977437      700.19018    
    301000   295.72718      0.016631654    1.3272486      733.70728     -48.649556      685.05772    
    302000   307.28332      0.016631654    10.161155      762.37838     -52.106361      710.27202    
    303000   294.29548      0.016631654    9.4771617      730.15519     -45.688312      684.46688    
    304000   292.91168      0.016631654    9.2592046      726.72195     -49.097694      677.62426    
    305000   297.71555      0.016631654    0.2802333      738.64048     -45.815438      692.82504    
    306000   295.98175      0.016631654    15.311405      734.33889     -43.320909      691.01798    
    307000   301.15774      0.016631654    13.683594      747.18065     -48.643464      698.53719    
    308000   295.63351      0.016631654    7.6044855      733.47488     -43.354966      690.11992    
    309000   312.21716      0.016631654    4.5178711      774.61938     -47.201664      727.41772    
    310000   302.23801      0.016631654    16.690661      749.86084     -43.34057       706.52027    
    311000   295.5946       0.016631654    9.4884014      733.37836     -44.116606      689.26175    
    312000   292.19759      0.016631654    6.2302856      724.95028     -37.232984      687.7173     
    313000   315.86488      0.016631654    7.0394362      783.66948     -39.696517      743.97296    
    314000   300.93113      0.016631654    10.214219      746.61843     -42.041426      704.577      
    315000   296.07483      0.016631654    7.4925357      734.56982     -41.769352      692.80047    
    316000   309.30597      0.016631654    8.2439484      767.39664     -38.570814      728.82582    
    317000   294.05207      0.016631654    9.5231164      729.55128     -39.365205      690.18608    
    318000   300.62071      0.016631654    9.9339882      745.84826     -42.818761      703.0295     
    319000   304.56674      0.016631654    8.8195747      755.63848     -38.137506      717.50098    
    320000   315.01139      0.016631654    1.7904392      781.55194     -39.122521      742.42942    
    321000   305.15803      0.016631654    10.463648      757.10549     -44.358056      712.74743    
    322000   297.00119      0.016631654    11.350711      736.86815     -42.744145      694.12401    
    323000   295.91565      0.016631654    8.6072496      734.17489     -38.783289      695.3916     
    324000   307.40496      0.016631654    9.0119389      762.68017     -39.781094      722.89908    
    325000   309.36993      0.016631654    5.9124917      767.55533     -43.830581      723.72475    
    326000   292.68989      0.016631654    9.4392432      726.17168     -44.166176      682.00551    
    327000   298.11276      0.016631654    10.112711      739.62598     -47.211603      692.41438    
    328000   303.37193      0.016631654    8.756828       752.67413     -42.119125      710.55501    
    329000   306.18883      0.016631654    8.5181266      759.66294     -44.160199      715.50274    
    330000   300.5375       0.016631654    9.5864961      745.64183     -46.568656      699.07318    
    331000   284.94757      0.016631654    8.9335753      706.96278     -40.739033      666.22375    
    332000   305.64233      0.016631654    8.8875064      758.30704     -46.186732      712.12031    
    333000   303.43199      0.016631654    10.300054      752.82313     -43.884246      708.93888    
    334000   286.48883      0.016631654    8.8080948      710.78668     -46.099873      664.68681    
    335000   301.81166      0.016631654    10.714073      748.80304     -41.024365      707.77867    
    336000   311.42471      0.016631654    10.473733      772.65329     -45.797348      726.85594    
    337000   297.61883      0.016631654    8.0395139      738.40052     -41.580431      696.82009    
    338000   287.71302      0.016631654    6.1035854      713.82394     -43.302936      670.521      
    339000   292.7747       0.016631654    9.5408563      726.38211     -40.310105      686.07201    
    340000   317.57257      0.016631654    9.7623697      787.9063      -40.402534      747.50377    
    341000   307.75331      0.016631654    9.5372907      763.54445     -44.990274      718.55417    
    342000   300.94904      0.016631654    7.4242257      746.66285     -41.080504      705.58235    
    343000   299.97573      0.016631654    7.9662933      744.24805     -40.470923      703.77713    
    344000   293.64307      0.016631654    7.9112901      728.53656     -38.935832      689.60073    
    345000   302.85718      0.016631654    8.9566256      751.397       -39.635912      711.76109    
    346000   315.88595      0.016631654    10.134739      783.72174     -44.881007      738.84074    
    347000   296.5111       0.016631654    10.307127      735.65221     -44.434477      691.21774    
    348000   297.98241      0.016631654    6.3874543      739.30258     -47.423368      691.87921    
    349000   307.27408      0.016631654    8.2209212      762.35546     -41.185067      721.1704     
    350000   295.47588      0.016631654    8.9965397      733.08381     -39.62874       693.45507    
    351000   304.46183      0.016631654    12.106357      755.37818     -41.22077       714.15741    
    352000   292.36382      0.016631654    9.6816378      725.36269     -43.702211      681.66047    
    353000   292.55266      0.016631654    4.4953016      725.83121     -40.086541      685.74467    
    354000   309.49625      0.016631654    10.304241      767.86873     -41.91672       725.95201    
    355000   296.57949      0.016631654    9.0338056      735.82189     -39.774956      696.04693    
    356000   307.95901      0.016631654    5.3095439      764.0548      -42.516169      721.53863    
    357000   302.1936       0.016631654    9.8118448      749.75064     -38.533189      711.21745    
    358000   290.81811      0.016631654    7.6210095      721.52775     -43.124331      678.40342    
    359000   305.63917      0.016631654    10.638503      758.2992      -46.021167      712.27803    
    360000   309.47784      0.016631654    10.040744      767.82306     -51.957335      715.86572    
    361000   297.48281      0.016631654    8.5090227      738.06305     -46.82987       691.23318    
    362000   286.07409      0.016631654    8.6300253      709.7577      -47.866847      661.89085    
    363000   311.64632      0.016631654    11.323105      773.20311     -43.230859      729.97225    
    364000   299.37213      0.016631654    5.0207208      742.75051     -41.277857      701.47266    
    365000   288.11658      0.016631654    8.1641706      714.82519     -35.646958      679.17823    
    366000   302.21834      0.016631654    13.761499      749.81202     -40.094143      709.71788    
    367000   306.47538      0.016631654    7.5198636      760.37387     -35.286429      725.08744    
    368000   290.11012      0.016631654    8.7110579      719.7712      -37.576717      682.19448    
    369000   290.00813      0.016631654    10.258369      719.51816     -40.633361      678.8848     
    370000   306.8017       0.016631654    14.604981      761.18348     -41.374229      719.80926    
    371000   311.32918      0.016631654    9.7120984      772.41627     -36.771206      735.64506    
    372000   284.75295      0.016631654    7.2981064      706.47992     -35.237864      671.24206    
    373000   295.21466      0.016631654    11.336213      732.43571     -37.30291       695.1328     
    374000   311.73204      0.016631654    9.4188525      773.41578     -41.687022      731.72876    
    375000   308.07415      0.016631654    8.5727021      764.34045     -37.62519       726.71526    
    376000   284.39109      0.016631654    7.0967272      705.58214     -35.945857      669.63628    
    377000   294.47156      0.016631654    11.078986      730.59205     -37.441491      693.15055    
    378000   311.5247       0.016631654    11.508662      772.90136     -41.299143      731.60222    
    379000   302.40152      0.016631654    8.542613       750.2665      -44.241452      706.02505    
    380000   294.60115      0.016631654    7.1488074      730.91359     -44.583234      686.33035    
    381000   299.56421      0.016631654    8.9122351      743.22705     -41.071423      702.15563    
    382000   314.08492      0.016631654    13.120519      779.25335     -41.67165       737.5817     
    383000   309.01684      0.016631654    8.5466784      766.6793      -38.057195      728.62211    
    384000   278.98138      0.016631654    6.9037678      692.1605      -30.794066      661.36644    
    385000   292.77761      0.016631654    8.8063221      726.38931     -32.098208      694.2911     
    386000   316.52825      0.016631654    14.619089      785.31531     -29.263842      756.05146    
    387000   306.93574      0.016631654    8.0321513      761.51604     -29.871852      731.64418    
    388000   296.46602      0.016631654    8.2433132      735.54036     -30.048427      705.49193    
    389000   291.67167      0.016631654    8.338831       723.64545     -33.687623      689.95782    
    390000   311.92859      0.016631654    10.545961      773.90343     -35.755781      738.14764    
    391000   298.96795      0.016631654    9.8638504      741.74772     -29.963752      711.78397    
    392000   298.86021      0.016631654    3.8675036      741.48043     -40.116118      701.36431    
    393000   298.86815      0.016631654    7.8703801      741.50012     -35.480111      706.02001    
    394000   290.4981       0.016631654    10.244086      720.73378     -30.940747      689.79304    
    395000   296.05894      0.016631654    10.492859      734.53038     -36.279556      698.25082    
    396000   297.65231      0.016631654    8.8231309      738.48359     -29.640978      708.84261    
    397000   298.04527      0.016631654    7.7553777      739.45852     -34.270734      705.18779    
    398000   316.05423      0.016631654    17.046903      784.13926     -30.950965      753.18829    
    399000   303.77693      0.016631654    3.6313381      753.67895     -32.765174      720.91377    
    400000   283.58546      0.016631654    4.9473337      703.58333     -25.263194      678.32014    
    401000   302.9175       0.016631654    15.668298      751.54668     -30.2511        721.29558    
    402000   312.2269       0.016631654    3.5881943      774.64354     -29.513809      745.12973    
    403000   292.46285      0.016631654    11.46801       725.60839     -31.236269      694.37212    
    404000   295.93235      0.016631654    11.290737      734.21631     -32.264912      701.9514     
    405000   310.40602      0.016631654    2.0256791      770.1259      -29.075706      741.0502     
    406000   295.64686      0.016631654    0.72985589     733.50801     -31.784563      701.72344    
    407000   286.56372      0.016631654    11.341188      710.9725      -30.032899      680.9396     
    408000   311.09896      0.016631654    11.68885       771.8451      -33.887531      737.95757    
    409000   303.52307      0.016631654    4.2781376      753.04911     -30.108289      722.94082    
    410000   286.70077      0.016631654    8.4802053      711.31251     -30.244969      681.06754    
    411000   302.84012      0.016631654    8.8355064      751.35467     -29.455288      721.89939    
    412000   305.91758      0.016631654    6.28963        758.98995     -35.326185      723.66376    
    413000   291.70036      0.016631654    8.5835197      723.71664     -35.955941      687.7607     
    414000   306.41582      0.016631654    8.4489865      760.2261      -36.359795      723.8663     
    415000   301.77502      0.016631654    9.9582233      748.71214     -32.750907      715.96123    
    416000   294.97805      0.016631654    6.1212954      731.84868     -32.402198      699.44648    
    417000   304.04027      0.016631654    9.0699847      754.33229     -26.776403      727.55589    
    418000   310.28188      0.016631654    8.6798767      769.8179      -29.096738      740.72117    
    419000   300.17789      0.016631654    5.7230216      744.74962     -28.690236      716.05938    
    420000   298.60964      0.016631654    8.0491402      740.85874     -35.147067      705.71167    
    421000   298.89379      0.016631654    11.973309      741.56374     -33.550769      708.01298    
    422000   317.13775      0.016631654    10.984296      786.8275      -32.628319      754.19918    
    423000   298.33031      0.016631654    3.4920231      740.16572     -30.805393      709.36033    
    424000   297.41726      0.016631654    8.275373       737.90042     -31.799097      706.10132    
    425000   280.87718      0.016631654    8.3100087      696.86402     -28.963296      667.90073    
    426000   307.93428      0.016631654    11.18357       763.99343     -26.318565      737.67487    
    427000   306.04687      0.016631654    5.847368       759.31073     -32.335153      726.97557    
    428000   293.78932      0.016631654    9.7472969      728.89939     -28.141413      700.75798    
    429000   301.1244       0.016631654    15.506211      747.09794     -35.588287      711.50966    
    430000   304.87276      0.016631654    7.2522537      756.39771     -33.198843      723.19887    
    431000   299.17396      0.016631654    3.2567638      742.25884     -33.137173      709.12167    
    432000   286.32116      0.016631654    7.3326605      710.3707      -30.664192      679.70651    
    433000   294.215        0.016631654    11.99519       729.95552     -31.883885      698.07163    
    434000   315.70844      0.016631654    8.8443794      783.28134     -32.772487      750.50885    
    435000   303.52515      0.016631654    5.0384833      753.05427     -28.808811      724.24546    
    436000   286.13394      0.016631654    8.4918268      709.9062      -28.904631      681.00157    
    437000   299.42775      0.016631654    12.172895      742.88851     -32.119957      710.76855    
    438000   322.17475      0.016631654    11.472118      799.32442     -32.599407      766.72502    
    439000   300.18397      0.016631654    5.2424855      744.7647      -34.896784      709.86792    
    440000   284.57492      0.016631654    5.5988893      706.03821     -32.882994      673.15522    
    441000   300.2014       0.016631654    10.643885      744.80794     -37.07456       707.73338    
    442000   320.06794      0.016631654    10.773474      794.09738     -37.953733      756.14364    
    443000   298.93824      0.016631654    8.4942576      741.67402     -32.527631      709.14639    
    444000   294.39535      0.016631654    8.3820341      730.40297     -27.230637      703.17233    
    445000   292.99878      0.016631654    15.912746      726.93804     -31.6591        695.27894    
    446000   305.73009      0.016631654    5.9115728      758.52478     -32.909959      725.61482    
    447000   293.91367      0.016631654    9.101377       729.20792     -32.573713      696.63421    
    448000   304.24604      0.016631654    9.0633271      754.84281     -34.805991      720.03682    
    449000   318.02998      0.016631654    9.425537       789.04114     -30.837388      758.20375    
    450000   301.52434      0.016631654    7.8907984      748.0902      -28.374249      719.71595    
    451000   291.09969      0.016631654    7.5708859      722.22634     -30.098028      692.12832    
    452000   304.29629      0.016631654    9.3071107      754.96749     -32.016234      722.95126    
    453000   291.6767       0.016631654    9.6147267      723.65792     -31.064408      692.59352    
    454000   298.39398      0.016631654    6.135848       740.3237      -35.003383      705.32032    
    455000   298.51702      0.016631654    8.5665159      740.62894     -32.48034       708.1486     
    456000   286.0805       0.016631654    15.092198      709.77361     -32.006318      677.76729    
    457000   308.32475      0.016631654    8.8528031      764.9622      -38.965281      725.99692    
    458000   300.678        0.016631654    6.1047389      745.99041     -38.093763      707.89665    
    459000   296.97991      0.016631654    10.929115      736.81534     -34.550153      702.26518    
    460000   300.00446      0.016631654    11.896796      744.31932     -39.409089      704.91024    
    461000   300.69681      0.016631654    6.0340708      746.03707     -33.675485      712.36158    
    462000   304.67053      0.016631654    8.4482886      755.89599     -40.645179      715.25081    
    463000   295.53599      0.016631654    8.6622909      733.23293     -42.610804      690.62213    
    464000   288.11566      0.016631654    8.9355369      714.82288     -36.608041      678.21484    
    465000   301.07312      0.016631654    9.4301551      746.97072     -38.180985      708.78973    
    466000   310.04617      0.016631654    10.823124      769.2331      -34.393114      734.83998    
    467000   280.2392       0.016631654    8.3010752      695.28118     -39.049119      656.23206    
    468000   285.79262      0.016631654    8.0606587      709.05937     -30.66483       678.39454    
    469000   297.77844      0.016631654    5.0950396      738.79652     -27.950731      710.84579    
    470000   312.94145      0.016631654    8.7711203      776.41638     -32.645672      743.7707     
    471000   314.42987      0.016631654    10.585575      780.10918     -30.158859      749.95032    
    472000   295.75292      0.016631654    9.1076441      733.77115     -34.148485      699.62267    
    473000   296.60649      0.016631654    7.2855615      735.88888     -35.224445      700.66443    
    474000   311.54426      0.016631654    6.7131992      772.94989     -34.839437      738.11045    
    475000   286.93435      0.016631654    8.4840164      711.89202     -30.526832      681.36519    
    476000   293.34674      0.016631654    12.58996       727.80134     -32.05177       695.74957    
    477000   300.26524      0.016631654    8.4797022      744.96633     -29.6349        715.33143    
    478000   300.02506      0.016631654    8.3567879      744.37044     -25.373031      718.99741    
    479000   300.40328      0.016631654    12.021834      745.30882     -22.162428      723.14639    
    480000   300.1902       0.016631654    8.5795358      744.78017     -24.198206      720.58197    
    481000   305.07389      0.016631654    7.2552809      756.89672     -23.37294       733.52378    
    482000   316.20104      0.016631654    7.459924       784.50351     -27.163473      757.34003    
    483000   290.57923      0.016631654    12.596216      720.93507     -25.761621      695.17345    
    484000   292.6639       0.016631654    2.1537293      726.1072      -21.971802      704.13539    
    485000   321.60218      0.016631654    6.0475217      797.90387     -31.72804       766.17583    
    486000   296.70827      0.016631654    10.72996       736.14141     -27.785808      708.3556     
    487000   294.39523      0.016631654    1.6054216      730.40269     -28.137198      702.26549    
    488000   310.51857      0.016631654    8.4232781      770.40514     -29.556578      740.84857    
    489000   295.85337      0.016631654    12.558363      734.02038     -33.322775      700.6976     
    490000   292.64264      0.016631654    9.2447046      726.05445     -31.622838      694.43162    
    491000   296.85893      0.016631654    3.4185546      736.51519     -31.258         705.25719    
    492000   312.60196      0.016631654    2.4683351      775.57408     -32.272354      743.30172    
    493000   301.02298      0.016631654    8.053421       746.84632     -29.207438      717.63888    
    494000   305.95293      0.016631654    8.6689684      759.07765     -26.140963      732.93669    
    495000   308.54581      0.016631654    9.897633       765.51065     -23.154947      742.3557     
    496000   301.0642       0.016631654    9.6655073      746.94857     -22.935954      724.01261    
    497000   305.7817       0.016631654   -9.7832511      758.65283     -24.9574        733.69543    
    498000   303.14774      0.016631654    13.292956      752.1179      -29.678668      722.43923    
    499000   302.82656      0.016631654    13.60183       751.32105     -31.519649      719.8014     
    500000   294.1473       0.016631654    11.858302      729.78755     -34.919399      694.86815    
    501000   297.47425      0.016631654    8.7960521      738.04182     -31.338232      706.70358    
    502000   315.98091      0.016631654    8.1632017      783.95735     -28.376728      755.58062    
    503000   305.75661      0.016631654    9.887457       758.59059     -29.182359      729.40823    
    504000   297.54959      0.016631654    9.1245391      738.22874     -23.47682       714.75192    
    505000   293.26969      0.016631654    8.5559958      727.61019     -25.360603      702.24958    
    506000   312.2818       0.016631654    9.974232       774.77974     -24.153979      750.62576    
    507000   305.64645      0.016631654    8.1195421      758.31726     -26.948227      731.36903    
    508000   287.4697       0.016631654    8.7307823      713.22025     -23.28864       689.93161    
    509000   293.55605      0.016631654    10.672573      728.32066     -24.552117      703.76854    
    510000   325.78269      0.016631654    9.0108546      808.27583     -31.186391      777.08944    
    511000   295.64576      0.016631654    10.143871      733.50529     -28.312603      705.19269    
    512000   288.88184      0.016631654    8.4992477      716.72381     -30.70103       686.02278    
    513000   307.59223      0.016631654    8.3947821      763.1448      -27.476848      735.66795    
    514000   306.35242      0.016631654    9.6542963      760.06881     -25.94397       734.12484    
    515000   291.73762      0.016631654    9.0213762      723.80909     -27.763475      696.04561    
    516000   294.92973      0.016631654    9.4406191      731.72878     -26.879522      704.84926    
    517000   313.62808      0.016631654    14.986748      778.11991     -24.734696      753.38522    
    518000   314.97821      0.016631654    5.8448196      781.46962     -30.022958      751.44666    
    519000   285.79392      0.016631654    4.8489759      709.06259     -29.364484      679.69811    
    520000   293.47159      0.016631654    12.584343      728.11111     -28.396037      699.71507    
    521000   310.71328      0.016631654    3.2136401      770.88821     -27.331527      743.55668    
    522000   320.79254      0.016631654    3.1341821      795.89515     -28.986712      766.90843    
    523000   289.30168      0.016631654    9.351105       717.76544     -27.740032      690.02541    
    524000   291.36233      0.016631654    20.988163      722.87796     -32.314378      690.56359    
    525000   306.78548      0.016631654    9.5387211      761.14322     -24.526782      736.61644    
    526000   315.47249      0.016631654    6.5341104      782.69595     -22.280844      760.41511    
    527000   294.46832      0.016631654    8.5201542      730.58403     -25.355259      705.22877    
    528000   294.3516       0.016631654    6.3457069      730.29444     -23.469806      706.82463    
    529000   311.8517       0.016631654    15.411878      773.71267     -22.964385      750.74828    
    530000   300.66392      0.016631654    11.04035       745.95546     -17.903925      728.05154    
    531000   282.16737      0.016631654    5.4086024      700.06502     -29.14601       670.91901    
    532000   305.95241      0.016631654    9.218337       759.07635     -28.459287      730.61707    
    533000   319.2939       0.016631654    15.233619      792.17696     -27.150824      765.02614    
    534000   303.28001      0.016631654    9.6546606      752.44607     -23.997743      728.44833    
    535000   296.84136      0.016631654    5.912113       736.47159     -23.0443        713.42728    
    536000   300.73992      0.016631654    9.0775171      746.14403     -22.725002      723.41902    
    537000   309.46468      0.016631654    11.34354       767.79039     -22.341665      745.44873    
    538000   304.40968      0.016631654    13.203819      755.2488      -23.008733      732.24006    
    539000   278.97977      0.016631654    9.0997643      692.1565      -26.461093      665.69541    
    540000   281.19569      0.016631654    7.018914       697.65425     -28.642266      669.01198    
    541000   303.98475      0.016631654    6.7558836      754.19453     -27.763041      726.43149    
    542000   307.97713      0.016631654    10.658333      764.09976     -22.92886       741.1709     
    543000   298.77582      0.016631654    10.737306      741.27106     -24.813993      716.45706    
    544000   304.30082      0.016631654    9.2036113      754.97871     -22.877659      732.10106    
    545000   293.2801       0.016631654    8.1536875      727.636       -28.503135      699.13287    
    546000   301.34815      0.016631654    9.0323857      747.65308     -25.925025      721.72805    
    547000   309.63095      0.016631654    8.6506734      768.20293     -23.710925      744.49201    
    548000   275.12668      0.016631654    7.8096311      682.59687     -26.418631      656.17824    
    549000   294.99782      0.016631654    9.1070487      731.89772     -25.273951      706.62376    
    550000   318.55508      0.016631654    11.356419      790.34395     -21.523643      768.8203     
    551000   315.20486      0.016631654    2.7893322      782.03195     -21.925816      760.10613    
    552000   290.2393       0.016631654    9.7299444      720.09171     -24.745827      695.34588    
    553000   304.48113      0.016631654    9.3969378      755.42608     -25.081978      730.3441     
    554000   305.95354      0.016631654    9.2720221      759.07917     -26.069336      733.00984    
    555000   289.73062      0.016631654    5.0707666      718.82964     -25.126256      693.70339    
    556000   289.61296      0.016631654    10.041755      718.53773     -29.193722      689.344      
    557000   290.76715      0.016631654    9.5366571      721.4013      -31.191675      690.20963    
    558000   300.39339      0.016631654    10.279957      745.28428     -28.158118      717.12616    
    559000   302.45475      0.016631654    9.3399648      750.39856     -21.717302      728.68126    
    560000   291.52472      0.016631654   -2.5728422      723.28087     -28.126187      695.15469    
    561000   296.91307      0.016631654    13.940618      736.64951     -25.892979      710.75653    
    562000   317.88667      0.016631654    7.3197956      788.6856      -26.803069      761.88253    
    563000   306.87778      0.016631654    6.1171802      761.37222     -27.944457      733.42777    
    564000   285.6193       0.016631654    8.4699849      708.62935     -28.63893       679.99042    
    565000   295.74267      0.016631654    9.841141       733.74571     -32.391461      701.35425    
    566000   314.3207       0.016631654    9.064303       779.83831     -32.526015      747.3123     
    567000   304.22987      0.016631654    7.6494229      754.8027      -32.358595      722.44411    
    568000   293.19287      0.016631654    4.7533119      727.4196      -32.526703      694.8929     
    569000   280.74723      0.016631654    13.722141      696.54163     -26.819039      669.72259    
    570000   302.78293      0.016631654    12.979622      751.21281     -25.393903      725.8189     
    571000   304.75977      0.016631654    1.8124452      756.1174      -33.874787      722.24261    
    572000   289.63927      0.016631654    6.5678461      718.603       -31.156572      687.44643    
    573000   291.83447      0.016631654    9.1071977      724.04937     -33.559848      690.48953    
    574000   315.45082      0.016631654    9.1721495      782.64218     -30.466767      752.17541    
    575000   303.3836       0.016631654    10.154217      752.70307     -32.970429      719.73264    
    576000   307.14048      0.016631654    4.7338441      762.024       -31.413801      730.6102     
    577000   297.96346      0.016631654    6.7161572      739.25556     -28.55206       710.7035     
    578000   290.38541      0.016631654    10.843583      720.45421     -30.915642      689.53857    
    579000   308.27563      0.016631654    9.8611612      764.84033     -23.245233      741.59509    
    580000   310.29711      0.016631654    8.5284203      769.85568     -30.202995      739.65268    
    581000   297.67036      0.016631654    15.378667      738.52837     -27.802227      710.72614    
    582000   296.20703      0.016631654    9.1340439      734.89781     -29.453304      705.44451    
    583000   301.47165      0.016631654    5.9271966      747.95948     -27.831111      720.12837    
    584000   315.86307      0.016631654    9.1337526      783.66499     -28.829246      754.83574    
    585000   298.7988       0.016631654    8.697847       741.32806     -28.849648      712.47841    
    586000   306.26263      0.016631654    8.8014997      759.84603     -27.825608      732.02042    
    587000   297.86516      0.016631654    7.7542662      739.01168     -27.39324       711.61844    
    588000   299.49209      0.016631654    10.462801      743.04813     -28.21801       714.83012    
    589000   293.80551      0.016631654    9.5836335      728.93958     -27.776488      701.16309    
    590000   291.33657      0.016631654    7.6396377      722.81406     -32.940688      689.87337    
    591000   307.5371       0.016631654    9.5284482      763.00802     -27.279898      735.72813    
    592000   314.12213      0.016631654    9.323692       779.34566     -32.988604      746.35706    
    593000   303.33798      0.016631654    8.4928141      752.58988     -31.57048       721.0194     
    594000   289.60469      0.016631654    7.9363189      718.51721     -27.593287      690.92392    
    595000   308.2923       0.016631654    9.2234037      764.8817      -29.820544      735.06115    
    596000   304.4266       0.016631654    8.6819952      755.29078     -30.6199        724.67088    
    597000   292.23099      0.016631654    8.6275315      725.03314     -25.574294      699.45885    
    598000   305.80902      0.016631654    9.959595       758.72061     -25.800342      732.92027    
    599000   317.37247      0.016631654    9.9815719      787.40985     -26.82892       760.58093    
    600000   300.40716      0.016631654    9.940978       745.31844     -26.950262      718.36818    
    601000   290.53051      0.016631654    9.471431       720.81419     -25.159626      695.65457    
    602000   287.59027      0.016631654    5.8662328      713.51938     -27.546693      685.97268    
    603000   311.83658      0.016631654    9.2803545      773.67515     -27.540105      746.13504    
    604000   304.56734      0.016631654    11.105347      755.63997     -26.734333      728.90563    
    605000   284.81942      0.016631654    8.5302197      706.64484     -31.764081      674.88075    
    606000   300.3322       0.016631654    8.4236212      745.13246     -31.767014      713.36545    
    607000   314.80085      0.016631654    8.4079211      781.02958     -29.6054        751.42418    
    608000   304.34602      0.016631654    8.6026467      755.09088     -25.061552      730.02932    
    609000   305.66758      0.016631654    8.6388557      758.36968     -30.281391      728.08829    
    610000   311.53653      0.016631654    13.931084      772.93072     -32.915994      740.01472    
    611000   300.25621      0.016631654    8.2984901      744.94393     -35.100488      709.84344    
    612000   290.60173      0.016631654    9.4810632      720.99091     -36.742328      684.24858    
    613000   289.27928      0.016631654    8.2951348      717.70986     -29.890608      687.81925    
    614000   298.14702      0.016631654    9.485136       739.71098     -32.254828      707.45615    
    615000   313.42331      0.016631654    9.1513959      777.61187     -31.990602      745.62127    
    616000   306.15658      0.016631654    9.4586405      759.58291     -35.818978      723.76393    
    617000   298.92132      0.016631654    3.1996713      741.63204     -40.531775      701.10026    
    618000   303.05335      0.016631654    11.118134      751.88372     -29.083897      722.79982    
    619000   305.56871      0.016631654    14.137966      758.12438     -32.04926       726.07512    
    620000   311.89187      0.016631654    8.2930405      773.81232     -31.977468      741.83485    
    621000   296.91031      0.016631654    8.1524477      736.64267     -32.243222      704.39944    
    622000   295.51308      0.016631654    8.5203924      733.17609     -36.201025      696.97506    
    623000   305.6339       0.016631654    10.256756      758.28613     -32.095727      726.1904     
    624000   295.17014      0.016631654    7.9386116      732.32526     -35.52809       696.79717    
    625000   311.76202      0.016631654    7.6763254      773.49016     -31.988536      741.50163    
    626000   308.25887      0.016631654    9.5036772      764.79876     -35.139048      729.65971    
    627000   286.26891      0.016631654    10.511555      710.24106     -36.681976      673.55908    
    628000   297.99385      0.016631654    6.0741168      739.33096     -34.035251      705.29571    
    629000   304.91547      0.016631654    7.6691498      756.50369     -33.411732      723.09196    
    630000   305.67737      0.016631654    5.7882993      758.39398     -32.089205      726.30478    
    631000   296.96309      0.016631654    12.510456      736.77361     -34.839712      701.9339     
    632000   295.60533      0.016631654    10.674579      733.40498     -30.758559      702.64642    
    633000   311.41531      0.016631654    6.673722       772.62996     -32.845534      739.78443    
    634000   305.37685      0.016631654    11.333502      757.64837     -31.517509      726.13086    
    635000   291.35398      0.016631654    9.9366934      722.85727     -32.692892      690.16437    
    636000   299.44844      0.016631654    7.7296068      742.93985     -35.088269      707.85158    
    637000   315.13819      0.016631654    9.3703249      781.86653     -30.81472       751.05181    
    638000   305.35812      0.016631654    11.673845      757.6019      -34.328607      723.2733     
    639000   289.39797      0.016631654    7.8810227      718.00433     -37.611734      680.3926     
    640000   303.81271      0.016631654    9.7070962      753.7677      -35.263988      718.50372    
    641000   291.46694      0.016631654    10.598479      723.13752     -41.726745      681.41078    
    642000   299.90108      0.016631654    10.32952       744.06285     -38.11126       705.95159    
    643000   302.1399       0.016631654    6.8478761      749.61743     -34.923423      714.69401    
    644000   285.98873      0.016631654    8.4186416      709.54592     -31.769213      677.77671    
    645000   306.73819      0.016631654    13.353211      761.02589     -34.90483       726.12106    
    646000   309.75664      0.016631654    7.5042297      768.51477     -34.42173       734.09304    
    647000   287.59763      0.016631654    8.5279278      713.53765     -28.988677      684.54898    
    648000   297.06746      0.016631654    11.888514      737.03255     -32.995209      704.03734    
    649000   316.91041      0.016631654    5.9288678      786.26345     -35.504316      750.75914    
    650000   287.97054      0.016631654    0.32527504     714.46284     -32.034314      682.42852    
    651000   285.39512      0.016631654    1.1252957      708.07316     -33.288925      674.78424    
    652000   299.986        0.016631654    12.930919      744.27354     -36.467048      707.80649    
    653000   311.62854      0.016631654    8.3965191      773.159       -35.820415      737.33859    
    654000   291.11326      0.016631654    5.2541162      722.26001     -35.570819      686.68919    
    655000   285.90114      0.016631654    7.8468619      709.32862     -37.525803      671.80282    
    656000   307.63982      0.016631654    16.098669      763.26289     -30.999508      732.26338    
    657000   312.06617      0.016631654    7.4451195      774.24477     -31.035067      743.20971    
    658000   298.5925       0.016631654    6.8527261      740.81623     -29.002547      711.81368    
    659000   294.51209      0.016631654    13.142877      730.69262     -30.387105      700.30552    
    660000   306.7458       0.016631654    10.082665      761.04479     -35.961808      725.08299    
    661000   305.10308      0.016631654    5.4551784      756.96914     -30.891684      726.07746    
    662000   293.84758      0.016631654    11.334621      729.04395     -27.073549      701.9704     
    663000   306.85014      0.016631654    9.7275741      761.30365     -26.41548       734.88817    
    664000   293.94717      0.016631654    4.1480779      729.29102     -24.569322      704.7217     
    665000   292.20068      0.016631654    10.58921       724.95793     -26.886432      698.0715     
    666000   300.13377      0.016631654    16.307661      744.64016     -24.977531      719.66262    
    667000   302.86347      0.016631654    7.9048117      751.41263     -29.165935      722.24669    
    668000   301.69037      0.016631654    5.1820671      748.50211     -24.806055      723.69606    
    669000   296.61467      0.016631654    6.9625063      735.90917     -27.882227      708.02694    
    670000   283.32272      0.016631654    18.515366      702.93147     -25.438163      677.49331    
    671000   300.19162      0.016631654    12.068623      744.78368     -30.463829      714.31986    
    672000   306.5042       0.016631654    9.410802       760.44536     -36.098413      724.34695    
    673000   303.13132      0.016631654    9.1659395      752.07715     -31.412523      720.66463    
    674000   276.31907      0.016631654    3.6887128      685.55522     -37.468783      648.08643    
    675000   306.63737      0.016631654    21.754966      760.77576     -33.266155      727.50961    
    676000   305.02203      0.016631654   -3.4850444      756.76807     -34.086541      722.68153    
    677000   294.55704      0.016631654   -4.0405656      730.80413     -29.240674      701.56346    
    678000   302.48699      0.016631654    7.597546       750.47857     -29.52          720.95857    
    679000   295.4966       0.016631654    11.408207      733.13521     -32.072042      701.06317    
    680000   297.74372      0.016631654    10.896118      738.71036     -29.881616      708.82875    
    681000   312.77761      0.016631654   -0.12512852     776.00986     -29.653142      746.35672    
    682000   288.99683      0.016631654    7.9557431      717.00911     -30.976649      686.03246    
    683000   291.72336      0.016631654    18.28974       723.77369     -35.874941      687.89875    
    684000   311.89829      0.016631654    16.094349      773.82826     -36.650997      737.17726    
    685000   304.4368       0.016631654   -3.7113724      755.31609     -37.199736      718.11636    
    686000   284.03271      0.016631654    7.6698531      704.69297     -32.269882      672.42309    
    687000   301.78334      0.016631654    26.697086      748.73279     -29.145819      719.58697    
    688000   297.37256      0.016631654    3.5822254      737.78953     -33.87103       703.9185     
    689000   300.86871      0.016631654   -5.3795387      746.46357     -32.826372      713.6372     
    690000   305.9146       0.016631654    10.659247      758.98257     -33.789483      725.19308    
    691000   310.75795      0.016631654    7.3710339      770.99905     -32.71571       738.28334    
    692000   287.81073      0.016631654   -1.222904       714.06636     -34.004585      680.06178    
    693000   287.47828      0.016631654    7.7844457      713.24153     -33.782623      679.45891    
    694000   299.3491       0.016631654    8.7826228      742.69338     -35.132199      707.56118    
    695000   302.73341      0.016631654    12.593379      751.08994     -33.439802      717.65014    
    696000   314.25056      0.016631654    9.0893083      779.66429     -35.577563      744.08673    
    697000   293.04286      0.016631654    8.3309128      727.04742     -35.439486      691.60794    
    698000   298.00608      0.016631654    14.021799      739.3613      -35.714453      703.64685    
    699000   314.61831      0.016631654    6.7910311      780.5767      -32.597544      747.97916    
    700000   299.25298      0.016631654    0.98276891     742.4549      -31.490217      710.96468    
    701000   288.04545      0.016631654    13.934888      714.6487      -36.207112      678.44159    
    702000   322.5065       0.016631654    11.985891      800.14751     -35.884552      764.26296    
    703000   308.06446      0.016631654    4.0064323      764.31641     -31.491056      732.82535    
    704000   290.92032      0.016631654    6.302677       721.78133     -32.345249      689.43608    
    705000   295.15921      0.016631654    5.4353302      732.29813     -32.108703      700.18943    
    706000   301.82557      0.016631654    9.3629328      748.83755     -28.440636      720.39691    
    707000   309.42849      0.016631654    10.40605       767.7006      -28.720123      738.98048    
    708000   300.76755      0.016631654    6.7737453      746.21259     -28.407554      717.80504    
    709000   306.55406      0.016631654    7.4350687      760.56906     -26.689251      733.87981    
    710000   294.50801      0.016631654    9.0842623      730.68248     -28.363116      702.31936    
    711000   287.0103       0.016631654    9.0222864      712.08048     -27.200407      684.88007    
    712000   317.96802      0.016631654    10.373077      788.88742     -26.643526      762.24389    
    713000   298.64921      0.016631654    8.8536145      740.95693     -26.893677      714.06325    
    714000   288.81903      0.016631654    7.8725948      716.56799     -29.574319      686.99367    
    715000   305.51927      0.016631654    9.270596       758.00172     -27.12904       730.87268    
    716000   321.70053      0.016631654    6.8760726      798.14788     -27.902328      770.24555    
    717000   303.53316      0.016631654    11.617003      753.07414     -28.27435       724.79979    
    718000   288.66642      0.016631654    5.755568       716.18935     -30.590581      685.59877    
    719000   295.93355      0.016631654    6.5367913      734.2193      -28.794633      705.42467    
    720000   308.61138      0.016631654    7.6547755      765.67335     -25.85343       739.81992    
    721000   288.51094      0.016631654    12.875261      715.8036      -28.55383       687.24977    
    722000   290.09596      0.016631654    6.7662402      719.73607     -29.972537      689.76353    
    723000   303.75455      0.016631654    8.5912786      753.62342     -31.057882      722.56554    
    724000   307.19404      0.016631654    9.3220967      762.15687     -31.610283      730.54659    
    725000   282.36268      0.016631654    7.8974426      700.54959     -28.788753      671.76084    
    726000   299.77303      0.016631654    8.8026405      743.74516     -31.097769      712.64739    
    727000   305.77725      0.016631654    9.120234       758.6418      -32.50305       726.13875    
    728000   302.18173      0.016631654    8.9274131      749.7212      -31.290155      718.43105    
    729000   284.96595      0.016631654    8.6822959      707.00837     -29.928059      677.08032    
    730000   299.91332      0.016631654    9.2735836      744.09321     -34.482457      709.61075    
    731000   310.6409       0.016631654    9.0006009      770.70863     -34.427537      736.28109    
    732000   317.74705      0.016631654    11.807231      788.33919     -34.753704      753.58549    
    733000   298.5604       0.016631654    13.270412      740.73659     -32.371623      708.36496    
    734000   289.84522      0.016631654    7.024756       719.11399     -31.198231      687.91576    
    735000   316.55548      0.016631654    10.426187      785.38287     -32.555232      752.82763    
    736000   308.14056      0.016631654    9.4434424      764.50522     -39.165611      725.33961    
    737000   297.41046      0.016631654    10.273975      737.88355     -38.809207      699.07435    
    738000   290.17439      0.016631654    5.7071992      719.93067     -34.518138      685.41253    
    739000   294.69554      0.016631654    8.0581774      731.14776     -36.476135      694.67162    
    740000   312.76027      0.016631654    8.2864264      775.96686     -35.707172      740.25969    
    741000   305.94164      0.016631654    12.668532      759.04964     -36.73761       722.31203    
    742000   293.62375      0.016631654    11.32646       728.48861     -26.002489      702.48612    
    743000   278.03612      0.016631654    3.1504532      689.81529     -30.340349      659.47494    
    744000   304.02215      0.016631654    6.6007243      754.28734     -28.024738      726.2626     
    745000   300.36801      0.016631654    8.5141905      745.22132     -29.657982      715.56334    
    746000   298.10442      0.016631654    8.5093736      739.60529     -29.067731      710.53756    
    747000   311.54209      0.016631654    9.5226781      772.94452     -29.8405        743.10402    
    748000   308.46329      0.016631654    16.786022      765.30593     -32.75811       732.54782    
    749000   292.73982      0.016631654    5.8725605      726.29555     -31.002752      695.2928     
    750000   304.29405      0.016631654    8.8669197      754.96193     -31.05524       723.90669    
    751000   304.97406      0.016631654    13.283933      756.64906     -27.990091      728.65897    
    752000   304.04801      0.016631654    8.8041973      754.35149     -28.919012      725.43248    
    753000   301.06693      0.016631654    6.3652902      746.95536     -28.63482       718.32054    
    754000   307.5079       0.016631654    19.697035      762.93559     -24.591864      738.34372    
    755000   297.48111      0.016631654    9.9963762      738.05884     -23.90302       714.15582    
    756000   303.3084       0.016631654    3.4516589      752.51651     -30.681284      721.83522    
    757000   303.5395       0.016631654    8.0840498      753.08987     -30.655268      722.4346     
    758000   289.11455      0.016631654    16.246129      717.30118     -31.734386      685.56679    
    759000   304.83268      0.016631654    10.2552        756.29829     -26.749705      729.54858    
    760000   298.80096      0.016631654    5.3128302      741.33342     -25.7074        715.62602    
    761000   302.26815      0.016631654    9.356788       749.9356      -26.196934      723.73867    
    762000   289.88318      0.016631654    10.350401      719.20816     -31.021946      688.18622    
    763000   304.38172      0.016631654    9.5216739      755.17944     -28.244479      726.93496    
    764000   304.24487      0.016631654    7.5729753      754.8399      -29.809907      725.03       
    765000   296.86675      0.016631654    9.7783306      736.53458     -26.820357      709.71422    
    766000   310.84496      0.016631654    12.910668      771.21491     -31.969842      739.24507    
    767000   296.7706       0.016631654    8.9035919      736.29604     -31.323942      704.9721     
    768000   294.26013      0.016631654    7.2040559      730.06748     -31.314358      698.75312    
    769000   295.09746      0.016631654    5.1036766      732.14492     -31.371541      700.77338    
    770000   302.59307      0.016631654    10.292788      750.74176     -31.262179      719.47958    
    771000   294.40932      0.016631654    8.5859298      730.43764     -30.937488      699.50016    
    772000   291.71052      0.016631654    7.8242377      723.74185     -31.441409      692.30044    
    773000   310.21946      0.016631654    9.5901245      769.66304     -30.144298      739.51874    
    774000   299.3701       0.016631654    9.4837505      742.74547     -27.859655      714.88581    
    775000   301.66499      0.016631654    10.507619      748.43917     -31.194366      717.2448     
    776000   285.97345      0.016631654    8.1422786      709.50801     -33.681493      675.82652    
    777000   290.00348      0.016631654    8.0497183      719.50662     -31.197219      688.3094     
    778000   314.15532      0.016631654    11.679677      779.42801     -33.36171       746.0663     
    779000   312.76569      0.016631654    7.5706442      775.98029     -35.380624      740.59966    
    780000   298.34029      0.016631654    9.9441112      740.19049     -31.478866      708.71163    
    781000   318.06726      0.016631654    11.565897      789.13364     -38.979815      750.15383    
    782000   301.42023      0.016631654    8.4630007      747.8319      -36.889208      710.94269    
    783000   302.51087      0.016631654    12.285375      750.53781     -39.252608      711.2852     
    784000   293.74311      0.016631654    8.5198145      728.78475     -33.822279      694.96247    
    785000   295.72456      0.016631654    10.837045      733.70079     -34.725627      698.97517    
    786000   309.90106      0.016631654    8.3994599      768.87306     -34.505193      734.36787    
    787000   298.16575      0.016631654    8.3583598      739.75745     -32.486954      707.2705     
    788000   292.3707       0.016631654    9.0458159      725.37976     -33.46879       691.91097    
    789000   302.35044      0.016631654    10.101786      750.13979     -28.234204      721.90558    
    790000   303.13896      0.016631654    6.0949153      752.09611     -31.134376      720.96173    
    791000   299.00518      0.016631654    7.6707934      741.84009     -31.346458      710.49363    
    792000   300.76262      0.016631654    8.2801074      746.20035     -30.597034      715.60331    
    793000   298.79248      0.016631654    6.0582231      741.31239     -35.325278      705.98711    
    794000   304.96452      0.016631654    12.350257      756.62539     -36.380435      720.24495    
    795000   303.67269      0.016631654    7.0487919      753.42031     -37.188722      716.23159    
    796000   300.00664      0.016631654    8.6799681      744.32474     -32.551456      711.77328    
    797000   306.27928      0.016631654    9.1359357      759.88733     -31.622829      728.2645     
    798000   300.73276      0.016631654    10.994231      746.12627     -29.280131      716.84613    
    799000   297.85585      0.016631654    8.1585884      738.98856     -38.262296      700.72627    
    800000   315.71413      0.016631654    8.4674237      783.29547     -33.957957      749.33751    
    801000   311.23956      0.016631654    10.060648      772.19392     -32.893447      739.30047    
    802000   296.44088      0.016631654    9.9661934      735.47799     -32.670175      702.80782    
    803000   295.67465      0.016631654    8.9875009      733.57697     -30.965572      702.6114     
    804000   308.75061      0.016631654    5.5108875      766.01877     -35.00699       731.01178    
    805000   313.83194      0.016631654    10.552889      778.6257      -32.724773      745.90092    
    806000   306.60755      0.016631654    10.205808      760.70178     -33.335512      727.36626    
    807000   292.36866      0.016631654    6.9817972      725.3747      -31.92164       693.45306    
    808000   303.70225      0.016631654    9.4833859      753.49365     -38.453682      715.03997    
    809000   287.02487      0.016631654    12.883296      712.11662     -31.397406      680.71921    
    810000   300.16483      0.016631654    5.0909809      744.71722     -27.40953       717.30769    
    811000   296.7973       0.016631654    2.3817279      736.36227     -28.49935       707.86292    
    812000   307.15342      0.016631654    9.0642318      762.0561      -24.886743      737.16936    
    813000   315.90702      0.016631654    18.92826       783.77402     -25.346795      758.42722    
    814000   302.05138      0.016631654    8.6110275      749.3978      -29.769135      719.62866    
    815000   288.86879      0.016631654    4.8531469      716.69143     -27.249683      689.44175    
    816000   304.33201      0.016631654   -1.2352244      755.05611     -34.737989      720.31812    
    817000   310.80997      0.016631654    12.743799      771.1281      -32.437922      738.69017    
    818000   295.9496       0.016631654    17.342168      734.25913     -38.774866      695.48426    
    819000   297.74797      0.016631654    2.8876945      738.72093     -35.940056      702.78087    
    820000   305.96167      0.016631654    17.316265      759.09935     -35.239905      723.85944    
    821000   298.95256      0.016631654    9.1166143      741.70955     -29.48168       712.22787    
    822000   304.18835      0.016631654    7.8720195      754.69967     -28.549596      726.15008    
    823000   301.23484      0.016631654    8.4716441      747.37194     -31.854508      715.51743    
    824000   299.67611      0.016631654    13.058312      743.50469     -31.593394      711.91129    
    825000   287.91444      0.016631654    9.5731205      714.32365     -31.369701      682.95395    
    826000   301.8744       0.016631654    6.7284512      748.95872     -32.373725      716.58499    
    827000   305.81701      0.016631654    8.3771957      758.74044     -29.412014      729.32843    
    828000   309.48826      0.016631654    10.350427      767.84891     -25.172715      742.6762     
    829000   286.59476      0.016631654    8.6302023      711.04949     -29.63132       681.41817    
    830000   285.28328      0.016631654    10.414041      707.79568     -25.762552      682.03313    
    831000   295.17209      0.016631654    8.8926653      732.3301      -25.564749      706.76535    
    832000   312.65853      0.016631654    9.0312548      775.71444     -27.807436      747.907      
    833000   311.79379      0.016631654    10.517923      773.56899     -24.320725      749.24827    
    834000   310.65467      0.016631654    9.3387233      770.74279     -25.402798      745.33999    
    835000   316.70255      0.016631654    7.2640776      785.74776     -32.525703      753.22206    
    836000   295.65152      0.016631654    8.3140502      733.51956     -28.842754      704.67681    
    837000   310.04199      0.016631654    10.388202      769.22272     -28.291254      740.93146    
    838000   299.92626      0.016631654    10.207504      744.12531     -26.627514      717.4978     
    839000   284.73842      0.016631654    8.9489304      706.44387     -31.780838      674.66303    
    840000   297.50064      0.016631654    7.634308       738.10729     -30.9561        707.15119    
    841000   307.94067      0.016631654    5.7851572      764.00929     -32.48728       731.52201    
    842000   314.41655      0.016631654    10.143704      780.07612     -32.826557      747.24956    
    843000   299.99162      0.016631654    8.6354986      744.28748     -28.237031      716.05045    
    844000   282.62171      0.016631654    9.5292916      701.19225     -27.012539      674.17971    
    845000   284.23938      0.016631654    7.3448623      705.20575     -24.435904      680.76984    
    846000   301.94479      0.016631654    7.793742       749.13335     -25.765025      723.36832    
    847000   315.44434      0.016631654    11.231515      782.62611     -32.65788       749.96823    
    848000   310.80628      0.016631654    11.579292      771.11894     -32.243995      738.87494    
    849000   297.54392      0.016631654    11.79707       738.21466     -28.670737      709.54392    
    850000   285.26236      0.016631654    5.2440211      707.74377     -25.312396      682.43137    
    851000   307.2642       0.016631654    5.0854249      762.33095     -27.511108      734.81984    
    852000   306.53986      0.016631654    9.6137165      760.53385     -26.093627      734.44023    
    853000   290.54452      0.016631654    14.325242      720.84897     -29.473889      691.37508    
    854000   284.52944      0.016631654    8.8940083      705.92539     -30.946632      674.97876    
    855000   299.39993      0.016631654    7.9975674      742.81947     -31.125927      711.69354    
    856000   311.271        0.016631654    8.1411201      772.27193     -27.347786      744.92414    
    857000   304.20391      0.016631654    10.008909      754.7383      -26.169632      728.56867    
    858000   285.19688      0.016631654    7.0268148      707.58132     -28.848903      678.73242    
    859000   296.33612      0.016631654    8.7125277      735.21807     -28.942784      706.27529    
    860000   314.19778      0.016631654    11.88664       779.53335     -24.956552      754.5768     
    861000   294.41983      0.016631654    9.9796721      730.46372     -29.14125       701.32247    
    862000   297.34603      0.016631654    8.2529779      737.72371     -26.836402      710.88731    
    863000   309.36096      0.016631654    7.6398237      767.53307     -27.690381      739.84269    
    864000   301.35027      0.016631654    9.1802826      747.65833     -31.018396      716.63993    
    865000   295.47148      0.016631654    10.532435      733.07288     -28.203022      704.86986    
    866000   298.16738      0.016631654    10.300109      739.7615      -23.704987      716.05651    
    867000   305.24958      0.016631654    8.9491361      757.33262     -24.52458       732.80804    
    868000   301.00621      0.016631654    11.439829      746.8047      -24.591064      722.21364    
    869000   294.26393      0.016631654   -0.13598401     730.07691     -24.396228      705.68069    
    870000   317.18231      0.016631654    13.355683      786.93805     -27.418633      759.51941    
    871000   299.78568      0.016631654    10.974512      743.77654     -24.876093      718.90045    
    872000   287.54985      0.016631654    7.9433154      713.4191      -31.390066      682.02904    
    873000   293.49194      0.016631654    8.78352        728.1616      -31.132211      697.02939    
    874000   298.79506      0.016631654    9.5293457      741.31879     -28.059486      713.2593     
    875000   304.12048      0.016631654    8.8890375      754.5313      -29.090325      725.44097    
    876000   308.76901      0.016631654    10.08994       766.06442     -26.621189      739.44323    
    877000   286.76373      0.016631654    7.8121851      711.46871     -25.049747      686.41896    
    878000   302.47337      0.016631654    11.624258      750.44476     -21.60699       728.83777    
    879000   295.79299      0.016631654    3.7925675      733.87057     -21.488652      712.38192    
    880000   292.42297      0.016631654    7.0302855      725.50944     -23.794426      701.71502    
    881000   308.47395      0.016631654    13.768945      765.33237     -21.816608      743.51576    
    882000   296.70318      0.016631654    8.7577353      736.12878     -26.965375      709.16341    
    883000   293.01149      0.016631654    4.2427988      726.96958     -25.26767       701.70191    
    884000   300.59164      0.016631654    5.7894663      745.77614     -19.630041      726.1461     
    885000   297.84406      0.016631654    8.4789711      738.95931     -25.959601      712.99971    
    886000   286.79657      0.016631654    10.084712      711.5502      -25.54031       686.00989    
    887000   299.85141      0.016631654    9.5234423      743.93962     -27.448147      716.49147    
    888000   311.28961      0.016631654    10.938987      772.3181      -25.081058      747.23704    
    889000   303.28002      0.016631654    8.6477718      752.4461      -22.872194      729.57391    
    890000   289.52575      0.016631654    8.3387707      718.32138     -26.768468      691.55291    
    891000   301.16516      0.016631654    3.1194117      747.19906     -26.561361      720.63769    
    892000   305.76331      0.016631654    9.76333        758.60719     -28.581967      730.02523    
    893000   291.39053      0.016631654    8.8854625      722.94793     -29.121824      693.82611    
    894000   296.28068      0.016631654    8.8734213      735.08053     -25.412328      709.6682     
    895000   307.09915      0.016631654    10.125829      761.92146     -24.225595      737.69587    
    896000   302.32565      0.016631654    9.708485       750.07828     -22.86996       727.20832    
    897000   303.52406      0.016631654    5.1979136      753.05155     -22.634843      730.41671    
    898000   289.5501       0.016631654    9.4282411      718.38177     -20.002615      698.37915    
    899000   301.46882      0.016631654    9.2130663      747.95246     -20.632063      727.3204     
    900000   312.01939      0.016631654    10.971253      774.12871     -21.602325      752.52638    
    901000   297.88127      0.016631654    7.6758871      739.05164     -19.810678      719.24096    
    902000   301.25376      0.016631654    11.866446      747.41889     -17.819741      729.59915    
    903000   303.84832      0.016631654    10.454049      753.85607     -19.105966      734.7501     
    904000   305.98367      0.016631654    10.786458      759.15391     -17.971854      741.18206    
    905000   292.87944      0.016631654    5.9449201      726.64196     -16.395861      710.24609    
    906000   299.64583      0.016631654    8.7115416      743.42957     -17.969512      725.46006    
    907000   307.16139      0.016631654    10.096895      762.07589     -20.986725      741.08916    
    908000   297.15401      0.016631654    7.4270823      737.24728     -22.742518      714.50477    
    909000   297.92499      0.016631654    13.447294      739.16011     -23.710926      715.44918    
    910000   312.27033      0.016631654    11.096246      774.7513      -22.710037      752.04126    
    911000   295.96335      0.016631654    9.6153507      734.29324     -28.557735      705.73551    
    912000   289.45334      0.016631654    8.393476       718.14171     -27.930255      690.21146    
    913000   293.65776      0.016631654    9.5377687      728.573       -21.670245      706.90276    
    914000   291.40985      0.016631654    8.4808096      722.99588     -25.366155      697.62973    
    915000   316.05584      0.016631654    13.176082      784.14324     -18.461147      765.68209    
    916000   306.18953      0.016631654    12.3735        759.66467     -18.834695      740.82997    
    917000   290.81706      0.016631654    11.182509      721.52514     -26.178256      695.34688    
    918000   295.2446       0.016631654    2.2090298      732.50998     -25.530165      706.97982    
    919000   315.59508      0.016631654    6.0370062      783.00009     -29.987227      753.01286    
    920000   302.19878      0.016631654    19.630558      749.76351     -32.077392      717.68612    
    921000   278.94102      0.016631654    16.755307      692.06037     -28.87753       663.18284    
    922000   293.77025      0.016631654    11.831751      728.85208     -25.708628      703.14345    
    923000   301.99168      0.016631654    9.7144438      749.24967     -21.151504      728.09817    
    924000   300.04425      0.016631654    4.9928167      744.41805     -22.973664      721.44439    
    925000   302.28495      0.016631654    8.3760141      749.9773      -23.050934      726.92637    
    926000   286.4865       0.016631654    18.442749      710.78091     -21.264443      689.51647    
    927000   290.00848      0.016631654    6.0794558      719.51904     -28.760123      690.75891    
    928000   305.11279      0.016631654    4.1320534      756.99323     -28.529537      728.4637     
    929000   301.68862      0.016631654    11.978204      748.49777     -25.176362      723.32141    
    930000   297.40014      0.016631654    9.6984126      737.85793     -25.182926      712.67501    
    931000   303.73496      0.016631654    8.6019829      753.57481     -25.847456      727.72736    
    932000   312.67165      0.016631654    9.6178559      775.74698     -21.646806      754.10017    
    933000   298.16833      0.016631654    9.3890956      739.76385     -23.168304      716.59554    
    934000   289.68471      0.016631654    9.2439833      718.71576     -28.238082      690.47767    
    935000   294.98141      0.016631654    10.36836       731.857       -27.939166      703.91784    
    936000   299.73261      0.016631654    6.1402892      743.64487     -24.143077      719.5018     
    937000   303.00634      0.016631654    6.0628898      751.76709     -29.660254      722.10683    
    938000   307.22671      0.016631654    8.9547712      762.23794     -27.826547      734.41139    
    939000   296.0379       0.016631654    8.2734244      734.47818     -23.366858      711.11132    
    940000   285.2969       0.016631654    8.4535413      707.82948     -26.304978      681.5245     
    941000   293.47307      0.016631654    11.786676      728.11478     -27.063321      701.05145    
    942000   307.90246      0.016631654    8.9220986      763.91449     -27.282154      736.63234    
    943000   296.776        0.016631654    9.9375205      736.30945     -27.535554      708.77389    
    944000   288.1724       0.016631654    9.7953161      714.96367     -24.008563      690.95511    
    945000   291.57447      0.016631654    8.2984597      723.4043      -29.579632      693.82467    
    946000   303.57276      0.016631654    8.9759666      753.17239     -28.116956      725.05543    
    947000   318.24764      0.016631654    12.387736      789.58117     -25.77827       763.8029     
    948000   295.78314      0.016631654    8.9933067      733.84612     -27.401373      706.44475    
    949000   298.4777       0.016631654    8.265457       740.53141     -28.485405      712.04601    
    950000   299.71931      0.016631654    6.2150431      743.61187     -26.829524      716.78235    
    951000   271.6107       0.016631654    6.7877123      673.87362     -21.745027      652.1286     
    952000   310.24844      0.016631654    13.27309       769.73493     -19.657479      750.07745    
    953000   311.52089      0.016631654    0.27071281     772.89192     -22.300786      750.59114    
    954000   293.55482      0.016631654    9.8212448      728.3176      -22.805631      705.51197    
    955000   299.63906      0.016631654    11.049224      743.41276     -24.893975      718.51878    
    956000   307.09179      0.016631654    11.739545      761.90321     -27.667323      734.23588    
    957000   307.2126       0.016631654   -13.144188      762.20294     -28.097899      734.10504    
    958000   290.07129      0.016631654    7.9848581      719.67486     -23.885233      695.78963    
    959000   303.09782      0.016631654    23.522666      751.99405     -24.522055      727.47199    
    960000   306.59723      0.016631654    10.657835      760.67618     -25.351466      735.32472    
    961000   294.96922      0.016631654   -2.4442808      731.82677     -24.818527      707.00824    
    962000   286.04162      0.016631654    5.534754       709.67715     -27.690807      681.98634    
    963000   298.15604      0.016631654    21.210856      739.73336     -22.417885      717.31547    
    964000   316.70612      0.016631654    14.038594      785.75662     -25.149235      760.60738    
    965000   302.87032      0.016631654   -2.1385034      751.4296      -22.385022      729.04458    
    966000   296.67476      0.016631654    13.52551       736.05825     -21.905041      714.15321    
    967000   288.83405      0.016631654    19.77354       716.60525     -25.744471      690.86078    
    968000   293.4206       0.016631654    14.020181      727.9846      -25.08062       702.90398    
    969000   318.23934      0.016631654   -1.5013315      789.56058     -29.774754      759.78583    
    970000   293.47098      0.016631654   -0.35887736     728.1096      -30.251973      697.85763    
    971000   292.53314      0.016631654    20.411802      725.78277     -29.891378      695.89139    
    972000   313.64172      0.016631654    10.746153      778.15375     -30.395853      747.75789    
    973000   299.14557      0.016631654   -5.2739442      742.1884      -32.832821      709.35558    
    974000   290.45558      0.016631654    8.7478088      720.6283      -31.153573      689.47473    
    975000   315.84269      0.016631654    20.935783      783.61441     -28.732818      754.88159    
    976000   308.86499      0.016631654    7.4465673      766.30256     -29.178275      737.12429    
    977000   297.14734      0.016631654    2.0189816      737.23075     -24.214204      713.01654    
    978000   299.79704      0.016631654    4.304954       743.80471     -26.440255      717.36446    
    979000   294.39119      0.016631654    20.048021      730.39265     -32.316408      698.07624    
    980000   298.54077      0.016631654    9.4109168      740.68789     -29.585857      711.10203    
    981000   300.10213      0.016631654   -9.9082364      744.56165     -32.79051       711.77114    
    982000   296.88302      0.016631654    6.6726979      736.57496     -36.890647      699.68431    
    983000   292.32638      0.016631654    16.171499      725.26982     -32.826048      692.44377    
    984000   303.58765      0.016631654    11.825395      753.20934     -31.397474      721.81186    
    985000   302.00403      0.016631654    6.2535875      749.28033     -26.798903      722.48142    
    986000   300.46108      0.016631654    8.3377985      745.45223     -23.842018      721.61021    
    987000   300.58828      0.016631654    8.2095275      745.76782     -22.076789      723.69103    
    988000   298.72474      0.016631654    8.677276       741.14431     -25.608792      715.53552    
    989000   303.56319      0.016631654    8.9538112      753.14863     -25.925521      727.22311    
    990000   299.70528      0.016631654    8.0213508      743.57707     -26.813123      716.76394    
    991000   302.66967      0.016631654    9.0102074      750.93179     -25.799722      725.13206    
    992000   303.01154      0.016631654    8.0087833      751.77997     -26.942559      724.83741    
    993000   298.09104      0.016631654    10.066318      739.57208     -23.653247      715.91884    
    994000   298.14788      0.016631654    10.283306      739.71311     -21.369424      718.34368    
    995000   303.48622      0.016631654    8.5333552      752.95767     -25.278745      727.67892    
    996000   304.83715      0.016631654    12.876809      756.30938     -23.654115      732.65526    
    997000   295.13191      0.016631654    9.6182176      732.23041     -25.787398      706.44302    
    998000   299.90237      0.016631654    10.721931      744.06606     -25.394225      718.67183    
    999000   291.21226      0.016631654    5.1426722      722.50563     -22.99282       699.51281    
   1000000   295.01068      0.016631654    6.5573094      731.92963     -23.638424      708.29121    
   1001000   307.73435      0.016631654    10.117079      763.49741     -22.009481      741.48793    
   1002000   308.97866      0.016631654    11.257464      766.58456     -22.97425       743.61031    
   1003000   286.74351      0.016631654    8.1636091      711.41856     -24.295988      687.12257    
   1004000   299.67867      0.016631654    8.6319885      743.51105     -26.652973      716.85807    
   1005000   298.30279      0.016631654    10.705065      740.09745     -28.343685      711.75377    
   1006000   310.77416      0.016631654    13.042389      771.03925     -25.716603      745.32265    
   1007000   300.01331      0.016631654    0.53420695     744.34128     -23.659814      720.68147    
   1008000   304.49523      0.016631654    2.034502       755.46107     -23.948274      731.5128     
   1009000   303.68182      0.016631654    9.6401616      753.44296     -25.202054      728.24091    
   1010000   296.2949       0.016631654    10.478832      735.11581     -26.146324      708.96949    
   1011000   295.37848      0.016631654   -1.1475286      732.84215     -26.289827      706.55232    
   1012000   307.1856       0.016631654    13.563512      762.13595     -28.256271      733.87968    
   1013000   316.80786      0.016631654    16.164318      786.00904     -24.815791      761.19325    
   1014000   295.57027      0.016631654    11.333835      733.31799     -27.568933      705.74906    
   1015000   303.44041      0.016631654   -1.6367822      752.84403     -22.40621       730.43782    
   1016000   310.41178      0.016631654    12.068312      770.14019     -20.156438      749.98375    
   1017000   297.18874      0.016631654    17.353088      737.33345     -21.354491      715.97896    
   1018000   302.71349      0.016631654    8.4206428      751.04052     -23.586813      727.45371    
   1019000   296.19608      0.016631654    8.3919594      734.87063     -25.178954      709.69168    
   1020000   297.37274      0.016631654    11.015521      737.78995     -27.6708        710.11916    
   1021000   292.17546      0.016631654    11.460199      724.89537     -25.639533      699.25583    
   1022000   303.31657      0.016631654    6.7017136      752.53677     -25.49795       727.03882    
   1023000   309.9252       0.016631654    10.05173       768.93296     -25.587717      743.34524    
   1024000   281.36898      0.016631654    9.8380721      698.08419     -26.119381      671.96481    
   1025000   303.21502      0.016631654    7.191877       752.28481     -23.75257       728.53224    
   1026000   307.63045      0.016631654    8.927695       763.23963     -26.236073      737.00356    
   1027000   310.89957      0.016631654    18.974824      771.35039     -27.330108      744.02028    
   1028000   286.36971      0.016631654    15.809439      710.49114     -26.8208        683.67034    
   1029000   293.27632      0.016631654    6.8431824      727.62664     -29.05472       698.57192    
   1030000   296.10011      0.016631654    8.1205533      734.63252     -28.749257      705.88327    
   1031000   294.32715      0.016631654    7.9814334      730.23377     -32.527521      697.70625    
   1032000   305.06588      0.016631654    10.024456      756.87686     -27.334976      729.54188    
   1033000   310.42461      0.016631654    15.288544      770.17201     -28.565906      741.6061     
   1034000   288.04097      0.016631654    8.7151528      714.63758     -33.390941      681.24663    
   1035000   301.7192       0.016631654    7.471004       748.57365     -29.810913      718.76274    
   1036000   309.08611      0.016631654    11.22884       766.85117     -31.955907      734.89526    
   1037000   307.4926       0.016631654    10.57509       762.89763     -31.780589      731.11704    
   1038000   288.392        0.016631654    9.4347023      715.50851     -28.60342       686.90509    
   1039000   294.03523      0.016631654    7.0298556      729.50952     -28.582233      700.92729    
   1040000   310.41381      0.016631654    8.6972687      770.14523     -28.356476      741.78875    
   1041000   299.40742      0.016631654    10.155378      742.83807     -26.974701      715.86337    
   1042000   294.89212      0.016631654    8.0667765      731.63549     -31.303903      700.33159    
   1043000   289.63989      0.016631654    8.5549014      718.60456     -31.391631      687.21293    
   1044000   304.83792      0.016631654    9.4381468      756.31127     -28.356806      727.95447    
   1045000   313.5969       0.016631654    8.3432512      778.04254     -31.081623      746.96092    
   1046000   289.05022      0.016631654    9.7393369      717.14157     -29.409017      687.73255    
   1047000   277.70121      0.016631654    8.0612305      688.98435     -26.77945       662.2049     
   1048000   308.59841      0.016631654    9.7158741      765.64117     -26.48066       739.16051    
   1049000   313.70255      0.016631654    9.3203474      778.30468     -32.188045      746.11663    
   1050000   299.65177      0.016631654    9.5519549      743.4443      -33.950454      709.49384    
   1051000   293.654        0.016631654    9.7608963      728.56367     -32.017537      696.54613    
   1052000   314.55893      0.016631654    7.6661978      780.42938     -36.528228      743.90115    
   1053000   298.80626      0.016631654    7.9655661      741.34658     -35.020216      706.32636    
   1054000   284.57405      0.016631654    7.9837079      706.03607     -29.0672        676.96887    
   1055000   297.00573      0.016631654    10.376427      736.87941     -22.797156      714.08226    
   1056000   312.02004      0.016631654    10.054815      774.13031     -24.575788      749.55452    
   1057000   296.04235      0.016631654    9.1586032      734.48922     -29.534672      704.95455    
   1058000   301.60224      0.016631654    8.9284242      748.28347     -24.353171      723.9303     
   1059000   304.36767      0.016631654    9.9485786      755.14459     -28.548085      726.5965     
   1060000   299.88389      0.016631654    8.884875       744.0202      -27.708073      716.31213    
   1061000   286.67444      0.016631654    8.6890215      711.24719     -26.304462      684.94273    
   1062000   295.41705      0.016631654    8.0365377      732.93785     -24.954047      707.9838     
   1063000   308.86726      0.016631654    8.8901907      766.30819     -22.906658      743.40154    
   1064000   288.59485      0.016631654    10.315373      716.01179     -19.261849      696.74994    
   1065000   293.46629      0.016631654    7.9735691      728.09796     -19.911532      708.18642    
   1066000   307.20319      0.016631654    5.813665       762.17958     -22.254145      739.92543    
   1067000   312.60542      0.016631654    11.435484      775.58265     -19.356308      756.22635    
   1068000   288.09655      0.016631654    10.420539      714.77549     -20.60462       694.17087    
   1069000   308.07166      0.016631654    6.4429435      764.33427     -21.379996      742.95427    
   1070000   302.19322      0.016631654    7.8712659      749.74971     -20.043273      729.70643    
   1071000   302.0354       0.016631654    13.437083      749.35816     -18.589581      730.76858    
   1072000   290.85314      0.016631654    9.8014513      721.61466     -18.501842      703.11281    
   1073000   302.40064      0.016631654    8.0678967      750.26432     -17.567661      732.69666    
   1074000   316.86203      0.016631654    9.7993999      786.14342     -20.526319      765.6171     
   1075000   288.57547      0.016631654    10.545215      715.96369     -21.786415      694.17728    
   1076000   295.23239      0.016631654    5.3129308      732.47969     -23.979254      708.50044    
   1077000   305.75612      0.016631654    10.661407      758.58936     -23.058593      735.53076    
   1078000   295.89517      0.016631654    9.140089       734.12406     -24.781789      709.34227    
   1079000   284.4573       0.016631654    8.1539065      705.7464      -26.648084      679.09832    
   1080000   299.01897      0.016631654    8.6029552      741.87431     -28.413007      713.4613     
   1081000   295.9515       0.016631654    10.847074      734.26384     -27.056197      707.20764    
   1082000   292.26693      0.016631654    8.6733588      725.12231     -24.821774      700.30054    
   1083000   290.28469      0.016631654    1.3691537      720.20431     -27.304367      692.89994    
   1084000   303.64756      0.016631654    7.270493       753.35797     -27.14933       726.20864    
   1085000   299.47738      0.016631654    15.863055      743.01165     -23.923044      719.0886     
   1086000   287.80135      0.016631654    11.74596       714.04308     -23.368542      690.67454    
   1087000   308.9833       0.016631654    2.2338399      766.59608     -23.10761       743.48847    
   1088000   307.00155      0.016631654    17.6784        761.6793      -21.342374      740.33692    
   1089000   296.19313      0.016631654    9.7708964      734.86333     -23.510503      711.35283    
   1090000   291.81486      0.016631654   -2.6321631      724.00072     -22.724854      701.27586    
   1091000   314.89128      0.016631654    3.4104172      781.25395     -28.665981      752.58797    
   1092000   304.21341      0.016631654    9.5169877      754.76186     -28.97356       725.7883     
   1093000   294.74137      0.016631654    10.31312       731.26145     -26.894981      704.36647    
   1094000   289.39617      0.016631654    7.7966297      717.99987     -28.40647       689.5934     
   1095000   308.24103      0.016631654    7.4726058      764.75449     -26.833516      737.92098    
   1096000   293.41028      0.016631654    8.9922106      727.95898     -26.892431      701.06655    
   1097000   299.53217      0.016631654    8.5457119      743.14757     -24.345959      718.80161    
   1098000   306.53948      0.016631654    10.88059       760.53289     -28.36757       732.16532    
   1099000   302.0193       0.016631654    5.4134089      749.3182      -27.351169      721.96703    
   1100000   293.81982      0.016631654    8.9164831      728.97507     -28.032186      700.94288    
   1101000   286.88616      0.016631654    11.25848       711.77246     -28.581968      683.19049    
   1102000   309.39651      0.016631654    8.5115026      767.62127     -26.836162      740.78511    
   1103000   321.15427      0.016631654   -0.87419513     796.7926      -29.389625      767.40298    
   1104000   294.09171      0.016631654    7.714881       729.64965     -29.165539      700.48411    
   1105000   295.2624       0.016631654    16.9097        732.55414     -28.31597       704.23817    
   1106000   326.0815       0.016631654    22.146568      809.01719     -30.791845      778.22535    
   1107000   297.5106       0.016631654   -0.53250992     738.13199     -31.380534      706.75146    
   1108000   279.16684      0.016631654    23.088968      692.62063     -32.898806      659.72182    
   1109000   302.0497       0.016631654    13.223         749.39363     -28.497745      720.89589    
   1110000   304.7404       0.016631654    8.3177902      756.06933     -28.741235      727.32809    
   1111000   293.25389      0.016631654   -2.5231975      727.57099     -28.923529      698.64746    
   1112000   291.28362      0.016631654    0.37891692     722.68269     -26.311151      696.37154    
   1113000   291.59318      0.016631654    8.4658358      723.45071     -31.626746      691.82396    
   1114000   306.53811      0.016631654    17.11006       760.52949     -30.735971      729.79352    
   1115000   307.63137      0.016631654   -1.5107421      763.2419      -29.464226      733.77767    
   1116000   290.46097      0.016631654    3.5139655      720.64168     -32.874505      687.76717    
   1117000   300.38026      0.016631654    10.201091      745.25171     -31.481329      713.77038    
   1118000   303.78831      0.016631654    15.570705      753.70718     -36.633078      717.0741     
   1119000   311.45761      0.016631654    0.32209764     772.73492     -36.516559      736.21836    
   1120000   287.3474       0.016631654    4.6784009      712.91682     -35.216651      677.70017    
   1121000   291.23187      0.016631654    17.227429      722.5543      -31.937023      690.61728    
   1122000   312.6072       0.016631654    9.9703283      775.58707     -29.894436      745.69263    
   1123000   292.25496      0.016631654   -0.77023391     725.0926      -29.533362      695.55924    
   1124000   293.07168      0.016631654    17.614034      727.11891     -31.538394      695.58051    
   1125000   321.54238      0.016631654    14.76569       797.75552     -33.950094      763.80542    
   1126000   295.52555      0.016631654    2.9639928      733.20705     -30.428064      702.77898    
   1127000   285.19874      0.016631654    17.090591      707.58593     -25.992537      681.59339    
   1128000   304.98204      0.016631654    9.0130084      756.66884     -30.469012      726.19983    
   1129000   317.70251      0.016631654   -2.2845165      788.22867     -27.560699      760.66798    
   1130000   290.84281      0.016631654   -1.4778259      721.58903     -26.025614      695.56341    
   1131000   280.25653      0.016631654    16.882126      695.32417     -25.982493      669.34168    
   1132000   295.73803      0.016631654    15.684465      733.73421     -31.683176      702.05104    
   1133000   313.14365      0.016631654    7.2385414      776.91803     -28.86983       748.0482     
   1134000   287.19371      0.016631654    6.8620204      712.53551     -30.780518      681.75499    
   1135000   291.49591      0.016631654    3.3359389      723.20939     -28.242472      694.96692    
   1136000   303.2321       0.016631654    10.00963       752.32719     -28.221351      724.10584    
   1137000   312.71006      0.016631654    9.5790361      775.84228     -26.143909      749.69837    
   1138000   302.49607      0.016631654    8.4892955      750.5011      -32.254624      718.24647    
   1139000   292.28611      0.016631654    8.1078433      725.1699      -30.97537       694.19453    
   1140000   305.48207      0.016631654    9.0490354      757.90943     -31.743249      726.16619    
   1141000   297.5728       0.016631654    14.662237      738.28633     -29.361498      708.92483    
   1142000   303.60769      0.016631654    9.3543323      753.25904     -26.480253      726.77879    
   1143000   293.61852      0.016631654    8.3587874      728.47564     -26.011542      702.4641     
   1144000   304.78235      0.016631654    8.9003614      756.17342     -27.227437      728.94599    
   1145000   299.77423      0.016631654    9.5059411      743.74814     -24.271917      719.47622    
   1146000   300.98842      0.016631654    8.510116       746.76055     -26.493841      720.26671    
   1147000   292.68938      0.016631654    9.4231266      726.17042     -26.828643      699.34178    
   1148000   298.91463      0.016631654    9.8226497      741.61542     -28.092065      713.52336    
   1149000   308.53294      0.016631654    9.5560244      765.47873     -27.774201      737.70453    
   1150000   307.69624      0.016631654    6.6049833      763.40285     -27.222924      736.17993    
   1151000   292.95748      0.016631654    9.2399896      726.83557     -28.212794      698.62278    
   1152000   294.00906      0.016631654    11.044958      729.44457     -21.599277      707.84529    
   1153000   308.66234      0.016631654    12.504179      765.79978     -23.414966      742.38481    
   1154000   306.25182      0.016631654    8.9333618      759.8192      -21.024918      738.79428    
   1155000   286.4967       0.016631654    8.3497207      710.80621     -23.92331       686.8829     
   1156000   301.7951       0.016631654    9.228767       748.76196     -22.879843      725.88211    
   1157000   316.26332      0.016631654    8.8056487      784.65801     -26.876204      757.78181    
   1158000   304.97479      0.016631654    8.3134701      756.65086     -29.819312      726.83155    
   1159000   294.10159      0.016631654    8.5543819      729.67415     -30.358091      699.31606    
   1160000   297.56442      0.016631654    7.8935745      738.26552     -27.891889      710.37363    
   1161000   308.39819      0.016631654    10.687222      765.1444      -26.117232      739.02717    
   1162000   303.35858      0.016631654    10.687671      752.641       -27.503768      725.13723    
   1163000   286.94391      0.016631654    4.4830734      711.91575     -29.269509      682.64624    
   1164000   300.19228      0.016631654    8.6725198      744.78532     -28.966247      715.81907    
   1165000   305.85867      0.016631654    7.6688946      758.84378     -24.35451       734.48927    
   1166000   298.90801      0.016631654    8.4488192      741.59901     -27.151547      714.44747    
   1167000   301.55579      0.016631654    11.503348      748.16823     -26.925118      721.24311    
   1168000   293.57864      0.016631654    8.2602479      728.37671     -25.767835      702.60887    
   1169000   306.61404      0.016631654    7.6503492      760.71788     -27.307615      733.41027    
   1170000   303.30885      0.016631654    13.396725      752.51761     -28.264907      724.2527     
   1171000   308.50392      0.016631654    8.4921268      765.40672     -28.967777      736.43894    
   1172000   305.40614      0.016631654    7.270273       757.72104     -29.045837      728.6752     
   1173000   301.43409      0.016631654    8.840193       747.86629     -24.670751      723.19554    
   1174000   294.68026      0.016631654    10.021913      731.10984     -21.875724      709.23412    
   1175000   296.46612      0.016631654    8.582567       735.54062     -21.686039      713.85458    
   1176000   315.00014      0.016631654    8.4774283      781.52403     -25.109751      756.41427    
   1177000   295.99707      0.016631654    11.014794      734.37688     -28.577944      705.79894    
   1178000   296.00113      0.016631654    10.12748       734.38697     -28.414777      705.97219    
   1179000   294.71609      0.016631654    9.2651711      731.19874     -29.284627      701.91411    
   1180000   292.48913      0.016631654    10.592039      725.6736      -28.121867      697.55173    
   1181000   300.73343      0.016631654    8.9409846      746.12792     -26.507412      719.62051    
   1182000   319.14232      0.016631654    9.5336204      791.8009      -28.002222      763.79868    
   1183000   292.27922      0.016631654    8.8079668      725.15281     -29.906217      695.24659    
   1184000   294.89299      0.016631654    4.4665577      731.63763     -31.222215      700.41542    
   1185000   317.85955      0.016631654    11.618082      788.6183      -30.102225      758.51608    
   1186000   298.72263      0.016631654    11.028457      741.13908     -24.310346      716.82874    
   1187000   292.69296      0.016631654    4.4728389      726.17931     -22.656764      703.52255    
   1188000   304.65857      0.016631654    7.0216475      755.86632     -27.071187      728.79513    
   1189000   305.88613      0.016631654    13.316819      758.91193     -25.467201      733.44473    
   1190000   290.53064      0.016631654    10.178224      720.81452     -22.925328      697.88919    
   1191000   295.13679      0.016631654    4.9940325      732.24252     -23.394631      708.84789    
   1192000   316.26439      0.016631654    12.791145      784.66068     -21.221117      763.43956    
   1193000   310.59271      0.016631654    11.72375       770.58907     -24.287547      746.30152    
   1194000   307.96134      0.016631654    9.9045903      764.06057     -24.302855      739.75772    
   1195000   291.38219      0.016631654    6.3660407      722.92726     -24.968285      697.95897    
   1196000   290.13599      0.016631654    8.425397       719.83538     -24.26507       695.57031    
   1197000   307.62928      0.016631654    9.5167218      763.23672     -27.815841      735.42088    
   1198000   305.05476      0.016631654    9.7190898      756.84928     -28.680924      728.16835    
   1199000   299.01017      0.016631654    10.440685      741.85247     -31.701133      710.15134    
   1200000   283.3201       0.016631654    7.5761415      702.92498     -29.008817      673.91616    
   1201000   300.12181      0.016631654    7.0349219      744.61047     -28.173918      716.43656    
   1202000   324.56387      0.016631654    11.272032      805.2519      -27.20122       778.05068    
   1203000   303.40897      0.016631654    11.338681      752.76603     -33.320187      719.44584    
   1204000   284.64846      0.016631654    8.8481402      706.22068     -32.454987      673.7657     
   1205000   297.29057      0.016631654    8.477843       737.58611     -31.279413      706.3067     
   1206000   309.88843      0.016631654    7.8466855      768.84174     -32.085801      736.75594    
   1207000   303.80795      0.016631654    9.0535564      753.75589     -23.668063      730.08783    
   1208000   282.52239      0.016631654    8.497057       700.94583     -27.185644      673.76019    
   1209000   302.21984      0.016631654    9.4106821      749.81576     -25.914732      723.90103    
   1210000   306.18582      0.016631654    8.6047031      759.65547     -24.618157      735.03731    
   1211000   291.43569      0.016631654    8.5403743      723.05997     -25.226648      697.83332    
   1212000   297.93834      0.016631654    8.6815268      739.19323     -26.14913       713.0441     
   1213000   321.26661      0.016631654    10.456384      797.07132     -27.957655      769.11366    
   1214000   294.90659      0.016631654    7.4081659      731.67138     -31.77939       699.89199    
   1215000   283.87054      0.016631654    16.00567       704.29064     -26.814068      677.47657    
   1216000   309.6215       0.016631654    12.833647      768.17947     -26.862251      741.31721    
   1217000   306.79898      0.016631654    4.0112178      761.17673     -23.771865      737.40486    
   1218000   294.63607      0.016631654    5.2040844      731.00022     -27.049806      703.95042    
   1219000   286.97356      0.016631654    5.44152        711.98931     -26.755928      685.23338    
   1220000   312.41669      0.016631654    12.211422      775.11442     -19.801129      755.31329    
   1221000   316.41817      0.016631654    6.2822831      785.04221     -23.948804      761.0934     
   1222000   300.06041      0.016631654    8.6341175      744.45814     -21.952831      722.50531    
   1223000   296.48093      0.016631654    9.4114119      735.57737     -22.083548      713.49382    
   1224000   305.40342      0.016631654    13.765503      757.71431     -18.935949      738.77836    
   1225000   312.67721      0.016631654    7.8806058      775.76078     -19.469179      756.2916     
   1226000   297.90675      0.016631654    1.4234198      739.11487     -21.711381      717.40349    
   1227000   294.8606       0.016631654    9.3337173      731.55727     -20.640022      710.91725    
   1228000   302.26362      0.016631654    12.278653      749.92437     -20.777946      729.14642    
   1229000   301.78547      0.016631654    8.8684035      748.73806     -20.647705      728.09036    
   1230000   289.89021      0.016631654    6.0777162      719.22561     -18.802716      700.42289    
   1231000   296.25053      0.016631654    12.740712      735.00572     -19.15262       715.8531     
   1232000   298.60395      0.016631654    8.8526914      740.84463     -20.562347      720.28228    
   1233000   293.28962      0.016631654    4.9826669      727.65963     -25.53435       702.12528    
   1234000   283.58699      0.016631654    0.18209115     703.58715     -24.900063      678.68709    
   1235000   287.1292       0.016631654    7.9110431      712.37545     -25.356344      687.0191     
   1236000   296.07555      0.016631654    9.4366117      734.57161     -27.210538      707.36107    
   1237000   305.31214      0.016631654    11.271319      757.48783     -29.23846       728.24937    
   1238000   309.18718      0.016631654    7.336772       767.10191     -33.236733      733.86517    
   1239000   300.13122      0.016631654    1.1392567      744.63384     -30.650333      713.9835     
   1240000   297.15819      0.016631654    5.4326677      737.25765     -26.737721      710.51993    
   1241000   300.15189      0.016631654    12.867083      744.68511     -30.213833      714.47128    
   1242000   303.58229      0.016631654    5.6173004      753.19603     -31.351222      721.84481    
   1243000   304.20185      0.016631654    7.7944285      754.73317     -30.195691      724.53748    
   1244000   303.10309      0.016631654    8.885179       752.00713     -30.793906      721.21323    
   1245000   306.91032      0.016631654    21.533884      761.45296     -29.52641       731.92655    
   1246000   303.00139      0.016631654    8.0146224      751.7548      -29.035998      722.7188     
   1247000   304.94255      0.016631654    2.0498901      756.57088     -32.845189      723.72569    
   1248000   298.2156       0.016631654    11.864112      739.88112     -32.288187      707.59293    
   1249000   315.24286      0.016631654    18.190229      782.12622     -30.531653      751.59457    
   1250000   304.66535      0.016631654    4.7238344      755.88313     -28.335091      727.54804    
   1251000   295.91159      0.016631654    9.1205741      734.1648      -24.066747      710.09806    
   1252000   288.22748      0.016631654    13.697794      715.10031     -25.291919      689.80839    
   1253000   311.00377      0.016631654    6.5691903      771.60892     -30.321427      741.28749    
   1254000   307.93676      0.016631654    7.1008206      763.9996      -25.348533      738.65107    
   1255000   293.43451      0.016631654    10.395375      728.01912     -24.916146      703.10297    
   1256000   301.54231      0.016631654    9.8439957      748.13479     -27.0501        721.08469    
   1257000   311.42106      0.016631654    6.0204581      772.64423     -23.24179       749.40244    
   1258000   301.51989      0.016631654    8.9829009      748.07916     -25.138966      722.94019    
   1259000   300.97699      0.016631654    9.6670674      746.7322      -24.786036      721.94616    
   1260000   298.13853      0.016631654    10.347064      739.68992     -27.752025      711.93789    
   1261000   301.99294      0.016631654    8.5066848      749.25282     -27.826198      721.42662    
   1262000   306.78216      0.016631654    7.8304371      761.13499     -31.948793      729.1862     
   1263000   288.05008      0.016631654    8.5798114      714.66019     -30.809386      683.8508     
   1264000   282.50088      0.016631654    8.5835616      700.89248     -33.536847      667.35563    
   1265000   301.27793      0.016631654    11.832992      747.47886     -37.233855      710.245      
   1266000   310.53766      0.016631654    9.484849       770.4525      -31.034139      739.41836    
   1267000   302.67263      0.016631654    8.9727181      750.93913     -32.516983      718.42215    
   1268000   293.6347       0.016631654    9.2398507      728.51579     -30.571572      697.94422    
   1269000   293.88578      0.016631654    8.2352922      729.13873     -30.01596       699.12277    
   1270000   312.55299      0.016631654    9.0449392      775.4526      -32.720238      742.73236    
   1271000   292.07032      0.016631654    8.184777       724.63452     -31.79476       692.83976    
   1272000   292.12399      0.016631654    10.141268      724.76768     -30.825933      693.94174    
   1273000   308.18534      0.016631654    9.8050064      764.61631     -30.022719      734.5936     
   1274000   308.72474      0.016631654    8.1783132      765.95459     -25.774656      740.17994    
   1275000   282.75282      0.016631654    8.8825047      701.51755     -28.555019      672.96253    
   1276000   301.30713      0.016631654    13.034689      747.5513      -26.462562      721.08873    
   1277000   336.1136       0.016631654    3.4755151      833.90711     -31.665328      802.24179    
   1278000   289.30806      0.016631654   -1.0808097      717.78126     -24.358244      693.42302    
   1279000   289.32995      0.016631654    7.594565       717.83559     -24.26797       693.56762    
   1280000   300.27906      0.016631654    9.1035572      745.00061     -24.476066      720.52455    
   1281000   313.45056      0.016631654    10.172415      777.67948     -27.352941      750.32654    
   1282000   313.79629      0.016631654    9.2745467      778.53725     -28.199925      750.33732    
   1283000   290.29425      0.016631654    14.511625      720.22802     -28.329066      691.89896    
   1284000   297.40733      0.016631654    3.4754865      737.87578     -28.898503      708.97728    
   1285000   318.45601      0.016631654    6.4443246      790.09814     -33.487339      756.61081    
   1286000   309.86177      0.016631654    2.2342659      768.7756      -29.024786      739.75081    
   1287000   294.8867       0.016631654    12.453662      731.62204     -30.305524      701.31652    
   1288000   283.99924      0.016631654    3.5521575      704.60993     -25.492503      679.11743    
   1289000   302.85169      0.016631654    0.37813436     751.38339     -24.156713      727.22668    
   1290000   290.7106       0.016631654   -3.3273531      721.261       -26.131475      695.12953    
   1291000   298.16189      0.016631654    8.1807593      739.74786     -29.809306      709.93855    
   1292000   296.09858      0.016631654    15.638418      734.62874     -27.654627      706.97412    
   1293000   294.38745      0.016631654    6.1143004      730.38337     -30.506764      699.8766     
   1294000   300.62306      0.016631654   -1.1697471      745.85409     -31.791758      714.06233    
   1295000   299.41444      0.016631654    9.6590396      742.85549     -25.203917      717.65157    
   1296000   292.87537      0.016631654    10.788357      726.63186     -29.802151      696.82971    
   1297000   287.78948      0.016631654    8.4868414      714.01363     -31.675025      682.3386     
   1298000   301.12358      0.016631654    7.8646446      747.09589     -27.375563      719.72033    
   1299000   299.21864      0.016631654    6.8685945      742.36969     -27.055541      715.31415    
   1300000   313.22527      0.016631654    4.1997218      777.12052     -28.09586       749.02466    
   1301000   300.75308      0.016631654    10.697179      746.17668     -25.712241      720.46444    
   1302000   291.72882      0.016631654    13.766813      723.78723     -32.827803      690.95943    
   1303000   291.55624      0.016631654   -6.2916051      723.35906     -34.187733      689.17133    
   1304000   314.41936      0.016631654   -0.8809672      780.08309     -34.319847      745.76325    
   1305000   301.5059       0.016631654    14.125006      748.04444     -31.210626      716.83381    
   1306000   290.05034      0.016631654    21.007005      719.62288     -31.140894      688.48199    
   1307000   291.35668      0.016631654    1.5098562      722.86394     -33.870714      688.99323    
   1308000   314.85715      0.016631654    3.080256       781.16927     -28.67213       752.49714    
   1309000   304.22997      0.016631654    6.0773685      754.80295     -27.777062      727.02589    
   1310000   299.3892       0.016631654    13.53689       742.79285     -27.770372      715.02248    
   1311000   301.23325      0.016631654    11.727383      747.36801     -30.954164      716.41384    
   1312000   297.12771      0.016631654    6.6709802      737.18204     -29.048565      708.13348    
   1313000   294.36631      0.016631654    6.6207083      730.33092     -28.179653      702.15127    
   1314000   301.13544      0.016631654    7.8779252      747.12534     -27.8352        719.29014    
   1315000   304.70718      0.016631654    20.454633      755.9869      -25.298355      730.68855    
   1316000   297.11182      0.016631654    4.5919765      737.14261     -27.595403      709.54721    
   1317000   302.86722      0.016631654   -0.31249933     751.42193     -31.631586      719.79034    
   1318000   297.26058      0.016631654    6.8025646      737.51169     -33.17695       704.33474    
   1319000   301.52699      0.016631654    20.350499      748.09678     -31.315647      716.78113    
   1320000   296.36879      0.016631654    6.2584148      735.29914     -29.353293      705.94584    
   1321000   318.92716      0.016631654    8.2482586      791.26707     -29.056856      762.21022    
   1322000   296.83163      0.016631654    10.977258      736.44745     -29.212645      707.2348     
   1323000   302.72129      0.016631654    8.1415873      751.05988     -30.486218      720.57366    
   1324000   294.7666       0.016631654    7.178399       731.32406     -33.898914      697.42514    
   1325000   302.93795      0.016631654    8.9802455      751.5974      -31.440346      720.15705    
   1326000   299.45013      0.016631654    8.7869388      742.94402     -28.5461        714.39792    
   1327000   292.60865      0.016631654    3.1245339      725.97013     -27.855404      698.11473    
   1328000   301.51156      0.016631654    12.440614      748.05849     -26.054434      722.00406    
   1329000   314.54785      0.016631654    13.09142       780.40189     -20.72339       759.6785     
   1330000   313.11446      0.016631654    9.7215302      776.84561     -26.53716       750.30845    
   1331000   291.02262      0.016631654    4.4630798      722.03514     -30.880239      691.1549     
   1332000   298.85571      0.016631654    9.8367876      741.46925     -27.99803       713.47122    
   1333000   298.51464      0.016631654    8.2703552      740.62305     -27.357558      713.26549    
   1334000   297.30727      0.016631654    7.7278683      737.62753     -26.397546      711.22999    
   1335000   290.9797       0.016631654    7.4842968      721.92865     -24.199433      697.72921    
   1336000   304.97412      0.016631654    9.1967471      756.64919     -27.890638      728.75855    
   1337000   321.56023      0.016631654    9.123981       797.79978     -29.769264      768.03052    
   1338000   289.58045      0.016631654    6.3798758      718.45708     -31.210561      687.24651    
   1339000   296.89411      0.016631654    9.4470508      736.60247     -32.29069       704.31178    
   1340000   311.85105      0.016631654    8.609721       773.71106     -29.698333      744.01272    
   1341000   296.59166      0.016631654    7.0604532      735.85208     -30.938815      704.91326    
   1342000   293.11179      0.016631654    8.8598916      727.21844     -31.768813      695.44963    
   1343000   306.22384      0.016631654    9.4824735      759.74979     -29.524936      730.22485    
   1344000   307.81211      0.016631654    8.7806748      763.69034     -27.499072      736.19127    
   1345000   295.80601      0.016631654    9.1085416      733.90287     -31.100301      702.80257    
   1346000   297.25211      0.016631654    9.2964089      737.49068     -31.963212      705.52747    
   1347000   304.39446      0.016631654    8.0862439      755.21105     -31.933893      723.27716    
   1348000   296.53489      0.016631654    7.4189199      735.71124     -30.199943      705.5113     
   1349000   282.9754       0.016631654    7.7479892      702.06977     -28.827005      673.24276    
   1350000   306.70173      0.016631654    8.8438684      760.93545     -29.797146      731.13831    
   1351000   303.62921      0.016631654    8.2484184      753.31243     -29.098189      724.21424    
   1352000   287.67837      0.016631654    4.372216       713.73798     -33.355186      680.38279    
   1353000   305.39901      0.016631654    7.7413557      757.70337     -29.451731      728.25164    
   1354000   305.56027      0.016631654    14.25195       758.10345     -29.89465       728.2088     
   1355000   302.87057      0.016631654    6.8712272      751.43024     -29.061333      722.36891    
   1356000   288.53659      0.016631654    2.2445086      715.86723     -28.167312      687.69992    
   1357000   301.35308      0.016631654    11.328321      747.6653      -30.444939      717.22037    
   1358000   311.88007      0.016631654    11.926656      773.78306     -27.355544      746.42752    
   1359000   297.59199      0.016631654    0.89771319     738.33392     -26.365558      711.96836    
   1360000   291.41384      0.016631654    2.6781659      723.00577     -27.722433      695.28333    
   1361000   292.27726      0.016631654    11.867269      725.14795     -23.622929      701.52502    
   1362000   311.28231      0.016631654    17.276121      772.29998     -25.619886      746.68009    
   1363000   306.47165      0.016631654    3.8355636      760.3646      -27.46859       732.89601    
   1364000   295.45212      0.016631654    6.9328416      733.02485     -30.91793       702.10692    
   1365000   296.24598      0.016631654    18.164041      734.99443     -29.189319      705.80511    
   1366000   319.32565      0.016631654    7.5736154      792.25573     -28.870311      763.38542    
   1367000   307.31395      0.016631654   -2.5133514      762.45439     -24.335518      738.11887    
   1368000   296.78468      0.016631654    5.8113342      736.33098     -27.118333      709.21265    
   1369000   292.4052       0.016631654    20.36078       725.46536     -25.496315      699.96905    
   1370000   306.49893      0.016631654    7.6760439      760.43229     -27.724761      732.70753    
   1371000   302.68715      0.016631654   -4.5472816      750.97517     -25.955151      725.02002    
   1372000   294.45034      0.016631654    4.1538746      730.5394      -24.554379      705.98502    
   1373000   284.43568      0.016631654    17.336652      705.69277     -22.242165      683.4506     
   1374000   296.35352      0.016631654    4.6188167      735.26126     -19.615048      715.64621    
   1375000   302.41433      0.016631654    15.35606       750.29828     -19.694548      730.60373    
   1376000   298.1977       0.016631654    8.0397754      739.83672     -23.937953      715.89877    
   1377000   308.38437      0.016631654   -6.1289686      765.11011     -26.734095      738.37602    
   1378000   300.36841      0.016631654    9.323995       745.22231     -23.541858      721.68045    
   1379000   294.36594      0.016631654    16.144261      730.33002     -25.51655       704.81347    
   1380000   304.85169      0.016631654    11.22634       756.34544     -24.747071      731.59837    
   1381000   303.48056      0.016631654    0.78639711     752.94363     -19.413373      733.53026    
   1382000   284.10104      0.016631654    7.937904       704.8625      -20.049877      684.81263    
   1383000   301.12598      0.016631654    20.025441      747.10185     -24.748868      722.35298    
   1384000   317.78696      0.016631654    8.5387914      788.43821     -20.912631      767.52558    
   1385000   295.53211      0.016631654    1.9414418      733.22331     -19.804192      713.41912    
   1386000   295.06771      0.016631654    14.060671      732.07111     -23.83266       708.23845    
   1387000   316.85528      0.016631654    5.7359619      786.12669     -23.258829      762.86786    
   1388000   303.12994      0.016631654    5.3830143      752.07374     -26.487678      725.58606    
   1389000   285.71654      0.016631654    9.1715821      708.87062     -26.023148      682.84747    
   1390000   303.79751      0.016631654    16.204017      753.72999     -25.962581      727.76741    
   1391000   308.58427      0.016631654    7.9924884      765.60609     -23.685611      741.92048    
   1392000   296.9454       0.016631654    7.3761476      736.72973     -20.279368      716.45036    
   1393000   292.61575      0.016631654    7.6509168      725.98775     -20.450092      705.53766    
   1394000   300.48171      0.016631654    14.392919      745.50341     -26.580905      718.92251    
   1395000   315.4973       0.016631654    12.89409       782.7575      -26.200878      756.55662    
   1396000   296.37412      0.016631654    8.4758868      735.31236     -31.34539       703.96697    
   1397000   299.06175      0.016631654    3.4400671      741.98046     -23.3488        718.63166    
   1398000   294.7181       0.016631654    16.565485      731.20373     -25.054236      706.1495     
   1399000   307.1558       0.016631654    24.125492      762.06201     -20.312701      741.74931    
   1400000   303.514        0.016631654    10.871983      753.02659     -21.059776      731.96681    
   1401000   293.95668      0.016631654    5.7453653      729.31461     -25.723554      703.59106    
   1402000   306.8524       0.016631654    12.690995      761.30926     -22.985283      738.32397    
   1403000   319.62317      0.016631654    9.3850506      792.9939      -21.222024      771.77188    
   1404000   299.5094       0.016631654    6.9772688      743.09109     -26.080863      717.01022    
   1405000   293.90185      0.016631654    8.3646614      729.1786      -26.615237      702.56336    
   1406000   299.17486      0.016631654    9.0963172      742.26108     -33.045206      709.21588    
   1407000   307.40523      0.016631654    10.226049      762.68086     -31.6511        731.02976    
   1408000   298.8526       0.016631654    9.0516859      741.46153     -32.167         709.29453    
   1409000   300.27088      0.016631654    8.7538151      744.98033     -28.137078      716.84325    
   1410000   299.16916      0.016631654    9.3279879      742.24694     -28.253771      713.99317    
   1411000   306.50504      0.016631654    10.53244       760.44746     -32.499826      727.94763    
   1412000   284.12385      0.016631654    5.5368823      704.91909     -25.36288       679.55621    
   1413000   291.19007      0.016631654    10.422485      722.45059     -21.500911      700.94968    
   1414000   305.0507       0.016631654    11.133166      756.8392      -20.312158      736.52704    
   1415000   310.43827      0.016631654    8.4307234      770.20589     -18.948702      751.25719    
   1416000   284.54529      0.016631654    8.0347357      705.9647      -21.566589      684.39811    
   1417000   291.25191      0.016631654    8.4547828      722.60401     -20.808126      701.79589    
   1418000   308.61121      0.016631654    9.9291601      765.67293     -18.309399      747.36353    
   1419000   297.87662      0.016631654    8.374496       739.04012     -20.830449      718.20967    
   1420000   303.25101      0.016631654    9.3363885      752.37411     -23.927593      728.44652    
   1421000   298.05641      0.016631654    9.2675019      739.48616     -21.382947      718.10321    
   1422000   299.49019      0.016631654    9.5077372      743.04343     -19.839154      723.20427    
   1423000   284.06478      0.016631654    9.6202138      704.77255     -24.286939      680.48561    
   1424000   306.61999      0.016631654    8.2764851      760.73264     -19.499962      741.23268    
   1425000   308.04337      0.016631654    6.4363056      764.26409     -22.58192       741.68217    
   1426000   305.31944      0.016631654    13.022029      757.50595     -21.961089      735.54486    
   1427000   296.49244      0.016631654    9.3381426      735.60591     -21.914961      713.69095    
   1428000   297.14042      0.016631654    9.0801238      737.21357     -24.935704      712.27786    
   1429000   301.33914      0.016631654    9.0501697      747.63071     -23.960359      723.67035    
   1430000   302.85042      0.016631654    8.7151093      751.38023     -27.477218      723.90301    
   1431000   280.16235      0.016631654    7.9727333      695.09052     -27.84036       667.25016    
   1432000   296.81089      0.016631654    7.9032358      736.396       -32.227263      704.16874    
   1433000   315.56527      0.016631654    8.6899534      782.92614     -29.154836      753.7713     
   1434000   299.67923      0.016631654    10.160702      743.51242     -30.51756       712.99486    
   1435000   280.55306      0.016631654    7.4567138      696.05988     -27.111176      668.9487     
   1436000   309.87249      0.016631654    8.5287085      768.80219     -27.287606      741.51458    
   1437000   301.97462      0.016631654    9.4231214      749.20735     -26.177118      723.03023    
   1438000   290.06425      0.016631654    8.1231258      719.65739     -26.474384      693.18301    
   1439000   302.31217      0.016631654    7.4096537      750.04483     -31.272357      718.77247    
   1440000   309.65751      0.016631654    9.0868692      768.26883     -31.246139      737.02269    
   1441000   286.51449      0.016631654    11.029598      710.85035     -32.891907      677.95845    
   1442000   295.36918      0.016631654    8.01644        732.81908     -31.045771      701.77331    
   1443000   310.84229      0.016631654    9.5685035      771.20829     -34.458938      736.74935    
   1444000   299.9752       0.016631654    8.7244175      744.24675     -37.518475      706.72827    
   1445000   288.57082      0.016631654    8.6128136      715.95216     -32.464358      683.4878     
   1446000   299.30459      0.016631654    8.2226925      742.58293     -29.721699      712.86123    
   1447000   310.09605      0.016631654    9.6472043      769.35686     -33.245959      736.1109     
   1448000   297.30792      0.016631654    9.1381178      737.62914     -29.694511      707.93463    
   1449000   297.82325      0.016631654    7.0399793      738.9077      -29.558512      709.34919    
   1450000   304.76234      0.016631654    8.8383736      756.12377     -24.097246      732.02652    
   1451000   313.93259      0.016631654    9.0229069      778.87542     -30.405568      748.46985    
   1452000   287.68579      0.016631654    7.655803       713.75637     -28.253217      685.50315    
   1453000   299.93958      0.016631654    14.293452      744.15837     -27.156501      717.00187    
   1454000   308.07728      0.016631654    9.9114691      764.34823     -28.248391      736.09984    
   1455000   294.40806      0.016631654    2.9361757      730.43451     -25.742267      704.69224    
   1456000   292.09841      0.016631654    4.1599471      724.70421     -27.192153      697.51206    
   1457000   291.22118      0.016631654    16.719073      722.52778     -29.870644      692.65713    
   1458000   309.43399      0.016631654    12.57592       767.71427     -31.152042      736.56222    
   1459000   303.24093      0.016631654    6.7794788      752.34911     -30.170085      722.17902    
   1460000   284.09336      0.016631654    9.7885621      704.84347     -28.342948      676.50052    
   1461000   310.07554      0.016631654    12.475421      769.30596     -33.205098      736.10086    
   1462000   311.67279      0.016631654    9.3941349      773.26879     -28.600753      744.66804    
   1463000   290.55621      0.016631654    8.2803657      720.87795     -28.506769      692.37119    
   1464000   289.27682      0.016631654    7.9815964      717.70376     -24.990799      692.71296    
   1465000   302.4846       0.016631654    8.2356598      750.47263     -26.830008      723.64262    
   1466000   304.25307      0.016631654    9.8677747      754.86026     -21.525703      733.33456    
   1467000   306.96817      0.016631654    9.5536318      761.59649     -24.051978      737.54451    
   1468000   298.25063      0.016631654    9.0429127      739.96805     -28.501952      711.46609    
   1469000   290.57519      0.016631654    8.4795747      720.92507     -25.354021      695.57104    
   1470000   320.40914      0.016631654    8.5274494      794.9439      -27.97772       766.96618    
   1471000   302.81983      0.016631654    9.5558852      751.30434     -23.893518      727.41082    
   1472000   285.99832      0.016631654    8.5088825      709.56973     -27.293269      682.27646    
   1473000   300.58436      0.016631654    10.100322      745.75809     -24.695194      721.06289    
   1474000   310.85241      0.016631654    11.42552       771.23339     -27.973808      743.25958    
   1475000   288.27193      0.016631654    9.1502816      715.2106      -26.640715      688.56988    
   1476000   290.63447      0.016631654    9.067352       721.07213     -30.039174      691.03296    
   1477000   319.02217      0.016631654    9.2400043      791.50281     -32.295667      759.20714    
   1478000   312.83387      0.016631654    5.4846396      776.14946     -34.139703      742.00976    
   1479000   305.27071      0.016631654    5.5895064      757.38505     -31.062996      726.32205    
   1480000   288.75482      0.016631654    13.351073      716.40868     -32.066096      684.34258    
   1481000   304.1243       0.016631654    10.319969      754.54076     -34.545591      719.99517    
   1482000   300.69795      0.016631654    3.1602027      746.0399      -26.766552      719.27335    
   1483000   302.99975      0.016631654    8.37184        751.75074     -32.583172      719.16757    
   1484000   300.20957      0.016631654    13.540097      744.82823     -31.790975      713.03725    
   1485000   302.42565      0.016631654    1.39602        750.32638     -32.741798      717.58458    
   1486000   299.07429      0.016631654    7.7534995      742.01156     -30.24476       711.7668     
   1487000   301.70365      0.016631654    20.101225      748.53507     -32.539428      715.99564    
   1488000   307.13825      0.016631654    8.6831606      762.01847     -26.662211      735.35626    
   1489000   295.58092      0.016631654    1.913578       733.34442     -27.874042      705.47038    
   1490000   298.8513       0.016631654    8.9559959      741.45832     -25.717201      715.74111    
   1491000   303.18645      0.016631654    8.3727736      752.21393     -27.98807       724.22586    
   1492000   289.903        0.016631654   -1.2680121      719.25733     -30.05573       689.2016     
   1493000   309.44837      0.016631654    14.802383      767.74993     -31.249862      736.50007    
   1494000   319.30081      0.016631654    16.218707      792.19412     -32.452568      759.74155    
   1495000   293.38693      0.016631654    3.1345011      727.90107     -31.256911      696.64415    
   1496000   296.84497      0.016631654    15.418082      736.48055     -30.828789      705.65176    
   1497000   318.20984      0.016631654    10.72548       789.48739     -24.54037       764.94702    
   1498000   303.4432       0.016631654    9.8131392      752.85095     -26.873662      725.97729    
   1499000   290.86592      0.016631654    7.8799035      721.64636     -28.985501      692.66086    
   1500000   305.52871      0.016631654    1.9314135      758.02515     -27.698602      730.32654    
   1501000   307.15369      0.016631654    10.356282      762.05678     -28.001203      734.05558    
   1502000   294.51139      0.016631654    12.302849      730.69087     -31.72519       698.96568    
   1503000   295.43242      0.016631654    7.6714838      732.97597     -33.714628      699.26135    
   1504000   309.00338      0.016631654    2.2422753      766.64591     -37.078149      729.56776    
   1505000   308.58048      0.016631654    12.456493      765.59669     -32.588931      733.00775    
   1506000   298.03979      0.016631654    13.27316       739.44493     -34.665301      704.77962    
   1507000   296.93751      0.016631654    10.737004      736.71014     -33.93316       702.77698    
   1508000   299.42127      0.016631654    3.0605607      742.87243     -26.842252      716.03018    
   1509000   299.18413      0.016631654    5.7794765      742.28407     -29.599308      712.68476    
   1510000   306.32881      0.016631654    10.489464      760.01021     -28.626134      731.38408    
   1511000   310.28959      0.016631654    12.594706      769.83702     -24.303043      745.53397    
   1512000   287.18347      0.016631654    9.0303292      712.51011     -23.213017      689.29709    
   1513000   299.41945      0.016631654    4.9676476      742.8679      -22.826259      720.04164    
   1514000   302.97552      0.016631654    10.402781      751.69061     -23.256713      728.4339     
   1515000   296.31818      0.016631654    10.453728      735.17358     -23.41634       711.75724    
   1516000   299.8903       0.016631654   -0.6217572      744.03611     -25.974335      718.06177    
   1517000   304.18838      0.016631654    5.3387946      754.69976     -26.214507      728.48525    
   1518000   302.23726      0.016631654    12.293884      749.85897     -22.863414      726.99556    
   1519000   293.17547      0.016631654    9.2432555      727.37642     -20.815329      706.56109    
   1520000   281.15881      0.016631654    10.65983       697.56276     -22.257343      675.30541    
   1521000   298.90772      0.016631654    7.0021457      741.59829     -22.366964      719.23133    
   1522000   310.04633      0.016631654    7.7731967      769.2335      -23.908452      745.32505    
   1523000   286.66919      0.016631654    16.608837      711.23416     -23.389142      687.84502    
   1524000   286.98714      0.016631654    4.0939654      712.02301     -25.625922      686.39709    
   1525000   289.94904      0.016631654    6.1341039      719.37157     -26.265037      693.10653    
   1526000   305.78016      0.016631654    8.7719954      758.64901     -27.476585      731.17242    
   1527000   297.3848       0.016631654    11.052755      737.81989     -30.16818       707.65171    
   1528000   293.69466      0.016631654    8.9255947      728.66455     -29.446319      699.21823    
   1529000   311.44419      0.016631654    7.7819994      772.70161     -28.060444      744.64117    
   1530000   323.3742       0.016631654    11.102431      802.30031     -31.55623       770.74408    
   1531000   301.32741      0.016631654    10.054047      747.60161     -28.886548      718.71506    
   1532000   288.83298      0.016631654    7.917964       716.60258     -27.654988      688.94759    
   1533000   309.22042      0.016631654    9.0183486      767.18438     -25.661098      741.52328    
   1534000   309.37159      0.016631654    10.411435      767.55945     -27.706898      739.85255    
   1535000   293.46761      0.016631654    4.090007       728.10124     -28.509776      699.59146    
   1536000   298.68558      0.016631654    7.8896044      741.04717     -27.746211      713.30095    
   1537000   307.57734      0.016631654    20.545927      763.10787     -28.065213      735.04266    
   1538000   300.66029      0.016631654    11.055167      745.94646     -27.99084       717.95562    
   1539000   289.15806      0.016631654    2.6495622      717.40913     -27.163883      690.24524    
   1540000   306.49025      0.016631654    9.1118731      760.41077     -25.912111      734.49866    
   1541000   296.89526      0.016631654    12.147269      736.60533     -23.252078      713.35325    
   1542000   296.26433      0.016631654    9.5834621      735.03997     -24.976032      710.06393    
   1543000   291.68897      0.016631654   -2.0891673      723.68838     -29.336764      694.35162    
   1544000   301.1932       0.016631654    10.493397      747.26864     -25.356079      721.91256    
   1545000   301.03504      0.016631654    13.214976      746.87624     -28.26561       718.61063    
   1546000   298.04708      0.016631654    4.4923805      739.46302     -22.754692      716.70833    
   1547000   289.47782      0.016631654    17.242554      718.20246     -26.570016      691.63244    
   1548000   317.19337      0.016631654    9.9918519      786.9655      -27.061997      759.9035     
   1549000   300.44512      0.016631654    6.9077521      745.41261     -24.12716       721.28545    
   1550000   278.29312      0.016631654    12.596004      690.45289     -23.648233      666.80466    
   1551000   300.84514      0.016631654    9.9075393      746.40508     -26.095211      720.30986    
   1552000   301.02818      0.016631654    7.4187905      746.85921     -31.421912      715.4373     
   1553000   301.34694      0.016631654    7.7067123      747.65006     -32.820517      714.82954    
   1554000   303.76751      0.016631654    9.4418196      753.65555     -33.008535      720.64702    
   1555000   294.33788      0.016631654    8.6221527      730.26039     -29.290381      700.97001    
   1556000   299.48164      0.016631654    6.1282727      743.0222      -29.558759      713.46345    
   1557000   292.28097      0.016631654    5.4370307      725.15714     -28.621089      696.53605    
   1558000   302.50424      0.016631654    12.000387      750.52135     -26.851658      723.66969    
   1559000   303.13327      0.016631654    5.6271666      752.082       -28.655493      723.4265     
   1560000   291.71681      0.016631654    7.5520111      723.75745     -27.793271      695.96418    
   1561000   298.97504      0.016631654    8.1513835      741.76531     -33.96381       707.8015     
   1562000   294.42171      0.016631654    8.5951556      730.46838     -31.700243      698.76814    
   1563000   301.34778      0.016631654    8.583527       747.65216     -33.595473      714.05668    
   1564000   312.03394      0.016631654    9.157189       774.16481     -32.68055       741.48426    
   1565000   303.85471      0.016631654    9.7621615      753.8719      -29.875913      723.99599    
   1566000   279.45729      0.016631654    8.760502       693.34124     -28.234518      665.10673    
   1567000   296.94016      0.016631654    9.7987147      736.71673     -26.143255      710.57347    
   1568000   309.60175      0.016631654    6.5669106      768.13047     -28.990641      739.13983    
   1569000   308.25715      0.016631654    6.7117069      764.79448     -26.810502      737.98398    
   1570000   291.80863      0.016631654    9.0241213      723.98525     -33.915868      690.06938    
   1571000   296.04383      0.016631654    8.3563637      734.49291     -29.103316      705.38959    
   1572000   299.52505      0.016631654    8.5220822      743.12989     -28.659423      714.47047    
   1573000   321.32487      0.016631654    8.7486119      797.21587     -30.473399      766.74247    
   1574000   305.05797      0.016631654    9.1923456      756.85722     -26.664806      730.19242    
   1575000   298.45604      0.016631654    8.5076748      740.47767     -27.027483      713.45018    
   1576000   293.60184      0.016631654    8.4583206      728.43426     -24.200958      704.2333     
   1577000   299.1449       0.016631654    7.8166365      742.18675     -24.214473      717.97228    
   1578000   304.90664      0.016631654    16.348742      756.48178     -23.432159      733.04962    
   1579000   293.81307      0.016631654    8.0209503      728.95833     -25.9473        703.01103    
   1580000   299.20262      0.016631654    8.6057604      742.32996     -31.208502      711.12145    
   1581000   284.6069       0.016631654    8.3165954      706.11757     -29.56137       676.5562     
   1582000   300.99194      0.016631654    7.6282139      746.7693      -30.743943      716.02536    
   1583000   311.36637      0.016631654    9.5845676      772.50855     -24.440721      748.06783    
   1584000   295.90048      0.016631654    9.4538528      734.13725     -24.407307      709.72994    
   1585000   294.04842      0.016631654    8.4757661      729.54224     -23.555956      705.98628    
   1586000   303.27073      0.016631654    7.4392728      752.42304     -21.286699      731.13634    
   1587000   294.84355      0.016631654    8.4746884      731.51497     -24.016285      707.49868    
   1588000   303.05941      0.016631654    9.2116698      751.89875     -23.195799      728.70295    
   1589000   294.54014      0.016631654    9.6957095      730.7622      -22.359849      708.40235    
   1590000   290.6795       0.016631654    7.6931091      721.18386     -29.47832       691.70554    
   1591000   311.43542      0.016631654    10.343794      772.67985     -29.462383      743.21747    
   1592000   309.56126      0.016631654    10.65556       768.03003     -33.037102      734.99293    
   1593000   291.33011      0.016631654    8.9529697      722.79804     -33.280827      689.51722    
   1594000   288.44221      0.016631654    11.660698      715.63308     -34.843281      680.7898     
   1595000   302.75989      0.016631654    7.8856942      751.15563     -30.573675      720.58195    
   1596000   308.47579      0.016631654    5.7428782      765.33694     -32.496862      732.84008    
   1597000   306.91145      0.016631654    10.978076      761.45578     -31.520057      729.93572    
   1598000   296.77023      0.016631654    10.177285      736.29512     -28.010707      708.28441    
   1599000   286.32454      0.016631654    6.9359938      710.37907     -28.310911      682.06816    
   1600000   310.86458      0.016631654    7.8864862      771.2636      -32.0387        739.2249     
   1601000   308.62109      0.016631654    11.292842      765.69743     -30.474099      735.22334    
   1602000   296.83346      0.016631654    9.9039752      736.452       -36.448202      700.00379    
   1603000   294.45912      0.016631654    14.196924      730.5612      -34.50681       696.05439    
   1604000   297.48398      0.016631654    9.4986662      738.06596     -32.21109       705.85487    
   1605000   310.95303      0.016631654   -0.21232165     771.48305     -32.764518      738.71853    
   1606000   309.82354      0.016631654    2.8484153      768.68075     -29.569845      739.1109     
   1607000   294.87309      0.016631654    10.987534      731.58825     -26.372891      705.21536    
   1608000   279.86465      0.016631654    8.9725042      694.35192     -27.8326        666.51932    
   1609000   305.05073      0.016631654    5.8834464      756.83926     -32.118938      724.72032    
   1610000   314.83149      0.016631654    13.055181      781.10561     -27.603342      753.50227    
   1611000   285.52101      0.016631654    16.441745      708.38551     -31.843148      676.54236    
   1612000   293.00768      0.016631654    10.551145      726.96013     -34.273319      692.68681    
   1613000   307.91271      0.016631654    3.4070739      763.93992     -28.643693      735.29623    
   1614000   299.39404      0.016631654    10.965619      742.80488     -30.862224      711.94265    
   1615000   277.85261      0.016631654    10.662794      689.35998     -36.58761       652.77237    
   1616000   296.50628      0.016631654    5.0821661      735.64025     -35.448409      700.19184    
   1617000   303.1336       0.016631654    11.157546      752.08283     -36.840165      715.24266    
   1618000   293.9424       0.016631654    6.5792748      729.27921     -32.350562      696.92865    
   1619000   295.01386      0.016631654    8.5178085      731.93752     -32.693144      699.24437    
   1620000   301.79516      0.016631654    9.267499       748.76212     -31.094704      717.66742    
   1621000   298.23261      0.016631654    7.9524439      739.92331     -33.101627      706.82169    
   1622000   304.7191       0.016631654    7.1990529      756.01649     -35.059351      720.95714    
   1623000   307.69271      0.016631654    19.001972      763.39409     -31.793078      731.60101    
   1624000   297.76536      0.016631654    13.002083      738.76407     -34.783531      703.98054    
   1625000   290.76746      0.016631654    4.8940974      721.40208     -37.940269      683.46181    
   1626000   301.73729      0.016631654    6.5540623      748.61854     -35.881112      712.73743    
   1627000   318.18436      0.016631654    17.640545      789.42418     -38.809889      750.61429    
   1628000   284.77949      0.016631654    12.458549      706.54576     -36.914234      669.63152    
   1629000   297.55547      0.016631654   -2.5684891      738.24332     -35.854768      702.38855    
   1630000   311.93914      0.016631654    24.47815       773.9296      -31.212382      742.71722    
   1631000   302.29669      0.016631654    8.8285623      750.00641     -35.16402       714.84239    
   1632000   298.54613      0.016631654    6.6379949      740.70119     -34.024194      706.67699    
   1633000   299.48737      0.016631654    2.6668466      743.03642     -32.948627      710.0878     
   1634000   308.21259      0.016631654    6.4573457      764.68394     -40.699911      723.98403    
   1635000   304.63596      0.016631654    13.541427      755.81022     -38.852615      716.9576     
   1636000   299.55305      0.016631654   -11.516247      743.19939     -31.851341      711.34804    
   1637000   304.63367      0.016631654    9.0030989      755.80452     -29.380623      726.4239     
   1638000   293.80152      0.016631654    12.655087      728.92968     -30.161634      698.76804    
   1639000   303.58115      0.016631654    7.7253522      753.19321     -30.550903      722.64231    
   1640000   293.10165      0.016631654    1.2820887      727.19326     -33.26151       693.93175    
   1641000   311.58154      0.016631654    10.617472      773.04239     -32.199998      740.84239    
   1642000   300.33206      0.016631654    25.981384      745.13211     -32.553121      712.57899    
   1643000   297.9179       0.016631654   -6.9592238      739.14252     -34.331291      704.81123    
   1644000   306.59739      0.016631654    8.6879614      760.67657     -34.064917      726.61165    
   1645000   299.05596      0.016631654    15.538176      741.96608     -39.289956      702.67613    
   1646000   290.97494      0.016631654    7.369511       721.91683     -38.001275      683.91556    
   1647000   319.16706      0.016631654    5.4841458      791.86228     -32.730201      759.13208    
   1648000   305.46559      0.016631654    9.7470339      757.86855     -34.680029      723.18852    
   1649000   287.4872       0.016631654    11.095114      713.26366     -35.123206      678.14046    
   1650000   287.03553      0.016631654    6.3397624      712.14305     -34.812802      677.33025    
   1651000   311.52814      0.016631654    8.6846734      772.90989     -31.756458      741.15344    
   1652000   294.50636      0.016631654    12.37211       730.6784      -28.355608      702.32279    
   1653000   294.79617      0.016631654    8.0867164      731.39743     -27.353038      704.04439    
   1654000   302.50182      0.016631654    9.8136191      750.51535     -28.993718      721.52163    
   1655000   304.08971      0.016631654    9.1961726      754.45496     -27.91488       726.54008    
   1656000   297.8965       0.016631654    7.794885       739.08943     -32.610184      706.47924    
   1657000   284.30135      0.016631654    8.2615042      705.35948     -27.917808      677.44167    
   1658000   288.86537      0.016631654    10.458116      716.68294     -23.600586      693.08235    
   1659000   319.02512      0.016631654    9.6797492      791.51013     -31.075282      760.43485    
   1660000   292.70697      0.016631654    8.8130323      726.21405     -28.89473       697.31932    
   1661000   290.75564      0.016631654    11.416924      721.37276     -28.644593      692.72817    
   1662000   311.21847      0.016631654    11.837363      772.14159     -31.3005        740.84109    
   1663000   310.34918      0.016631654    9.8844475      769.98487     -33.393079      736.59179    
   1664000   287.29249      0.016631654    8.2307706      712.78059     -29.673196      683.1074     
   1665000   293.17504      0.016631654    9.068304       727.37535     -25.214274      702.16108    
   1666000   316.67569      0.016631654    9.9653304      785.68112     -31.016949      754.66417    
   1667000   292.35529      0.016631654    8.9585977      725.34153     -30.314771      695.02676    
   1668000   302.27902      0.016631654    7.5105963      749.96258     -30.156663      719.80592    
   1669000   308.85016      0.016631654    7.5506957      766.26577     -29.974742      736.29103    
   1670000   308.91134      0.016631654    9.0928539      766.41755     -26.668125      739.74942    
   1671000   300.21948      0.016631654    9.6057619      744.85281     -25.081978      719.77083    
   1672000   300.10706      0.016631654    12.343502      744.5739      -26.927581      717.64632    
   1673000   293.17997      0.016631654    8.9548011      727.38758     -24.815692      702.57188    
   1674000   303.94118      0.016631654    4.3043962      754.08645     -27.203932      726.88251    
   1675000   304.89299      0.016631654    10.529498      756.44792     -24.933962      731.51396    
   1676000   310.68533      0.016631654    10.493902      770.81887     -21.94871       748.87016    
   1677000   296.56693      0.016631654    9.065445       735.79072     -25.77678       710.01394    
   1678000   299.57519      0.016631654    7.6188753      743.2543      -24.744032      718.51027    
   1679000   312.33154      0.016631654    9.8005649      774.90316     -23.16634       751.73682    
   1680000   301.73964      0.016631654    9.1610204      748.62436     -27.068641      721.55572    
   1681000   296.47119      0.016631654    8.9788507      735.55318     -21.703439      713.84974    
   1682000   299.61814      0.016631654    9.2478751      743.36088     -25.099743      718.26113    
   1683000   299.76705      0.016631654    7.0368321      743.73031     -29.101724      714.62858    
   1684000   295.20834      0.016631654    8.0217372      732.42003     -32.513094      699.90694    
   1685000   287.10243      0.016631654    10.21553       712.30905     -29.879413      682.42964    
   1686000   305.74014      0.016631654    12.363113      758.54972     -30.421068      728.12865    
   1687000   302.39871      0.016631654    9.0746965      750.25954     -30.381255      719.87828    
   1688000   301.60063      0.016631654    3.9887699      748.27947     -26.005948      722.27352    
   1689000   286.70525      0.016631654    12.420622      711.32363     -29.179003      682.14463    
   1690000   305.00979      0.016631654    10.809893      756.73769     -26.144035      730.59365    
   1691000   309.17612      0.016631654    2.3859916      767.07448     -30.503798      736.57068    
   1692000   287.33805      0.016631654    1.8021339      712.89362     -31.869989      681.02364    
   1693000   294.21942      0.016631654    13.58817       729.96649     -30.050062      699.91643    
   1694000   312.64763      0.016631654    20.409277      775.68738     -32.439836      743.24754    
   1695000   310.1396       0.016631654    3.6178747      769.46489     -29.186383      740.2785     
   1696000   291.04604      0.016631654    7.9855094      722.09326     -29.004336      693.08892    
   1697000   297.21831      0.016631654    10.069275      737.40681     -26.145028      711.26178    
   1698000   309.50476      0.016631654    9.9769945      767.88984     -28.959313      738.93052    
   1699000   304.81254      0.016631654    2.3816561      756.2483      -29.964011      726.28429    
   1700000   283.92554      0.016631654    15.268483      704.4271      -26.023659      678.40344    
   1701000   317.45436      0.016631654    12.127625      787.61302     -28.612141      759.00087    
   1702000   305.31177      0.016631654    5.279706       757.48691     -28.398656      729.08825    
   1703000   292.12523      0.016631654    8.6670822      724.77074     -33.041143      691.72959    
   1704000   294.87562      0.016631654    9.9897612      731.59455     -32.221859      699.37269    
   1705000   302.46421      0.016631654    19.09894       750.42204     -28.716462      721.70558    
   1706000   314.57511      0.016631654    9.1799428      780.46951     -26.152011      754.3175     
   1707000   307.19263      0.016631654    0.48668752     762.15337     -23.659146      738.49423    
   1708000   288.4036       0.016631654    7.1590268      715.53729     -27.680319      687.85697    
   1709000   303.80745      0.016631654    14.325504      753.75466     -31.251471      722.50319    
   1710000   314.38727      0.016631654    2.0700075      780.00349     -30.852447      749.15105    
   1711000   292.13986      0.016631654    4.6908656      724.80704     -33.808896      690.99815    
   1712000   291.90997      0.016631654    19.609746      724.23669     -36.492992      687.7437     
   1713000   307.72575      0.016631654    7.2976457      763.47606     -33.90269       729.57337    
   1714000   288.37734      0.016631654    0.40646518     715.47213     -37.247699      678.22443    
   1715000   291.71509      0.016631654    12.83499       723.75318     -39.365081      684.3881     
   1716000   314.57555      0.016631654    6.7492541      780.4706      -32.175349      748.29526    
   1717000   303.22227      0.016631654    6.5560065      752.3028      -32.454911      719.84789    
   1718000   291.31082      0.016631654    12.986608      722.75016     -29.323174      693.42699    
   1719000   275.21321      0.016631654    7.2814938      682.81155     -29.581949      653.2296     
   1720000   304.12508      0.016631654    10.332125      754.54271     -25.998789      728.54392    
   1721000   310.30925      0.016631654    8.8787495      769.88581     -28.637556      741.24826    
   1722000   303.99806      0.016631654    8.9234326      754.22757     -29.544869      724.6827     
   1723000   286.1111       0.016631654    8.8496456      709.84952     -27.609661      682.23986    
   1724000   302.32115      0.016631654    9.0690715      750.06709     -32.655069      717.41203    
   1725000   307.7168       0.016631654    9.0116569      763.45387     -30.250167      733.20371    
   1726000   308.03798      0.016631654    6.3172205      764.25072     -27.840469      736.41025    
   1727000   279.69651      0.016631654    7.0027832      693.93476     -28.946241      664.98852    
   1728000   296.76138      0.016631654    14.895914      736.27316     -24.549705      711.72345    
   1729000   308.22398      0.016631654    9.3287059      764.71219     -24.879417      739.83278    
   1730000   284.64991      0.016631654    4.835827       706.22428     -24.022883      682.20139    
   1731000   297.39979      0.016631654    10.803767      737.85709     -21.974513      715.88258    
   1732000   325.02712      0.016631654    7.8428453      806.40125     -25.67253       780.72872    
   1733000   297.02416      0.016631654    3.9535052      736.92512     -23.807593      713.11753    
   1734000   289.41736      0.016631654    15.555235      718.05244     -19.846062      698.20638    
   1735000   304.66143      0.016631654    10.367667      755.87341     -18.574295      737.29911    
   1736000   296.43396      0.016631654    6.3333129      735.46081     -27.327441      708.13337    
   1737000   301.93852      0.016631654    20.328646      749.1178      -24.188525      724.92928    
   1738000   303.68851      0.016631654    5.4948021      753.45956     -24.322773      729.13678    
   1739000   300.91687      0.016631654    7.3373011      746.58305     -25.886534      720.69652    
   1740000   298.64602      0.016631654    12.12262       740.94902     -24.393572      716.55545    
   1741000   311.11761      0.016631654    10.29245       771.89136     -30.285317      741.60604    
   1742000   293.09295      0.016631654    7.2934921      727.17169     -30.741117      696.43057    
   1743000   299.00291      0.016631654    13.01325       741.83445     -29.10195       712.7325     
   1744000   309.73229      0.016631654    11.681424      768.45435     -27.792179      740.66217    
   1745000   308.08027      0.016631654    5.9725817      764.35563     -24.149722      740.20591    
   1746000   294.95139      0.016631654    3.7094771      731.78254     -22.599017      709.18352    
   1747000   308.23082      0.016631654    18.521793      764.72917     -22.892931      741.83624    
   1748000   307.90049      0.016631654    10.591921      763.90961     -22.958625      740.95098    
   1749000   308.99702      0.016631654    5.6810278      766.63013     -19.48975       747.14038    
   1750000   297.06398      0.016631654    8.5197769      737.02393     -25.984592      711.03934    
   1751000   296.21902      0.016631654    10.756194      734.92755     -26.329756      708.59779    
   1752000   310.01575      0.016631654    9.129582       769.15763     -26.328344      742.82929    
   1753000   298.3818       0.016631654    7.5651469      740.29346     -24.832168      715.46129    
   1754000   278.9941       0.016631654    7.2337006      692.19205     -23.868322      668.32373    
   1755000   301.1385       0.016631654    10.449411      747.13291     -23.554236      723.57868    
   1756000   311.58814      0.016631654    10.581841      773.05877     -27.615834      745.44294    
   1757000   292.72444      0.016631654    8.621198       726.25741     -28.344138      697.91328    
   1758000   299.29471      0.016631654    9.1190682      742.55842     -25.505881      717.05254    
   1759000   309.77669      0.016631654    9.0138592      768.56452     -26.6892        741.87532    
   1760000   289.63724      0.016631654    7.6321303      718.59798     -26.98945       691.60853    
   1761000   287.02636      0.016631654    10.3369        712.12032     -24.994064      687.12625    
   1762000   291.93556      0.016631654    9.6928811      724.30016     -27.139087      697.16108    
   1763000   307.37656      0.016631654    9.1827364      762.60972     -26.688751      735.92097    
   1764000   295.82672      0.016631654    9.7301969      733.95425     -23.484136      710.47011    
   1765000   306.87767      0.016631654    8.8008158      761.37196     -25.188636      736.18332    
   1766000   305.82677      0.016631654    7.7960307      758.76465     -24.555629      734.20902    
   1767000   291.94165      0.016631654    8.7238988      724.31527     -24.904706      699.41057    
   1768000   300.41192      0.016631654    8.3433603      745.33024     -26.595228      718.73502    
   1769000   312.66934      0.016631654    9.1338153      775.74126     -24.377186      751.36407    
   1770000   305.67292      0.016631654    8.767209       758.38295     -24.714838      733.66811    
   1771000   293.06439      0.016631654    8.812284       727.10083     -21.936475      705.16436    
   1772000   301.55112      0.016631654    7.7821729      748.15665     -23.695019      724.46163    
   1773000   303.61115      0.016631654    9.2966045      753.26764     -22.579569      730.68807    
   1774000   298.18528      0.016631654    9.1581705      739.80589     -24.094811      715.71108    
   1775000   287.77703      0.016631654    9.2413043      713.98274     -24.623053      689.35968    
   1776000   304.00493      0.016631654    8.9906643      754.24462     -24.599872      729.64475    
   1777000   302.85678      0.016631654    10.775595      751.39603     -24.49707       726.89896    
   1778000   296.3088       0.016631654    8.4005125      735.15031     -24.655452      710.49485    
   1779000   304.51565      0.016631654    8.5935149      755.51173     -21.029188      734.48254    
   1780000   313.92689      0.016631654    9.7529428      778.86126     -24.692113      754.16915    
   1781000   304.88645      0.016631654    8.4059688      756.43167     -24.499526      731.93215    
   1782000   292.64785      0.016631654    11.154572      726.06739     -24.500212      701.56718    
   1783000   296.01085      0.016631654    7.4238845      734.41109     -24.214667      710.19642    
   1784000   311.95254      0.016631654    7.6898502      773.96285     -30.778785      743.18407    
   1785000   309.92642      0.016631654    11.11365       768.936       -28.91765       740.01835    
   1786000   295.43887      0.016631654    8.098819       732.99197     -23.751808      709.24016    
   1787000   301.72879      0.016631654    10.492713      748.59744     -21.436654      727.16079    
   1788000   302.90049      0.016631654    12.8025        751.50446     -24.626671      726.87779    
   1789000   293.47223      0.016631654    1.1243011      728.1127      -24.575332      703.53737    
   1790000   298.87058      0.016631654    4.5290548      741.50615     -26.118043      715.3881     
   1791000   297.7413       0.016631654    7.9319243      738.70438     -29.260646      709.44374    
   1792000   290.3469       0.016631654    10.354131      720.35866     -22.837647      697.52101    
   1793000   305.45874      0.016631654    13.728555      757.85156     -25.29195       732.55961    
   1794000   304.61112      0.016631654    7.5611396      755.74859     -25.120636      730.62796    
   1795000   290.94793      0.016631654    11.851578      721.84985     -25.147903      696.70194    
   1796000   299.58674      0.016631654    9.9711398      743.28296     -28.085403      715.19756    
   1797000   295.62246      0.016631654    9.9832091      733.44747     -27.0011        706.44637    
   1798000   303.13962      0.016631654    7.6159003      752.09774     -31.333618      720.76412    
   1799000   295.02388      0.016631654    9.8380818      731.96237     -27.885048      704.07733    
   1800000   306.96841      0.016631654    15.658304      761.59708     -28.729848      732.86723    
   1801000   304.01914      0.016631654    6.5254174      754.27987     -23.437175      730.84269    
   1802000   315.65076      0.016631654    4.7575154      783.13823     -23.419421      759.71881    
   1803000   294.12372      0.016631654    4.3957714      729.72906     -25.046681      704.68238    
   1804000   304.98373      0.016631654    33.262347      756.67305     -20.364626      736.30842    
   1805000   290.61562      0.016631654    5.9072092      721.02537     -18.890817      702.13456    
   1806000   284.05311      0.016631654    3.8210021      704.7436      -20.040993      684.70261    
   1807000   308.37002      0.016631654    10.877422      765.07453     -19.22263       745.8519     
   1808000   317.00244      0.016631654    6.9223284      786.49178     -21.887803      764.60398    
   1809000   288.07001      0.016631654    6.0819814      714.70964     -26.815515      687.89412    
   1810000   298.8863       0.016631654    11.009914      741.54514     -19.995113      721.55003    
   1811000   304.8874       0.016631654    7.7543548      756.43405     -18.696077      737.73797    
   1812000   297.68704      0.016631654    5.3163248      738.56974     -18.357794      720.21195    
   1813000   300.20464      0.016631654    15.55641       744.81598     -18.862411      725.95357    
   1814000   302.60824      0.016631654    12.62608       750.77939     -19.034776      731.74462    
   1815000   302.80213      0.016631654    7.9809363      751.26042     -18.647738      732.61268    
   1816000   296.48662      0.016631654   -0.043854465    735.59149     -23.239602      712.35188    
   1817000   300.68454      0.016631654    8.8779395      746.00664     -20.852704      725.15394    
   1818000   294.217        0.016631654    17.671206      729.96048     -20.87429       709.08619    
   1819000   303.07274      0.016631654    8.3750702      751.93182     -20.965926      730.96589    
   1820000   306.73983      0.016631654    4.4794589      761.02998     -22.968338      738.06165    
   1821000   301.44307      0.016631654    7.2040089      747.88857     -20.27045       727.61812    
   1822000   288.2165       0.016631654    5.9167213      715.07308     -24.942707      690.13037    
   1823000   295.54839      0.016631654    11.48678       733.26369     -21.462221      711.80147    
   1824000   294.82542      0.016631654    7.8320613      731.47        -26.232955      705.23704    
   1825000   289.18334      0.016631654    8.212641       717.47183     -28.403056      689.06878    
   1826000   295.99168      0.016631654    8.9479036      734.36351     -33.401243      700.96226    
   1827000   315.97427      0.016631654    9.1909687      783.94088     -31.405439      752.53544    
   1828000   313.56249      0.016631654    7.0793538      777.95719     -28.550972      749.40622    
   1829000   297.57627      0.016631654    11.742649      738.29492     -25.144383      713.15054    
   1830000   298.21029      0.016631654    10.492493      739.86794     -25.229117      714.63882    
   1831000   295.09151      0.016631654    7.6890161      732.13016     -25.395828      706.73433    
   1832000   320.31089      0.016631654    2.4848494      794.70015     -24.929138      769.77101    
   1833000   308.24471      0.016631654    13.519144      764.76362     -23.315929      741.44769    
   1834000   295.32039      0.016631654    15.929122      732.69803     -22.252576      710.44545    
   1835000   299.6596       0.016631654    0.92450151     743.46372     -23.873917      719.5898     
   1836000   318.85462      0.016631654    8.2695055      791.08709     -25.062962      766.02413    
   1837000   290.81481      0.016631654    13.014244      721.51955     -22.434656      699.08489    
   1838000   292.68209      0.016631654    0.10713879     726.15233     -26.639225      699.5131     
   1839000   307.48197      0.016631654   -13.236257      762.87124     -26.980913      735.89032    
   1840000   310.49415      0.016631654    11.699157      770.34455     -27.175917      743.16863    
   1841000   285.72627      0.016631654    9.0230043      708.89476     -24.905058      683.98971    
   1842000   299.68358      0.016631654    3.8427831      743.52323     -26.220465      717.30277    
   1843000   311.46411      0.016631654    12.423375      772.75104     -30.248561      742.50248    
   1844000   312.12132      0.016631654    13.619858      774.38159     -24.648204      749.73338    
   1845000   299.0269       0.016631654    10.148332      741.89399     -27.508769      714.38522    
   1846000   299.72446      0.016631654    6.5814414      743.62464     -29.84665       713.77799    
   1847000   294.96477      0.016631654    8.9151595      731.81572     -26.760876      705.05484    
   1848000   307.03726      0.016631654    10.732728      761.76789     -27.012616      734.75528    
   1849000   311.6451       0.016631654    12.475083      773.2001      -28.479768      744.72033    
   1850000   301.78851      0.016631654    8.2286952      748.74562     -28.292642      720.45298    
   1851000   292.26899      0.016631654    8.2648568      725.12741     -27.964689      697.16272    
   1852000   299.04193      0.016631654    7.8904698      741.93128     -29.824217      712.10707    
   1853000   312.56648      0.016631654    8.8213938      775.48604     -31.481776      744.00427    
   1854000   287.34208      0.016631654    8.5984298      712.90361     -26.514001      686.38961    
   1855000   290.282        0.016631654    9.3765253      720.19764     -24.802         695.39564    
   1856000   315.86425      0.016631654    11.008352      783.66792     -23.001576      760.66634    
   1857000   301.47944      0.016631654    17.524561      747.97881     -24.108342      723.87047    
   1858000   291.84384      0.016631654    12.078873      724.07261     -27.581697      696.49091    
   1859000   298.60762      0.016631654    7.8012392      740.85373     -26.647724      714.20601    
   1860000   308.22425      0.016631654    7.4016176      764.71287     -30.375145      734.33772    
   1861000   318.99777      0.016631654    10.590853      791.44227     -27.434745      764.00753    
   1862000   295.08973      0.016631654    11.845048      732.12575     -28.17385       703.9519     
   1863000   284.31344      0.016631654    11.357819      705.38948     -29.64718       675.7423     
   1864000   307.79911      0.016631654    5.2790361      763.65807     -26.189885      737.46819    
   1865000   298.36861      0.016631654    9.5986802      740.26075     -28.557838      711.70292    
   1866000   291.61962      0.016631654    11.838609      723.51631     -25.370391      698.14592    
   1867000   293.12292      0.016631654    10.421485      727.24604     -25.658515      701.58753    
   1868000   295.59154      0.016631654    7.5314417      733.37077     -25.26582       708.10495    
   1869000   290.65114      0.016631654    8.7608162      721.11348     -26.121979      694.9915     
   1870000   305.29046      0.016631654    10.541452      757.43406     -29.141535      728.29252    
   1871000   299.52303      0.016631654    16.115286      743.1249      -30.497041      712.62786    
   1872000   304.13654      0.016631654    6.2590263      754.57114     -31.799358      722.77178    
   1873000   307.86489      0.016631654    4.9836305      763.82128     -29.638934      734.18234    
   1874000   294.6964       0.016631654    8.7442486      731.14989     -29.291363      701.85853    
   1875000   299.58216      0.016631654    9.9165398      743.27159     -31.198633      712.07295    
   1876000   300.97256      0.016631654    9.211369       746.72122     -29.727859      716.99336    
   1877000   314.60828      0.016631654    9.8879486      780.55181     -31.53386       749.01795    
   1878000   279.33444      0.016631654    8.0576245      693.03645     -31.344565      661.69188    
   1879000   305.60415      0.016631654    8.8643781      758.21231     -27.275433      730.93688    
   1880000   313.81119      0.016631654    10.15363       778.57421     -28.603157      749.97105    
   1881000   291.35292      0.016631654    8.5505641      722.85462     -26.528294      696.32632    
   1882000   278.04168      0.016631654    10.717436      689.82906     -29.006004      660.82306    
   1883000   310.21208      0.016631654    15.653225      769.64471     -30.2808        739.36391    
   1884000   307.43685      0.016631654    12.773767      762.75931     -32.962717      729.79659    
   1885000   307.28446      0.016631654    12.712088      762.38122     -25.150854      737.23036    
   1886000   317.37999      0.016631654    6.9134082      787.42851     -26.789798      760.63871    
   1887000   301.80849      0.016631654    7.7719199      748.79519     -24.057693      724.73749    
   1888000   278.40454      0.016631654    9.2029638      690.72934     -25.653001      665.07633    
   1889000   298.67268      0.016631654    9.5835022      741.01515     -23.153295      717.86186    
   1890000   313.62142      0.016631654    10.196735      778.10338     -19.480934      758.62244    
   1891000   293.3079       0.016631654    4.818975       727.70498     -24.392392      703.31259    
   1892000   299.16694      0.016631654    11.333721      742.24141     -24.617791      717.62362    
   1893000   296.19496      0.016631654    10.395277      734.86786     -24.589271      710.27859    
   1894000   305.01692      0.016631654    11.418766      756.75537     -25.414909      731.34047    
   1895000   315.12029      0.016631654    8.1712931      781.82213     -25.551148      756.27099    
   1896000   314.00649      0.016631654    6.1998956      779.05875     -26.144077      752.91468    
   1897000   296.55424      0.016631654    9.7044215      735.75925     -25.185127      710.57412    
   1898000   308.90083      0.016631654    14.766993      766.39147     -25.234346      741.15713    
   1899000   301.67088      0.016631654    4.3020019      748.45377     -25.114731      723.33904    
   1900000   286.93567      0.016631654    9.8277837      711.89531     -26.951071      684.94424    
   1901000   301.45915      0.016631654    12.605966      747.92846     -33.343375      714.58509    
   1902000   304.10936      0.016631654    10.683409      754.50371     -31.218527      723.28518    
   1903000   287.71656      0.016631654    8.2638404      713.8327      -33.335219      680.49749    
   1904000   303.46348      0.016631654    8.4597259      752.90126     -27.255726      725.64553    
   1905000   306.16839      0.016631654    1.3542817      759.61222     -29.021219      730.591      
   1906000   297.08383      0.016631654    14.307024      737.07318     -29.028748      708.04443    
   1907000   303.09974      0.016631654    11.70261       751.99881     -25.116706      726.88211    
   1908000   299.19052      0.016631654    8.6047695      742.29992     -24.978418      717.3215     
   1909000   294.97893      0.016631654    7.9441686      731.85084     -22.599052      709.25179    
   1910000   315.95656      0.016631654    12.257695      783.89693     -25.808011      758.08892    
   1911000   303.24141      0.016631654    9.2353421      752.35029     -27.757767      724.59253    
   1912000   295.17073      0.016631654    8.5308835      732.32672     -23.035613      709.29111    
   1913000   292.62028      0.016631654    3.9698281      725.99897     -20.412007      705.58697    
   1914000   323.13887      0.016631654    15.165076      801.71644     -20.014624      781.70181    
   1915000   303.44069      0.016631654    10.046022      752.84471     -20.441128      732.40358    
   1916000   288.64917      0.016631654    8.1528483      716.14655     -22.317778      693.82877    
   1917000   298.98859      0.016631654    6.2553675      741.79894     -20.599073      721.19986    
   1918000   317.9266       0.016631654    5.4212345      788.78466     -22.222155      766.56251    
   1919000   313.29414      0.016631654    10.241655      777.2914      -23.403265      753.88814    
   1920000   289.74886      0.016631654    8.531747       718.8749      -28.219274      690.65563    
   1921000   305.69636      0.016631654    8.6456859      758.44111     -30.303309      728.1378     
   1922000   306.46981      0.016631654    6.8636291      760.36005     -29.740655      730.6194     
   1923000   294.86467      0.016631654    9.0099655      731.56738     -27.730612      703.83677    
   1924000   308.06025      0.016631654    13.454923      764.30598     -28.36609       735.93989    
   1925000   310.13601      0.016631654    14.670355      769.456       -28.272901      741.1831     
   1926000   286.14467      0.016631654    7.0031154      709.93281     -24.964075      684.96873    
   1927000   314.53089      0.016631654    6.5266736      780.3598      -27.201994      753.15781    
   1928000   316.31176      0.016631654    10.008494      784.77818     -30.394597      754.38359    
   1929000   293.90073      0.016631654    13.167675      729.1758      -29.078994      700.09681    
   1930000   300.05194      0.016631654    4.6267375      744.43713     -27.705161      716.73197    
   1931000   314.43378      0.016631654    11.241173      780.11887     -28.484871      751.634      
   1932000   289.5292       0.016631654    12.47965       718.32992     -28.250244      690.07968    
   1933000   293.6582       0.016631654    9.1816031      728.57409     -23.229011      705.34508    
   1934000   316.09778      0.016631654    4.4110576      784.24729     -24.318571      759.92872    
   1935000   306.36527      0.016631654    8.6850732      760.10069     -30.327575      729.77311    
   1936000   302.02982      0.016631654    13.92347       749.3443      -30.15124       719.19306    
   1937000   307.7698       0.016631654    6.0165416      763.58535     -30.669076      732.91628    
   1938000   306.39779      0.016631654    10.123788      760.18136     -28.763128      731.41823    
   1939000   307.56741      0.016631654    11.217874      763.08321     -27.24051       735.8427     
   1940000   304.04054      0.016631654    11.402591      754.33296     -28.950388      725.38257    
   1941000   291.71941      0.016631654    7.6985858      723.7639      -30.853408      692.91049    
   1942000   289.27171      0.016631654    7.9667779      717.69108     -31.371627      686.31945    
   1943000   309.76326      0.016631654    10.344162      768.53118     -32.639315      735.89186    
   1944000   292.77789      0.016631654    9.3352747      726.39003     -28.42513       697.9649     
   1945000   295.74481      0.016631654    9.2056479      733.75102     -26.402946      707.34807    
   1946000   303.05288      0.016631654    9.1446414      751.88255     -27.626805      724.25575    
   1947000   305.83487      0.016631654    8.7776193      758.78476     -26.824931      731.95982    
   1948000   292.85366      0.016631654    10.218255      726.578       -24.674911      701.90309    
   1949000   290.51785      0.016631654    7.87525        720.7828      -24.809239      695.97356    
   1950000   312.54118      0.016631654    9.4164322      775.42327     -28.435864      746.98741    
   1951000   296.86492      0.016631654    10.351437      736.53005     -24.05191       712.47814    
   1952000   284.92522      0.016631654    8.6160506      706.90733     -21.098242      685.80909    
   1953000   302.92341      0.016631654    10.334771      751.56134     -19.709888      731.85145    
   1954000   303.02912      0.016631654    9.2125926      751.82359     -21.531715      730.29187    
   1955000   301.6953       0.016631654    9.0708057      748.51436     -21.165384      727.34897    
   1956000   303.37742      0.016631654    8.347323       752.68775     -20.478899      732.20885    
   1957000   293.15896      0.016631654    8.3142685      727.33545     -16.391681      710.94377    
   1958000   299.32783      0.016631654    8.7984284      742.64059     -20.316606      722.32398    
   1959000   302.24927      0.016631654    5.8392461      749.88876     -24.302699      725.58606    
   1960000   299.83174      0.016631654    7.3665552      743.89081     -24.469618      719.42119    
   1961000   301.6298       0.016631654    10.985857      748.35184     -25.711954      722.63989    
   1962000   292.22666      0.016631654    8.6854819      725.02241     -27.81681       697.2056     
   1963000   300.66114      0.016631654    9.0847799      745.94857     -26.582697      719.36587    
   1964000   291.45046      0.016631654    4.4576215      723.09661     -29.341805      693.75481    
   1965000   302.86363      0.016631654    8.8774434      751.41301     -30.354918      721.05809    
   1966000   300.05916      0.016631654    11.491773      744.45504     -27.395322      717.05971    
   1967000   306.03711      0.016631654    8.8216357      759.28652     -30.298617      728.9879     
   1968000   305.72143      0.016631654    8.9395567      758.50328     -32.357457      726.14583    
   1969000   307.36431      0.016631654    8.4035687      762.57932     -29.404493      733.17483    
   1970000   306.4382       0.016631654    10.244704      760.28163     -24.615715      735.66592    
   1971000   295.93681      0.016631654    8.7448234      734.22738     -23.53351       710.69387    
   1972000   290.98315      0.016631654    2.6116821      721.9372      -26.73243       695.20477    
   1973000   298.11288      0.016631654    8.3891877      739.62628     -23.755929      715.87035    
   1974000   286.06548      0.016631654    10.871625      709.73633     -23.462877      686.27345    
   1975000   303.60575      0.016631654    10.016824      753.25423     -26.147923      727.10631    
   1976000   297.30384      0.016631654    1.8304522      737.61902     -27.458014      710.16101    
   1977000   298.29525      0.016631654    9.5448128      740.07873     -24.161625      715.9171     
   1978000   310.70993      0.016631654    10.845135      770.8799      -23.907923      746.97197    
   1979000   302.95799      0.016631654    9.3630945      751.64712     -26.090312      725.55681    
   1980000   297.78998      0.016631654    9.226027       738.82516     -24.187602      714.63756    
   1981000   313.09447      0.016631654    8.6366231      776.79601     -27.068104      749.72791    
   1982000   298.19104      0.016631654    8.1445765      739.8202      -32.015956      707.80424    
   1983000   304.35995      0.016631654    12.807094      755.12542     -30.873937      724.25149    
   1984000   304.15139      0.016631654    8.9547707      754.60798     -29.15717       725.45081    
   1985000   299.70496      0.016631654    7.6896021      743.57626     -26.885717      716.69054    
   1986000   299.16902      0.016631654    9.2107986      742.24658     -30.414651      711.83192    
   1987000   298.27144      0.016631654    11.278956      740.01966     -31.237575      708.78208    
   1988000   300.12173      0.016631654    7.8783938      744.61029     -32.033844      712.57644    
   1989000   295.14865      0.016631654    5.1226175      732.27194     -30.887715      701.38423    
   1990000   296.40185      0.016631654    12.308151      735.38117     -24.641702      710.73947    
   1991000   293.74128      0.016631654    8.5662669      728.78021     -25.45003       703.33018    
   1992000   296.62868      0.016631654    1.2766708      735.94392     -29.571906      706.37201    
   1993000   306.46012      0.016631654    2.8160327      760.33601     -28.604091      731.73192    
   1994000   296.46452      0.016631654    9.8590201      735.53666     -22.552158      712.9845     
   1995000   300.64414      0.016631654    12.20437       745.90641     -23.184953      722.72145    
   1996000   300.50701      0.016631654    8.976173       745.56617     -28.470005      717.09617    
   1997000   302.34786      0.016631654    7.4119544      750.13337     -33.45634       716.67703    
   1998000   299.27149      0.016631654    6.3252929      742.50082     -31.764626      710.7362     
   1999000   293.01782      0.016631654    21.823591      726.98528     -28.110531      698.87475    
   2000000   303.14761      0.016631654    7.3076905      752.11756     -31.825812      720.29175    
   2001000   296.13278      0.016631654    5.670053       734.7136      -28.05555       706.65805    
   2002000   273.08262      0.016631654    8.6187095      677.52551     -32.940432      644.58507    
   2003000   287.74496      0.016631654    5.2770227      713.90318     -34.074592      679.82859    
   2004000   293.78194      0.016631654    21.860494      728.8811      -35.378571      693.50253    
   2005000   308.72573      0.016631654    3.5376338      765.95704     -31.791731      734.16531    
   2006000   302.14959      0.016631654   -2.1591024      749.64147     -30.847365      718.79411    
   2007000   296.89606      0.016631654    17.328728      736.60732     -27.8772        708.73012    
   2008000   309.64436      0.016631654    3.7325514      768.2362      -28.702213      739.53399    
   2009000   303.55784      0.016631654    6.5331964      753.13536     -34.46751       718.66785    
   2010000   304.51658      0.016631654    11.878655      755.51402     -31.464376      724.04965    
   2011000   306.54035      0.016631654    11.215134      760.53505     -30.47202       730.06303    
   2012000   293.68117      0.016631654    6.2712045      728.63107     -31.410221      697.22085    
   2013000   300.68542      0.016631654    8.5496127      746.00881     -29.446027      716.56278    
   2014000   308.61845      0.016631654    10.541981      765.69088     -29.380708      736.31017    
   2015000   300.52879      0.016631654    7.2334908      745.62021     -28.98481       716.6354     
   2016000   298.86337      0.016631654    2.8685096      741.48825     -30.252968      711.23529    
   2017000   290.67774      0.016631654    15.313145      721.17949     -30.75504       690.42445    
   2018000   308.35061      0.016631654    10.516614      765.02636     -32.41753       732.60883    
   2019000   282.94557      0.016631654    6.0220912      701.99575     -34.259696      667.73605    
   2020000   289.10372      0.016631654    7.1750871      717.27431     -29.923776      687.35053    
   2021000   296.35044      0.016631654    8.3427393      735.25361     -32.111573      703.14204    
   2022000   307.27589      0.016631654    10.106536      762.35995     -26.09987       736.26008    
   2023000   293.14242      0.016631654    8.6029575      727.29442     -29.987878      697.30655    
   2024000   292.70944      0.016631654    10.018084      726.22018     -30.760124      695.46006    
   2025000   308.65345      0.016631654    9.9833713      765.77771     -29.853827      735.92388    
   2026000   302.29896      0.016631654    8.1361203      750.01205     -25.883259      724.12879    
   2027000   298.71932      0.016631654    8.2544969      741.13087     -21.129716      720.00115    
   2028000   307.48795      0.016631654    11.404543      762.88608     -21.702802      741.18328    
   2029000   301.01425      0.016631654    10.045971      746.82465     -29.621983      717.20266    
   2030000   298.17743      0.016631654    8.3400811      739.78641     -29.558169      710.22824    
   2031000   293.04964      0.016631654    7.3615139      727.06425     -27.134102      699.93014    
   2032000   297.83243      0.016631654    7.8840263      738.93048     -28.03364       710.89684    
   2033000   310.70636      0.016631654    14.062816      770.87105     -23.907848      746.9632     
   2034000   295.5959       0.016631654    7.8286394      733.38157     -28.108809      705.27276    
   2035000   296.28692      0.016631654    5.2792944      735.09603     -26.23773       708.8583     
   2036000   313.97283      0.016631654    2.7649849      778.97525     -30.486173      748.48908    
   2037000   309.99157      0.016631654    13.206761      769.09763     -33.956064      735.14156    
   2038000   286.08127      0.016631654    9.079582       709.77552     -28.000997      681.77452    
   2039000   297.11749      0.016631654    7.6684634      737.15668     -26.888331      710.26835    
   2040000   304.7491       0.016631654    5.6828837      756.09091     -24.663532      731.42738    
   2041000   312.26572      0.016631654    12.528953      774.73986     -25.152495      749.58737    
   2042000   301.57113      0.016631654    9.5812918      748.20629     -28.45969       719.7466     
   2043000   288.12051      0.016631654    8.9594091      714.83493     -31.931028      682.9039     
   2044000   299.28915      0.016631654    8.5612245      742.54463     -31.909399      710.63523    
   2045000   309.03341      0.016631654    10.942102      766.72042     -34.675185      732.04523    
   2046000   300.63559      0.016631654    9.4834568      745.88518     -28.925768      716.95941    
   2047000   302.62002      0.016631654    9.4074197      750.80861     -33.576364      717.23224    
   2048000   305.102        0.016631654    10.209327      756.96648     -28.564898      728.40158    
   2049000   294.36371      0.016631654    8.9389728      730.32447     -30.726663      699.59781    
   2050000   299.20856      0.016631654    8.9951989      742.34468     -31.673972      710.6707     
   2051000   296.60046      0.016631654    5.1291235      735.87392     -33.525584      702.34834    
   2052000   306.45676      0.016631654    9.0579977      760.32768     -33.578029      726.74965    
   2053000   296.76224      0.016631654    10.035976      736.27529     -29.768346      706.50695    
   2054000   308.74255      0.016631654    8.4256896      765.99877     -32.068022      733.93075    
   2055000   296.39708      0.016631654    6.4195819      735.36933     -31.320516      704.04882    
   2056000   301.0903       0.016631654    10.393686      747.01333     -30.559643      716.45369    
   2057000   303.82459      0.016631654    13.55122       753.79718     -30.064864      723.73231    
   2058000   305.22078      0.016631654    8.5071772      757.26117     -27.81319       729.44798    
   2059000   316.81582      0.016631654    5.0880789      786.02878     -27.071908      758.95687    
   2060000   298.67689      0.016631654    8.0148937      741.0256      -32.38515       708.64045    
   2061000   292.73461      0.016631654    9.0611335      726.28264     -28.493395      697.78925    
   2062000   281.5719       0.016631654    10.224975      698.58766     -28.992908      669.59475    
   2063000   299.09159      0.016631654    9.2917835      742.05448     -26.585391      715.46909    
   2064000   303.5594       0.016631654    7.0544648      753.13923     -26.822075      726.31715    
   2065000   307.04433      0.016631654    5.2161173      761.78543     -27.262307      734.52313    
   2066000   295.75826      0.016631654    9.9102805      733.7844      -23.369877      710.41452    
   2067000   308.72266      0.016631654    10.416479      765.94942     -25.415341      740.53408    
   2068000   303.23971      0.016631654    12.779882      752.34609     -30.356777      721.98931    
   2069000   284.38132      0.016631654    17.350909      705.55789     -30.26305       675.29484    
   2070000   301.89661      0.016631654    7.7055297      749.01381     -28.70149       720.31232    
   2071000   299.0825       0.016631654    3.832707       742.03193     -29.350736      712.6812     
   2072000   305.75235      0.016631654    8.1357821      758.58001     -28.47975       730.10026    
   2073000   303.33314      0.016631654    9.4608294      752.57789     -27.935212      724.64268    
   2074000   300.87067      0.016631654    6.7261141      746.46843     -29.252004      717.21643    
   2075000   306.2436       0.016631654    9.0929081      759.7988      -30.690818      729.10799    
   2076000   287.15472      0.016631654    8.5539815      712.43877     -31.362244      681.07653    
   2077000   306.44337      0.016631654    9.1253844      760.29444     -32.630043      727.6644     
   2078000   302.89652      0.016631654    8.8349778      751.49462     -33.541211      717.95341    
   2079000   299.55983      0.016631654    9.5552611      743.21621     -37.264488      705.95172    
   2080000   289.87365      0.016631654    9.6225701      719.18453     -29.325574      689.85895    
   2081000   309.01347      0.016631654    4.8873358      766.67093     -33.854382      732.81655    
   2082000   318.38618      0.016631654    4.6720668      789.92489     -36.47278       753.45211    
   2083000   298.1992       0.016631654    16.835851      739.84042     -34.44119       705.39923    
   2084000   298.26831      0.016631654    13.223481      740.0119      -34.041616      705.97029    
   2085000   289.01135      0.016631654    9.9607197      717.04514     -36.839466      680.20567    
   2086000   301.43757      0.016631654    2.6540528      747.87493     -35.554139      712.32079    
   2087000   310.94215      0.016631654    9.6201552      771.45605     -30.84073       740.61532    
   2088000   287.31867      0.016631654    9.2280936      712.84554     -34.51118       678.33436    
   2089000   302.80155      0.016631654    9.8929411      751.259       -29.962838      721.29616    
   2090000   309.01201      0.016631654    9.3188455      766.66732     -34.658444      732.00887    
   2091000   312.38894      0.016631654    10.163009      775.04557     -31.617331      743.42824    
   2092000   292.40456      0.016631654    7.6182282      725.46378     -31.926393      693.53739    
   2093000   289.78584      0.016631654    8.8756151      718.96667     -31.555088      687.41158    
   2094000   307.45478      0.016631654    8.4139101      762.80379     -29.333101      733.47069    
   2095000   306.35453      0.016631654    12.234752      760.07402     -35.914108      724.15991    
   2096000   298.9775       0.016631654    14.35359       741.77142     -37.961011      703.81041    
   2097000   281.07282      0.016631654    11.193091      697.34941     -37.89455       659.45486    
   2098000   298.52615      0.016631654    7.4946085      740.6516      -36.912073      703.73953    
   2099000   317.17082      0.016631654    12.349724      786.90955     -30.886405      756.02314    
   2100000   308.06488      0.016631654    12.903863      764.31746     -27.826882      736.49058    
   2101000   280.82134      0.016631654    12.767372      696.72548     -28.23397       668.49151    
   2102000   289.57823      0.016631654    7.162701       718.45158     -29.445407      689.00617    
   2103000   283.5657       0.016631654    4.9371626      703.53432     -27.115817      676.4185     
   2104000   294.23042      0.016631654    7.1623762      729.99377     -26.788634      703.20514    
   2105000   304.3274       0.016631654    8.5431077      755.04466     -25.504045      729.54061    
   2106000   312.22923      0.016631654    9.5348763      774.64933     -25.076846      749.57248    
   2107000   294.21298      0.016631654    8.9133368      729.95051     -25.058779      704.89173    
   2108000   297.07446      0.016631654    10.284719      737.04993     -23.678438      713.37149    
   2109000   302.17965      0.016631654    7.3546728      749.71604     -28.152568      721.56347    
   2110000   293.30731      0.016631654    8.4096092      727.70351     -26.927421      700.77609    
   2111000   298.36046      0.016631654    11.015044      740.24053     -24.421269      715.81926    
   2112000   304.81023      0.016631654    9.8195931      756.24259     -25.652581      730.59001    
   2113000   299.7779       0.016631654    8.8381358      743.75723     -26.606005      717.15122    
   2114000   286.4098       0.016631654    8.7779766      710.5906      -26.797174      683.79342    
   2115000   307.06295      0.016631654    10.875077      761.83164     -28.374207      733.45743    
   2116000   298.79058      0.016631654    9.342144       741.30767     -29.448796      711.85887    
   2117000   302.25062      0.016631654    8.685582       749.89212     -28.081908      721.81022    
   2118000   298.29662      0.016631654    8.1185262      740.08214     -22.34452       717.73762    
   2119000   292.50651      0.016631654    11.409465      725.71673     -28.829073      696.88765    
   2120000   309.58532      0.016631654    9.4636457      768.0897      -30.819173      737.27053    
   2121000   304.34167      0.016631654    7.0143288      755.08006     -28.3184        726.76166    
   2122000   320.22989      0.016631654    10.448543      794.49917     -29.382839      765.11633    
   2123000   300.73576      0.016631654    4.4093952      746.13371     -31.748778      714.38493    
   2124000   293.43548      0.016631654    9.6016977      728.02151     -28.024219      699.99729    
   2125000   299.91071      0.016631654    9.3048103      744.08674     -26.659882      717.42686    
   2126000   310.17109      0.016631654    11.190028      769.54304     -21.998554      747.54448    
   2127000   295.44297      0.016631654   -3.5670252      733.00214     -26.114754      706.88739    
   2128000   293.71906      0.016631654    7.7119482      728.72508     -24.298605      704.42647    
   2129000   303.95699      0.016631654    22.833752      754.12566     -20.829313      733.29635    
   2130000   303.83944      0.016631654    5.2778326      753.83402     -19.562972      734.27105    
   2131000   295.2969       0.016631654    7.8574691      732.63974     -21.267833      711.37191    
   2132000   297.66741      0.016631654    12.36644       738.52105     -25.791893      712.72916    
   2133000   317.20134      0.016631654    13.48547       786.98526     -25.524315      761.46094    
   2134000   301.43592      0.016631654    8.264075       747.87084     -24.935567      722.93527    
   2135000   297.22505      0.016631654   -1.279125       737.42355     -27.529911      709.89364    
   2136000   298.52407      0.016631654    2.2451197      740.64644     -37.186325      703.46012    
   2137000   301.91989      0.016631654    8.7065787      749.07157     -26.606584      722.46499    
   2138000   292.0125       0.016631654    11.725595      724.49107     -29.465764      695.0253     
   2139000   309.39874      0.016631654    21.391994      767.62681     -29.288839      738.33797    
   2140000   310.50201      0.016631654    12.26674       770.36404     -31.409911      738.95413    
   2141000   299.24764      0.016631654   -0.20712511     742.44165     -29.471462      712.97019    
   2142000   294.37477      0.016631654    15.197261      730.35191     -29.586568      700.76534    
   2143000   311.34597      0.016631654    18.202695      772.45794     -29.10859       743.34935    
   2144000   305.90261      0.016631654    1.3351752      758.95282     -27.443658      731.50916    
   2145000   291.67472      0.016631654    8.4062329      723.65301     -25.621317      698.03169    
   2146000   293.78153      0.016631654    14.331485      728.88008     -26.108828      702.77126    
   2147000   316.21648      0.016631654    12.891636      784.54181     -32.220078      752.32173    
   2148000   311.92627      0.016631654    7.1555157      773.89768     -33.505748      740.39193    
   2149000   296.63848      0.016631654    9.7665231      735.96825     -35.012518      700.95573    
   2150000   295.88911      0.016631654    10.372584      734.10903     -37.360625      696.7484     
   2151000   305.20262      0.016631654    5.8099095      757.21611     -31.550855      725.66525    
   2152000   308.68338      0.016631654    6.2942178      765.85197     -29.395126      736.45684    
   2153000   292.94805      0.016631654    7.376179       726.81219     -28.380989      698.4312     
   2154000   296.20204      0.016631654    11.404533      734.88543     -30.826507      704.05892    
   2155000   300.05062      0.016631654    8.8091653      744.43386     -25.182825      719.25104    
   2156000   301.98782      0.016631654    9.2744706      749.24011     -27.617819      721.6223     
   2157000   287.04924      0.016631654    8.0069113      712.17709     -21.338271      690.83882    
   2158000   295.30335      0.016631654    9.3409216      732.65574     -20.857874      711.79787    
   2159000   296.59536      0.016631654    12.048115      735.86126     -20.993976      714.86728    
   2160000   303.40403      0.016631654    9.3048859      752.75375     -23.195952      729.5578     
   2161000   283.12657      0.016631654    9.8131539      702.44483     -27.386278      675.05856    
   2162000   297.68301      0.016631654    8.0419892      738.55976     -26.695975      711.86379    
   2163000   311.02468      0.016631654    11.514738      771.6608      -27.895689      743.76511    
   2164000   306.46851      0.016631654    12.572065      760.35681     -26.847126      733.50969    
   2165000   300.22997      0.016631654    10.232552      744.87884     -28.507529      716.37131    
   2166000   313.65882      0.016631654   -2.2543921      778.19617     -26.310015      751.88615    
   2167000   310.54302      0.016631654    10.729948      770.46579     -27.900681      742.56511    
   2168000   296.7038       0.016631654    23.157253      736.13029     -26.135052      709.99524    
   2169000   300.84008      0.016631654    6.9565132      746.39252     -35.441432      710.95109    
   2170000   310.29423      0.016631654    7.0610975      769.84853     -35.407604      734.44092    
   2171000   304.75101      0.016631654    10.842909      756.09565     -33.096046      722.99961    
   2172000   279.72546      0.016631654    9.5880135      694.00657     -31.22363       662.78294    
   2173000   304.43369      0.016631654    3.3802309      755.30838     -33.052868      722.25551    
   2174000   309.51566      0.016631654    4.147048       767.91688     -29.367328      738.54955    
   2175000   294.5033       0.016631654    20.569165      730.67081     -25.928568      704.74224    
   2176000   291.03089      0.016631654    6.405873       722.05567     -30.495414      691.56025    
   2177000   295.19427      0.016631654    6.5010203      732.38511     -29.124845      703.26027    
   2178000   300.35892      0.016631654    7.7987858      745.19876     -28.193416      717.00535    
   2179000   305.6263       0.016631654    8.8697835      758.26726     -34.237268      724.03       
   2180000   312.55776      0.016631654    8.8833591      775.46442     -31.079085      744.38534    
   2181000   287.87283      0.016631654    9.3256837      714.22042     -26.267783      687.95264    
   2182000   283.32776      0.016631654    8.4587026      702.94398     -25.727598      677.21638    
   2183000   301.60723      0.016631654    8.3446399      748.29584     -28.098905      720.19694    
   2184000   305.31184      0.016631654    9.7995674      757.48709     -29.486394      728.0007     
   2185000   297.95453      0.016631654    7.2940109      739.2334      -27.172889      712.06051    
   2186000   299.06406      0.016631654    6.1371066      741.98617     -29.828711      712.15746    
   2187000   324.13961      0.016631654    11.213281      804.1993      -31.021013      773.17829    
   2188000   306.63044      0.016631654    11.662012      760.75858     -27.282812      733.47577    
   2189000   290.91369      0.016631654    8.6856877      721.76489     -29.55617       692.20872    
   2190000   320.8725       0.016631654    6.1181861      796.09351     -29.954217      766.1393     
   2191000   311.02387      0.016631654    9.4814452      771.6588      -28.429463      743.22934    
   2192000   296.6822       0.016631654    9.3254451      736.07672     -29.009296      707.06742    
   2193000   280.08088      0.016631654    8.1199302      694.88837     -28.359925      666.52845    
   2194000   295.81515      0.016631654    9.3772093      733.92553     -26.94691       706.97862    
   2195000   311.90805      0.016631654    7.9722354      773.85246     -25.920088      747.93237    
   2196000   296.26075      0.016631654    2.6199749      735.03109     -27.455722      707.57537    
   2197000   285.71554      0.016631654    7.4274709      708.86812     -27.925254      680.94287    
   2198000   310.90511      0.016631654    15.745998      771.36414     -30.667446      740.6967     
   2199000   313.58304      0.016631654    11.091197      778.00817     -32.09126       745.91691    
   2200000   298.92568      0.016631654    2.6315729      741.64286     -30.196816      711.44605    
   2201000   285.78442      0.016631654    7.5584957      709.03904     -30.79909       678.23995    
   2202000   313.27408      0.016631654    12.842035      777.24164     -31.089824      746.15181    
   2203000   311.94647      0.016631654    10.366432      773.94779     -34.196808      739.75098    
   2204000   302.48855      0.016631654    2.206595       750.48242     -33.754721      716.7277     
   2205000   289.27007      0.016631654    7.2535207      717.68703     -34.755602      682.93142    
   2206000   303.67269      0.016631654    10.951698      753.42032     -34.962321      718.45799    
   2207000   313.45438      0.016631654    8.0400419      777.68895     -34.044436      743.64451    
   2208000   290.51261      0.016631654    7.4214796      720.76979     -33.37062       687.39917    
   2209000   300.23795      0.016631654    15.299922      744.89864     -30.233096      714.66554    
   2210000   302.74033      0.016631654    8.9785724      751.10709     -34.841013      716.26608    
   2211000   303.95115      0.016631654   -2.3184515      754.11117     -37.523165      716.588      
   2212000   289.54583      0.016631654    18.467897      718.37119     -37.9759        680.39529    
   2213000   286.81062      0.016631654    6.0596618      711.58506     -35.973703      675.61136    
   2214000   299.59981      0.016631654    13.65935       743.3154      -37.605045      705.71035    
   2215000   301.92462      0.016631654    7.5997254      749.0833      -36.65416       712.42914    
   2216000   314.578        0.016631654   -0.03249488     780.4767      -34.722188      745.75451    
   2217000   290.79406      0.016631654    9.0291539      721.46807     -36.397337      685.07073    
   2218000   295.7204       0.016631654    13.526988      733.69047     -33.176523      700.51395    
   2219000   310.67932      0.016631654    7.5751885      770.80395     -38.893423      731.91053    
   2220000   300.36126      0.016631654   -0.31725217     745.20456     -37.274482      707.93007    
   2221000   279.11422      0.016631654    11.32217       692.49008     -43.948623      648.54146    
   2222000   301.53395      0.016631654    10.083591      748.11405     -40.410752      707.7033     
   2223000   307.8068       0.016631654    0.47211971     763.67715     -41.832481      721.84467    
   2224000   293.88938      0.016631654    8.1776422      729.14765     -35.673956      693.4737     
   2225000   278.32221      0.016631654    0.29357154     690.52507     -33.968463      656.55661    
   2226000   299.39972      0.016631654    13.757519      742.81896     -35.36497       707.45399    
   2227000   313.76713      0.016631654    12.604603      778.46489     -33.689811      744.77508    
   2228000   302.03404      0.016631654    8.3124619      749.35477     -33.308146      716.04662    
   2229000   287.66818      0.016631654    6.8040689      713.71268     -29.534359      684.17832    
   2230000   297.70291      0.016631654    10.034774      738.60911     -35.671841      702.93727    
   2231000   312.05579      0.016631654    10.171793      774.21901     -37.210118      737.00889    
   2232000   293.62613      0.016631654    8.4782882      728.49453     -37.974163      690.52036    
   2233000   281.33713      0.016631654    8.2516993      698.00517     -38.529856      659.47532    
   2234000   300.88509      0.016631654    7.1694949      746.5042      -31.408668      715.09553    
   2235000   324.14051      0.016631654    10.052032      804.20154     -29.793189      774.40835    
   2236000   296.9757       0.016631654    8.0902003      736.80489     -33.437558      703.36733    
   2237000   283.94705      0.016631654    8.0553431      704.48046     -31.929138      672.55132    
   2238000   303.00079      0.016631654    10.834049      751.75331     -29.553444      722.19987    
   2239000   307.43051      0.016631654    10.086742      762.74358     -26.882865      735.86071    
   2240000   296.18924      0.016631654    5.417543       734.85367     -25.379275      709.4744     
   2241000   294.54655      0.016631654    8.3970844      730.77812     -26.98435       703.79377    
   2242000   306.8023       0.016631654    11.487833      761.18496     -25.89644       735.28852    
   2243000   321.57482      0.016631654    7.9183832      797.83599     -27.764451      770.07154    
   2244000   297.87152      0.016631654    8.4046344      739.02745     -28.716922      710.31053    
   2245000   290.12422      0.016631654    8.8654436      719.80619     -27.893198      691.913      
   2246000   313.4543       0.016631654    8.9162833      777.68875     -31.419152      746.26959    
   2247000   322.98718      0.016631654    9.2784943      801.3401      -31.764194      769.57591    
   2248000   307.95635      0.016631654    9.9510321      764.04819     -30.999249      733.04895    
   2249000   287.58503      0.016631654    10.710831      713.50639     -32.068941      681.43745    
   2250000   295.45473      0.016631654    9.6754346      733.03133     -30.78066       702.25067    
   2251000   306.13094      0.016631654    1.5636083      759.51929     -33.809971      725.70932    
   2252000   310.70742      0.016631654    12.025682      770.87367     -33.912912      736.96076    
   2253000   296.78339      0.016631654    11.743295      736.32778     -33.514225      702.81356    
   2254000   283.72451      0.016631654    2.0094195      703.92834     -35.735681      668.19266    
   2255000   307.27375      0.016631654    11.44226       762.35464     -36.214906      726.13974    
   2256000   322.45006      0.016631654    11.261231      800.00749     -36.209801      763.79769    
   2257000   305.80278      0.016631654    13.639541      758.70513     -33.856151      724.84898    
   2258000   298.06011      0.016631654   -0.45339993     739.49534     -31.388065      708.10728    
   2259000   297.64068      0.016631654    7.5688299      738.45474     -32.46817       705.98657    
   2260000   302.17544      0.016631654    11.61857       749.70561     -35.526567      714.17904    
   2261000   290.94036      0.016631654    7.3054863      721.83105     -33.758726      688.07232    
   2262000   306.02917      0.016631654    8.4511978      759.26681     -35.648648      723.61816    
   2263000   308.99714      0.016631654    7.5809668      766.63043     -33.831469      732.79896    
   2264000   288.08255      0.016631654    15.175664      714.74075     -34.140474      680.60027    
   2265000   292.62929      0.016631654    8.0393208      726.02133     -33.052248      692.96908    
   2266000   300.77995      0.016631654    9.2220611      746.24334     -29.690487      716.55285    
   2267000   306.86311      0.016631654    11.660692      761.33585     -27.732672      733.60317    
   2268000   293.29541      0.016631654    6.821926       727.67399     -27.345679      700.32832    
   2269000   309.59386      0.016631654    5.8166102      768.11091     -27.391289      740.71962    
   2270000   300.43222      0.016631654    9.715828       745.38063     -29.945493      715.43514    
   2271000   312.78365      0.016631654    9.3672821      776.02486     -24.339247      751.68561    
   2272000   297.84393      0.016631654    7.0502382      738.95901     -28.3753        710.58371    
   2273000   303.78662      0.016631654    9.0392958      753.70299     -27.29229       726.4107     
   2274000   288.33942      0.016631654    8.5627681      715.37806     -31.512799      683.86526    
   2275000   304.01807      0.016631654    10.323589      754.27722     -32.768702      721.50851    
   2276000   320.69124      0.016631654    9.4333578      795.6438      -34.312726      761.33107    
   2277000   300.27219      0.016631654    8.6557889      744.98357     -34.638404      710.34517    
   2278000   294.73484      0.016631654    8.1381564      731.24526     -36.949168      694.29609    
   2279000   295.944        0.016631654    8.2407268      734.24521     -32.648781      701.59643    
   2280000   299.20387      0.016631654    8.4519286      742.33305     -30.428475      711.90457    
   2281000   308.94746      0.016631654    8.5950676      766.50716     -36.228441      730.27872    
   2282000   307.19438      0.016631654    9.985435       762.15773     -30.136139      732.02159    
   2283000   290.31619      0.016631654    8.6606475      720.28246     -33.677592      686.60487    
   2284000   303.84761      0.016631654    5.724016       753.8543      -34.468342      719.38596    
   2285000   315.33324      0.016631654    11.511472      782.35047     -31.363954      750.98651    
   2286000   288.76024      0.016631654    12.776852      716.42211     -30.797102      685.62501    
   2287000   300.32182      0.016631654    7.9428366      745.10671     -29.018974      716.08774    
   2288000   321.02748      0.016631654    8.6881671      796.47804     -28.983397      767.49464    
   2289000   301.80614      0.016631654    11.097019      748.78934     -30.316101      718.47324    
   2290000   293.85465      0.016631654    8.6524708      729.06148     -31.150771      697.91071    
   2291000   306.09092      0.016631654    6.5315828      759.42        -25.77995       733.64005    
   2292000   315.9913       0.016631654    8.7778         783.98312     -27.582868      756.40026    
   2293000   308.60301      0.016631654    14.874506      765.65258     -21.777917      743.87467    
   2294000   290.7966       0.016631654    8.9994095      721.47437     -25.314668      696.15971    
   2295000   295.09343      0.016631654    4.3367756      732.13494     -29.578654      702.55628    
   2296000   307.57506      0.016631654    4.5525432      763.10221     -31.331176      731.77103    
   2297000   309.31761      0.016631654    8.0436527      767.42551     -32.129627      735.29588    
   2298000   296.40286      0.016631654    13.339214      735.38366     -32.041681      703.34198    
   2299000   299.78521      0.016631654    8.8234162      743.77538     -31.834626      711.94076    
   2300000   296.51385      0.016631654    7.3841153      735.65905     -34.709641      700.9494     
   2301000   298.62945      0.016631654    7.1576738      740.90789     -32.301769      708.60612    
   2302000   288.20429      0.016631654    15.164623      715.0428      -30.101745      684.94105    
   2303000   295.9295       0.016631654    1.8988991      734.20925     -34.05384       700.15541    
   2304000   310.74183      0.016631654    6.6136959      770.95904     -30.548547      740.41049    
   2305000   304.78569      0.016631654    12.620506      756.18169     -27.412018      728.76967    
   2306000   285.53907      0.016631654    7.7034316      708.43031     -24.809092      683.62122    
   2307000   301.80026      0.016631654    9.7382165      748.77475     -23.007444      725.76731    
   2308000   316.20945      0.016631654    9.5216866      784.52435     -19.482205      765.04215    
   2309000   300.03376      0.016631654    6.3294291      744.39203     -21.532711      722.85932    
   2310000   287.92596      0.016631654    8.7668793      714.35225     -20.345544      694.0067     
   2311000   301.77106      0.016631654    9.3768725      748.70231     -20.439968      728.26234    
   2312000   310.33173      0.016631654    7.2752812      769.94159     -25.99724       743.94435    
   2313000   302.67943      0.016631654    6.6088276      750.956       -25.545873      725.41013    
   2314000   294.722        0.016631654    7.923461       731.2134      -30.964057      700.24935    
   2315000   300.33945      0.016631654    10.550426      745.15046     -28.569848      716.58061    
   2316000   305.80599      0.016631654    8.4666261      758.7131      -27.585959      731.12714    
   2317000   298.98646      0.016631654    9.3811176      741.79364     -23.770761      718.02288    
   2318000   292.98809      0.016631654    10.753016      726.91154     -24.741968      702.16957    
   2319000   300.49761      0.016631654    5.9580907      745.54285     -25.751288      719.79157    
   2320000   310.60399      0.016631654    6.5875451      770.61706     -23.493713      747.12335    
   2321000   295.97694      0.016631654    17.186068      734.32694     -20.291103      714.03584    
   2322000   295.811        0.016631654    11.377233      733.91526     -20.848755      713.0665     
   2323000   295.16568      0.016631654    7.3933752      732.31419     -19.994491      712.3197     
   2324000   312.95062      0.016631654   -0.9142388      776.43911     -24.957745      751.48137    
   2325000   294.508        0.016631654    12.335163      730.68246     -20.717003      709.96546    
   2326000   311.20821      0.016631654    22.807625      772.11615     -25.231302      746.88485    
   2327000   296.91256      0.016631654    11.12259       736.64825     -27.691327      708.95692    
   2328000   302.34175      0.016631654    7.5538788      750.11822     -26.274718      723.8435     
   2329000   297.07689      0.016631654    8.7838611      737.05594     -22.303603      714.75234    
   2330000   293.23065      0.016631654    9.3942832      727.51333     -25.611374      701.90195    
   2331000   305.88111      0.016631654    9.8802726      758.89946     -21.324622      737.57484    
   2332000   290.61803      0.016631654    7.9231884      721.03135     -25.149886      695.88146    
   2333000   298.14883      0.016631654    11.054733      739.71547     -27.954962      711.76051    
   2334000   317.05789      0.016631654    11.531186      786.62937     -25.5798        761.04957    
   2335000   306.64523      0.016631654    8.776587       760.79526     -23.937618      736.85764    
   2336000   300.34013      0.016631654    8.6814417      745.15213     -26.604108      718.54802    
   2337000   291.32527      0.016631654    9.3366254      722.78602     -29.662584      693.12344    
   2338000   290.80983      0.016631654    9.3036161      721.50721     -28.959331      692.54788    
   2339000   314.25116      0.016631654    9.7533824      779.6658      -29.573461      750.09234    
   2340000   298.47247      0.016631654    9.2904516      740.51844     -26.426863      714.09157    
   2341000   306.99084      0.016631654    7.8211971      761.65274     -29.467481      732.18526    
   2342000   303.20579      0.016631654    7.7160047      752.26193     -30.879792      721.38214    
   2343000   287.72449      0.016631654    7.2926125      713.8524      -28.182763      685.66963    
   2344000   299.0637       0.016631654    11.689741      741.98527     -27.452859      714.53241    
   2345000   309.94812      0.016631654    8.6947357      768.98983     -21.936985      747.05285    
   2346000   291.82047      0.016631654    8.1162479      724.01462     -26.494698      697.51992    
   2347000   289.50059      0.016631654    9.3386807      718.25895     -24.92015       693.3388     
   2348000   310.09904      0.016631654    8.8653317      769.36425     -27.793652      741.5706     
   2349000   294.10905      0.016631654    7.8424208      729.69266     -22.231837      707.46082    
   2350000   285.34073      0.016631654    9.7477475      707.9382      -23.792515      684.14569    
   2351000   294.20639      0.016631654    9.7765355      729.93416     -22.974065      706.9601     
   2352000   303.50473      0.016631654    9.2120395      753.00359     -23.284868      729.71873    
   2353000   301.17783      0.016631654    9.1377714      747.2305      -23.878578      723.35192    
   2354000   297.10194      0.016631654    9.9141506      737.11811     -22.56882       714.54929    
   2355000   298.08691      0.016631654    9.5876458      739.56185     -21.468831      718.09302    
   2356000   297.47121      0.016631654    8.9008796      738.03427     -25.029493      713.00478    
   2357000   302.76175      0.016631654    9.7246397      751.16025     -26.124354      725.0359     
   2358000   298.97786      0.016631654    7.535303       741.7723      -28.29645       713.47585    
   2359000   299.52488      0.016631654    8.5280053      743.12947     -25.867246      717.26223    
   2360000   301.44412      0.016631654    8.3175335      747.89116     -24.724439      723.16672    
   2361000   294.62187      0.016631654    8.4289943      730.96497     -25.673458      705.29152    
   2362000   284.39642      0.016631654    8.4328797      705.59536     -26.649896      678.94547    
   2363000   301.30439      0.016631654    8.9781146      747.5445      -24.531586      723.01291    
   2364000   313.01775      0.016631654    8.4649424      776.60566     -24.579466      752.02619    
   2365000   290.20246      0.016631654    8.644911       720.00031     -26.41471       693.5856     
   2366000   297.42393      0.016631654    8.9498327      737.91696     -26.499229      711.41773    
   2367000   310.64513      0.016631654    9.2531743      770.71913     -28.35126       742.36787    
   2368000   294.45446      0.016631654    9.6427395      730.54963     -26.406909      704.14272    
   2369000   291.48962      0.016631654    8.8356353      723.19378     -22.705549      700.48823    
   2370000   297.25734      0.016631654    8.8996176      737.50367     -21.330174      716.17349    
   2371000   315.93216      0.016631654    9.3467883      783.83639     -21.312581      762.52381    
   2372000   305.92025      0.016631654    9.3689178      758.99658     -25.712812      733.28377    
   2373000   286.87214      0.016631654    7.0424953      711.73769     -29.716486      682.0212     
   2374000   283.07231      0.016631654    11.40936       702.3102      -24.603279      677.70693    
   2375000   304.78814      0.016631654    8.0791297      756.18779     -28.39464       727.79315    
   2376000   296.32771      0.016631654    5.3446358      735.19723     -24.662495      710.53473    
   2377000   301.57724      0.016631654    12.971418      748.22144     -30.049648      718.17179    
   2378000   301.10314      0.016631654    6.0931826      747.04518     -32.61039       714.43479    
   2379000   286.42571      0.016631654    9.6891813      710.63007     -29.435782      681.19429    
   2380000   304.5779       0.016631654    13.459393      755.66617     -27.077527      728.58864    
   2381000   313.67508      0.016631654   -3.5284066      778.23653     -32.934907      745.30162    
   2382000   290.19582      0.016631654    10.466068      719.98384     -27.820543      692.16329    
   2383000   296.67066      0.016631654    12.482668      736.04808     -30.549439      705.49864    
   2384000   312.7302       0.016631654    19.421383      775.89223     -34.947741      740.94449    
   2385000   317.80917      0.016631654    8.0593756      788.49331     -35.494433      752.99888    
   2386000   304.37399      0.016631654   -4.4497152      755.16026     -29.13078       726.02948    
   2387000   289.30177      0.016631654    5.7515479      717.76566     -29.550823      688.21483    
   2388000   306.29866      0.016631654    21.847879      759.93542     -28.124047      731.81137    
   2389000   308.8278       0.016631654    11.746836      766.21028     -28.032097      738.17819    
   2390000   297.40398      0.016631654    4.7745807      737.86747     -25.959414      711.90806    
   2391000   295.28581      0.016631654    9.1620094      732.61224     -23.379114      709.23312    
   2392000   316.72924      0.016631654    11.521791      785.81398     -21.078552      764.73542    
   2393000   299.75537      0.016631654    5.2209976      743.70133     -24.025504      719.67583    
   2394000   283.30511      0.016631654    7.8745072      702.88779     -24.922406      677.96539    
   2395000   298.20292      0.016631654    10.255689      739.84968     -27.49444       712.35524    
   2396000   308.93058      0.016631654    9.2906065      766.46528     -25.954614      740.51066    
   2397000   297.43307      0.016631654    9.9517508      737.93966     -24.519         713.42066    
   2398000   308.30885      0.016631654    9.7627743      764.92275     -26.116351      738.8064     
   2399000   307.22         0.016631654    15.167941      762.22128     -25.653943      736.56734    
   2400000   303.19653      0.016631654    8.1351333      752.23895     -21.873118      730.36583    
   2401000   291.4177       0.016631654    7.9947625      723.01535     -23.466077      699.54927    
   2402000   286.9844       0.016631654    8.4475618      712.01621     -23.818437      688.19777    
   2403000   303.22425      0.016631654    9.4437136      752.30773     -23.941315      728.36642    
   2404000   316.08745      0.016631654    9.3597169      784.22167     -24.308722      759.91295    
   2405000   295.96859      0.016631654    9.9438379      734.30623     -22.062169      712.24406    
   2406000   290.41025      0.016631654    8.0586897      720.51582     -22.84249       697.67333    
   2407000   296.50379      0.016631654    8.8844959      735.63408     -30.158332      705.47575    
   2408000   319.49275      0.016631654    10.410226      792.67031     -25.240435      767.42988    
   2409000   294.27443      0.016631654    9.1261444      730.10296     -25.095029      705.00793    
   2410000   291.29021      0.016631654    8.1047669      722.69905     -24.097123      698.60193    
   2411000   296.54387      0.016631654    9.1459297      735.73353     -22.883163      712.85037    
   2412000   313.19431      0.016631654    8.7743518      777.04372     -25.113996      751.92973    
   2413000   288.28421      0.016631654    8.9747934      715.24107     -26.197034      689.04404    
   2414000   297.73524      0.016631654    9.3223627      738.68934     -21.999557      716.68978    
   2415000   307.09896      0.016631654    8.5613349      761.92098     -24.752654      737.16833    
   2416000   290.72144      0.016631654    6.5558794      721.2879      -22.541604      698.7463     
   2417000   291.75992      0.016631654    8.9337539      723.8644      -22.43751       701.42689    
   2418000   313.53964      0.016631654    9.5863172      777.90049     -20.271303      757.62919    
   2419000   291.79038      0.016631654    8.1917941      723.93998     -23.033902      700.90608    
   2420000   290.67243      0.016631654    9.8154637      721.16631     -27.101155      694.06515    
   2421000   299.34329      0.016631654    8.0659577      742.67896     -25.133995      717.54497    
   2422000   311.66015      0.016631654    10.729488      773.23743     -27.54081       745.69662    
   2423000   288.91112      0.016631654    12.74627       716.79646     -31.512936      685.28352    
   2424000   289.02631      0.016631654    8.4848329      717.08225     -27.636154      689.4461     
   2425000   294.84517      0.016631654    7.0103891      731.51898     -30.355185      701.1638     
   2426000   308.31086      0.016631654    8.4013458      764.92775     -30.931642      733.99611    
   2427000   313.05237      0.016631654    11.107916      776.69156     -29.935808      746.75575    
   2428000   297.94171      0.016631654    3.2155718      739.20159     -34.709642      704.49195    
   2429000   311.85144      0.016631654    7.4669708      773.71203     -38.901027      734.811      
   2430000   286.1032       0.016631654    10.271573      709.82992     -34.350381      675.47954    
   2431000   288.58822      0.016631654    8.0429643      715.99533     -34.853342      681.14199    
   2432000   300.34782      0.016631654    7.9988427      745.17121     -33.154465      712.01675    
   2433000   328.48368      0.016631654    10.572295      814.97707     -33.6533        781.32377    
   2434000   305.21928      0.016631654    10.665041      757.25744     -34.830176      722.42726    
   2435000   286.667        0.016631654    9.0242157      711.22872     -31.542544      679.68618    
   2436000   286.77754      0.016631654    5.3601542      711.50298     -35.315036      676.18795    
   2437000   307.96223      0.016631654    6.4650735      764.06278     -24.833834      739.22895    
   2438000   296.08471      0.016631654    9.2528483      734.59434     -32.744576      701.84976    
   2439000   316.91858      0.016631654    8.1456801      786.28373     -29.86481       756.41892    
   2440000   308.25337      0.016631654    8.6037614      764.78511     -30.351676      734.43343    
   2441000   293.27682      0.016631654    7.0759658      727.62787     -30.867049      696.76083    
   2442000   299.36678      0.016631654    12.168812      742.73723     -29.481579      713.25565    
   2443000   295.9674       0.016631654    8.465131       734.30328     -27.536537      706.76674    
   2444000   300.34509      0.016631654    6.963197       745.16445     -25.257576      719.90687    
   2445000   296.92443      0.016631654    8.9812464      736.67771     -28.429256      708.24845    
   2446000   299.98283      0.016631654    10.550833      744.26568     -27.476993      716.78869    
   2447000   309.19838      0.016631654    8.6014212      767.1297      -31.904835      735.22487    
   2448000   297.55197      0.016631654    8.3541036      738.23464     -30.671332      707.56331    
   2449000   288.81336      0.016631654    3.82865        716.55391     -28.880592      687.67332    
   2450000   298.81203      0.016631654    9.4412464      741.3609      -32.543923      708.81697    
   2451000   319.77536      0.016631654    9.7495218      793.37149     -34.213239      759.15825    
   2452000   317.72186      0.016631654    11.180635      788.2767      -37.298007      750.97869    
   2453000   290.01471      0.016631654    5.5316386      719.53449     -37.862475      681.67202    
   2454000   285.87686      0.016631654    6.1082089      709.26836     -35.119872      674.14849    
   2455000   306.09391      0.016631654    8.9114511      759.42744     -34.168761      725.25868    
   2456000   325.97009      0.016631654    13.019637      808.74078     -35.467169      773.27361    
   2457000   301.36787      0.016631654    6.4040492      747.70199     -30.292023      717.40997    
   2458000   292.51803      0.016631654    5.9774146      725.74529     -35.556835      690.18846    
   2459000   286.62198      0.016631654    11.896224      711.11704     -34.307882      676.80916    
   2460000   314.27429      0.016631654    11.081599      779.72317     -31.338452      748.38472    
   2461000   295.93504      0.016631654    3.2121159      734.223       -29.183634      705.03936    
   2462000   282.34942      0.016631654    8.9285989      700.51669     -30.611114      669.90558    
   2463000   293.31931      0.016631654    8.4744221      727.73331     -32.491396      695.24191    
   2464000   317.48271      0.016631654    11.233369      787.68335     -31.086762      756.59659    
   2465000   312.06813      0.016631654    4.8082023      774.24964     -26.740361      747.50928    
   2466000   283.94666      0.016631654    8.1770904      704.47949     -27.487454      676.99203    
   2467000   295.23114      0.016631654    8.5795486      732.4766      -31.282856      701.19375    
   2468000   306.01178      0.016631654    10.643733      759.22366     -31.191452      728.03221    
   2469000   318.0403       0.016631654    8.4525441      789.06675     -28.152047      760.9147     
   2470000   287.98933      0.016631654    7.5896805      714.50947     -33.439419      681.07005    
   2471000   291.85663      0.016631654    9.601643       724.10436     -29.503677      694.60068    
   2472000   301.95324      0.016631654    3.9513219      749.15431     -30.422272      718.73204    
   2473000   300.37717      0.016631654    9.1087068      745.24404     -34.146608      711.09743    
   2474000   310.41833      0.016631654    13.156192      770.15643     -29.24271       740.91372    
   2475000   297.5111       0.016631654    8.0676785      738.13325     -32.279954      705.8533     
   2476000   298.84578      0.016631654    4.5637678      741.44462     -28.482072      712.96255    
   2477000   300.93974      0.016631654    8.535143       746.63979     -30.575232      716.06456    
   2478000   297.51708      0.016631654    14.091846      738.14807     -27.30454       710.84353    
   2479000   298.91085      0.016631654    10.166434      741.60607     -29.426942      712.17913    
   2480000   308.41046      0.016631654    4.940393       765.17485     -29.733034      735.44182    
   2481000   310.49407      0.016631654    8.9861632      770.34435     -29.030858      741.31349    
   2482000   297.35327      0.016631654    13.915754      737.74166     -26.096131      711.64553    
   2483000   301.73614      0.016631654    12.223791      748.61569     -26.219529      722.39616    
   2484000   303.01071      0.016631654    8.867295       751.77793     -27.023075      724.75485    
   2485000   303.93495      0.016631654    7.5128331      754.071       -30.496126      723.57487    
   2486000   285.41688      0.016631654    11.205308      708.12714     -26.759952      681.36719    
   2487000   301.41689      0.016631654    10.298893      747.82361     -28.465763      719.35785    
   2488000   309.16905      0.016631654    1.8068858      767.05693     -24.485096      742.57183    
   2489000   298.31251      0.016631654    6.0897685      740.12156     -25.334612      714.78695    
   2490000   300.47634      0.016631654    12.420762      745.49007     -27.557842      717.93223    
   2491000   307.16339      0.016631654   -2.4574022      762.08083     -25.252363      736.82847    
   2492000   300.5825       0.016631654    6.4430349      745.75348     -29.508563      716.24491    
   2493000   295.01667      0.016631654    17.845126      731.94448     -28.195877      703.7486     
   2494000   308.6122       0.016631654    23.417378      765.67538     -26.668776      739.0066     
   2495000   306.99099      0.016631654    4.7366772      761.6531      -30.437204      731.21589    
   2496000   295.28296      0.016631654    10.609712      732.60515     -25.375286      707.22986    
   2497000   295.2154       0.016631654    14.940082      732.43754     -26.877897      705.55964    
   2498000   308.19211      0.016631654    9.896629       764.63313     -28.035084      736.59804    
   2499000   309.8285       0.016631654    3.4989149      768.69304     -26.805681      741.88736    
   2500000   295.04281      0.016631654    14.82567       732.00934     -25.040811      706.96853    
   2501000   307.17995      0.016631654    15.566693      762.12192     -28.470177      733.65174    
   2502000   291.47205      0.016631654    8.083251       723.1502      -27.823029      695.32717    
   2503000   301.40551      0.016631654    5.360723       747.79537     -26.897321      720.89805    
   2504000   280.51316      0.016631654    8.2430451      695.96087     -26.225282      669.73559    
   2505000   306.16638      0.016631654    9.9377375      759.60723     -23.761993      735.84524    
   2506000   309.65288      0.016631654    8.9862799      768.25732     -27.11517       741.14215    
   2507000   291.47548      0.016631654    10.334736      723.1587      -23.727555      699.43114    
   2508000   300.58054      0.016631654    7.4689231      745.74861     -22.784176      722.96443    
   2509000   306.7801       0.016631654    9.0738759      761.12988     -20.221948      740.90793    
   2510000   306.56573      0.016631654    11.719018      760.59802     -24.266258      736.33176    
   2511000   289.23597      0.016631654    11.626834      717.6024      -26.126717      691.47569    
   2512000   290.02341      0.016631654    10.53174       719.55609     -23.846109      695.70998    
   2513000   302.40198      0.016631654    8.5443101      750.26766     -24.613785      725.65387    
   2514000   307.82122      0.016631654    7.5287799      763.71293     -27.395448      736.31748    
   2515000   303.67223      0.016631654    10.245144      753.41918     -29.885807      723.53338    
   2516000   280.35834      0.016631654    10.064079      695.57677     -30.538556      665.03821    
   2517000   305.26111      0.016631654    6.5638669      757.36122     -27.927506      729.43371    
   2518000   319.62657      0.016631654    7.7566333      793.00233     -24.333874      768.66845    
   2519000   288.47737      0.016631654    12.6801        715.7203      -27.713309      688.00699    
   2520000   296.12545      0.016631654    7.0457562      734.69541     -26.732774      707.96263    
   2521000   307.56337      0.016631654    6.1959448      763.07319     -26.144804      736.92839    
   2522000   290.47349      0.016631654    21.518413      720.67273     -26.870796      693.80193    
   2523000   286.37136      0.016631654    8.7631718      710.49524     -31.278023      679.21722    
   2524000   311.01113      0.016631654    6.9531343      771.6272      -32.909686      738.71751    
   2525000   303.65227      0.016631654   -4.1173936      753.36965     -28.532566      724.83708    
   2526000   303.90478      0.016631654    7.0244062      753.99614     -32.497183      721.49896    
   2527000   308.3979       0.016631654    9.2962799      765.14368     -30.258148      734.88553    
   2528000   292.99169      0.016631654    14.131533      726.92045     -33.697194      693.22325    
   2529000   288.10208      0.016631654    9.9361696      714.7892      -33.685326      681.10387    
   2530000   305.92043      0.016631654    4.4948221      758.99703     -31.579256      727.41777    
   2531000   303.65822      0.016631654    9.5289699      753.38443     -30.544038      722.84039    
   2532000   293.88296      0.016631654    10.19546       729.13171     -33.84579       695.28592    
   2533000   304.19043      0.016631654    9.298497       754.70483     -34.935044      719.76979    
   2534000   311.46811      0.016631654    3.681263       772.76098     -32.394371      740.36661    
   2535000   296.29175      0.016631654    17.631565      735.108       -34.838016      700.26999    
   2536000   292.83768      0.016631654    3.134874       726.53836     -34.056219      692.48214    
   2537000   295.2378       0.016631654    1.0928935      732.49313     -31.682515      700.81061    
   2538000   302.42607      0.016631654    7.8919693      750.32742     -28.613413      721.714      
   2539000   312.62012      0.016631654    9.0517867      775.61913     -23.534801      752.08433    
   2540000   300.81676      0.016631654    9.9312439      746.33468     -21.158837      725.17584    
   2541000   284.51035      0.016631654    19.353514      705.87801     -13.90726       691.97075    
   2542000   296.12209      0.016631654    6.5946037      734.68706     -20.397779      714.28928    
   2543000   310.51639      0.016631654    3.433774       770.39971     -22.084897      748.31482    
   2544000   306.65882      0.016631654    14.847072      760.82899     -24.747843      736.08115    
   2545000   284.17118      0.016631654    17.751807      705.03654     -24.643035      680.39351    
   2546000   291.88184      0.016631654   -3.2027918      724.16689     -27.274256      696.89263    
   2547000   284.6894       0.016631654   -25.870831      706.32224     -23.048042      683.2742     
   2548000   312.49076      0.016631654    15.472237      775.29819     -22.745535      752.55265    
   2549000   292.00986      0.016631654    11.744012      724.48451     -22.313209      702.1713     
   2550000   292.41381      0.016631654    1.6933015      725.48673     -22.676197      702.81054    
   2551000   322.15802      0.016631654   -6.7133307      799.28292     -23.43762       775.8453     
   2552000   296.77711      0.016631654    9.6197502      736.31219     -22.630734      713.68146    
   2553000   284.71055      0.016631654    21.942901      706.37473     -26.919745      679.45498    
   2554000   291.19497      0.016631654    4.752382       722.46275     -23.372977      699.08977    
   2555000   308.55231      0.016631654    5.7003392      765.52678     -25.130848      740.39594    
   2556000   304.95703      0.016631654    11.414661      756.6068      -25.523159      731.08364    
   2557000   300.35565      0.016631654    15.663736      745.19064     -23.779397      721.41124    
   2558000   288.00405      0.016631654    7.7833102      714.54599     -28.579287      685.9667     
   2559000   285.37885      0.016631654   -1.214691       708.0328      -26.737117      681.29569    
   2560000   307.84094      0.016631654    11.751084      763.76186     -28.138776      735.62309    
   2561000   303.18826      0.016631654    13.808988      752.21844     -26.956139      725.2623     
   2562000   297.51605      0.016631654    10.102861      738.14553     -23.17893       714.9666     
   2563000   302.18393      0.016631654    3.7409459      749.72665     -23.176158      726.55049    
   2564000   313.27527      0.016631654    11.429785      777.24459     -23.364601      753.87998    
   2565000   286.26122      0.016631654    9.2944222      710.22197     -26.021534      684.20044    
   2566000   292.11792      0.016631654    0.18090808     724.7526      -22.828132      701.92447    
   2567000   308.63223      0.016631654    7.4440019      765.72506     -23.708392      742.01667    
   2568000   300.6449       0.016631654    10.516386      745.90828     -23.462698      722.44558    
   2569000   302.90232      0.016631654    11.214127      751.50901     -26.186427      725.32259    
   2570000   300.00241      0.016631654    5.2310467      744.31425     -29.822435      714.49182    
   2571000   295.83665      0.016631654    9.1425953      733.97889     -30.946638      703.03225    
   2572000   290.86251      0.016631654    9.0118424      721.6379      -31.703475      689.93442    
   2573000   306.58364      0.016631654    9.0847731      760.64246     -23.787811      736.85465    
   2574000   303.51023      0.016631654    8.2811081      753.01726     -24.355976      728.66128    
   2575000   295.44805      0.016631654    9.0673206      733.01476     -29.215938      703.79883    
   2576000   309.20939      0.016631654    11.094607      767.15702     -32.334214      734.8228     
   2577000   317.72048      0.016631654    1.7845464      788.27328     -34.554333      753.71894    
   2578000   288.56904      0.016631654    8.1189356      715.94775     -29.575793      686.37196    
   2579000   303.09935      0.016631654    9.4642802      751.99785     -29.505116      722.49273    
   2580000   303.54429      0.016631654    6.1697225      753.10176     -31.450466      721.6513     
   2581000   298.4311       0.016631654    8.3655977      740.41577     -30.532182      709.88359    
   2582000   289.6908       0.016631654    10.412787      718.73086     -29.938306      688.79255    
   2583000   310.01397      0.016631654    11.359203      769.15321     -31.888263      737.26494    
   2584000   303.35481      0.016631654    7.3604048      752.63165     -31.279646      721.352      
   2585000   285.56015      0.016631654    9.6171643      708.48261     -27.133816      681.34879    
   2586000   316.95517      0.016631654    19.80387       786.37452     -26.083739      760.29079    
   2587000   309.09091      0.016631654    3.9590495      766.86307     -27.745681      739.11739    
   2588000   290.43721      0.016631654    2.9201066      720.58272     -26.594811      693.98791    
   2589000   288.35607      0.016631654    15.377034      715.41937     -28.638665      686.7807     
   2590000   308.85989      0.016631654    12.006723      766.28989     -31.321579      734.96831    
   2591000   314.43872      0.016631654    9.973439       780.13114     -32.749628      747.38151    
   2592000   292.96708      0.016631654   -3.4233482      726.8594      -37.771576      689.08782    
   2593000   295.35508      0.016631654    10.350877      732.7841      -37.433278      695.35082    
   2594000   305.68658      0.016631654    14.672631      758.41684     -33.024355      725.39248    
   2595000   326.04771      0.016631654    18.22147       808.93335     -30.826003      778.10735    
   2596000   295.39577      0.016631654    2.762658       732.88506     -30.121395      702.76366    
   2597000   294.97223      0.016631654    6.6993173      731.83424     -34.961684      696.87256    
   2598000   297.45017      0.016631654    14.864535      737.98206     -34.655675      703.32639    
   2599000   316.34411      0.016631654    11.705965      784.85846     -35.520637      749.33783    
   2600000   299.65102      0.016631654    7.3176005      743.44243     -36.158846      707.28358    
   2601000   301.47         0.016631654    6.5840906      747.95539     -33.305991      714.6494     
   2602000   297.20832      0.016631654    8.0810035      737.38203     -31.612796      705.76924    
   2603000   294.58292      0.016631654    18.205257      730.86834     -30.723772      700.14457    
   2604000   300.22822      0.016631654    12.169707      744.87448     -30.339903      714.53458    
   2605000   301.21232      0.016631654    0.21306637     747.31606     -31.29103       716.02503    
   2606000   294.19923      0.016631654    10.567432      729.91639     -28.589797      701.32659    
   2607000   304.58417      0.016631654    12.552713      755.68173     -29.40743       726.2743     
   2608000   306.56927      0.016631654    1.6983489      760.6068      -26.854319      733.75248    
   2609000   297.55831      0.016631654    6.8900322      738.25037     -28.794182      709.45619    
   2610000   292.4073       0.016631654    12.51821       725.47058     -29.556413      695.91416    
   2611000   305.58703      0.016631654    22.15513       758.16984     -29.417812      728.75203    
   2612000   310.17675      0.016631654    1.437971       769.55706     -31.520005      738.03706    
   2613000   300.7764       0.016631654    7.814313       746.23454     -31.053648      715.18089    
   2614000   298.35101      0.016631654    12.469891      740.21708     -29.967246      710.24984    
   2615000   314.9461       0.016631654    22.903898      781.38995     -27.777817      753.61213    
   2616000   316.4185       0.016631654    8.7121205      785.04302     -25.863229      759.17979    
   2617000   303.09723      0.016631654    7.2364943      751.99258     -25.558492      726.43409    
   2618000   290.42837      0.016631654    6.9255148      720.56078     -21.758         698.80278    
   2619000   298.87412      0.016631654    13.163301      741.51493     -25.480254      716.03468    
   2620000   309.88593      0.016631654    9.0609802      768.83554     -26.39286       742.44268    
   2621000   298.23882      0.016631654    8.2788419      739.93874     -28.169021      711.76972    
   2622000   294.44508      0.016631654    8.6106088      730.52635     -27.35519       703.17116    
   2623000   287.6749       0.016631654    7.8681169      713.72935     -26.976211      686.75314    
   2624000   324.10861      0.016631654    10.37958       804.12239     -27.447746      776.67464    
   2625000   303.32762      0.016631654    11.171956      752.56419     -32.085703      720.47848    
   2626000   283.06286      0.016631654    8.56754        702.28675     -31.468621      670.81813    
   2627000   297.27167      0.016631654    8.0135049      737.53921     -29.792131      707.74708    
   2628000   311.09296      0.016631654    8.9938912      771.83021     -30.170752      741.65946    
   2629000   311.90743      0.016631654    6.6902672      773.85092     -24.711664      749.13926    
   2630000   282.76038      0.016631654    8.0945496      701.53631     -26.006361      675.52995    
   2631000   302.52927      0.016631654    14.821125      750.58345     -27.369471      723.21398    
   2632000   312.01336      0.016631654    10.059181      774.11375     -29.719539      744.39421    
   2633000   302.99541      0.016631654    8.5618981      751.73997     -29.541351      722.19862    
   2634000   289.59586      0.016631654    8.1150722      718.49531     -29.489122      689.00619    
   2635000   299.07271      0.016631654    9.8198717      742.00764     -27.325035      714.68261    
   2636000   306.60493      0.016631654    12.392778      760.69528     -26.57822       734.11706    
   2637000   295.97896      0.016631654    8.2147976      734.33197     -24.57205       709.75992    
   2638000   291.95439      0.016631654    4.0202137      724.34688     -25.505898      698.84098    
   2639000   307.45136      0.016631654    10.321052      762.7953      -24.498101      738.2972     
   2640000   303.76673      0.016631654    14.320057      753.65363     -23.47663       730.177      
   2641000   300.17277      0.016631654    6.8029601      744.73693     -22.247689      722.48924    
   2642000   286.32715      0.016631654    9.0812725      710.38555     -24.813374      685.57218    
   2643000   307.46646      0.016631654    12.484196      762.83276     -23.468388      739.36438    
   2644000   300.33916      0.016631654    8.893046       745.14973     -28.094777      717.05495    
   2645000   281.96774      0.016631654    10.001226      699.56974     -25.236396      674.33335    
   2646000   302.64366      0.016631654    9.6549883      750.86726     -23.42408       727.44318    
   2647000   309.25499      0.016631654    4.6861845      767.27014     -25.998008      741.27214    
   2648000   296.54327      0.016631654    11.277159      735.73202     -24.67965       711.05237    
   2649000   307.19048      0.016631654    10.210846      762.14805     -24.488683      737.65936    
   2650000   298.30303      0.016631654    5.1449158      740.09805     -25.205372      714.89268    
   2651000   302.2434       0.016631654    10.009804      749.87421     -17.831604      732.04261    
   2652000   297.94047      0.016631654    8.4564848      739.19851     -21.486499      717.71201    
   2653000   298.20034      0.016631654    9.0587769      739.84326     -23.577339      716.26592    
   2654000   302.61054      0.016631654    10.338085      750.7851      -23.090737      727.69436    
   2655000   302.73569      0.016631654    9.8013173      751.0956      -24.528273      726.56732    
   2656000   286.94095      0.016631654    9.056417       711.9084      -26.125326      685.78307    
   2657000   288.64758      0.016631654    9.7367458      716.14261     -23.60619       692.53642    
   2658000   303.68464      0.016631654    9.9037057      753.44996     -27.478435      725.97153    
   2659000   308.55738      0.016631654    8.2357504      765.53937     -23.870403      741.66896    
   2660000   289.99281      0.016631654    9.0135972      719.48015     -26.423269      693.05688    
   2661000   300.77492      0.016631654    9.850137       746.23088     -29.272554      716.95832    
   2662000   308.98195      0.016631654    10.413206      766.59274     -31.437367      735.15538    
   2663000   314.71683      0.016631654    8.4281976      780.82113     -27.32454       753.49659    
   2664000   281.91965      0.016631654    7.1841499      699.45043     -31.015461      668.43497    
   2665000   298.77092      0.016631654    11.868792      741.25888     -30.832819      710.42606    
   2666000   310.82249      0.016631654    8.9832224      771.15917     -25.285041      745.87413    
   2667000   294.89115      0.016631654    5.3616588      731.63306     -29.082168      702.55089    
   2668000   296.16117      0.016631654    5.7356646      734.78402     -25.115007      709.66901    
   2669000   304.67825      0.016631654    10.361128      755.91513     -28.383378      727.53175    
   2670000   304.85076      0.016631654    11.070516      756.34315     -28.890888      727.45226    
   2671000   301.31934      0.016631654    7.0583365      747.58158     -28.163589      719.41799    
   2672000   289.11569      0.016631654    12.363567      717.304       -27.599061      689.70494    
   2673000   311.62674      0.016631654    12.915358      773.15454     -28.47837       744.67617    
   2674000   308.16335      0.016631654    9.0818319      764.56176     -30.327479      734.23428    
   2675000   289.79047      0.016631654    6.2113202      718.97815     -29.143312      689.83484    
   2676000   300.93945      0.016631654    8.8677996      746.63907     -31.906915      714.73216    
   2677000   308.17517      0.016631654    11.192446      764.59109     -22.950789      741.6403     
   2678000   287.37578      0.016631654    8.9637727      712.98724     -25.880109      687.10713    
   2679000   302.53901      0.016631654    6.8912147      750.60762     -27.733697      722.87393    
   2680000   318.48216      0.016631654    9.1877843      790.16303     -28.721358      761.44167    
   2681000   296.40177      0.016631654    9.6158896      735.38096     -27.801789      707.57917    
   2682000   290.29791      0.016631654    5.9306529      720.23713     -28.060948      692.17618    
   2683000   312.191        0.016631654    8.7689378      774.55446     -32.149463      742.405      
   2684000   297.65004      0.016631654    14.260448      738.47797     -30.784518      707.69345    
   2685000   297.7585       0.016631654    7.1217175      738.74704     -32.799122      705.94792    
   2686000   306.32105      0.016631654    8.7689987      759.99096     -31.41524       728.57572    
   2687000   300.2053       0.016631654    7.6673944      744.81763     -25.473529      719.3441     
   2688000   287.99946      0.016631654    7.8600964      714.5346      -24.298254      690.23635    
   2689000   315.08835      0.016631654    4.1845386      781.74288     -25.227583      756.5153     
   2690000   311.12065      0.016631654    10.936247      771.8989      -30.342582      741.55632    
   2691000   289.07385      0.016631654    9.0785813      717.20019     -28.803283      688.3969     
   2692000   298.73301      0.016631654    5.3864847      741.16482     -28.844614      712.32021    
   2693000   312.97292      0.016631654    11.773328      776.49445     -30.020533      746.47391    
   2694000   298.59043      0.016631654    11.77992       740.81108     -30.372944      710.43814    
   2695000   291.72939      0.016631654    9.2015091      723.78866     -32.480022      691.30864    
   2696000   307.6421       0.016631654    8.6722589      763.26854     -27.474577      735.79396    
   2697000   305.06342      0.016631654    14.165949      756.87074     -31.092119      725.77863    
   2698000   292.61131      0.016631654    6.9590298      725.97673     -31.901448      694.07528    
   2699000   297.12589      0.016631654    5.1149913      737.17752     -29.068326      708.10919    
   2700000   304.26592      0.016631654    18.418183      754.89213     -29.650556      725.24157    
   2701000   303.31804      0.016631654    7.9913451      752.54042     -29.54076       722.99966    
   2702000   291.27117      0.016631654    4.3665865      722.6518      -32.795973      689.85582    
   2703000   294.59222      0.016631654    8.716155       730.89141     -26.106296      704.78512    
   2704000   302.08384      0.016631654    10.22408       749.47834     -29.645704      719.83264    
   2705000   288.02858      0.016631654    11.085475      714.60684     -35.328847      679.27799    
   2706000   298.82735      0.016631654    7.6723237      741.39889     -31.158802      710.24009    
   2707000   312.7286       0.016631654    7.4221903      775.88829     -32.535934      743.35235    
   2708000   298.90573      0.016631654    8.3999023      741.59334     -33.17287       708.42047    
   2709000   302.40416      0.016631654    11.452104      750.27305     -33.277094      716.99596    
   2710000   302.11922      0.016631654    8.8856833      749.56612     -31.816564      717.74955    
   2711000   303.80685      0.016631654    8.7112865      753.75317     -31.61366       722.13951    
   2712000   311.97836      0.016631654    9.1388022      774.02692     -27.142416      746.8845     
   2713000   291.05721      0.016631654    8.1895569      722.12096     -31.267682      690.85328    
   2714000   294.29216      0.016631654    9.1274454      730.14696     -31.84947       698.29749    
   2715000   307.50607      0.016631654    11.662347      762.93104     -35.446354      727.48469    
   2716000   302.77159      0.016631654    7.9936979      751.18467     -33.045041      718.13963    
   2717000   282.8319       0.016631654    6.8687117      701.71373     -33.178397      668.53533    
   2718000   307.94966      0.016631654    15.076576      764.03159     -36.296237      727.73535    
   2719000   304.8688       0.016631654    2.1473184      756.38789     -32.797712      723.59017    
   2720000   294.88709      0.016631654    11.127475      731.62299     -31.621921      700.00107    
   2721000   295.62573      0.016631654    8.8865247      733.45559     -31.482047      701.97354    
   2722000   304.2923       0.016631654    7.8371788      754.95759     -33.145716      721.81188    
   2723000   302.94845      0.016631654    5.194484       751.62345     -33.648626      717.97483    
   2724000   284.72625      0.016631654    7.7129305      706.41367     -32.876582      673.53708    
   2725000   294.00976      0.016631654    10.532665      729.44631     -33.127352      696.31896    
   2726000   305.19911      0.016631654    12.246721      757.20742     -31.407579      725.79984    
   2727000   306.94109      0.016631654    2.310857       761.5293      -33.749559      727.77974    
   2728000   298.62691      0.016631654    10.663615      740.90161     -34.070405      706.8312     
   2729000   297.3374       0.016631654    12.484832      737.70228     -33.983941      703.71834    
   2730000   297.19435      0.016631654    9.5179055      737.34738     -34.311532      703.03585    
   2731000   305.32086      0.016631654    0.36283683     757.50946     -41.21736       716.2921     
   2732000   297.0117       0.016631654    3.9788191      736.89421     -35.046742      701.84747    
   2733000   286.25977      0.016631654    8.798393       710.21837     -34.025987      676.19238    
   2734000   307.05592      0.016631654    19.895482      761.81421     -29.391511      732.4227     
   2735000   313.86263      0.016631654    10.073448      778.70184     -26.064169      752.63767    
   2736000   297.75278      0.016631654    4.1425105      738.73287     -26.403058      712.32981    
   2737000   292.54795      0.016631654    8.7971306      725.81953     -28.168924      697.65061    
   2738000   301.03311      0.016631654    9.5229111      746.87144     -27.11074       719.7607     
   2739000   320.6662       0.016631654    9.1221004      795.58168     -31.300446      764.28123    
   2740000   289.25344      0.016631654    8.0917082      717.64577     -31.253306      686.39246    
   2741000   290.99278      0.016631654    11.237291      721.96112     -31.853342      690.10778    
   2742000   322.54352      0.016631654    10.842554      800.23935     -34.523528      765.71583    
   2743000   309.77418      0.016631654    8.9518277      768.55827     -31.611665      736.94661    
   2744000   290.9095       0.016631654    8.6386168      721.75449     -32.890403      688.86409    
   2745000   297.70206      0.016631654    8.7734262      738.60702     -29.565708      709.04131    
   2746000   318.06915      0.016631654    9.3247119      789.13833     -29.682497      759.45583    
   2747000   300.78728      0.016631654    8.2760093      746.26153     -27.343146      718.91839    
   2748000   294.72798      0.016631654    10.13546       731.22824     -31.656         699.57224    
   2749000   301.48231      0.016631654    10.669482      747.98593     -33.050923      714.93501    
   2750000   311.79078      0.016631654    7.5522535      773.56151     -33.23082       740.33069    
   2751000   307.80961      0.016631654    7.8942257      763.68413     -30.930687      732.75345    
   2752000   296.8701       0.016631654    8.2132946      736.5429      -36.286554      700.25634    
   2753000   307.47886      0.016631654    8.9894025      762.86352     -34.956545      727.90698    
   2754000   298.03337      0.016631654    8.0288382      739.42902     -35.277073      704.15194    
   2755000   289.60128      0.016631654    6.2099034      718.50876     -32.049405      686.45936    
   2756000   290.87991      0.016631654    8.3225304      721.68108     -30.786847      690.89423    
   2757000   301.79937      0.016631654    9.4621693      748.77256     -28.596635      720.17593    
   2758000   308.57444      0.016631654    10.191176      765.58169     -35.513188      730.0685     
   2759000   292.51795      0.016631654    6.3432839      725.74509     -30.194932      695.55016    
   2760000   287.05235      0.016631654    9.8071403      712.18479     -30.882966      681.30182    
   2761000   311.50347      0.016631654    11.484653      772.8487      -34.813993      738.03471    
   2762000   312.57122      0.016631654    2.0033468      775.49781     -28.487142      747.01066    
   2763000   289.89528      0.016631654    12.161564      719.23819     -26.936864      692.30133    
   2764000   295.36552      0.016631654    9.0981954      732.81        -33.763285      699.04672    
   2765000   313.88732      0.016631654    3.7662572      778.7631      -29.639507      749.12359    
   2766000   299.76056      0.016631654    7.7056294      743.71421     -30.39408       713.32013    
   2767000   299.24901      0.016631654    15.238094      742.44504     -29.611014      712.83403    
   2768000   308.76975      0.016631654    9.6594269      766.06627     -34.73935       731.32692    
   2769000   313.95009      0.016631654    6.5000686      778.91883     -29.66247       749.25636    
   2770000   285.49022      0.016631654   -0.21684859     708.30911     -28.574048      679.73506    
   2771000   285.40428      0.016631654    12.580898      708.09588     -28.817065      679.27882    
   2772000   306.04881      0.016631654    19.245158      759.31553     -36.020446      723.29509    
   2773000   306.9671       0.016631654    5.8702083      761.59384     -32.818084      728.77576    
   2774000   300.86008      0.016631654    4.243971       746.44214     -28.162274      718.27987    
   2775000   294.21038      0.016631654    17.618683      729.94406     -26.007919      703.93615    
   2776000   304.95736      0.016631654    8.9217441      756.60762     -30.519623      726.088      
   2777000   290.45194      0.016631654    4.7192458      720.61928     -33.102347      687.51693    
   2778000   294.76878      0.016631654    13.9585        731.32946     -32.509834      698.81962    
   2779000   311.15817      0.016631654    20.671924      771.99201     -28.747259      743.24475    
   2780000   299.64087      0.016631654    8.168488       743.41725     -27.440455      715.9768     
   2781000   306.13584      0.016631654    6.5320104      759.53146     -29.095284      730.43617    
   2782000   306.74434      0.016631654    5.8000198      761.04116     -31.831626      729.20953    
   2783000   289.52126      0.016631654    15.890424      718.31022     -30.934019      687.3762     
   2784000   299.11528      0.016631654    12.221657      742.11326     -30.959693      711.15357    
   2785000   316.19425      0.016631654    10.874873      784.48665     -26.742739      757.74391    
   2786000   303.03285      0.016631654    4.7454923      751.83284     -26.397198      725.43564    
   2787000   287.62958      0.016631654    7.273339       713.61691     -29.357826      684.25908    
   2788000   296.61307      0.016631654    16.107333      735.90519     -20.998851      714.90634    
   2789000   308.53577      0.016631654    10.455683      765.48574     -29.018818      736.46692    
   2790000   295.8335       0.016631654    2.0667856      733.97106     -29.61642       704.35464    
   2791000   300.37492      0.016631654    15.590751      745.23845     -30.382407      714.85604    
   2792000   317.89772      0.016631654    10.014369      788.713       -29.821527      758.89148    
   2793000   298.20527      0.016631654    8.8215752      739.85549     -25.789389      714.06611    
   2794000   279.96357      0.016631654    8.3059577      694.59734     -28.267732      666.3296     
   2795000   302.88465      0.016631654    8.2949432      751.46516     -30.395244      721.06992    
   2796000   297.34164      0.016631654    9.887092       737.71281     -29.685972      708.02684    
   2797000   300.09074      0.016631654    8.0730286      744.5334      -27.808199      716.7252     
   2798000   290.36588      0.016631654    8.8211347      720.40575     -29.298262      691.10749    
   2799000   294.90998      0.016631654    9.8172563      731.67979     -33.025612      698.65417    
   2800000   301.96558      0.016631654    8.4885352      749.18493     -31.666102      717.51883    
   2801000   288.70027      0.016631654    7.132628       716.27334     -28.353053      687.92028    
   2802000   304.34414      0.016631654    8.4608296      755.08621     -24.448334      730.63787    
   2803000   307.0093       0.016631654    9.4570254      761.69852     -27.879906      733.81862    
   2804000   295.48603      0.016631654    9.4739467      733.10899     -29.112033      703.99695    
   2805000   288.49422      0.016631654    9.8134876      715.76211     -26.46569       689.29642    
   2806000   301.24833      0.016631654    7.6623079      747.40542     -30.163397      717.24202    
   2807000   315.21911      0.016631654    9.7593753      782.06731     -29.873591      752.19372    
   2808000   305.67432      0.016631654    12.003049      758.38642     -33.136417      725.25       
   2809000   279.12487      0.016631654    9.8037715      692.51649     -29.60724       662.90925    
   2810000   298.22784      0.016631654    7.1122114      739.91148     -28.566764      711.34472    
   2811000   303.18834      0.016631654    7.2034269      752.21864     -28.959486      723.25915    
   2812000   296.82817      0.016631654    7.8338048      736.43888     -27.224058      709.21482    
   2813000   303.50957      0.016631654    10.084328      753.01561     -28.497293      724.51832    
   2814000   292.6011       0.016631654    9.9426056      725.9514      -28.019912      697.93149    
   2815000   309.71602      0.016631654    9.6560599      768.41398     -28.641983      739.77199    
   2816000   303.40932      0.016631654    9.3228423      752.76688     -22.225498      730.54139    
   2817000   301.12075      0.016631654    6.5120819      747.08887     -25.683117      721.40576    
   2818000   302.97389      0.016631654    8.586393       751.68658     -27.422526      724.26405    
   2819000   295.85638      0.016631654    11.995651      734.02784     -22.048893      711.97895    
   2820000   306.25649      0.016631654    9.7802867      759.8308      -23.886269      735.94453    
   2821000   295.45743      0.016631654    10.162739      733.03803     -25.147103      707.89092    
   2822000   296.42154      0.016631654    8.3312583      735.43001     -27.113105      708.3169     
   2823000   313.5102       0.016631654    9.6989739      777.82744     -29.071742      748.7557     
   2824000   298.4289       0.016631654    9.1528303      740.41033     -29.14901       711.26132    
   2825000   288.48694      0.016631654    8.226951       715.74405     -32.396635      683.34742    
   2826000   308.92241      0.016631654    6.6306796      766.44501     -37.288966      729.15605    
   2827000   300.6487       0.016631654    10.683774      745.91772     -30.444419      715.4733     
   2828000   289.30036      0.016631654    12.425263      717.76217     -33.092072      684.6701     
   2829000   291.84988      0.016631654    8.2831538      724.0876      -29.680618      694.40698    
   2830000   300.23355      0.016631654    6.2607384      744.88771     -28.209477      716.67823    
   2831000   301.6312       0.016631654    8.7706581      748.35532     -27.516474      720.83884    
   2832000   300.60052      0.016631654    9.0691321      745.79817     -30.209685      715.58848    
   2833000   293.50674      0.016631654    9.5990296      728.19832     -35.476229      692.72209    
   2834000   295.72101      0.016631654    7.6299447      733.69198     -32.086913      701.60506    
   2835000   298.52655      0.016631654    7.8830489      740.65259     -30.447008      710.20558    
   2836000   299.50453      0.016631654    8.0752851      743.07901     -29.438139      713.64087    
   2837000   323.54733      0.016631654    11.519693      802.72984     -30.428456      772.30138    
   2838000   310.8799       0.016631654    9.9864485      771.30159     -30.725034      740.57656    
   2839000   298.62836      0.016631654    8.9104416      740.90519     -29.665325      711.23986    
   2840000   295.06324      0.016631654    8.4421843      732.06002     -28.150995      703.90903    
   2841000   290.84767      0.016631654    9.24035        721.60109     -25.428302      696.17279    
   2842000   293.29967      0.016631654    8.8402869      727.68457     -21.502076      706.18249    
   2843000   295.1973       0.016631654    8.275116       732.39264     -25.243721      707.14891    
   2844000   299.45399      0.016631654    10.610684      742.9536      -21.367432      721.58617    
   2845000   301.25305      0.016631654    10.882766      747.41713     -21.581647      725.83548    
   2846000   302.02905      0.016631654    9.2424048      749.34239     -19.734607      729.60779    
   2847000   291.22259      0.016631654    8.4411405      722.53128     -22.672506      699.85877    
   2848000   313.68913      0.016631654    9.8320514      778.27137     -26.805351      751.46602    
   2849000   310.00869      0.016631654    7.9346914      769.1401      -27.261193      741.87891    
   2850000   294.96455      0.016631654    7.7810326      731.81517     -27.941483      703.87369    
   2851000   274.53169      0.016631654    8.1662011      681.12069     -25.615472      655.50522    
   2852000   305.98928      0.016631654    6.9974824      759.16783     -26.641369      732.52646    
   2853000   304.47167      0.016631654    10.323613      755.40261     -32.756181      722.64643    
   2854000   291.99033      0.016631654    11.979685      724.43605     -30.401816      694.03424    
   2855000   298.17043      0.016631654    6.5395018      739.76905     -27.972977      711.79607    
   2856000   310.36697      0.016631654    9.1663201      770.02901     -29.783888      740.24512    
   2857000   305.32494      0.016631654    16.27081       757.51959     -30.239449      727.28014    
   2858000   293.62455      0.016631654    8.5971651      728.49061     -28.064785      700.42583    
   2859000   293.90608      0.016631654    5.8747995      729.18908     -31.840741      697.34833    
   2860000   294.6552       0.016631654    7.5662288      731.04767     -29.039372      702.00829    
   2861000   305.46033      0.016631654    10.409163      757.85551     -27.916914      729.93859    
   2862000   299.02767      0.016631654    8.6263453      741.89589     -22.609686      719.28621    
   2863000   313.20627      0.016631654    9.0247702      777.07339     -23.384376      753.68902    
   2864000   300.66393      0.016631654    9.4547008      745.95549     -27.355436      718.60005    
   2865000   295.58707      0.016631654    8.4362925      733.35967     -27.16203       706.19764    
   2866000   291.40071      0.016631654    8.3646016      722.9732      -24.742289      698.23091    
   2867000   312.58171      0.016631654    11.027089      775.52385     -24.970201      750.55365    
   2868000   314.70675      0.016631654    8.6773263      780.79613     -31.899099      748.89703    
   2869000   297.8417       0.016631654    6.2918118      738.95347     -31.825574      707.1279     
   2870000   302.28065      0.016631654    7.6484428      749.96663     -32.814971      717.15166    
   2871000   293.48847      0.016631654    10.829743      728.15298     -32.209721      695.94326    
   2872000   303.47627      0.016631654    9.6994211      752.93298     -31.031122      721.90186    
   2873000   304.83644      0.016631654    9.8747678      756.30762     -33.777205      722.53042    
   2874000   298.65502      0.016631654    10.2268        740.97133     -29.793973      711.17736    
   2875000   293.10513      0.016631654    6.021892       727.20192     -29.84117       697.36075    
   2876000   303.82806      0.016631654    8.9936308      753.80579     -30.659824      723.14597    
   2877000   298.11247      0.016631654    11.380877      739.62525     -26.068387      713.55687    
   2878000   296.29942      0.016631654    7.4761993      735.12703     -23.350245      711.77678    
   2879000   301.49978      0.016631654    2.2121064      748.02927     -23.33322       724.69605    
   2880000   312.0742       0.016631654    5.8758515      774.2647      -21.182022      753.08268    
   2881000   313.6886       0.016631654    14.14769       778.27007     -19.995167      758.27491    
   2882000   296.03658      0.016631654    8.8649925      734.47491     -24.862297      709.61261    
   2883000   291.57419      0.016631654    5.4991219      723.40359     -23.834979      699.56862    
   2884000   322.19103      0.016631654    8.5613723      799.36484     -25.539421      773.82542    
   2885000   297.18619      0.016631654    10.859545      737.32713     -30.214212      707.11291    
   2886000   288.07938      0.016631654    7.722307       714.73289     -26.00195       688.73094    
   2887000   306.6335       0.016631654    7.1135695      760.76618     -26.104055      734.66212    
   2888000   315.20172      0.016631654    8.8307779      782.02416     -29.207324      752.81684    
   2889000   292.42772      0.016631654    10.216313      725.52124     -28.108254      697.41299    
   2890000   300.1571       0.016631654    9.6311137      744.69804     -30.54829       714.14975    
   2891000   293.59165      0.016631654    9.4150428      728.40897     -30.975458      697.43351    
   2892000   301.29255      0.016631654    9.4758518      747.51512     -29.832088      717.68303    
   2893000   292.84816      0.016631654    7.8157211      726.56436     -26.92576       699.6386     
   2894000   295.21229      0.016631654    10.227532      732.42984     -27.392191      705.03765    
   2895000   314.80365      0.016631654    14.762441      781.03653     -25.499446      755.53708    
   2896000   304.81944      0.016631654    8.6270213      756.26544     -24.849865      731.41557    
   2897000   303.64976      0.016631654    6.9375164      753.36341     -28.167136      725.19628    
   2898000   294.2068       0.016631654    5.4187816      729.93518     -26.733182      703.202      
   2899000   302.94777      0.016631654    11.2347        751.62176     -25.109768      726.51199    
   2900000   302.93213      0.016631654    2.8335124      751.58298     -25.907224      725.67575    
   2901000   295.62604      0.016631654    5.9872265      733.45635     -28.415881      705.04047    
   2902000   285.93893      0.016631654    5.8145565      709.42238     -24.03435       685.38803    
   2903000   311.88634      0.016631654    12.136914      773.79862     -23.565913      750.2327     
   2904000   301.26224      0.016631654    12.747661      747.43992     -23.605635      723.83429    
   2905000   308.71924      0.016631654    11.350257      765.94095     -20.322163      745.61879    
   2906000   297.95756      0.016631654    3.3772094      739.24093     -21.864771      717.37615    
   2907000   297.85191      0.016631654    14.037462      738.97881     -25.945455      713.03335    
   2908000   290.14093      0.016631654    14.317542      719.84763     -24.978452      694.86918    
   2909000   298.84381      0.016631654    10.466622      741.43973     -22.550152      718.88957    
   2910000   290.77329      0.016631654    8.2370397      721.41654     -28.485183      692.93135    
   2911000   302.22166      0.016631654    9.1982231      749.82027     -28.519516      721.30075    
   2912000   304.43842      0.016631654    9.3902665      755.32011     -30.23385       725.08626    
   2913000   297.51268      0.016631654    8.4593478      738.13717     -27.872827      710.26434    
   2914000   298.00799      0.016631654    10.566035      739.36603     -28.620624      710.74541    
   2915000   311.16276      0.016631654    10.012912      772.00338     -29.072586      742.9308     
   2916000   292.30987      0.016631654    8.1304798      725.22884     -23.750377      701.47846    
   2917000   283.77566      0.016631654    10.572186      704.05524     -26.684224      677.37102    
   2918000   302.99131      0.016631654    11.967822      751.7298      -27.197044      724.53276    
   2919000   303.62428      0.016631654    9.054836       753.3002      -24.462441      728.83776    
   2920000   283.07509      0.016631654    8.3584733      702.3171      -26.612914      675.70419    
   2921000   297.63612      0.016631654    7.8389038      738.44341     -23.519334      714.92408    
   2922000   315.44291      0.016631654    8.3614936      782.62255     -26.236709      756.38584    
   2923000   301.38598      0.016631654    9.7283463      747.74692     -30.240862      717.50606    
   2924000   298.06193      0.016631654    9.1704624      739.49986     -25.678924      713.82094    
   2925000   285.4023       0.016631654    8.6794988      708.09097     -26.245938      681.84503    
   2926000   308.73523      0.016631654    8.5395971      765.98061     -26.875379      739.10523    
   2927000   309.79309      0.016631654    9.5495805      768.60519     -24.432903      744.17228    
   2928000   285.68166      0.016631654    8.4966093      708.78408     -25.130245      683.65384    
   2929000   294.69361      0.016631654    10.159399      731.14298     -25.916465      705.22651    
   2930000   313.17001      0.016631654    10.741038      776.98344     -21.529326      755.45411    
   2931000   303.31329      0.016631654    8.8270253      752.52862     -26.953047      725.57558    
   2932000   299.01219      0.016631654    7.8956684      741.85747     -28.673191      713.18428    
   2933000   299.9445       0.016631654    14.115883      744.17056     -28.188015      715.98255    
   2934000   299.17029      0.016631654    9.2758186      742.24974     -23.09889       719.15085    
   2935000   291.99783      0.016631654    5.0305783      724.45467     -23.48788       700.96679    
   2936000   309.72603      0.016631654    1.5743339      768.43882     -23.217417      745.2214     
   2937000   310.89027      0.016631654    12.695284      771.32732     -24.391479      746.93584    
   2938000   299.10566      0.016631654    12.504849      742.08938     -25.37198       716.7174     
   2939000   292.84615      0.016631654    7.4874011      726.55936     -19.558107      707.00126    
   2940000   305.65154      0.016631654    4.1294577      758.32989     -19.183683      739.1462     
   2941000   303.59262      0.016631654    10.036308      753.22165     -19.737992      733.48366    
   2942000   298.02297      0.016631654    15.118274      739.4032      -21.636601      717.7666     
   2943000   286.23853      0.016631654    7.9661503      710.16568     -22.275252      687.89043    
   2944000   288.07789      0.016631654    7.5292907      714.72918     -23.927406      690.80178    
   2945000   309.86058      0.016631654    5.9243097      768.77263     -20.91458       747.85805    
   2946000   309.42665      0.016631654    10.273411      767.69604     -18.109529      749.58651    
   2947000   284.34893      0.016631654    8.5020618      705.47753     -17.066718      688.41082    
   2948000   292.66654      0.016631654    8.3962078      726.11375     -14.529244      711.5845     
   2949000   303.95453      0.016631654    9.0837303      754.11956     -18.114178      736.00538    
   2950000   298.57716      0.016631654    9.7439053      740.77815     -24.983961      715.79419    
   2951000   301.47403      0.016631654    9.2272286      747.96538     -23.247838      724.71754    
   2952000   300.76943      0.016631654    8.4620063      746.21724     -26.389441      719.8278     
   2953000   286.57836      0.016631654    8.3670488      711.00882     -28.17315       682.83567    
   2954000   305.90281      0.016631654    9.4958216      758.95331     -30.960704      727.99261    
   2955000   309.21307      0.016631654    9.1748046      767.16616     -35.932283      731.23388    
   2956000   281.4209       0.016631654    9.0434837      698.21302     -34.419636      663.79339    
   2957000   291.01537      0.016631654    8.3193793      722.01716     -30.753574      691.26358    
   2958000   311.76215      0.016631654    9.048603       773.49048     -31.937042      741.55344    
   2959000   302.78409      0.016631654    8.5218557      751.21568     -31.754391      719.46128    
   2960000   288.3786       0.016631654    8.3598105      715.47524     -24.309533      691.16571    
   2961000   311.59174      0.016631654    7.223368       773.06771     -22.999607      750.0681     
   2962000   311.40551      0.016631654    9.905318       772.60566     -24.099767      748.50589    
   2963000   302.66683      0.016631654    13.321666      750.92476     -22.356264      728.56849    
   2964000   297.59374      0.016631654    8.7371171      738.33826     -23.364622      714.97364    
   2965000   297.69572      0.016631654    4.8760897      738.59128     -22.596127      715.99515    
   2966000   296.11658      0.016631654    9.0261026      734.67339     -22.688277      711.98511    
   2967000   301.81491      0.016631654    10.484298      748.81112     -22.005118      726.806      
   2968000   298.86637      0.016631654    8.9026683      741.4957      -19.051433      722.44427    
   2969000   305.12622      0.016631654    8.3852332      757.02657     -24.177438      732.84913    
   2970000   306.96022      0.016631654    9.1066276      761.57676     -28.978233      732.59853    
   2971000   293.61786      0.016631654    9.987292       728.47401     -24.829126      703.64488    
   2972000   296.30442      0.016631654    6.0840579      735.13943     -28.800066      706.33937    
   2973000   300.08871      0.016631654    13.837983      744.52835     -22.949059      721.5793     
   2974000   308.30901      0.016631654    11.178005      764.92315     -17.778888      747.14427    
   2975000   289.33319      0.016631654    5.7741872      717.84361     -20.243895      697.59972    
   2976000   294.01765      0.016631654    9.873116       729.46589     -22.427625      707.03827    
   2977000   314.35594      0.016631654    13.26459       779.92576     -25.132361      754.7934     
   2978000   302.34607      0.016631654    8.0124716      750.12894     -22.044269      728.08467    
   2979000   288.69347      0.016631654    2.0872484      716.25646     -18.661966      697.59449    
   2980000   287.64159      0.016631654    7.7160757      713.64671     -22.171318      691.47539    
   2981000   306.32153      0.016631654    10.447479      759.99216     -21.981934      738.01022    
   2982000   292.04854      0.016631654    9.2431068      724.58047     -24.993572      699.5869     
   2983000   292.58057      0.016631654    6.2498098      725.90047     -24.263828      701.63664    
   2984000   293.78959      0.016631654    8.8022533      728.90008     -25.57321       703.32686    
   2985000   302.06027      0.016631654    12.696643      749.41985     -18.406432      731.01342    
   2986000   306.80413      0.016631654    11.837421      761.18951     -19.807234      741.38227    
   2987000   297.52479      0.016631654    9.8477716      738.16721     -13.927823      724.23938    
   2988000   288.68032      0.016631654    4.85651        716.22383     -20.0886        696.13523    
   2989000   303.19562      0.016631654    9.7018151      752.23668     -20.008568      732.22811    
   2990000   303.92541      0.016631654    11.62947       754.04732     -14.884007      739.16331    
   2991000   309.3794       0.016631654    10.701048      767.57882     -14.643764      752.93506    
   2992000   291.98105      0.016631654    7.2506361      724.41304     -18.341235      706.07181    
   2993000   294.28311      0.016631654    8.9138302      730.12451     -18.789847      711.33467    
   2994000   305.97109      0.016631654    10.735791      759.12272     -19.524749      739.59797    
   2995000   321.34076      0.016631654    7.5926318      797.25528     -20.384338      776.87094    
   2996000   286.64424      0.016631654    0.78800373     711.17225     -22.54459       688.62766    
   2997000   299.08132      0.016631654    6.374356       742.029       -24.163569      717.86543    
   2998000   295.93706      0.016631654    14.311813      734.22801     -26.506388      707.72162    
   2999000   312.63507      0.016631654    5.828425       775.65623     -23.100421      752.5558     
   3000000   303.73128      0.016631654    4.8739601      753.56568     -23.456957      730.10873    
   3001000   297.10118      0.016631654    11.886165      737.11621     -24.33511       712.7811     
   3002000   302.12442      0.016631654    9.1322358      749.57903     -26.629973      722.94905    
   3003000   306.66383      0.016631654    6.9321655      760.84141     -25.740409      735.101      
   3004000   291.98075      0.016631654    8.8870142      724.4123      -25.406463      699.00584    
   3005000   289.74348      0.016631654    10.862014      718.86155     -24.759291      694.10226    
   3006000   307.61065      0.016631654    12.107582      763.19051     -26.569991      736.62052    
   3007000   306.87681      0.016631654    8.4320869      761.36983     -29.49371       731.87612    
   3008000   289.06643      0.016631654    10.573455      717.18179     -26.294057      690.88773    
   3009000   299.53776      0.016631654    9.8574024      743.16145     -22.509039      720.65241    
   3010000   316.18008      0.016631654    8.8691942      784.45148     -22.463888      761.9876     
   3011000   293.48003      0.016631654    6.2654281      728.13205     -26.959628      701.17243    
   3012000   290.92363      0.016631654    9.6823358      721.78954     -20.954171      700.83537    
   3013000   303.996        0.016631654    9.142186       754.22245     -26.964663      727.25779    
   3014000   305.25999      0.016631654    9.2004468      757.35844     -27.586073      729.77237    
   3015000   294.56152      0.016631654    4.9348814      730.81524     -26.641734      704.17351    
   3016000   293.21291      0.016631654    9.0160513      727.46931     -29.560533      697.90877    
   3017000   281.21581      0.016631654    7.9564347      697.70418     -29.743115      667.96106    
   3018000   300.68891      0.016631654    10.053619      746.01748     -25.226902      720.79057    
   3019000   310.34327      0.016631654    7.686399       769.97021     -27.905875      742.06433    
   3020000   296.87785      0.016631654    6.1665552      736.56213     -28.6162        707.94593    
   3021000   300.11423      0.016631654    10.899983      744.59168     -30.375111      714.21656    
   3022000   291.82613      0.016631654    8.2510923      724.02868     -30.925502      693.10317    
   3023000   306.42095      0.016631654    11.762935      760.23881     -30.42955       729.80926    
   3024000   296.35899      0.016631654    9.7797157      735.27482     -27.968631      707.30619    
   3025000   294.12133      0.016631654    8.7891701      729.72314     -29.907853      699.81528    
   3026000   298.2666       0.016631654    8.7164025      740.00767     -33.425232      706.58244    
   3027000   310.97565      0.016631654    9.1679018      771.53915     -31.947504      739.59165    
   3028000   306.08099      0.016631654    12.754578      759.39537     -30.645476      728.7499     
   3029000   280.81737      0.016631654    8.8196548      696.71563     -34.268728      662.4469     
   3030000   303.62599      0.016631654    8.1439394      753.30445     -30.324129      722.98032    
   3031000   326.28198      0.016631654    8.1712573      809.51459     -31.933099      777.58149    
   3032000   296.84243      0.016631654    9.7787489      736.47424     -35.141015      701.33323    
   3033000   295.75908      0.016631654    8.4977835      733.78642     -33.340292      700.44613    
   3034000   305.1992       0.016631654    6.7599814      757.20762     -28.63151       728.57611    
   3035000   309.42495      0.016631654    12.004151      767.69184     -32.710768      734.98107    
   3036000   296.18704      0.016631654    8.1666589      734.84821     -31.923856      702.92435    
   3037000   305.74956      0.016631654    3.1826766      758.5731      -32.951125      725.62197    
   3038000   300.4901       0.016631654    11.690742      745.52423     -33.153418      712.37081    
   3039000   308.46163      0.016631654    10.623821      765.3018      -28.943829      736.35797    
   3040000   296.95026      0.016631654    6.5785738      736.74177     -29.984073      706.7577     
   3041000   298.99206      0.016631654   -2.3619958      741.80755     -26.743269      715.06428    
   3042000   311.26662      0.016631654    8.3398647      772.26106     -33.296337      738.96473    
   3043000   303.93361      0.016631654    17.661751      754.06766     -31.80674       722.26092    
   3044000   300.20107      0.016631654    5.6326129      744.80713     -35.429964      709.37717    
   3045000   296.84947      0.016631654    9.5582009      736.49172     -38.331295      698.16043    
   3046000   297.81816      0.016631654    13.899781      738.89508     -38.697949      700.19713    
   3047000   299.60593      0.016631654    5.1207588      743.33057     -37.861295      705.46927    
   3048000   308.17031      0.016631654    6.4068204      764.57903     -33.0927        731.48633    
   3049000   294.21869      0.016631654    9.7495599      729.96469     -30.901225      699.06346    
   3050000   292.39498      0.016631654    8.2693117      725.44        -28.895924      696.54408    
   3051000   311.42692      0.016631654    7.7011777      772.65878     -30.345446      742.31333    
   3052000   305.61961      0.016631654    10.248688      758.25067     -30.959677      727.29099    
   3053000   296.29252      0.016631654    10.010455      735.10991     -34.116432      700.99348    
   3054000   303.53417      0.016631654    1.15156        753.07663     -36.626851      716.44978    
   3055000   305.95559      0.016631654    10.00254       759.08425     -37.976868      721.10738    
   3056000   311.88026      0.016631654    22.457867      773.78352     -39.143718      734.6398     
   3057000   294.95601      0.016631654    11.352512      731.794       -38.388474      693.40552    
   3058000   291.05133      0.016631654    5.1911537      722.10638     -36.600812      685.50556    
   3059000   293.51608      0.016631654    8.7635669      728.22148     -33.431402      694.79008    
   3060000   296.79388      0.016631654    14.264498      736.35379     -32.443348      703.91044    
   3061000   304.02349      0.016631654    9.8518759      754.29065     -33.518096      720.77256    
   3062000   295.24079      0.016631654    6.9925676      732.50053     -32.317626      700.1829     
   3063000   294.66147      0.016631654    8.5613811      731.06322     -32.912513      698.15071    
   3064000   301.7329       0.016631654    9.2494803      748.60763     -28.740269      719.86737    
   3065000   293.90759      0.016631654    7.7707005      729.19284     -31.969129      697.22371    
   3066000   307.05187      0.016631654    7.5717743      761.80416     -34.391448      727.41272    
   3067000   298.17321      0.016631654    9.0588568      739.77596     -33.861932      705.91403    
   3068000   293.50426      0.016631654    9.0310648      728.19216     -34.870423      693.32173    
   3069000   310.26988      0.016631654    8.5824575      769.78811     -33.585044      736.20307    
   3070000   298.21857      0.016631654    9.2609386      739.88848     -34.733235      705.15525    
   3071000   291.76315      0.016631654    9.8752997      723.87243     -35.226292      688.64614    
   3072000   299.8021       0.016631654    14.626102      743.81728     -32.136567      711.68071    
   3073000   294.49269      0.016631654    7.4906965      730.64448     -28.767109      701.87738    
   3074000   304.30893      0.016631654    5.7852276      754.99884     -28.249621      726.74922    
   3075000   298.58031      0.016631654    9.6548618      740.78597     -24.999111      715.78686    
   3076000   295.00926      0.016631654    12.433636      731.92611     -26.169396      705.75671    
   3077000   288.50926      0.016631654    9.9196672      715.79943     -25.879464      689.91996    
   3078000   293.77685      0.016631654    7.7936296      728.86847     -24.13579       704.73268    
   3079000   304.56369      0.016631654    9.0531057      755.63092     -24.531377      731.09954    
   3080000   294.84638      0.016631654    8.8289969      731.522       -23.93788       707.58412    
   3081000   298.83073      0.016631654    8.59323        741.40728     -22.500493      718.90679    
   3082000   291.9079       0.016631654    9.2895148      724.23154     -25.565987      698.66555    
   3083000   302.96882      0.016631654    9.8599254      751.67399     -20.979916      730.69408    
   3084000   288.99375      0.016631654    9.7361622      717.00146     -22.1121        694.88936    
   3085000   303.92261      0.016631654    9.1625485      754.04036     -29.20133       724.83903    
   3086000   301.63832      0.016631654    3.4809475      748.37298     -28.634866      719.73811    
   3087000   309.39359      0.016631654    8.0023549      767.61403     -29.201936      738.41209    
   3088000   287.58431      0.016631654    11.52983       713.50461     -28.091974      685.41264    
   3089000   298.63588      0.016631654    4.8054163      740.92385     -29.100412      711.82343    
   3090000   319.4728       0.016631654   -6.8738775      792.62082     -27.126093      765.49473    
   3091000   306.37136      0.016631654    16.126004      760.11578     -23.559978      736.5558     
   3092000   286.49357      0.016631654    8.9808611      710.79845     -26.613209      684.18524    
   3093000   304.11701      0.016631654   -4.9393052      754.52268     -23.906667      730.61601    
   3094000   313.95756      0.016631654    5.0128668      778.93736     -20.201961      758.7354     
   3095000   295.5458       0.016631654    8.608551       733.25727     -19.512364      713.74491    
   3096000   303.22622      0.016631654    11.510552      752.31261     -15.860208      736.4524     
   3097000   297.56871      0.016631654    9.7297224      738.27617     -18.119462      720.15671    
   3098000   316.18854      0.016631654    1.1944369      784.47248     -23.22418       761.2483     
   3099000   300.64732      0.016631654    9.6484018      745.9143      -25.505305      720.40899    
   3100000   296.30768      0.016631654    9.6885405      735.14753     -23.444492      711.70303    
   3101000   294.37768      0.016631654    5.3403088      730.35914     -26.70485       703.65429    
   3102000   305.39578      0.016631654    8.2732329      757.69535     -24.428834      733.26652    
   3103000   310.75016      0.016631654    20.599986      770.97971     -25.69287       745.28684    
   3104000   286.40121      0.016631654    9.7935207      710.56929     -22.345353      688.22394    
   3105000   300.11046      0.016631654    7.0754063      744.58232     -25.502306      719.08001    
   3106000   300.0402       0.016631654    9.4621722      744.408       -23.361832      721.04617    
   3107000   304.48361      0.016631654    11.720972      755.43224     -20.968688      734.46355    
   3108000   300.55372      0.016631654    6.7641986      745.68205     -24.897662      720.78439    
   3109000   313.67372      0.016631654    7.7184725      778.23314     -22.352355      755.88079    
   3110000   294.31958      0.016631654    10.849331      730.21498     -24.946232      705.26875    
   3111000   296.93877      0.016631654    4.6976202      736.71328     -26.408774      710.30451    
   3112000   297.96012      0.016631654   -1.9058492      739.24728     -27.213788      712.03349    
   3113000   318.24788      0.016631654    6.9333985      789.58177     -25.495227      764.08654    
   3114000   299.71847      0.016631654    10.915582      743.60979     -25.47769       718.1321     
   3115000   296.24166      0.016631654    10.828934      734.98373     -28.255108      706.72862    
   3116000   295.80315      0.016631654    5.9644426      733.89577     -28.611703      705.28407    
   3117000   310.10028      0.016631654    10.444241      769.36735     -25.419261      743.94809    
   3118000   303.51408      0.016631654    10.04787       753.02679     -22.781513      730.24528    
   3119000   290.69302      0.016631654    8.7852423      721.21741     -24.303772      696.91363    
   3120000   303.9485       0.016631654    9.7608302      754.1046      -21.763969      732.34064    
   3121000   297.63978      0.016631654    8.7619159      738.4525      -21.848432      716.60406    
   3122000   287.19201      0.016631654    10.608043      712.53129     -25.508321      687.02297    
   3123000   291.36886      0.016631654    8.5131346      722.89418     -20.702774      702.1914     
   3124000   304.54438      0.016631654    9.8857194      755.58301     -26.933558      728.64946    
   3125000   296.70234      0.016631654    9.6607455      736.12668     -23.529584      712.5971     
   3126000   302.04598      0.016631654    9.2549195      749.3844      -22.451694      726.93271    
   3127000   307.73069      0.016631654    9.7448817      763.48833     -29.85015       733.63818    
   3128000   296.52512      0.016631654    12.368209      735.687       -26.703033      708.98396    
   3129000   299.50199      0.016631654    9.789882       743.0727      -21.09833       721.97437    
   3130000   298.6267       0.016631654    6.8367194      740.90108     -29.050967      711.85011    
   3131000   311.84885      0.016631654    9.6856289      773.70559     -33.227214      740.47838    
   3132000   287.95783      0.016631654    11.187984      714.43132     -33.529289      680.90203    
   3133000   292.26504      0.016631654    4.237285       725.11761     -29.737479      695.38013    
   3134000   303.99658      0.016631654    9.7303839      754.2239      -26.673382      727.55051    
   3135000   294.4825       0.016631654    8.4780525      730.6192      -28.193767      702.42544    
   3136000   306.50982      0.016631654    9.1585962      760.45931     -30.870738      729.58857    
   3137000   303.77775      0.016631654    9.1394954      753.68097     -31.862462      721.81851    
   3138000   291.47023      0.016631654    9.3164297      723.14569     -29.961786      693.1839     
   3139000   290.94944      0.016631654    8.6728665      721.85358     -26.690657      695.16292    
   3140000   294.67074      0.016631654    7.6837275      731.08623     -29.948136      701.13809    
   3141000   298.42371      0.016631654    8.5422755      740.39746     -28.623267      711.77419    
   3142000   292.57871      0.016631654    7.9582669      725.89585     -25.31512       700.58073    
   3143000   300.91855      0.016631654    9.0188698      746.58722     -24.757136      721.83008    
   3144000   310.5528       0.016631654    9.6791432      770.49007     -29.604002      740.88606    
   3145000   319.99719      0.016631654    5.9867994      793.92185     -30.032392      763.88945    
   3146000   300.33064      0.016631654    8.0442942      745.1286      -28.797006      716.33159    
   3147000   292.33765      0.016631654    8.2543985      725.29777     -25.979017      699.31875    
   3148000   302.63998      0.016631654    10.056795      750.85813     -28.545784      722.31234    
   3149000   312.06658      0.016631654    10.320232      774.24578     -28.988244      745.25753    
   3150000   309.87434      0.016631654    4.7003554      768.80677     -31.435084      737.37168    
   3151000   292.92277      0.016631654    3.3426334      726.74948     -32.917302      693.83218    
   3152000   299.17684      0.016631654    10.122194      742.26598     -31.279704      710.98627    
   3153000   300.67676      0.016631654    9.5420015      745.98732     -30.751937      715.23538    
   3154000   304.88104      0.016631654    2.8068303      756.41826     -33.374142      723.04411    
   3155000   292.34795      0.016631654    12.418904      725.32333     -36.678439      688.64489    
   3156000   298.98975      0.016631654    11.127834      741.80181     -34.491112      707.3107     
   3157000   319.08607      0.016631654    5.4899143      791.66134     -32.751954      758.90939    
   3158000   308.28838      0.016631654    3.5813558      764.87196     -30.91175       733.96021    
   3159000   291.6706       0.016631654    5.5061783      723.6428      -28.235176      695.40762    
   3160000   278.92187      0.016631654    7.5344187      692.01285     -27.716417      664.29643    
   3161000   300.21879      0.016631654    11.620438      744.8511      -31.988421      712.86268    
   3162000   311.31974      0.016631654    9.2534476      772.39285     -25.298329      747.09452    
   3163000   298.21732      0.016631654    7.793595       739.8854      -33.683901      706.20149    
   3164000   297.92813      0.016631654    8.4969837      739.1679      -27.594063      711.57384    
   3165000   295.0146       0.016631654    14.761967      731.93935     -25.277179      706.66217    
   3166000   312.49624      0.016631654    14.222866      775.31178     -25.038823      750.27296    
   3167000   299.73978      0.016631654    4.1559853      743.66266     -26.623537      717.03912    
   3168000   289.34688      0.016631654    8.3035581      717.87758     -27.083349      690.79424    
   3169000   307.86726      0.016631654    11.374163      763.82715     -26.69066       737.13649    
   3170000   326.75333      0.016631654    4.5667354      810.68401     -23.940902      786.74311    
   3171000   301.443        0.016631654    8.8763026      747.8884      -23.154823      724.73358    
   3172000   300.96416      0.016631654    16.450986      746.70037     -21.016093      725.68427    
   3173000   300.27213      0.016631654    9.2123897      744.98344     -19.767852      725.21558    
   3174000   296.32328      0.016631654    8.4307858      735.18622     -23.587711      711.59851    
   3175000   308.91515      0.016631654    10.407608      766.42699     -25.92173       740.50526    
   3176000   305.72549      0.016631654    9.0992909      758.51336     -25.599685      732.91367    
   3177000   278.10551      0.016631654    7.8360728      689.98744     -24.702953      665.28449    
   3178000   298.64919      0.016631654    11.427008      740.95686     -26.177031      714.77983    
   3179000   310.05984      0.016631654    9.0133452      769.26702     -27.201227      742.06579    
   3180000   299.15758      0.016631654    8.1636332      742.2182      -27.994871      714.22333    
   3181000   306.2447       0.016631654    10.690258      759.80153     -23.447043      736.35449    
   3182000   305.51875      0.016631654    11.130953      758.00045     -22.600025      735.40042    
   3183000   304.05606      0.016631654    9.3966484      754.37147     -26.207663      728.16381    
   3184000   299.87871      0.016631654    8.0637163      744.00736     -26.776344      717.23101    
   3185000   296.61522      0.016631654    8.1365131      735.91055     -26.726208      709.18434    
   3186000   299.72009      0.016631654    9.7702167      743.61379     -27.143231      716.47056    
   3187000   300.74381      0.016631654    8.1760681      746.15369     -32.539333      713.61436    
   3188000   310.94599      0.016631654    10.085162      771.46557     -26.459839      745.00573    
   3189000   286.43568      0.016631654    7.9384755      710.65482     -27.757647      682.89717    
   3190000   300.11051      0.016631654    8.9025578      744.58244     -26.592529      717.98991    
   3191000   298.6721       0.016631654    9.3858201      741.0137      -22.568356      718.44535    
   3192000   297.54015      0.016631654    11.05348       738.20532     -27.015361      711.18996    
   3193000   304.57504      0.016631654    4.2930014      755.65907     -26.803208      728.85586    
   3194000   292.78151      0.016631654    2.4014109      726.39899     -21.975367      704.42362    
   3195000   301.04886      0.016631654    3.9224309      746.91053     -27.343813      719.56672    
   3196000   306.77691      0.016631654    12.973111      761.12197     -28.53924       732.58273    
   3197000   304.21207      0.016631654    9.0928816      754.75853     -32.0917        722.66683    
   3198000   289.50294      0.016631654    5.9414835      718.26477     -29.744316      688.52046    
   3199000   298.14717      0.016631654    2.3078989      739.71135     -34.484733      705.22661    
   3200000   309.28198      0.016631654    8.4124952      767.33711     -33.75162       733.58549    
   3201000   287.91673      0.016631654    13.0328        714.32935     -30.195175      684.13418    
   3202000   291.28002      0.016631654    6.4111543      722.67376     -29.473854      693.1999     
   3203000   300.01837      0.016631654    3.6433001      744.35386     -29.537415      714.81644    
   3204000   316.00299      0.016631654    9.1608992      784.01213     -29.868184      754.14395    
   3205000   289.83923      0.016631654    9.6713378      719.09912     -30.033603      689.06552    
   3206000   295.61628      0.016631654    1.1075562      733.43213     -33.716522      699.71561    
   3207000   310.86602      0.016631654    11.201563      771.26717     -31.133158      740.13402    
   3208000   307.79882      0.016631654    8.8625867      763.65736     -35.28718       728.37018    
   3209000   293.25136      0.016631654    9.7190887      727.56471     -35.377134      692.18757    
   3210000   291.0088       0.016631654    4.7526845      722.00086     -33.450383      688.55048    
   3211000   303.87255      0.016631654    8.5786084      753.91618     -31.334867      722.58131    
   3212000   303.93022      0.016631654    12.354469      754.05926     -39.637993      714.42127    
   3213000   287.95866      0.016631654    7.8085211      714.43337     -42.591365      671.84201    
   3214000   304.38761      0.016631654    8.732058       755.19404     -43.79872       711.39532    
   3215000   303.10868      0.016631654    8.1591289      752.02099     -39.985221      712.03577    
   3216000   294.2813       0.016631654    8.8961614      730.12003     -35.981166      694.13886    
   3217000   295.06319      0.016631654    8.7048554      732.0599      -32.719359      699.34054    
   3218000   310.33465      0.016631654    9.2964493      769.94882     -34.740281      735.20854    
   3219000   309.67165      0.016631654    9.3815472      768.30391     -32.26419       736.03972    
   3220000   300.22383      0.016631654    9.4221394      744.86361     -29.34603       715.51758    
   3221000   294.47632      0.016631654    8.7005384      730.60387     -27.562588      703.04129    
   3222000   304.80053      0.016631654    6.7664869      756.21851     -28.984887      727.23362    
   3223000   295.39929      0.016631654    9.1683168      732.89377     -29.710549      703.18322    
   3224000   295.34955      0.016631654    9.7758032      732.77038     -30.771711      701.99867    
   3225000   311.18503      0.016631654    9.0275966      772.05864     -32.461149      739.59749    
   3226000   302.29476      0.016631654    7.1610147      750.00163     -30.144952      719.85667    
   3227000   287.36238      0.016631654    8.4118995      712.95399     -34.825949      678.12804    
   3228000   293.39103      0.016631654    15.212772      727.91124     -29.409009      698.50223    
   3229000   312.64391      0.016631654    9.8311183      775.67815     -36.172994      739.50516    
   3230000   307.34901      0.016631654    3.1142084      762.54136     -37.86258       724.67878    
   3231000   291.75083      0.016631654    8.4535236      723.84185     -37.114198      686.72765    
   3232000   291.16039      0.016631654    8.4659914      722.37695     -38.039442      684.33751    
   3233000   300.89829      0.016631654    9.9775219      746.53695     -39.124738      707.41221    
   3234000   303.87207      0.016631654    9.9742261      753.91498     -39.233613      714.68136    
   3235000   293.51699      0.016631654    7.6952155      728.22373     -36.726493      691.49724    
   3236000   302.59755      0.016631654    11.312527      750.75287     -34.478001      716.27487    
   3237000   300.90452      0.016631654    8.408111       746.55241     -34.718974      711.83344    
   3238000   298.51046      0.016631654    7.5339835      740.61269     -30.023097      710.58959    
   3239000   292.63488      0.016631654    8.0095559      726.03521     -31.539231      694.49597    
   3240000   302.62472      0.016631654    8.6681641      750.82026     -34.448104      716.37216    
   3241000   298.51652      0.016631654    8.8004567      740.62771     -29.74158       710.88613    
   3242000   309.16607      0.016631654    8.0338873      767.04954     -30.096608      736.95293    
   3243000   307.51106      0.016631654    9.2408881      762.94341     -31.434276      731.50913    
   3244000   292.25127      0.016631654    8.6539866      725.08346     -33.414679      691.66878    
   3245000   301.5022       0.016631654    8.8420634      748.03527     -28.924208      719.11106    
   3246000   304.23804      0.016631654    8.8204054      754.82297     -25.958342      728.86462    
   3247000   304.79486      0.016631654    10.261365      756.20446     -28.28449       727.91997    
   3248000   300.62143      0.016631654    8.0638631      745.85005     -30.058411      715.79164    
   3249000   297.82388      0.016631654    7.4194635      738.90926     -26.645334      712.26392    
   3250000   305.51048      0.016631654    9.1067348      757.97993     -28.655645      729.32429    
   3251000   291.66738      0.016631654    9.7654934      723.63482     -29.310577      694.32424    
   3252000   288.9657       0.016631654    6.8069799      716.93188     -29.687018      687.24486    
   3253000   311.31829      0.016631654    5.2321851      772.38925     -34.161176      738.22807    
   3254000   319.58433      0.016631654    9.5325148      792.89753     -32.787083      760.11045    
   3255000   293.45613      0.016631654    7.841442       728.07276     -29.564588      698.50817    
   3256000   306.95593      0.016631654    9.6444243      761.56612     -31.017728      730.54839    
   3257000   296.13064      0.016631654    9.2134188      734.70827     -32.063591      702.64468    
   3258000   300.69321      0.016631654    9.6569585      746.02815     -23.356308      722.67184    
   3259000   316.3231       0.016631654    6.7978634      784.80632     -24.030776      760.77554    
   3260000   308.3262       0.016631654    8.3262599      764.96581     -27.362962      737.60285    
   3261000   302.44814      0.016631654    8.6324877      750.38218     -27.341156      723.04103    
   3262000   286.29332      0.016631654    8.5883203      710.30163     -32.226873      678.07476    
   3263000   290.15355      0.016631654    8.1628222      719.87896     -32.779347      687.09962    
   3264000   302.8405       0.016631654    6.245752       751.35563     -29.967315      721.38832    
   3265000   306.09562      0.016631654    8.674384       759.43168     -31.814509      727.61717    
   3266000   308.84902      0.016631654    12.164665      766.26292     -28.605459      737.65746    
   3267000   285.42471      0.016631654    8.6750203      708.14658     -30.29416       677.85242    
   3268000   296.83016      0.016631654    8.0766487      736.44382     -31.610453      704.83337    
   3269000   303.82372      0.016631654    12.737889      753.79503     -32.433732      721.3613     
   3270000   309.26263      0.016631654    11.653397      767.28911     -34.945721      732.34339    
   3271000   297.21452      0.016631654    7.7775725      737.39742     -35.564155      701.83327    
   3272000   296.61414      0.016631654    9.3163183      735.90785     -36.276809      699.63104    
   3273000   302.08989      0.016631654    11.37433       749.49334     -32.194086      717.29925    
   3274000   297.83609      0.016631654    9.8710075      738.93956     -33.212041      705.72752    
   3275000   305.55723      0.016631654    6.0868938      758.09592     -35.47863       722.61729    
   3276000   297.20247      0.016631654    9.0435055      737.36751     -33.306675      704.06084    
   3277000   285.59281      0.016631654    19.716363      708.56364     -37.375304      671.18834    
   3278000   302.55097      0.016631654    8.4575868      750.63731     -33.792587      716.84472    
   3279000   297.80768      0.016631654    8.0094884      738.86906     -34.649083      704.21997    
   3280000   297.19808      0.016631654    15.706005      737.35663     -36.031305      701.32532    
   3281000   308.88836      0.016631654    8.5931635      766.36054     -33.537699      732.82284    
   3282000   303.75843      0.016631654    4.8859114      753.63303     -30.702752      722.93028    
   3283000   295.98913      0.016631654    11.179537      734.35719     -33.30671       701.05048    
   3284000   312.43322      0.016631654    12.174981      775.15544     -35.991585      739.16385    
   3285000   289.1793       0.016631654    5.405858       717.46181     -35.028364      682.43345    
   3286000   293.71571      0.016631654    6.9106644      728.71678     -32.247671      696.46911    
   3287000   306.25186      0.016631654    19.295483      759.8193      -30.731535      729.08776    
   3288000   305.29405      0.016631654    16.146146      757.44295     -27.785461      729.65748    
   3289000   297.67579      0.016631654    6.7297999      738.54185     -27.674745      710.8671     
   3290000   309.33043      0.016631654   -4.4739533      767.45731     -27.485031      739.97228    
   3291000   296.97541      0.016631654    6.5236457      736.80418     -24.327235      712.47695    
   3292000   294.61485      0.016631654    22.544511      730.94757     -26.184921      704.76265    
   3293000   305.98988      0.016631654    7.1398745      759.16932     -26.687793      732.48153    
   3294000   307.39764      0.016631654    7.2938693      762.66202     -32.277814      730.38421    
   3295000   289.24435      0.016631654    7.7133716      717.62322     -33.446374      684.17684    
   3296000   303.49971      0.016631654    13.403357      752.99114     -32.343566      720.64757    
   3297000   302.1942       0.016631654    7.6890387      749.75215     -30.688523      719.06363    
   3298000   291.97379      0.016631654    8.2159009      724.39502     -30.755019      693.64       
   3299000   300.5423       0.016631654    8.7992935      745.65373     -27.344772      718.30896    
   3300000   306.73436      0.016631654    8.6100807      761.01639     -26.330226      734.68617    
   3301000   302.8188       0.016631654    9.7672688      751.30179     -29.165118      722.13668    
   3302000   318.28196      0.016631654    9.3932968      789.66633     -27.994482      761.67184    
   3303000   315.28396      0.016631654    9.0926113      782.22819     -25.56448       756.66371    
   3304000   300.89391      0.016631654    6.3099364      746.52609     -25.490822      721.03527    
   3305000   288.3072       0.016631654    8.8850143      715.29812     -24.222511      691.07561    
   3306000   316.318        0.016631654    9.3922992      784.79366     -25.3931        759.40056    
   3307000   308.39173      0.016631654    9.2322392      765.12838     -24.484495      740.64389    
   3308000   301.2376       0.016631654    9.2609358      747.37878     -27.340198      720.03859    
   3309000   294.98416      0.016631654    10.304865      731.86382     -23.52468       708.33914    
   3310000   295.18405      0.016631654    6.3947093      732.35978     -25.802761      706.55702    
   3311000   306.11526      0.016631654    9.9132552      759.48039     -25.13333       734.34706    
   3312000   297.4296       0.016631654    9.6107576      737.93104     -24.450737      713.4803     
   3313000   301.54448      0.016631654    11.68817       748.14017     -22.432804      725.70736    
   3314000   305.26214      0.016631654    8.5022066      757.36378     -24.062728      733.30105    
   3315000   294.11552      0.016631654    8.7855174      729.7087      -26.257325      703.45138    
   3316000   302.26359      0.016631654    9.707602       749.92429     -25.045198      724.8791     
   3317000   309.37507      0.016631654    9.4491906      767.56808     -27.207137      740.36094    
   3318000   298.08561      0.016631654    8.8192353      739.55862     -26.803112      712.75551    
   3319000   294.63292      0.016631654    8.5036088      730.9924      -27.406095      703.5863     
   3320000   307.01113      0.016631654    9.6902417      761.70308     -29.763268      731.93981    
   3321000   286.76991      0.016631654    7.9939304      711.48405     -29.02922       682.45483    
   3322000   296.45639      0.016631654    5.8905942      735.51646     -28.866848      706.64962    
   3323000   302.75176      0.016631654    9.0113113      751.13546     -32.295629      718.83983    
   3324000   294.64004      0.016631654    8.2498481      731.01006     -35.731572      695.27849    
   3325000   295.71407      0.016631654    8.8822427      733.67477     -35.206031      698.46874    
   3326000   296.95174      0.016631654    9.6024498      736.74544     -34.411553      702.33389    
   3327000   298.13339      0.016631654    7.2658931      739.67717     -30.819995      708.85717    
   3328000   288.31502      0.016631654    11.93258       715.31752     -30.736938      684.58058    
   3329000   310.59184      0.016631654    6.9398318      770.58692     -36.290282      734.29664    
   3330000   312.64654      0.016631654    7.7054448      775.68469     -34.364946      741.31975    
   3331000   284.92698      0.016631654    10.13412       706.91168     -34.676492      672.23519    
   3332000   295.78487      0.016631654    7.1863576      733.85041     -28.249073      705.60134    
   3333000   306.88924      0.016631654    6.5452267      761.40067     -32.247645      729.15302    
   3334000   305.55937      0.016631654    8.8210625      758.10121     -29.813991      728.28722    
   3335000   293.55344      0.016631654    12.738499      728.31418     -30.715068      697.59912    
   3336000   295.06836      0.016631654    7.1474791      732.07274     -37.702536      694.3702     
   3337000   315.38971      0.016631654   -4.4424035      782.49056     -39.172773      743.31778    
   3338000   302.56777      0.016631654    11.962161      750.67897     -34.499025      716.17994    
   3339000   281.79231      0.016631654    8.1295237      699.13449     -33.011693      666.1228     
   3340000   310.35592      0.016631654    6.1040177      770.00159     -33.357198      736.64439    
   3341000   295.16052      0.016631654    15.201549      732.30138     -29.078587      703.22279    
   3342000   290.67565      0.016631654    12.23961       721.17431     -28.111964      693.06235    
   3343000   296.33214      0.016631654    8.4419211      735.20822     -31.022192      704.18602    
   3344000   308.29339      0.016631654   -0.54237848     764.88441     -29.139278      735.74513    
   3345000   298.50302      0.016631654    12.825617      740.59423     -25.839632      714.7546     
   3346000   303.11932      0.016631654    9.178719       752.04738     -27.084665      724.96272    
   3347000   310.01899      0.016631654    2.318427       769.16567     -31.101346      738.06432    
   3348000   303.592        0.016631654    11.026284      753.22011     -29.301098      723.91901    
   3349000   318.88859      0.016631654    11.685608      791.17139     -33.50164       757.66975    
   3350000   299.60543      0.016631654    11.77551       743.32932     -30.752727      712.5766     
   3351000   291.05861      0.016631654    7.2404912      722.12444     -33.45503       688.66941    
   3352000   315.11789      0.016631654    8.1420653      781.81618     -34.097741      747.71843    
   3353000   312.35803      0.016631654    10.658291      774.96887     -35.689361      739.27951    
   3354000   280.02995      0.016631654    3.6493255      694.76203     -36.618481      658.14355    
   3355000   301.13629      0.016631654    7.5609385      747.12745     -35.852744      711.2747     
   3356000   304.28554      0.016631654    8.8682632      754.9408      -33.998058      720.94275    
   3357000   277.29764      0.016631654    8.1167825      687.9831      -34.81113       653.17197    
   3358000   287.03938      0.016631654    8.53314        712.15261     -36.394978      675.75763    
   3359000   301.79309      0.016631654    10.340265      748.75697     -35.340989      713.41598    
   3360000   299.57865      0.016631654    10.796687      743.26289     -35.11506       708.14783    
   3361000   301.46073      0.016631654    8.8096614      747.93237     -37.008817      710.92355    
   3362000   301.05248      0.016631654    6.6930104      746.91951     -32.206956      714.71255    
   3363000   292.76639      0.016631654    8.3214983      726.36149     -32.522694      693.83879    
   3364000   308.33675      0.016631654    9.4396159      764.99197     -27.433798      737.55817    
   3365000   309.83651      0.016631654    8.9380352      768.71293     -28.338409      740.37452    
   3366000   287.78363      0.016631654    5.6153534      713.99912     -30.109095      683.89003    
   3367000   300.72262      0.016631654    8.9487433      746.10112     -29.38913       716.71199    
   3368000   316.74542      0.016631654    9.3081191      785.85412     -32.430931      753.42319    
   3369000   297.03602      0.016631654    8.2236806      736.95455     -35.608537      701.34601    
   3370000   299.94805      0.016631654    10.661614      744.17937     -34.349261      709.83011    
   3371000   294.13933      0.016631654    9.3586786      729.76779     -33.048037      696.71976    
   3372000   302.2393       0.016631654    9.8043872      749.86403     -32.392113      717.47192    
   3373000   298.3942       0.016631654    6.727892       740.32424     -31.666205      708.65804    
   3374000   287.57541      0.016631654    9.0535965      713.48252     -32.941204      680.54131    
   3375000   291.31952      0.016631654    10.83552       722.77176     -34.850607      687.92115    
   3376000   304.26251      0.016631654    8.6924624      754.88367     -32.442524      722.44115    
   3377000   315.34696      0.016631654    10.553445      782.3845      -29.363679      753.02082    
   3378000   294.53684      0.016631654    7.6415598      730.75403     -28.01719       702.73684    
   3379000   295.75549      0.016631654    9.7356905      733.77751     -29.855592      703.92192    
   3380000   309.50944      0.016631654    9.3731672      767.90145     -29.748495      738.15296    
   3381000   312.8522       0.016631654    6.3319581      776.19493     -29.932076      746.26285    
   3382000   298.46698      0.016631654    2.7569065      740.5048      -26.369714      714.13508    
   3383000   292.11555      0.016631654    10.732534      724.74672     -30.448732      694.29799    
   3384000   305.88446      0.016631654    15.392329      758.90777     -25.051279      733.85649    
   3385000   307.65038      0.016631654    15.792751      763.28907     -24.936042      738.35303    
   3386000   300.88964      0.016631654    6.8025774      746.51548     -25.797722      720.71776    
   3387000   296.62006      0.016631654   -3.1541861      735.92255     -28.310866      707.61168    
   3388000   297.05482      0.016631654    11.883488      737.0012      -28.108964      708.89223    
   3389000   304.39647      0.016631654    8.8061243      755.21603     -27.188879      728.02715    
   3390000   299.76205      0.016631654    10.472297      743.71791     -27.601778      716.11614    
   3391000   321.80872      0.016631654    4.8537908      798.4163      -28.362861      770.05344    
   3392000   302.74876      0.016631654    0.40125887     751.12802     -29.15957       721.96845    
   3393000   292.40572      0.016631654    7.0107718      725.46665     -26.708437      698.75821    
   3394000   291.70483      0.016631654    12.428138      723.72773     -30.434318      693.29341    
   3395000   304.70911      0.016631654    9.9220911      755.99171     -30.183413      725.8083     
   3396000   306.76834      0.016631654    8.176329       761.10071     -34.052085      727.04863    
   3397000   287.33452      0.016631654    7.374224       712.88486     -29.396597      683.48827    
   3398000   301.67461      0.016631654    12.255996      748.46302     -30.412245      718.05078    
   3399000   308.93544      0.016631654    11.341448      766.47735     -25.973016      740.50433    
   3400000   284.02403      0.016631654    2.7242368      704.67144     -23.34108       681.33036    
   3401000   296.6042       0.016631654    12.247099      735.88319     -24.266003      711.61718    
   3402000   311.30441      0.016631654    13.119504      772.35483     -28.283825      744.071      
   3403000   294.39466      0.016631654    6.4743355      730.40127     -25.887851      704.51342    
   3404000   295.13638      0.016631654    8.2294874      732.24149     -25.646195      706.59529    
   3405000   302.81982      0.016631654    9.8584702      751.30433     -25.529666      725.77467    
   3406000   301.30686      0.016631654    10.231318      747.55063     -22.234527      725.31611    
   3407000   299.23945      0.016631654    5.0975265      742.42133     -24.846091      717.57524    
   3408000   292.85542      0.016631654    11.800859      726.58238     -24.019615      702.56277    
   3409000   302.69734      0.016631654    19.258245      751.00045     -23.739754      727.26069    
   3410000   298.21731      0.016631654    5.1119453      739.88537     -25.319158      714.56621    
   3411000   278.94359      0.016631654    7.7591409      692.06673     -25.117819      666.94891    
   3412000   307.55727      0.016631654    17.504871      763.05806     -27.392102      735.66596    
   3413000   312.27842      0.016631654    12.425226      774.77136     -28.566131      746.20523    
   3414000   304.50633      0.016631654    8.5334966      755.48861     -29.6647        725.82391    
   3415000   293.85798      0.016631654    5.289539       729.06974     -31.778639      697.29111    
   3416000   293.65555      0.016631654    18.369901      728.56751     -30.385451      698.18206    
   3417000   306.44611      0.016631654    21.405674      760.30125     -29.347725      730.95352    
   3418000   302.94344      0.016631654    7.7780001      751.61102     -28.765441      722.84557    
   3419000   282.06282      0.016631654    4.1372318      699.80564     -26.921843      672.8838     
   3420000   298.02408      0.016631654    7.9544002      739.40596     -30.237355      709.16861    
   3421000   302.59319      0.016631654    13.044586      750.74203     -26.858514      723.88352    
   3422000   307.04609      0.016631654    6.2516321      761.78981     -26.895018      734.89479    
   3423000   297.28552      0.016631654    3.8909355      737.57357     -30.250765      707.3228     
   3424000   302.92266      0.016631654    10.007617      751.55947     -31.246904      720.31256    
   3425000   302.48647      0.016631654    10.654574      750.47728     -32.398567      718.07871    
   3426000   309.30344      0.016631654    7.9374115      767.39037     -30.759995      736.63037    
   3427000   310.09443      0.016631654    7.5234263      769.35283     -33.696668      735.65616    
   3428000   291.22679      0.016631654    6.3253244      722.54169     -34.134482      688.40721    
   3429000   295.72471      0.016631654    11.116001      733.70117     -29.850105      703.85106    
   3430000   322.0339       0.016631654    5.9060872      798.97498     -32.255444      766.71954    
   3431000   299.82724      0.016631654    4.2083366      743.87964     -33.573057      710.30659    
   3432000   284.20924      0.016631654    7.0964252      705.13097     -31.172034      673.95893    
   3433000   292.15732      0.016631654    11.148072      724.85036     -29.262592      695.58776    
   3434000   314.14846      0.016631654    10.02695       779.411       -28.25509       751.15591    
   3435000   293.95576      0.016631654    2.6978795      729.31235     -28.192482      701.11987    
   3436000   295.16296      0.016631654    13.441712      732.30744     -30.664705      701.64274    
   3437000   309.35823      0.016631654    9.5174087      767.52629     -27.660496      739.86579    
   3438000   308.70651      0.016631654    9.4314301      765.90936     -29.769336      736.14002    
   3439000   296.75081      0.016631654    1.4125625      736.24693     -29.012361      707.23457    
   3440000   291.91683      0.016631654    7.8239932      724.25371     -29.048125      695.20558    
   3441000   303.29471      0.016631654    15.75456       752.48252     -32.508258      719.97427    
   3442000   302.84156      0.016631654    20.278822      751.35826     -28.331532      723.02673    
   3443000   321.07093      0.016631654    2.1131408      796.58584     -30.161545      766.42429    
   3444000   288.11881      0.016631654   -7.547313       714.8307      -31.225645      683.60506    
   3445000   295.60438      0.016631654    19.194685      733.4026      -30.697785      702.70482    
   3446000   309.82984      0.016631654   -0.046926291    768.69637     -30.333892      738.36247    
   3447000   310.67465      0.016631654    6.048745       770.79236     -31.160841      739.63152    
   3448000   288.16859      0.016631654    3.5686381      714.9542      -31.045697      683.90851    
   3449000   295.79559      0.016631654    17.431259      733.87701     -27.930822      705.94618    
   3450000   310.11766      0.016631654    8.7112364      769.41046     -31.692813      737.71765    
   3451000   306.3977       0.016631654    7.7811675      760.18115     -34.691767      725.48938    
   3452000   294.45457      0.016631654    2.247126       730.54991     -26.998147      703.55176    
   3453000   286.25924      0.016631654    14.436094      710.21706     -29.123686      681.09338    
   3454000   297.89453      0.016631654    9.7148288      739.08454     -27.656803      711.42774    
   3455000   313.33343      0.016631654    8.5149414      777.38889     -30.336105      747.05278    
   3456000   283.46713      0.016631654    8.8022003      703.28977     -32.718942      670.57083    
   3457000   290.75298      0.016631654    9.949598       721.36616     -32.129827      689.23634    
   3458000   311.45269      0.016631654    9.7442942      772.7227      -29.653179      743.06953    
   3459000   302.03052      0.016631654    9.5336629      749.34604     -29.900664      719.44538    
   3460000   293.24298      0.016631654    7.7514145      727.54391     -32.860826      694.68309    
   3461000   301.45465      0.016631654    9.5817764      747.9173      -30.520113      717.39718    
   3462000   308.56544      0.016631654    8.6619774      765.55936     -33.700147      731.85921    
   3463000   303.86429      0.016631654    4.6687758      753.89569     -30.367876      723.52781    
   3464000   286.50534      0.016631654    8.1583118      710.82765     -29.744038      681.08361    
   3465000   296.06487      0.016631654    9.1445667      734.5451      -27.502243      707.04286    
   3466000   313.26632      0.016631654    7.432857       777.22238     -30.23897       746.98341    
   3467000   300.0576       0.016631654    8.2819304      744.45118     -30.541399      713.90978    
   3468000   294.68701      0.016631654    6.8918216      731.12661     -29.740159      701.38645    
   3469000   302.30394      0.016631654    10.99812       750.0244      -30.485938      719.53847    
   3470000   305.13529      0.016631654    15.495365      757.04906     -24.304797      732.74427    
   3471000   299.03585      0.016631654    8.3867402      741.91618     -23.020898      718.89529    
   3472000   296.40822      0.016631654    7.1297903      735.39696     -24.952773      710.44419    
   3473000   302.6589       0.016631654    6.9232492      750.90508     -29.012325      721.89275    
   3474000   317.16336      0.016631654    9.1023301      786.89103     -31.372335      755.5187     
   3475000   296.67237      0.016631654    7.54805        736.05233     -31.674916      704.37741    
   3476000   303.69878      0.016631654    6.0085122      753.48504     -29.373008      724.11204    
   3477000   306.53885      0.016631654    8.82415        760.53134     -30.52789       730.00345    
   3478000   317.40407      0.016631654    10.684316      787.48824     -32.735695      754.75254    
   3479000   289.25784      0.016631654    9.2097855      717.65667     -31.999039      685.65763    
   3480000   296.69194      0.016631654    8.0434717      736.10087     -30.95191       705.14896    
   3481000   322.95994      0.016631654    10.125213      801.27252     -28.431243      772.84128    
   3482000   309.34896      0.016631654    12.766316      767.50329     -28.56102       738.94227    
   3483000   297.98488      0.016631654    9.3068258      739.3087      -32.027195      707.28151    
   3484000   303.05199      0.016631654    7.6014026      751.88033     -36.360276      715.52005    
   3485000   294.57925      0.016631654    8.7104369      730.85923     -31.849863      699.00937    
   3486000   295.4065       0.016631654    10.52037       732.91167     -30.767789      702.14388    
   3487000   302.33288      0.016631654    8.6588481      750.09621     -31.632968      718.46325    
   3488000   288.12948      0.016631654    8.4862668      714.85719     -29.078742      685.77845    
   3489000   287.93383      0.016631654    7.6293305      714.37176     -23.290266      691.08149    
   3490000   314.4952       0.016631654    8.0677873      780.27127     -24.073768      756.1975     
   3491000   313.56559      0.016631654    11.938881      777.96487     -21.975113      755.98976    
   3492000   290.09539      0.016631654    7.9709517      719.73466     -25.706208      694.02846    
   3493000   303.1553       0.016631654    2.7981369      752.13665     -27.718885      724.41777    
   3494000   309.78963      0.016631654    11.707002      768.59662     -29.442612      739.15401    
   3495000   288.35356      0.016631654    19.330127      715.41314     -32.821013      682.59212    
   3496000   298.38717      0.016631654    1.1967484      740.3068      -32.920035      707.38677    
   3497000   304.47083      0.016631654    9.5504402      755.40053     -34.905499      720.49503    
   3498000   285.00131      0.016631654    9.023347       707.09611     -28.850977      678.24513    
   3499000   294.13091      0.016631654    10.511286      729.7469      -31.745653      698.00124    
   3500000   295.22447      0.016631654    7.1807215      732.46005     -30.733671      701.72638    
   3501000   303.13654      0.016631654    8.3038491      752.09012     -29.530137      722.55998    
   3502000   310.0727       0.016631654    9.0707775      769.29892     -25.438083      743.86083    
   3503000   306.06386      0.016631654    11.468602      759.35287     -23.256621      736.09625    
   3504000   290.13906      0.016631654    5.8204075      719.84301     -25.71261       694.1304     
   3505000   302.71147      0.016631654    4.5654545      751.0355      -27.42733       723.60817    
   3506000   299.45942      0.016631654    9.6515945      742.96706     -23.552674      719.41439    
   3507000   299.72112      0.016631654    9.6888763      743.61637     -27.345098      716.27127    
   3508000   299.84757      0.016631654    5.1908733      743.9301      -29.508526      714.42157    
   3509000   295.49667      0.016631654    6.8026205      733.13537     -33.27748       699.85789    
   3510000   299.71349      0.016631654    16.209746      743.59744     -32.165163      711.43228    
   3511000   304.7483       0.016631654    10.845914      756.08893     -33.800171      722.28876    
   3512000   293.15649      0.016631654    7.8616042      727.32934     -27.793483      699.53586    
   3513000   295.36603      0.016631654    4.6679112      732.81126     -26.361507      706.44976    
   3514000   308.13219      0.016631654    5.5012574      764.48445     -25.836349      738.6481     
   3515000   308.55823      0.016631654    13.823971      765.54147     -26.618701      738.92277    
   3516000   296.29068      0.016631654    9.2899695      735.10534     -26.950306      708.15503    
   3517000   286.01219      0.016631654   -5.7396884      709.60414     -27.865877      681.73826    
   3518000   306.77252      0.016631654    3.0183816      761.11109     -28.203317      732.90777    
   3519000   305.26275      0.016631654    10.893092      757.36529     -30.966549      726.39874    
   3520000   303.21961      0.016631654    13.88121       752.2962      -33.118017      719.17819    
   3521000   298.40621      0.016631654    7.8551715      740.35404     -30.355635      709.9984     
   3522000   311.21944      0.016631654    2.8148124      772.144       -26.705083      745.43892    
   3523000   310.50484      0.016631654    10.576808      770.37106     -28.178564      742.1925     
   3524000   308.58832      0.016631654    16.195497      765.61612     -27.666654      737.94947    
   3525000   293.56309      0.016631654    3.8214183      728.33811     -25.919169      702.41894    
   3526000   301.0638       0.016631654    1.982191       746.94758     -25.769306      721.17827    
   3527000   307.72903      0.016631654    11.732069      763.48421     -29.621396      733.86281    
   3528000   300.50829      0.016631654    11.63012       745.56936     -27.725832      717.84353    
   3529000   295.48019      0.016631654    1.5312928      733.09449     -29.561342      703.53315    
   3530000   296.93449      0.016631654    3.7001973      736.70266     -31.834782      704.86788    
   3531000   311.07147      0.016631654    20.207084      771.7769      -26.986705      744.7902     
   3532000   298.50885      0.016631654    11.879512      740.6087      -28.531745      712.07695    
   3533000   303.03391      0.016631654   -0.32659795     751.83548     -28.763589      723.07189    
   3534000   297.42556      0.016631654    3.654417       737.92102     -28.558834      709.36219    
   3535000   308.25404      0.016631654    10.81503       764.78677     -29.861716      734.92505    
   3536000   302.413        0.016631654    12.121581      750.29499     -31.108322      719.18667    
   3537000   298.95613      0.016631654    4.6221899      741.71839     -27.258692      714.4597     
   3538000   309.78991      0.016631654    12.748244      768.59731     -29.21059       739.38672    
   3539000   294.68302      0.016631654    9.1413834      731.1167      -27.319956      703.79674    
   3540000   307.57396      0.016631654    8.4895992      763.09947     -32.245432      730.85404    
   3541000   311.25923      0.016631654    8.024872       772.24272     -31.938734      740.30399    
   3542000   301.64854      0.016631654    15.930727      748.39833     -27.40615       720.99218    
   3543000   287.18426      0.016631654    7.4391407      712.51205     -30.884502      681.62755    
   3544000   304.24003      0.016631654    6.3542962      754.82791     -33.25268       721.57523    
   3545000   304.53705      0.016631654    9.4290689      755.56483     -37.126047      718.43878    
   3546000   296.09783      0.016631654    8.4126387      734.62688     -33.165797      701.46109    
   3547000   297.20792      0.016631654    8.0925522      737.38104     -29.660288      707.72075    
   3548000   310.1773       0.016631654    8.4995836      769.55843     -32.874373      736.68405    
   3549000   303.30094      0.016631654    11.997163      752.498       -34.79812       717.69988    
   3550000   304.88401      0.016631654    11.983855      756.42563     -29.580277      726.84535    
   3551000   294.94027      0.016631654    8.5062726      731.75495     -29.514171      702.24077    
   3552000   285.42316      0.016631654    9.4258233      708.14274     -31.702102      676.44064    
   3553000   306.89751      0.016631654    10.333426      761.42119     -24.749568      736.67162    
   3554000   313.97066      0.016631654    8.8411334      778.96986     -30.148809      748.82105    
   3555000   296.54266      0.016631654    7.4307372      735.73052     -30.842296      704.88822    
   3556000   287.87883      0.016631654    9.9353951      714.2353      -30.149787      684.08551    
   3557000   313.86707      0.016631654    7.6829243      778.71286     -28.257024      750.45584    
   3558000   295.96736      0.016631654    6.2454191      734.30318     -34.266681      700.0365     
   3559000   295.17275      0.016631654    12.644981      732.33172     -34.230275      698.10145    
   3560000   304.43622      0.016631654    9.9376659      755.31466     -30.425313      724.88935    
   3561000   320.04876      0.016631654    10.790997      794.04978     -25.416108      768.63368    
   3562000   307.55002      0.016631654    5.744276       763.04009     -33.784094      729.25599    
   3563000   295.35774      0.016631654    6.6897299      732.79069     -29.383251      703.40744    
   3564000   301.13045      0.016631654    8.3997057      747.11295     -29.722178      717.39077    
   3565000   300.60269      0.016631654    12.248938      745.80356     -31.571593      714.23196    
   3566000   303.49319      0.016631654    11.643791      752.97497     -34.796215      718.17875    
   3567000   304.39109      0.016631654    5.6982642      755.20268     -33.481873      721.7208     
   3568000   307.53912      0.016631654    7.1577828      763.01303     -32.866753      730.14628    
   3569000   294.37937      0.016631654    16.318359      730.36333     -32.659202      697.70413    
   3570000   281.80895      0.016631654    13.684167      699.17578     -31.535481      667.6403     
   3571000   314.61688      0.016631654    9.1599408      780.57316     -31.32713       749.24603    
   3572000   303.28091      0.016631654    8.1109882      752.4483      -28.481839      723.96646    
   3573000   291.65871      0.016631654    9.7276079      723.6133      -28.126329      695.48697    
   3574000   305.91786      0.016631654    5.7074647      758.99065     -29.980943      729.0097     
   3575000   314.85265      0.016631654    9.2159008      781.15811     -26.882067      754.27605    
   3576000   288.26243      0.016631654    7.380975       715.18704     -28.872871      686.31417    
   3577000   288.839        0.016631654    8.4697152      716.61752     -27.064346      689.55318    
   3578000   301.52963      0.016631654    10.778546      748.10332     -27.435428      720.6679     
   3579000   316.37444      0.016631654    2.70425        784.93369     -30.101644      754.83205    
   3580000   294.92213      0.016631654    5.832187       731.70993     -29.097467      702.61246    
   3581000   288.14478      0.016631654    7.3717333      714.89515     -32.892644      682.00251    
   3582000   306.65996      0.016631654    10.450302      760.83181     -31.960475      728.87134    
   3583000   313.07765      0.016631654    4.8108003      776.75428     -29.661807      747.09247    
   3584000   291.85209      0.016631654    9.5871678      724.09309     -29.75307       694.34002    
   3585000   304.22948      0.016631654    10.491881      754.80173     -34.928821      719.87291    
   3586000   305.80226      0.016631654   -8.5588287      758.70383     -29.069587      729.63424    
   3587000   293.40156      0.016631654    9.1238656      727.93735     -29.411705      698.52564    
   3588000   298.29829      0.016631654    15.349379      740.08627     -27.959066      712.12721    
   3589000   293.19102      0.016631654    3.9141915      727.415       -31.110666      696.30434    
   3590000   299.68924      0.016631654    7.7870968      743.53727     -33.402989      710.13428    
   3591000   300.44035      0.016631654    11.482762      745.40078     -31.782263      713.61852    
   3592000   296.66714      0.016631654    4.5578287      736.03936     -30.443147      705.59621    
   3593000   303.4909       0.016631654    7.6621531      752.9693      -30.376009      722.59329    
   3594000   291.42872      0.016631654    8.8986274      723.04268     -35.082865      687.95981    
   3595000   312.83485      0.016631654    13.053241      776.15187     -34.018624      742.13325    
   3596000   307.6906       0.016631654    8.9971231      763.38885     -33.578716      729.81013    
   3597000   290.37425      0.016631654    11.488593      720.42652     -28.742681      691.68384    
   3598000   293.46693      0.016631654    9.2823686      728.09954     -28.460001      699.63954    
   3599000   308.79997      0.016631654    8.6591551      766.14123     -30.608086      735.53315    
   3600000   288.40864      0.016631654    8.6080082      715.54979     -26.907156      688.64264    
   3601000   312.20277      0.016631654    9.6520213      774.58368     -31.07883       743.50485    
   3602000   300.64871      0.016631654    8.3454066      745.91775     -30.577791      715.33996    
   3603000   287.98584      0.016631654    8.7991398      714.5008      -31.443853      683.05695    
   3604000   309.06601      0.016631654    7.9907973      766.8013      -28.388088      738.41321    
   3605000   306.97475      0.016631654    9.6536904      761.61282     -30.035384      731.57744    
   3606000   274.33314      0.016631654    7.695821       680.62807     -25.388329      655.23974    
   3607000   296.98471      0.016631654    9.187734       736.82726     -19.573487      717.25377    
   3608000   310.11674      0.016631654    9.8655699      769.40818     -26.413325      742.99485    
   3609000   310.81902      0.016631654    7.637465       771.15056     -26.589787      744.56077    
   3610000   292.46801      0.016631654    9.4451341      725.62119     -27.036144      698.58505    
   3611000   310.80969      0.016631654    12.588571      771.1274      -25.415952      745.71145    
   3612000   318.58251      0.016631654    6.5061816      790.41198     -27.321983      763.09       
   3613000   285.90977      0.016631654    6.961231       709.35003     -28.583856      680.76617    
   3614000   297.22032      0.016631654    10.370096      737.41181     -28.692219      708.71959    
   3615000   302.5604       0.016631654    9.3164674      750.66069     -28.507138      722.15356    
   3616000   296.30931      0.016631654    6.0668896      735.15156     -32.185041      702.96651    
   3617000   303.05132      0.016631654    9.71171        751.87868     -28.832743      723.04594    
   3618000   298.7408       0.016631654    10.399531      741.18417     -31.262851      709.92132    
   3619000   306.00111      0.016631654    8.3212183      759.1972      -27.610821      731.58637    
   3620000   293.40271      0.016631654    8.5616227      727.94022     -23.319039      704.62118    
   3621000   304.8292       0.016631654    14.676511      756.28964     -23.697805      732.59184    
   3622000   314.77139      0.016631654    13.117236      780.95651     -29.238097      751.71841    
   3623000   304.13636      0.016631654    10.892757      754.57069     -25.739812      728.83087    
   3624000   301.67128      0.016631654    2.576367       748.45476     -25.295541      723.15922    
   3625000   301.06301      0.016631654    9.6351936      746.94563     -27.098984      719.84665    
   3626000   298.86386      0.016631654    9.0761902      741.48949     -25.982805      715.50668    
   3627000   301.50047      0.016631654    8.0499499      748.03099     -27.191315      720.83967    
   3628000   296.34076      0.016631654    9.2004823      735.22959     -28.974468      706.25512    
   3629000   297.92787      0.016631654    10.427384      739.16726     -29.616593      709.55067    
   3630000   298.80863      0.016631654    7.8641651      741.35244     -28.430143      712.9223     
   3631000   303.53483      0.016631654    7.4429078      753.07829     -26.795803      726.28248    
   3632000   288.02194      0.016631654    16.97242       714.59036     -26.387496      688.20287    
   3633000   310.20233      0.016631654    14.299198      769.62053     -27.03969       742.58084    
   3634000   294.5169       0.016631654    6.6642386      730.70455     -27.056222      703.64833    
   3635000   288.11733      0.016631654    1.869056       714.82703     -26.928133      687.8989     
   3636000   314.99327      0.016631654    14.903167      781.50698     -28.348092      753.15889    
   3637000   302.76802      0.016631654    9.5879675      751.17579     -22.683771      728.49202    
   3638000   297.39206      0.016631654    4.2003774      737.8379      -25.664523      712.17338    
   3639000   303.99701      0.016631654    6.9470036      754.22496     -30.393445      723.83151    
   3640000   301.34185      0.016631654    12.212044      747.63743     -28.848429      718.789      
   3641000   303.01303      0.016631654    10.176581      751.78368     -26.156947      725.62674    
   3642000   301.86972      0.016631654    8.2472211      748.94709     -25.650864      723.29623    
   3643000   296.13782      0.016631654    5.540611       734.7261      -28.836949      705.88916    
   3644000   301.85207      0.016631654    10.196965      748.90331     -27.495273      721.40804    
   3645000   290.49566      0.016631654    12.288272      720.72773     -28.825779      691.90195    
   3646000   304.07143      0.016631654    7.5500586      754.40959     -26.101984      728.30761    
   3647000   307.35202      0.016631654    7.6207093      762.54884     -27.252288      735.29656    
   3648000   294.40886      0.016631654    10.096185      730.4365      -22.998961      707.43754    
   3649000   298.98208      0.016631654    8.6217244      741.78278     -29.021085      712.76169    
   3650000   299.57119      0.016631654    10.197711      743.24438     -23.602974      719.6414     
   3651000   291.3552       0.016631654    8.1436969      722.86028     -27.60048       695.2598     
   3652000   297.97547      0.016631654    12.445577      739.28535     -26.586121      712.69923    
   3653000   301.89628      0.016631654    12.324501      749.013       -35.224229      713.78877    
   3654000   297.2495       0.016631654    10.38848       737.48419     -33.714397      703.7698     
   3655000   298.81171      0.016631654   -0.88517564     741.36008     -32.253783      709.1063     
   3656000   300.78257      0.016631654    9.7025257      746.24985     -38.678271      707.57158    
   3657000   319.3375       0.016631654    14.308187      792.28513     -33.305902      758.97923    
   3658000   299.725        0.016631654    7.1020462      743.62599     -34.672639      708.95335    
   3659000   292.18476      0.016631654    7.3469156      724.91845     -30.237233      694.68122    
   3660000   306.18955      0.016631654    9.1698123      759.66471     -29.239664      730.42504    
   3661000   303.26797      0.016631654    9.1306304      752.41619     -32.191292      720.2249     
   3662000   298.69744      0.016631654    9.160239       741.07658     -27.595594      713.48099    
   3663000   293.02717      0.016631654    9.5026783      727.00849     -25.082854      701.92564    
   3664000   295.91924      0.016631654    6.3848927      734.18379     -24.310814      709.87298    
   3665000   314.54999      0.016631654    9.1251738      780.4072      -22.093214      758.31398    
   3666000   302.1048       0.016631654    4.6391585      749.53032     -24.595998      724.93433    
   3667000   286.22169      0.016631654    9.4143822      710.12391     -29.353417      680.77049    
   3668000   310.28497      0.016631654    8.9420584      769.82555     -32.008198      737.81735    
   3669000   310.13162      0.016631654    11.089692      769.4451      -30.483998      738.9611     
   3670000   298.22025      0.016631654    8.1569579      739.89266     -32.327185      707.56548    
   3671000   290.62918      0.016631654    7.6294765      721.05901     -24.426394      696.63261    
   3672000   294.37594      0.016631654    7.8035557      730.35482     -30.42415       699.93067    
   3673000   311.83089      0.016631654    9.0783968      773.66104     -30.800866      742.86018    
   3674000   303.44774      0.016631654    10.858187      752.8622      -29.833166      723.02904    
   3675000   284.41045      0.016631654    7.4808559      705.63017     -31.108179      674.52199    
   3676000   304.4971       0.016631654    9.1547308      755.46571     -25.60193       729.86378    
   3677000   312.60282      0.016631654    9.5810358      775.57622     -25.874228      749.70199    
   3678000   283.46007      0.016631654    9.2305845      703.27226     -27.695813      675.57644    
   3679000   293.08756      0.016631654    8.1862793      727.15831     -27.789536      699.36878    
   3680000   318.23521      0.016631654    10.491286      789.55033     -26.413743      763.13658    
   3681000   298.59662      0.016631654    9.0553221      740.82644     -27.914892      712.91155    
   3682000   296.69233      0.016631654    7.6421075      736.10184     -29.411425      706.69042    
   3683000   297.25302      0.016631654    8.6443853      737.49294     -28.142978      709.34996    
   3684000   285.47891      0.016631654    8.5052721      708.28104     -28.219789      680.06125    
   3685000   294.14919      0.016631654    9.8752371      729.79226     -28.723001      701.06926    
   3686000   304.69954      0.016631654    7.5600249      755.96795     -26.819388      729.14856    
   3687000   290.59914      0.016631654    12.131241      720.98448     -31.962879      689.0216     
   3688000   303.72883      0.016631654    9.5981665      753.5596      -31.051416      722.50818    
   3689000   298.46563      0.016631654    5.9459186      740.50145     -31.984516      708.51693    
   3690000   295.8141       0.016631654    9.6241626      733.92293     -25.565406      708.35753    
   3691000   297.29423      0.016631654    8.8400209      737.59517     -33.048102      704.54707    
   3692000   290.20917      0.016631654    3.297732       720.01696     -33.109009      686.90795    
   3693000   293.38725      0.016631654    6.0679838      727.90186     -32.57878       695.32308    
   3694000   299.60927      0.016631654    9.3514087      743.33887     -38.263283      705.07558    
   3695000   310.74752      0.016631654    12.138465      770.97316     -37.023208      733.94995    
   3696000   293.34688      0.016631654    4.1093446      727.8017      -31.315513      696.48619    
   3697000   291.79498      0.016631654    7.7234182      723.9514      -27.483172      696.46823    
   3698000   299.6871       0.016631654    10.905531      743.53195     -27.016574      716.51538    
   3699000   301.34965      0.016631654    12.234269      747.65679     -25.560415      722.09637    
   3700000   298.21941      0.016631654    15.333031      739.89059     -21.303255      718.58733    
   3701000   322.1612       0.016631654    6.0761395      799.29083     -23.654365      775.63646    
   3702000   294.30844      0.016631654    6.8091524      730.18736     -20.509074      709.67829    
   3703000   294.21191      0.016631654    12.628415      729.94786     -19.891236      710.05663    
   3704000   307.75484      0.016631654    11.288965      763.54824     -21.757153      741.79108    
   3705000   301.83324      0.016631654    9.4617541      748.85659     -25.780572      723.07601    
   3706000   302.79441      0.016631654    5.4271085      751.24128     -28.500495      722.74078    
   3707000   306.33866      0.016631654    4.6175554      760.03465     -23.727383      736.30727    
   3708000   300.44711      0.016631654    9.6008103      745.41756     -25.884459      719.5331     
   3709000   294.01418      0.016631654    13.909185      729.45728     -31.971874      697.4854     
   3710000   301.83316      0.016631654    15.350722      748.8564      -24.948947      723.90745    
   3711000   311.93537      0.016631654    3.7923929      773.92026     -19.452852      754.46741    
   3712000   294.50512      0.016631654    5.283027       730.67533     -21.182145      709.49318    
   3713000   297.72378      0.016631654    21.091624      738.6609      -22.904402      715.75649    
   3714000   307.10655      0.016631654    12.530268      761.93983     -24.833502      737.10633    
   3715000   313.18164      0.016631654    3.2445436      777.01228     -27.753521      749.25876    
   3716000   288.72931      0.016631654    2.1559881      716.34539     -27.480497      688.86489    
   3717000   286.67979      0.016631654    11.737068      711.26045     -29.356624      681.90383    
   3718000   308.71892      0.016631654    16.286821      765.94014     -24.186192      741.75395    
   3719000   307.08456      0.016631654    5.903489       761.88525     -27.932254      733.953      
   3720000   290.44949      0.016631654    8.5675455      720.61319     -31.01476       689.59843    
   3721000   290.49493      0.016631654    9.5685198      720.72594     -28.659502      692.06644    
   3722000   298.61841      0.016631654    8.6850139      740.8805      -30.863293      710.01721    
   3723000   309.90486      0.016631654    9.3835108      768.88251     -26.68038       742.20213    
   3724000   303.92671      0.016631654    8.8731946      754.05054     -29.045732      725.00481    
   3725000   284.97965      0.016631654    8.0074548      707.04237     -29.56615       677.47622    
   3726000   298.3585       0.016631654    7.5804057      740.23566     -32.691182      707.54448    
   3727000   300.32309      0.016631654    8.867136       745.10987     -28.900495      716.20937    
   3728000   293.70954      0.016631654    8.5680404      728.70146     -29.863541      698.83792    
   3729000   307.72885      0.016631654    9.6947808      763.48376     -29.923473      733.56029    
   3730000   302.11462      0.016631654    11.355918      749.55469     -30.288846      719.26585    
   3731000   297.17237      0.016631654    5.5740071      737.29284     -32.613236      704.6796     
   3732000   294.69375      0.016631654    8.4701531      731.14333     -35.033988      696.10934    
   3733000   303.06179      0.016631654    14.496625      751.90465     -31.896465      720.00819    
   3734000   297.88013      0.016631654    4.8646736      739.04882     -37.097524      701.95129    
   3735000   306.49823      0.016631654    2.8808246      760.43056     -32.408958      728.0216     
   3736000   303.06224      0.016631654    14.716693      751.90578     -33.790846      718.11494    
   3737000   302.26468      0.016631654    13.24339       749.927       -32.029681      717.89732    
   3738000   283.80542      0.016631654    0.36723456     704.12907     -32.02994       672.09913    
   3739000   293.45136      0.016631654   -10.330508      728.06092     -34.893274      693.16764    
   3740000   319.61786      0.016631654    14.331506      792.98073     -37.521673      755.45906    
   3741000   295.82723      0.016631654    11.206853      733.95551     -32.935146      701.02036    
   3742000   282.50668      0.016631654   -5.551615       700.90686     -29.865122      671.04174    
   3743000   303.14378      0.016631654    5.4086391      752.10807     -26.791942      725.31612    
   3744000   307.22679      0.016631654    16.536483      762.23813     -28.850297      733.38784    
   3745000   296.30805      0.016631654    8.0689568      735.14844     -27.683162      707.46528    
   3746000   303.4058       0.016631654    8.326529       752.75815     -25.985491      726.77266    
   3747000   289.59625      0.016631654    21.714657      718.49627     -31.851932      686.64434    
   3748000   297.779        0.016631654    6.9045002      738.7979      -31.314464      707.48344    
   3749000   305.05359      0.016631654    6.8832712      756.84636     -31.095925      725.75043    
   3750000   306.9559       0.016631654    15.96079       761.56606     -30.800535      730.76552    
   3751000   293.75314      0.016631654    25.626715      728.80965     -31.494977      697.31467    
   3752000   305.73333      0.016631654    0.93760996     758.53282     -26.596492      731.93633    
   3753000   320.97794      0.016631654    3.7169745      796.35511     -27.492141      768.86297    
   3754000   304.44572      0.016631654    14.061455      755.33821     -28.574177      726.76404    
   3755000   283.81617      0.016631654    14.93113       704.15574     -29.087741      675.068      
   3756000   306.29203      0.016631654    7.0607498      759.91897     -28.867794      731.05118    
   3757000   303.95468      0.016631654    5.0430849      754.11993     -26.341695      727.77824    
   3758000   288.95924      0.016631654    25.63016       716.91583     -22.579806      694.33603    
   3759000   298.29416      0.016631654    2.9104502      740.07605     -25.100946      714.9751     
   3760000   316.99105      0.016631654   -6.3437155      786.46353     -26.207942      760.25559    
   3761000   303.5594       0.016631654    16.702455      753.13923     -23.46564       729.67359    
   3762000   286.62781      0.016631654    11.359161      711.1315      -24.224525      686.90697    
   3763000   296.78518      0.016631654   -0.14445957     736.33221     -25.998702      710.33351    
   3764000   317.51856      0.016631654    10.240137      787.7723      -24.767165      763.00513    
   3765000   313.76455      0.016631654    12.087308      778.45849     -28.635514      749.82298    
   3766000   294.97767      0.016631654    12.8326        731.84772     -31.047762      700.79996    
   3767000   294.57374      0.016631654    4.0541418      730.84557     -30.933713      699.91186    
   3768000   321.66845      0.016631654    3.8514755      798.06829     -28.437633      769.63066    
   3769000   308.23161      0.016631654    13.25676       764.73113     -26.046479      738.68465    
   3770000   286.41132      0.016631654    13.834842      710.59437     -25.764117      684.83026    
   3771000   300.13954      0.016631654    6.2323228      744.65448     -26.079323      718.57515    
   3772000   313.2073       0.016631654    3.9083075      777.07594     -25.916733      751.15921    
   3773000   300.84533      0.016631654    9.8067924      746.40555     -25.312126      721.09342    
   3774000   295.51947      0.016631654    11.283257      733.19194     -21.68265       711.50929    
   3775000   302.9952       0.016631654    7.9136903      751.73944     -24.531145      727.2083     
   3776000   314.6231       0.016631654    6.2360054      780.58859     -26.805032      753.78356    
   3777000   296.00275      0.016631654    11.12639       734.39099     -24.789111      709.60188    
   3778000   291.98863      0.016631654    7.8691065      724.43185     -25.039447      699.3924     
   3779000   306.66541      0.016631654    8.5625184      760.84533     -28.531801      732.31353    
   3780000   297.46508      0.016631654    10.044666      738.01906     -26.012671      712.00639    
   3781000   290.01276      0.016631654    10.201709      719.52964     -28.39489       691.13475    
   3782000   299.73         0.016631654    7.0148306      743.6384      -29.502545      714.13586    
   3783000   304.38112      0.016631654    7.5030225      755.17795     -26.124272      729.05368    
   3784000   312.18585      0.016631654    9.4105379      774.54171     -23.188021      751.35368    
   3785000   296.46724      0.016631654    6.4249836      735.5434      -27.995832      707.54757    
   3786000   297.20596      0.016631654    11.750614      737.37618     -24.116007      713.26018    
   3787000   307.06666      0.016631654    8.8938608      761.84084     -27.209394      734.63144    
   3788000   300.65257      0.016631654    4.307394       745.92731     -26.84201       719.0853     
   3789000   279.72292      0.016631654    3.0609568      694.00028     -29.093811      664.90647    
   3790000   298.27785      0.016631654    14.595663      740.03558     -32.700938      707.33464    
   3791000   297.94982      0.016631654   -1.808539       739.22173     -35.170428      704.0513     
   3792000   295.71358      0.016631654    9.6544936      733.67355     -32.321769      701.35178    
   3793000   312.54048      0.016631654    15.849196      775.42156     -29.795815      745.62574    
   3794000   304.58285      0.016631654    10.348363      755.67844     -29.04983       726.62861    
   3795000   302.33175      0.016631654   -5.1306679      750.09339     -29.212594      720.8808     
   3796000   299.54797      0.016631654    8.8359471      743.18678     -27.750289      715.43649    
   3797000   301.65647      0.016631654    10.722007      748.41802     -32.417255      716.00077    
   3798000   299.50182      0.016631654    10.892058      743.07226     -29.664614      713.40765    
   3799000   309.01619      0.016631654    9.9081608      766.67767     -30.473997      736.20368    
   3800000   306.62947      0.016631654    5.0442847      760.75617     -25.922228      734.83395    
   3801000   295.71705      0.016631654    10.377492      733.68216     -31.431907      702.25025    
   3802000   287.95371      0.016631654    12.608927      714.42108     -31.093586      683.32749    
   3803000   319.38159      0.016631654    9.2404321      792.39452     -30.149126      762.24539    
   3804000   308.13766      0.016631654    7.7001301      764.49804     -29.053394      735.44465    
   3805000   296.7431       0.016631654    8.060179       736.22781     -33.351527      702.87628    
   3806000   297.35671      0.016631654    12.279517      737.75018     -31.371693      706.37849    
   3807000   315.65045      0.016631654    7.6110403      783.13747     -37.188886      745.94859    
   3808000   293.3094       0.016631654    7.8829297      727.7087      -29.24991       698.45879    
   3809000   295.19632      0.016631654    13.098576      732.3902      -27.415103      704.9751     
   3810000   301.33173      0.016631654    11.243997      747.61232     -24.764157      722.84817    
   3811000   316.64553      0.016631654    5.5328761      785.60629     -32.08221       753.52408    
   3812000   314.43539      0.016631654   -6.4371672      780.12288     -27.465124      752.65775    
   3813000   284.99039      0.016631654    9.0427671      707.06902     -27.940794      679.12823    
   3814000   305.36076      0.016631654    33.264277      757.60847     -30.316459      727.29201    
   3815000   310.73021      0.016631654   -3.6760837      770.93022     -33.727142      737.20308    
   3816000   296.9016       0.016631654   -5.3402738      736.62105     -35.045987      701.57507    
   3817000   290.72526      0.016631654    13.602414      721.29738     -24.726609      696.57077    
   3818000   302.32493      0.016631654    2.517923       750.0765      -29.873512      720.20298    
   3819000   301.73061      0.016631654    1.2356028      748.60197     -34.132001      714.46997    
   3820000   287.13197      0.016631654    5.4725386      712.38234     -28.366847      684.01549    
   3821000   286.22716      0.016631654    20.276464      710.13747     -30.710425      679.42705    
   3822000   314.19597      0.016631654    6.525365       779.52886     -29.929218      749.59964    
   3823000   297.38597      0.016631654   -3.5877152      737.82279     -32.493791      705.329      
   3824000   289.21019      0.016631654    12.765998      717.53845     -29.378486      688.15996    
   3825000   322.53556      0.016631654    11.467971      800.21963     -30.518336      769.70129    
   3826000   309.66107      0.016631654   -0.3596564      768.27766     -32.489363      735.7883     
   3827000   296.06633      0.016631654    5.5999838      734.54873     -33.38503       701.1637     
   3828000   298.38077      0.016631654    15.732837      740.29092     -34.400715      705.89021    
   3829000   306.84577      0.016631654    8.4235376      761.29281     -30.440354      730.85246    
   3830000   301.38293      0.016631654    8.0158586      747.73937     -31.897161      715.84221    
   3831000   303.93082      0.016631654    7.6771274      754.06075     -31.536584      722.52416    
   3832000   288.73083      0.016631654    19.875678      716.34914     -31.016785      685.33235    
   3833000   306.78164      0.016631654    12.337815      761.1337      -30.939967      730.19373    
   3834000   305.5412       0.016631654    11.044941      758.05614     -34.068629      723.98751    
   3835000   306.43543      0.016631654    3.2645065      760.27474     -33.679716      726.59502    
   3836000   296.52267      0.016631654    2.3991914      735.68091     -36.513651      699.16726    
   3837000   296.36565      0.016631654    12.83227       735.29133     -33.074151      702.21718    
   3838000   298.45006      0.016631654    9.3768091      740.46283     -31.830049      708.63278    
   3839000   305.70048      0.016631654    1.1501023      758.45132     -30.926083      727.52524    
   3840000   289.34058      0.016631654    6.0855165      717.86196     -27.825821      690.03614    
   3841000   298.30904      0.016631654    15.364074      740.11296     -28.493075      711.61988    
   3842000   313.82014      0.016631654    10.559507      778.59641     -23.6504        754.94601    
   3843000   301.49338      0.016631654    4.1432681      748.01338     -20.013856      727.99953    
   3844000   290.45195      0.016631654    10.729685      720.61928     -26.704976      693.91431    
   3845000   295.79403      0.016631654    13.233725      733.87315     -23.346973      710.52617    
   3846000   297.26969      0.016631654    7.8545843      737.53428     -23.926253      713.60803    
   3847000   291.0809       0.016631654    7.4823125      722.17974     -31.988276      690.19146    
   3848000   309.32835      0.016631654    10.647773      767.45217     -31.850226      735.60195    
   3849000   301.50201      0.016631654    1.6638313      748.03479     -32.71732       715.31747    
   3850000   290.36357      0.016631654    11.42889       720.40003     -34.995776      685.40425    
   3851000   300.22701      0.016631654    11.40878       744.87148     -32.558573      712.31291    
   3852000   310.19724      0.016631654    5.7138758      769.6079      -31.154528      738.45337    
   3853000   288.78931      0.016631654    6.3765854      716.49423     -34.075059      682.41917    
   3854000   303.51269      0.016631654    8.7272034      753.02335     -34.665299      718.35806    
   3855000   302.76456      0.016631654    11.70385       751.16721     -33.489487      717.67772    
   3856000   301.59157      0.016631654    9.5440101      748.257       -30.942547      717.31445    
   3857000   304.40538      0.016631654    6.7819145      755.23815     -30.468828      724.76932    
   3858000   299.39222      0.016631654    8.1948926      742.80035     -28.141243      714.6591     
   3859000   298.57956      0.016631654    7.7086649      740.78411     -30.046622      710.73749    
   3860000   311.65699      0.016631654    7.8855789      773.22957     -28.716124      744.51345    
   3861000   302.97191      0.016631654    9.1723445      751.68166     -24.976774      726.70488    
   3862000   305.57538      0.016631654    7.2419007      758.14093     -27.375046      730.76589    
   3863000   298.62139      0.016631654    9.3642106      740.88791     -22.838095      718.04981    
   3864000   305.23053      0.016631654    9.49438        757.28535     -30.65746       726.62789    
   3865000   300.59907      0.016631654    8.9427454      745.79457     -27.57545       718.21912    
   3866000   307.34019      0.016631654    7.0315471      762.51949     -25.165095      737.35439    
   3867000   302.83103      0.016631654    10.468036      751.33214     -26.076094      725.25604    
   3868000   300.15654      0.016631654    9.9834412      744.69664     -25.659637      719.037      
   3869000   295.75926      0.016631654    11.993385      733.78689     -24.431689      709.3552     
   3870000   296.10822      0.016631654    1.4989364      734.65265     -27.282998      707.36965    
   3871000   292.31583      0.016631654    9.8375717      725.24364     -32.493068      692.75057    
   3872000   290.64474      0.016631654    18.553989      721.09761     -27.47868       693.61893    
   3873000   305.46897      0.016631654    6.114985       757.87694     -31.08515       726.79179    
   3874000   321.06321      0.016631654    4.1069246      796.56668     -34.504166      762.06252    
   3875000   291.99408      0.016631654    12.413655      724.44535     -29.453878      694.99147    
   3876000   296.69146      0.016631654   -6.0567132      736.09969     -36.030048      700.06964    
   3877000   315.74914      0.016631654    5.801315       783.38231     -32.86838       750.51393    
   3878000   307.85098      0.016631654    17.812388      763.78677     -34.469207      729.31756    
   3879000   290.53287      0.016631654    21.108071      720.82006     -32.98932       687.83074    
   3880000   305.81134      0.016631654   -0.74218494     758.72636     -30.146557      728.5798     
   3881000   318.54111      0.016631654    2.6747246      790.30928     -29.666267      760.64301    
   3882000   303.93885      0.016631654    14.184282      754.08066     -33.443162      720.6375     
   3883000   279.76994      0.016631654    3.9800436      694.11693     -28.650192      665.46673    
   3884000   304.18527      0.016631654    4.5734323      754.69204     -29.988033      724.70401    
   3885000   315.86105      0.016631654    7.3191058      783.65996     -28.884364      754.7756     
   3886000   310.45442      0.016631654    26.150393      770.24599     -27.731298      742.51469    
   3887000   295.17548      0.016631654    9.2395673      732.33851     -26.724647      705.61386    
   3888000   305.78485      0.016631654   -0.14536068     758.66064     -29.204629      729.45601    
   3889000   309.40138      0.016631654    4.9884618      767.63336     -29.288172      738.34519    
   3890000   299.54124      0.016631654    12.999069      743.17008     -33.700024      709.47005    
   3891000   285.49967      0.016631654    8.9868332      708.33254     -32.655664      675.67688    
   3892000   307.27911      0.016631654    1.5393224      762.36793     -32.089445      730.27849    
   3893000   300.27738      0.016631654    15.291317      744.99646     -31.153377      713.84308    
   3894000   309.9213       0.016631654    27.746068      768.9233      -32.431025      736.49227    
   3895000   299.65408      0.016631654    11.76116       743.45003     -32.316489      711.13354    
   3896000   275.46007      0.016631654    4.1248875      683.42403     -28.13257       655.29146    
   3897000   309.83692      0.016631654    7.3046984      768.71395     -30.384756      738.32919    
   3898000   310.99449      0.016631654    16.214251      771.58589     -28.465477      743.12042    
   3899000   307.92871      0.016631654    8.8119751      763.97962     -27.582476      736.39714    
   3900000   298.12421      0.016631654    7.5857841      739.65439     -30.427554      709.22683    
   3901000   298.82275      0.016631654    13.049625      741.38748     -29.309939      712.07754    
   3902000   299.491        0.016631654    9.2707059      743.04542     -28.405511      714.63991    
   3903000   290.9382       0.016631654    10.140475      721.8257      -32.571359      689.25434    
   3904000   300.13814      0.016631654    10.234632      744.651       -31.395395      713.25561    
   3905000   298.80752      0.016631654    4.7415555      741.34968     -29.67492       711.67476    
   3906000   304.74725      0.016631654    5.8904837      756.08633     -29.67323       726.4131     
   3907000   288.63051      0.016631654    9.5116652      716.10026     -27.148211      688.95205    
   3908000   297.57239      0.016631654    8.8828224      738.28531     -29.676658      708.60865    
   3909000   291.99584      0.016631654    8.3075949      724.44974     -31.196208      693.25353    
   3910000   295.98321      0.016631654    8.0076719      734.34251     -28.418569      705.92394    
   3911000   310.49779      0.016631654    8.473844       770.35358     -28.777853      741.57573    
   3912000   300.48811      0.016631654    9.3648502      745.51928     -30.827525      714.69175    
   3913000   284.63283      0.016631654    4.6313281      706.1819      -30.364676      675.81722    
   3914000   302.88518      0.016631654    11.667831      751.46648     -28.390508      723.07597    
   3915000   311.80316      0.016631654    10.891712      773.59222     -27.593453      745.99877    
   3916000   294.73955      0.016631654    1.1352218      731.25694     -23.720847      707.5361     
   3917000   291.61279      0.016631654    10.257994      723.49937     -29.235918      694.26345    
   3918000   299.69292      0.016631654    11.536093      743.54639     -29.806978      713.73941    
   3919000   312.79781      0.016631654    16.159904      776.06        -27.483008      748.57699    
   3920000   304.43102      0.016631654   -5.0780928      755.30176     -27.691977      727.60979    
   3921000   289.60259      0.016631654    8.3396851      718.51201     -27.612246      690.89976    
   3922000   304.60956      0.016631654    11.057294      755.74473     -30.115217      725.62951    
   3923000   314.80711      0.016631654    10.678953      781.04511     -30.373146      750.67197    
   3924000   303.77293      0.016631654   -4.9372591      753.66903     -33.714884      719.95414    
   3925000   293.54156      0.016631654    5.8929071      728.2847      -33.122118      695.16258    
   3926000   302.52045      0.016631654    7.732969       750.56157     -33.225441      717.33613    
   3927000   299.05181      0.016631654    8.0136812      741.95579     -33.130599      708.82519    
   3928000   298.84546      0.016631654    14.662294      741.44383     -30.316618      711.12721    
   3929000   306.11084      0.016631654    8.7535417      759.46943     -25.008351      734.46108    
   3930000   306.69443      0.016631654   -1.8299841      760.91732     -27.053589      733.86373    
   3931000   294.04589      0.016631654    13.99694       729.53597     -24.02003       705.51594    
   3932000   301.7828       0.016631654    12.540062      748.73144     -25.079929      723.65151    
   3933000   309.11742      0.016631654    3.1717286      766.92884     -24.017515      742.91133    
   3934000   288.83359      0.016631654    16.565661      716.60411     -30.046449      686.55766    
   3935000   284.02038      0.016631654    13.159155      704.6624      -31.561984      673.10041    
   3936000   307.16497      0.016631654    8.6213132      762.08476     -32.599156      729.4856     
   3937000   296.23222      0.016631654    8.813422       734.96031     -30.144449      704.81586    
   3938000   295.16278      0.016631654    7.8607733      732.30699     -30.070966      702.23602    
   3939000   293.20997      0.016631654    19.774391      727.46202     -29.985211      697.47681    
   3940000   306.87279      0.016631654    10.322748      761.35985     -27.16808       734.19177    
   3941000   301.41909      0.016631654    5.2956257      747.82907     -26.735669      721.0934     
   3942000   300.01643      0.016631654    7.2652582      744.34903     -31.698691      712.65034    
   3943000   305.73057      0.016631654    10.637351      758.52598     -26.810418      731.71556    
   3944000   312.51196      0.016631654    11.477177      775.35079     -28.894313      746.45647    
   3945000   305.41967      0.016631654    9.5810876      757.75463     -27.088194      730.66644    
   3946000   288.42879      0.016631654    5.9672826      715.59978     -30.43128       685.1685     
   3947000   295.91713      0.016631654    10.044665      734.17855     -32.920268      701.25828    
   3948000   316.51458      0.016631654    9.8452751      785.2814      -30.796507      754.48489    
   3949000   306.15193      0.016631654    9.55171        759.57138     -29.940301      729.63108    
   3950000   290.9226       0.016631654    11.221845      721.78699     -26.532624      695.25437    
   3951000   301.85065      0.016631654    8.6516739      748.89978     -28.872129      720.02765    
   3952000   300.15181      0.016631654    9.477918       744.68492     -28.06081       716.62411    
   3953000   308.63534      0.016631654    8.5092396      765.73279     -27.368679      738.36411    
   3954000   293.03507      0.016631654    9.0572793      727.02808     -28.708294      698.31978    
   3955000   301.2072       0.016631654    7.998296       747.30335     -29.906116      717.39724    
   3956000   292.27543      0.016631654    10.716996      725.14341     -30.250879      694.89253    
   3957000   309.53271      0.016631654    9.4259285      767.9592      -29.342709      738.61649    
   3958000   299.4835       0.016631654    6.0710217      743.02681     -30.866862      712.15995    
   3959000   301.60822      0.016631654    9.9687988      748.2983      -28.878055      719.42024    
   3960000   288.72478      0.016631654    9.3268622      716.33414     -30.924863      685.40928    
   3961000   296.9947       0.016631654    8.5571418      736.85203     -26.801408      710.05063    
   3962000   299.78026      0.016631654    8.0435475      743.76308     -26.759514      717.00356    
   3963000   295.49101      0.016631654    7.8338209      733.12134     -26.890729      706.23061    
   3964000   299.0262       0.016631654    12.001826      741.89224     -29.983355      711.90889    
   3965000   300.18698      0.016631654    7.8915145      744.77217     -31.149311      713.62286    
   3966000   306.87084      0.016631654    8.6457175      761.35501     -26.474543      734.88047    
   3967000   307.11812      0.016631654    10.155335      761.96853     -34.218037      727.75049    
   3968000   301.46895      0.016631654    11.242308      747.95278     -31.267206      716.68557    
   3969000   284.27784      0.016631654    4.0490409      705.30117     -29.824008      675.47716    
   3970000   298.95301      0.016631654    4.1676347      741.71066     -31.480838      710.22982    
   3971000   310.83744      0.016631654    9.4363368      771.19626     -30.282149      740.91411    
   3972000   305.34193      0.016631654    8.6270797      757.56174     -34.684056      722.87768    
   3973000   294.01526      0.016631654    11.025806      729.45996     -35.190882      694.26908    
   3974000   293.66256      0.016631654    11.238614      728.58491     -32.89504       695.68987    
   3975000   301.93815      0.016631654   -0.53021139     749.11688     -31.795569      717.32131    
   3976000   305.91221      0.016631654    9.897172       758.97664     -30.290524      728.68611    
   3977000   285.64987      0.016631654    12.794495      708.7052      -28.342018      680.36318    
   3978000   288.72832      0.016631654    7.3693394      716.34293     -25.014704      691.32823    
   3979000   312.544        0.016631654    10.085661      775.43028     -25.77752       749.65276    
   3980000   300.37178      0.016631654    9.5726018      745.23067     -28.89853       716.33214    
   3981000   291.35494      0.016631654    9.2774674      722.85964     -26.073512      696.78613    
   3982000   301.53762      0.016631654    8.9968271      748.12316     -30.501482      717.62168    
   3983000   317.63749      0.016631654    8.7274985      788.06736     -34.284383      753.78298    
   3984000   295.35184      0.016631654    7.1535758      732.77606     -30.688746      702.08731    
   3985000   291.33748      0.016631654    9.9996343      722.81631     -31.658875      691.15743    
   3986000   304.6686       0.016631654    5.5340954      755.89119     -30.689083      725.20211    
   3987000   272.15971      0.016631654    4.335664       675.23573     -27.392023      647.84371    
   3988000   293.90689      0.016631654    11.16085       729.1911      -27.425412      701.76569    
   3989000   318.07905      0.016631654    9.3890677      789.16288     -30.552558      758.61032    
   3990000   290.05768      0.016631654    3.379559       719.6411      -31.993633      687.64747    
   3991000   285.98326      0.016631654    13.256446      709.53235     -32.270888      677.26146    
   3992000   306.37852      0.016631654    14.935056      760.13355     -32.191727      727.94182    
   3993000   312.68733      0.016631654    8.1615102      775.7859      -31.062534      744.72336    
   3994000   300.52459      0.016631654    4.691275       745.6098      -30.281992      715.32781    
   3995000   283.44316      0.016631654    9.6143645      703.2303      -25.427729      677.80257    
   3996000   309.03755      0.016631654    13.884665      766.73067     -31.541522      735.18915    
   3997000   303.35001      0.016631654    5.4793796      752.61974     -29.636199      722.98354    
   3998000   282.25472      0.016631654    5.4306243      700.28175     -33.620404      666.66134    
   3999000   297.55434      0.016631654    12.751898      738.24053     -29.707544      708.53299    
   4000000   315.23458      0.016631654    3.3502535      782.10568     -36.607939      745.49774    
Loop time of 7145.41 on 1 procs for 4000000 steps with 1500 atoms

Performance: 12.092 ns/day, 1.985 hours/ns, 559.800 timesteps/s, 839.700 katom-step/s
100.0% CPU use with 1 MPI tasks x 1 OpenMP threads

MPI task timing breakdown:
Section |  min time  |  avg time  |  max time  |%varavg| %total
---------------------------------------------------------------
Pair    | 700.41     | 700.41     | 700.41     |   0.0 |  9.80
Bond    | 94.76      | 94.76      | 94.76      |   0.0 |  1.33
Kspace  | 5804       | 5804       | 5804       |   0.0 | 81.23
Neigh   | 0.03035    | 0.03035    | 0.03035    |   0.0 |  0.00
Comm    | 21.16      | 21.16      | 21.16      |   0.0 |  0.30
Output  | 0.09658    | 0.09658    | 0.09658    |   0.0 |  0.00
Modify  | 510.91     | 510.91     | 510.91     |   0.0 |  7.15
Other   |            | 14.05      |            |       |  0.20

Nlocal:           1500 ave        1500 max        1500 min
Histogram: 1 0 0 0 0 0 0 0 0 0
Nghost:           1221 ave        1221 max        1221 min
Histogram: 1 0 0 0 0 0 0 0 0 0
Neighs:              0 ave           0 max           0 min
Histogram: 1 0 0 0 0 0 0 0 0 0

Total # of neighbors = 0
Ave neighs/atom = 0
Ave special neighs/atom = 2
Neighbor list builds = 16117
Dangerous builds = 0
write_data	last_conf.data pair ij
System init for write_data ...
PPPM initialization ...
  using 12-bit tables for long-range coulomb (src/kspace.cpp:342)
  G vector (1/distance) = 0.163967
  grid = 27 27 27
  stencil order = 5
  estimated absolute RMS force accuracy = 0.036150669
  estimated relative force accuracy = 0.00010886667
  using double precision FFTW3
  3d grid and FFT values/proc = 32768 19683
Generated 1 of 1 mixed pair_coeff terms from arithmetic mixing rule
Total wall time: 1:59:06
