LAMMPS (29 Aug 2024 - Update 1)
  using 1 OpenMP thread(s) per MPI task
package gpu 1 gpuID 0
# GCMC for CO2 molecular fluid, rigid/small/nvt dynamics
# Rigid CO2 TraPPE model
# [Potoff and J.I. Siepmann, Vapor-liquid equilibria of
# mixtures containing alkanes, carbon dioxide and
# nitrogen AIChE J., 47,1676-1682 (2001)].

# global model settings

units           real
atom_style      full
boundary        p p p
pair_style      lj/cut/coul/long  12
pair_modify     mix arithmetic shift yes
kspace_style    pppm 1.0e-4
bond_style      harmonic
angle_style     harmonic
neigh_modify    one 4000

# box, start molecules on simple cubic lattice
region          mbox block 0 ${lbox} 0 ${lbox} 0 ${lbox} units box
region          mbox block 0 270 0 ${lbox} 0 ${lbox} units box
region          mbox block 0 270 0 270 0 ${lbox} units box
region          mbox block 0 270 0 270 0 270 units box
create_box      2 mbox                                       bond/types 1                                angle/types 1                               extra/bond/per/atom 2                       extra/angle/per/atom 1                      extra/special/per/atom 2
Created orthogonal box = (0 0 0) to (270 270 270)
  1 by 1 by 1 MPI processor grid
molecule        co2mol ../CO2.txt
Read molecule template co2mol:
# CO2 molecule file. TraPPE model.
  1 molecules
  0 fragments
  3 atoms with max type 2
  2 bonds with max type 1
  1 angles with max type 1
  0 dihedrals with max type 0
  0 impropers with max type 0
create_atoms   	0 random ${nmols} 34578 mbox mol co2mol 464563 overlap 1.2
create_atoms   	0 random 500 34578 mbox mol co2mol 464563 overlap 1.2
Created 1500 atoms
  using lattice units in orthogonal box = (0 0 0) to (270 270 270)
  create_atoms CPU = 0.023 seconds

# rigid CO2 TraPPE model

pair_coeff      1   1  0.053649   2.800
pair_coeff      2   2  0.156973   3.050
bond_coeff      1       0       1.16
angle_coeff     1       0       180

# masses

mass 1 12.0107
mass 2 15.9994

write_data init_conf.data  pair ij
System init for write_data ...
PPPM initialization ...
  using 12-bit tables for long-range coulomb (src/kspace.cpp:342)
  G vector (1/distance) = 0.13680404
  grid = 40 40 40
  stencil order = 5
  estimated absolute RMS force accuracy = 0.039167481
  estimated relative force accuracy = 0.00011795171
  using double precision FFTW3
  3d grid and FFT values/proc = 91125 64000
Generated 1 of 1 mixed pair_coeff terms from arithmetic mixing rule

# MD settings

group           co2 type 1 2
1500 atoms in group co2
velocity       	all create 300 54654
timestep        0.25

# rigid constraints with thermostat
fix             myrigidnvt co2 rigid/nvt molecule temp 300 300 $(100*dt)
fix             myrigidnvt co2 rigid/nvt molecule temp 300 300 25
  500 rigid bodies with 1500 atoms

thermo 1000
thermo_style custom step temp density press ke pe etotal


variable    mvol equal vol
variable    mden equal density
variable	mtmp equal temp
variable    mpre equal press

fix mydat all ave/time 1 4000 4000 v_mtmp v_mden v_mpre file statistics.dat ## every 1ps

run 4000000 ## 1ns

CITE-CITE-CITE-CITE-CITE-CITE-CITE-CITE-CITE-CITE-CITE-CITE-CITE

Your simulation uses code contributions which should be cited:

- GPU package (short-range, long-range and three-body potentials): doi:10.1016/j.cpc.2010.12.021, doi:10.1016/j.cpc.2011.10.012, doi:10.1016/j.cpc.2013.08.002, doi:10.1016/j.commatsci.2014.10.068, doi:10.1016/j.cpc.2016.10.020, doi:10.3233/APC200086

@Article{Brown11,
 author = {W. M. Brown and P. Wang and S. J. Plimpton and A. N. Tharrington},
 title = {Implementing Molecular Dynamics on Hybrid High Performance Computers---Short Range Forces},
 journal = {Comput.\ Phys.\ Commun.},
 year =    2011,
 volume =  182,
 pages =   {898--911},
 doi =     {10.1016/j.cpc.2010.12.021}
}

@Article{Brown12,
 author = {W. M. Brown and A. Kohlmeyer and S. J. Plimpton and A. N. Tharrington},
 title = {Implementing Molecular Dynamics on Hybrid High Performance Computers - Particle-Particle Particle-Mesh},
 journal = {Comput.\ Phys.\ Commun.},
 year =    2012,
 volume =  183,
 doi =     {10.1016/j.cpc.2011.10.012},
 pages =   {449--459}
}

@Article{Brown13,
 author = {W. M. Brown and Y. Masako},
 title = {Implementing Molecular Dynamics on Hybrid High Performance Computers---Three-Body Potentials},
 journal = {Comput.\ Phys.\ Commun.},
 year =    2013,
 volume =  184,
 pages =   {2785--2793},
 doi =     {10.1016/j.cpc.2013.08.002},
}

@Article{Trung15,
 author = {T. D. Nguyen and S. J. Plimpton},
 title = {Accelerating Dissipative Particle Dynamics Simulations for Soft Matter Systems},
 journal = {Comput.\ Mater.\ Sci.},
 year =    2015,
 doi =     {10.1016/j.commatsci.2014.10.068},
 volume =  100,
 pages =   {173--180}
}

@Article{Trung17,
 author = {T. D. Nguyen},
 title = {{GPU}-Accelerated {T}ersoff Potentials for Massively Parallel
    Molecular Dynamics Simulations},
 journal = {Comput.\ Phys.\ Commun.},
 year =    2017,
 doi =     {10.1016/j.cpc.2016.10.020},
 volume =  212,
 pages =   {113--122}
}

@inproceedings{Nikolskiy19,
 author = {V. Nikolskiy and V. Stegailov},
 title = {{GPU} Acceleration of Four-Site Water Models in {LAMMPS}},
 booktitle = {Proceedings of the International Conference on Parallel
    Computing (ParCo 2019), Prague, Czech Republic},
 doi =     {10.3233/APC200086},
 year =    2019
}

CITE-CITE-CITE-CITE-CITE-CITE-CITE-CITE-CITE-CITE-CITE-CITE-CITE

PPPM initialization ...
  using 12-bit tables for long-range coulomb (src/kspace.cpp:342)
  G vector (1/distance) = 0.13680404
  grid = 40 40 40
  stencil order = 5
  estimated absolute RMS force accuracy = 0.039167481
  estimated relative force accuracy = 0.00011795171
  using double precision FFTW3
  3d grid and FFT values/proc = 91125 64000
Generated 1 of 1 mixed pair_coeff terms from arithmetic mixing rule
Per MPI rank memory allocation (min/avg/max) = 16.3 | 16.3 | 16.3 Mbytes
   Step          Temp         Density         Press          KinEng         PotEng         TotEng    
         0   306.91746      0.0018564113   11.453635      761.47069      8.5047133      769.9754     
      1000   304.54747      0.0018564113  -1.6425353      755.59067     -1.7022322      753.88844    
      2000   297.2433       0.0018564113   0.9367218      737.46881     -0.94332274     736.52549    
      3000   296.94745      0.0018564113   1.9640268      736.73482     -0.97296276     735.76185    
      4000   323.02856      0.0018564113  -0.16131667     801.44275     -0.82785443     800.6149     
      5000   292.54229      0.0018564113  -0.53262431     725.80548     -1.447302       724.35817    
      6000   295.92867      0.0018564113   1.0742144      734.20718     -2.1833868      732.02379    
      7000   301.08749      0.0018564113   3.0408879      747.00636     -3.9118421      743.09452    
      8000   321.91659      0.0018564113   2.3392284      798.68394     -3.4942324      795.18971    
      9000   304.89659      0.0018564113  -0.95233588     756.45685     -2.2587048      754.19814    
     10000   293.37454      0.0018564113   0.85940322     727.87033     -3.677413       724.19292    
     11000   297.14471      0.0018564113   3.3283929      737.22423     -2.3595177      734.86471    
     12000   309.02948      0.0018564113   0.68256523     766.71066     -2.3516733      764.35898    
     13000   292.44905      0.0018564113   0.95081073     725.57415     -2.5959694      722.97818    
     14000   297.2548       0.0018564113   1.3536273      737.49736     -0.68251863     736.81484    
     15000   305.26913      0.0018564113   1.4229803      757.38112     -1.9815836      755.39954    
     16000   301.23455      0.0018564113  -0.036461901    747.37123     -3.5206117      743.85062    
     17000   289.24037      0.0018564113   0.62745245     717.61333     -2.8336524      714.77968    
     18000   299.09277      0.0018564113   1.2777541      742.05742     -3.2476412      738.80978    
     19000   310.63969      0.0018564113   1.2024596      770.70563     -3.9776065      766.72802    
     20000   305.75754      0.0018564113   0.6237155      758.59289     -4.2936896      754.2992     
     21000   303.1558       0.0018564113   1.0155472      752.1379      -3.1273617      749.01054    
     22000   295.18012      0.0018564113   1.1564494      732.35        -4.3890217      727.96098    
     23000   301.85045      0.0018564113   1.054324       748.89928     -6.0738681      742.82541    
     24000   305.00387      0.0018564113   0.75154631     756.72301     -3.7808647      752.94214    
     25000   301.2904       0.0018564113   0.78448184     747.50979     -2.1787438      745.33104    
     26000   280.81999      0.0018564113   1.1215254      696.72213     -1.9623852      694.75975    
     27000   295.19661      0.0018564113   1.5555853      732.39093     -1.8159205      730.57501    
     28000   299.8924       0.0018564113   1.3866972      744.0413      -4.0611105      739.98019    
     29000   308.58863      0.0018564113   0.14167989     765.61689     -3.3266207      762.29027    
     30000   296.9034       0.0018564113   1.0352655      736.62551     -2.43312        734.19239    
     31000   300.14819      0.0018564113   1.0321171      744.67594     -3.6964826      740.97945    
     32000   307.65055      0.0018564113   1.1158394      763.2895      -3.1037505      760.18575    
     33000   308.23739      0.0018564113   0.63231196     764.74546     -3.82015        760.92531    
     34000   308.69805      0.0018564113   1.0131031      765.88837     -6.4520601      759.43631    
     35000   297.65262      0.0018564113   0.99193261     738.48435     -4.7584259      733.72593    
     36000   293.3107       0.0018564113   0.87496229     727.71192     -4.4268346      723.28509    
     37000   291.52524      0.0018564113   1.1749798      723.28215     -4.6812969      718.60086    
     38000   294.92587      0.0018564113   1.2117299      731.71921     -4.1276625      727.59155    
     39000   289.97404      0.0018564113   1.3029917      719.4336      -2.5231504      716.91045    
     40000   290.49114      0.0018564113   0.81731604     720.71652     -2.8975661      717.81896    
     41000   313.4496       0.0018564113   0.9440542      777.67709     -3.0387663      774.63832    
     42000   311.28548      0.0018564113   1.1539624      772.30785     -1.0188318      771.28902    
     43000   295.46924      0.0018564113   1.0417529      733.06733     -1.6147716      731.45255    
     44000   276.49153      0.0018564113   0.43940158     685.98311     -0.96814001     685.01497    
     45000   300.22426      0.0018564113   0.43088234     744.86468     -2.787954       742.07672    
     46000   315.16552      0.0018564113   1.008398       781.93435     -3.6812353      778.25311    
     47000   298.51898      0.0018564113   1.5064931      740.63381     -3.0943155      737.5395     
     48000   299.57203      0.0018564113   1.056076       743.24646     -2.2229376      741.02352    
     49000   283.58515      0.0018564113   0.50803753     703.58256     -2.9079977      700.67457    
     50000   311.38659      0.0018564113   1.2663737      772.55871     -2.0720047      770.48671    
     51000   301.79737      0.0018564113   2.5389972      748.7676      -1.3877343      747.37986    
     52000   300.13912      0.0018564113   0.9006263      744.65342     -1.1253109      743.52811    
     53000   292.6839       0.0018564113   0.86224144     726.15682     -1.17062        724.9862     
     54000   312.20621      0.0018564113   1.3151157      774.5922      -2.5892193      772.00298    
     55000   302.59791      0.0018564113   1.2872355      750.75375     -2.6211583      748.13259    
     56000   295.76348      0.0018564113   0.076533285    733.79736     -3.7860681      730.01129    
     57000   303.95893      0.0018564113   1.144278       754.13048     -3.891408       750.23907    
     58000   307.57207      0.0018564113   1.9191645      763.09479     -1.4214262      761.67336    
     59000   300.59513      0.0018564113   1.424642       745.78481     -3.7016854      742.08312    
     60000   294.47993      0.0018564113   0.35651824     730.61282     -3.0726866      727.54013    
     61000   301.60285      0.0018564113   0.38387352     748.28497     -3.5126613      744.77231    
     62000   306.15418      0.0018564113   2.0783368      759.57695     -4.9734816      754.60347    
     63000   306.16501      0.0018564113   2.6595485      759.60384     -5.6856336      753.9182     
     64000   289.02057      0.0018564113   1.2873236      717.06801     -3.2028004      713.86521    
     65000   297.40219      0.0018564113   0.64379312     737.86302     -3.2255027      734.63752    
     66000   308.60656      0.0018564113   0.35653575     765.66139     -2.6600987      763.00129    
     67000   309.01294      0.0018564113   1.0659921      766.66962     -1.0257345      765.64389    
     68000   281.70736      0.0018564113   1.3160137      698.92372     -1.68664        697.23708    
     69000   304.77059      0.0018564113   0.67529276     756.14424     -2.0122905      754.13195    
     70000   322.40875      0.0018564113   1.2155982      799.90499     -1.0327712      798.87222    
     71000   298.79214      0.0018564113   0.99915219     741.31154     -3.0364844      738.27505    
     72000   290.56638      0.0018564113   0.87049941     720.90319     -2.8185965      718.08459    
     73000   308.91737      0.0018564113   1.0809239      766.43252     -3.0485546      763.38397    
     74000   301.33568      0.0018564113   0.92772824     747.62212     -4.3703858      743.25173    
     75000   289.69083      0.0018564113   0.8661559      718.73093     -3.8158824      714.91505    
     76000   293.87611      0.0018564113   1.2737647      729.11474     -4.5861295      724.52861    
     77000   306.15998      0.0018564113   1.541046       759.59134     -4.0748547      755.51649    
     78000   312.97873      0.0018564113   1.0123269      776.50887     -3.3258123      773.18306    
     79000   295.73042      0.0018564113   1.5068936      733.71534     -2.8656389      730.8497     
     80000   309.28172      0.0018564113   0.81251611     767.33646     -3.4084304      763.92803    
     81000   297.70021      0.0018564113   0.93075519     738.60244     -3.0256027      735.57683    
     82000   296.97502      0.0018564113   0.98883417     736.80321     -5.5465889      731.25662    
     83000   305.73551      0.0018564113   2.689418       758.53824     -3.1914123      755.34683    
     84000   308.45608      0.0018564113   1.1592397      765.28804     -3.4298983      761.85814    
     85000   296.81399      0.0018564113   0.37579662     736.4037      -3.9119293      732.49177    
     86000   302.81722      0.0018564113   0.86954178     751.29786     -2.2848114      749.01305    
     87000   303.67709      0.0018564113   1.4121172      753.43123     -2.7659631      750.66527    
     88000   291.39233      0.0018564113   1.0863855      722.9524      -0.86340886     722.08899    
     89000   296.25102      0.0018564113   0.50898049     735.00695     -3.8892168      731.11774    
     90000   300.4612       0.0018564113   1.1068593      745.45252     -1.8137619      743.63876    
     91000   308.80279      0.0018564113   0.95594795     766.14824     -2.0791523      764.06909    
     92000   298.18164      0.0018564113   0.8768433      739.79688     -2.9931222      736.80375    
     93000   285.7154       0.0018564113   0.98297522     708.86778     -2.9475131      705.92026    
     94000   307.61616      0.0018564113   1.4192175      763.20417     -1.7953039      761.40886    
     95000   315.31938      0.0018564113   1.0572261      782.31609     -1.2581477      781.05794    
     96000   310.373        0.0018564113   1.065953       770.04397     -2.4360983      767.60787    
     97000   292.93953      0.0018564113   0.72028256     726.79105     -2.5185439      724.2725     
     98000   296.2163       0.0018564113   1.3142893      734.92079     -4.08103        730.83976    
     99000   304.98534      0.0018564113   1.4076433      756.67704     -4.9510801      751.72596    
    100000   311.51914      0.0018564113   1.5439071      772.88757     -4.7982607      768.08931    
    101000   301.45535      0.0018564113   0.65404707     747.91903     -4.4866818      743.43235    
    102000   300.75422      0.0018564113   0.97166242     746.1795      -2.8929704      743.28653    
    103000   310.07112      0.0018564113   1.0650599      769.29499     -2.4217004      766.87329    
    104000   299.50975      0.0018564113   0.92305641     743.09195     -4.3953784      738.69657    
    105000   298.54102      0.0018564113   0.88645317     740.68851     -3.0300579      737.65845    
    106000   295.80862      0.0018564113   0.85060343     733.90934     -2.8455392      731.0638     
    107000   299.02204      0.0018564113   0.82864009     741.88192     -4.4745969      737.40732    
    108000   304.78324      0.0018564113   1.1349437      756.17562     -6.258364       749.91725    
    109000   297.401        0.0018564113   0.96836132     737.86007     -6.7813607      731.07871    
    110000   296.48313      0.0018564113   0.8741382      735.58281     -6.9647986      728.61801    
    111000   301.14704      0.0018564113   0.90810766     747.1541      -3.7030201      743.45108    
    112000   308.52419      0.0018564113   1.273694       765.45702     -3.0040043      762.45301    
    113000   303.66265      0.0018564113   1.5181219      753.39539     -2.4086727      750.98672    
    114000   298.30601      0.0018564113   0.78906371     740.10544     -3.3456978      736.75974    
    115000   295.12215      0.0018564113   0.88386783     732.20618     -3.7648         728.44138    
    116000   307.37487      0.0018564113   1.0475242      762.60552     -2.6607384      759.94478    
    117000   311.88171      0.0018564113   1.0889547      773.78713     -3.1175068      770.66962    
    118000   282.5549       0.0018564113   0.96427665     701.02649     -3.3382591      697.68823    
    119000   308.85627      0.0018564113   0.84808632     766.28092     -4.1382638      762.14266    
    120000   303.293        0.0018564113   1.2495644      752.4783      -4.3796215      748.09868    
    121000   300.08676      0.0018564113   1.7419345      744.52353     -6.0766914      738.44684    
    122000   284.20237      0.0018564113   1.5093374      705.11391     -4.6987963      700.41511    
    123000   289.00008      0.0018564113  -0.81636967     717.01715     -4.9817729      712.03538    
    124000   314.51446      0.0018564113   1.2347943      780.31904     -4.7393105      775.57973    
    125000   300.77268      0.0018564113   1.2618153      746.22531     -3.3509392      742.87437    
    126000   291.25464      0.0018564113   0.35133717     722.6108      -2.6365601      719.97424    
    127000   306.77593      0.0018564113   1.1761798      761.11955     -1.3155704      759.80398    
    128000   300.91756      0.0018564113   1.3598439      746.58477     -1.101957       745.48281    
    129000   305.53372      0.0018564113   1.0548668      758.03759     -3.4577744      754.57982    
    130000   298.18002      0.0018564113   0.51400009     739.79285     -3.9729878      735.81986    
    131000   295.00784      0.0018564113   1.2722213      731.92257     -4.1391307      727.78344    
    132000   298.20412      0.0018564113   2.2088821      739.85263     -0.67357376     739.17906    
    133000   290.48781      0.0018564113  -2.1516738      720.70825     -4.4970425      716.21121    
    134000   317.08623      0.0018564113  -1.9516736      786.69967     -4.6513862      782.04829    
    135000   294.94413      0.0018564113   2.9716461      731.76453     -5.0160991      726.74843    
    136000   291.72164      0.0018564113  -0.86543527     723.76944     -4.6395085      719.12993    
    137000   304.07208      0.0018564113  -0.46275313     754.41121     -3.1850557      751.22615    
    138000   302.74713      0.0018564113   3.7892537      751.12398     -4.077837       747.04615    
    139000   304.81728      0.0018564113   1.2588058      756.26007     -4.4060322      751.85404    
    140000   304.93112      0.0018564113   0.36257376     756.54252     -2.4226063      754.11991    
    141000   301.61427      0.0018564113   1.115326       748.31331     -2.9109276      745.40239    
    142000   295.06133      0.0018564113   2.2321669      732.05528     -3.5765004      728.47878    
    143000   300.14665      0.0018564113   0.92540502     744.6721      -5.0050687      739.66704    
    144000   299.4374       0.0018564113  -1.1519527      742.91244     -3.9337722      738.97867    
    145000   301.3941       0.0018564113   0.28396002     747.76706     -3.0391758      744.72788    
    146000   293.35585      0.0018564113   2.8815913      727.82394     -2.0545814      725.76936    
    147000   304.47388      0.0018564113   3.1105956      755.40809     -1.8877826      753.52031    
    148000   286.85692      0.0018564113  -0.88652337     711.69993     -2.7180351      708.9819     
    149000   300.40597      0.0018564113   0.063555476    745.3155      -1.3310347      743.98446    
    150000   315.95415      0.0018564113   1.5049344      783.89095     -2.7377499      781.1532     
    151000   293.20434      0.0018564113   3.7919367      727.44805     -1.0720695      726.37598    
    152000   291.12181      0.0018564113   2.4215276      722.28124     -3.5746993      718.70654    
    153000   297.53297      0.0018564113   1.0500764      738.1875      -3.3073363      734.88017    
    154000   314.4899       0.0018564113  -0.63448964     780.25812     -4.0369565      776.22116    
    155000   316.28537      0.0018564113   1.1890064      784.71271     -2.7049549      782.00776    
    156000   310.0635       0.0018564113   2.4098651      769.27609     -1.6435317      767.63256    
    157000   284.74816      0.0018564113   1.6465169      706.46804     -1.7108088      704.75723    
    158000   308.8348       0.0018564113   0.53632515     766.22764     -1.0490038      765.17864    
    159000   304.13244      0.0018564113   0.31548744     754.56097     -0.85359232     753.70738    
    160000   303.52581      0.0018564113   1.0369924      753.05591     -1.7051231      751.35079    
    161000   294.52442      0.0018564113   2.7464809      730.72321     -1.5163676      729.20685    
    162000   299.15725      0.0018564113   0.26917257     742.21739     -3.0856209      739.13177    
    163000   320.35444      0.0018564113   1.5553404      794.80821     -4.0347564      790.77345    
    164000   310.3554       0.0018564113   2.2502233      770.00029     -3.2408024      766.75949    
    165000   294.28487      0.0018564113   1.1137189      730.12888     -2.9735082      727.15537    
    166000   298.80188      0.0018564113   0.1805003      741.33571     -2.8023633      738.53335    
    167000   308.31134      0.0018564113   1.4505466      764.92892     -3.836927       761.092      
    168000   304.86665      0.0018564113   2.8605844      756.38257     -3.2741174      753.10845    
    169000   290.26901      0.0018564113   2.1895637      720.16542     -4.2373099      715.92811    
    170000   296.16895      0.0018564113   0.60792267     734.80332     -3.4317541      731.37156    
    171000   302.80629      0.0018564113  -0.8072629      751.27076     -4.3849336      746.88583    
    172000   307.84157      0.0018564113   1.538469       763.76343     -4.3277075      759.43572    
    173000   294.15767      0.0018564113   1.910242       729.81328     -4.7800949      725.03318    
    174000   297.64225      0.0018564113   0.7469185      738.45863     -3.6257141      734.83291    
    175000   302.7903       0.0018564113  -0.069883906    751.23108     -3.7261236      747.50495    
    176000   310.27156      0.0018564113   0.6314881      769.7923      -3.7991831      765.99311    
    177000   305.96717      0.0018564113   3.2368625      759.11299     -3.863834       755.24916    
    178000   291.31698      0.0018564113   2.1802166      722.76545     -4.1384216      718.62703    
    179000   302.49679      0.0018564113   0.64014154     750.50288     -2.8918766      747.61101    
    180000   307.67608      0.0018564113   0.71032785     763.35285     -4.2866948      759.06615    
    181000   298.03293      0.0018564113   1.3233065      739.42792     -2.0279264      737.39999    
    182000   292.71312      0.0018564113   1.2633051      726.22932     -0.15157035     726.07775    
    183000   300.0312       0.0018564113   0.32903451     744.38568     -0.58034217     743.80534    
    184000   306.43319      0.0018564113   0.96593744     760.2692      -2.3660138      757.90318    
    185000   295.11605      0.0018564113   1.0526114      732.19105     -1.842813       730.34824    
    186000   295.25877      0.0018564113   0.97453988     732.54515     -2.3302754      730.21487    
    187000   294.34033      0.0018564113   0.82906041     730.26648     -4.2700541      725.99643    
    188000   297.76264      0.0018564113   0.91851993     738.75731     -2.9955503      735.76176    
    189000   297.54991      0.0018564113   1.0387868      738.22953     -2.6020084      735.62752    
    190000   302.00002      0.0018564113   1.2475469      749.27038     -0.90709495     748.36328    
    191000   303.10529      0.0018564113   1.9686898      752.01258     -2.6493197      749.36327    
    192000   299.12935      0.0018564113   0.84975061     742.14816     -2.8738137      739.27434    
    193000   297.92158      0.0018564113   0.66758066     739.15166     -1.7095753      737.44209    
    194000   307.19713      0.0018564113   1.6191835      762.16455     -2.0194416      760.14511    
    195000   302.40179      0.0018564113   2.7956116      750.26719     -4.5356971      745.73149    
    196000   299.9311       0.0018564113   1.5978673      744.13733     -5.2007428      738.93659    
    197000   308.93878      0.0018564113  -0.48932989     766.48562     -5.4316982      761.05392    
    198000   296.31288      0.0018564113   2.3854172      735.16042     -5.8260808      729.33434    
    199000   299.97191      0.0018564113   1.5683697      744.23859     -3.2027402      741.03585    
    200000   298.67843      0.0018564113   0.20426574     741.02943     -3.0041302      738.0253     
    201000   302.48178      0.0018564113   1.3399552      750.46563     -2.1116325      748.354      
    202000   305.14657      0.0018564113   1.3173914      757.07705     -2.2886329      754.78842    
    203000   325.39616      0.0018564113   2.324321       807.31683     -2.8276324      804.4892     
    204000   288.2918       0.0018564113   1.9431841      715.2599      -1.9814472      713.27845    
    205000   290.86021      0.0018564113   0.66639419     721.6322      -2.4294289      719.20277    
    206000   321.60116      0.0018564113   0.92403695     797.90135     -2.2445832      795.65677    
    207000   298.39694      0.0018564113   2.1310985      740.33104     -1.3017882      739.02925    
    208000   280.8897       0.0018564113   1.7043653      696.8951      -1.6981411      695.19696    
    209000   299.5931       0.0018564113  -1.2760821      743.29873     -0.83163123     742.4671     
    210000   311.61216      0.0018564113   1.8323282      773.11835     -1.3183515      771.8        
    211000   292.73333      0.0018564113   2.0707284      726.27946     -2.2355357      724.04392    
    212000   301.25558      0.0018564113   0.52529195     747.4234      -1.714201       745.7092     
    213000   312.12342      0.0018564113  -0.38648066     774.38682     -1.7228707      772.66395    
    214000   309.67584      0.0018564113   1.8338334      768.31429     -1.2049228      767.10936    
    215000   294.05982      0.0018564113   1.8816987      729.57053     -0.92175196     728.64877    
    216000   298.52694      0.0018564113  -3.9052938      740.65356     -1.1264341      739.52712    
    217000   301.79456      0.0018564113   2.8413926      748.76063     -0.6603513      748.10028    
    218000   301.7716       0.0018564113   2.634537       748.70366     -2.2791856      746.42447    
    219000   300.51382      0.0018564113   2.5215084      745.58307     -0.48271367     745.10035    
    220000   292.02716      0.0018564113  -0.90979772     724.52743     -1.3773435      723.15008    
    221000   302.43559      0.0018564113  -1.8457407      750.35103     -0.65419893     749.69683    
    222000   297.53297      0.0018564113   1.5893017      738.18749     -1.6953727      736.49212    
    223000   298.7749       0.0018564113   2.4475376      741.26876     -0.45032143     740.81844    
    224000   300.85391      0.0018564113  -0.24339717     746.42684     -1.0836491      745.34319    
    225000   300.01938      0.0018564113   0.86541888     744.35635     -1.9495917      742.40676    
    226000   283.59439      0.0018564113   3.8755036      703.60549     -2.4675723      701.13792    
    227000   288.52267      0.0018564113  -0.09429408     715.83269     -2.195219       713.63747    
    228000   320.72677      0.0018564113   1.6072049      795.73196     -1.8655629      793.8664     
    229000   309.28314      0.0018564113   2.6381371      767.34        -3.6583132      763.68169    
    230000   287.33971      0.0018564113   2.7929941      712.89774     -3.8579861      709.03975    
    231000   294.39854      0.0018564113   0.64461833     730.41088     -2.1636535      728.24723    
    232000   297.64234      0.0018564113  -0.82489016     738.45885     -1.53488        736.92397    
    233000   320.70473      0.0018564113   0.48459788     795.67728     -2.6400785      793.03721    
    234000   305.44811      0.0018564113   1.69132        757.82519     -1.1109505      756.71424    
    235000   297.34067      0.0018564113  -0.570332       737.71039     -1.5346773      736.17571    
    236000   301.84911      0.0018564113   0.2291729      748.89596     -1.6958903      747.20007    
    237000   309.37224      0.0018564113   4.1079959      767.56106     -2.2860164      765.27504    
    238000   298.32904      0.0018564113   2.1821156      740.16257     -2.1432979      738.01927    
    239000   291.93065      0.0018564113  -2.5219609      724.288       -1.8113927      722.4766     
    240000   300.7068       0.0018564113   0.68176583     746.06185     -1.4999058      744.56195    
    241000   306.05856      0.0018564113   1.9446793      759.33972     -3.1858389      756.15388    
    242000   298.47106      0.0018564113   1.5743659      740.51493     -1.9953385      738.5196     
    243000   293.96341      0.0018564113  -0.10095552     729.33133     -2.7300944      726.60124    
    244000   299.55848      0.0018564113   1.0419688      743.21285     -5.1204151      738.09244    
    245000   305.30656      0.0018564113   1.6266535      757.47398     -3.9465574      753.52742    
    246000   295.52034      0.0018564113   1.5797109      733.19411     -2.782257       730.41185    
    247000   290.60184      0.0018564113  -0.7949667      720.99117     -4.7556101      716.23556    
    248000   305.77905      0.0018564113   0.8008389      758.64625     -3.0595859      755.58666    
    249000   307.66156      0.0018564113   1.4785438      763.31682     -2.5858545      760.73096    
    250000   296.55155      0.0018564113   2.4459534      735.75256     -3.3517333      732.40082    
    251000   288.41143      0.0018564113   0.59284829     715.55671     -3.3088312      712.24788    
    252000   315.54109      0.0018564113   0.53579799     782.86614     -1.0931288      781.77301    
    253000   305.1703       0.0018564113   2.7308609      757.13593     -1.7516175      755.38431    
    254000   295.14294      0.0018564113   1.2029017      732.25778     -2.8319539      729.42582    
    255000   294.03058      0.0018564113  -0.60196234     729.49798     -2.159281       727.3387     
    256000   304.86263      0.0018564113   0.11109003     756.3726      -3.6498466      752.72275    
    257000   311.76667      0.0018564113   1.9595698      773.5017      -1.0026689      772.49903    
    258000   301.69647      0.0018564113   2.3094014      748.51726     -1.7928376      746.72443    
    259000   298.35246      0.0018564113   0.080223057    740.22067     -4.0599524      736.16072    
    260000   298.94225      0.0018564113   0.95201154     741.68397     -2.5530859      739.13088    
    261000   301.44561      0.0018564113   2.0364981      747.89486     -1.5608967      746.33396    
    262000   311.35651      0.0018564113   2.108377       772.48409     -1.7321163      770.75198    
    263000   283.79824      0.0018564113  -1.4741922      704.11126     -0.29865996     703.8126     
    264000   305.28544      0.0018564113   0.54895196     757.42158     -2.4292644      754.99232    
    265000   305.62392      0.0018564113   3.0299216      758.26138     -2.4538405      755.80754    
    266000   290.9078       0.0018564113   0.88875662     721.75028     -1.4085866      720.34169    
    267000   304.69512      0.0018564113  -0.41238972     755.95699     -2.1688919      753.78809    
    268000   313.7989       0.0018564113   1.2492614      778.54372     -1.8641383      776.67958    
    269000   305.63063      0.0018564113   1.2482677      758.27802     -1.3110715      756.96695    
    270000   289.84714      0.0018564113   1.2893205      719.11875     -1.7297759      717.38898    
    271000   300.40116      0.0018564113  -0.12667078     745.30355     -2.7661991      742.53735    
    272000   318.12983      0.0018564113   0.50523729     789.28887     -3.0579111      786.23096    
    273000   296.23262      0.0018564113   2.2185187      734.96129     -0.7191712      734.24212    
    274000   285.03086      0.0018564113   0.50242659     707.16941     -2.3455617      704.82385    
    275000   307.79463      0.0018564113   1.0495319      763.64695     -3.6735794      759.97337    
    276000   313.24005      0.0018564113   3.6422809      777.15719     -3.1071964      774.04999    
    277000   291.763        0.0018564113   1.9592877      723.87206     -4.1169152      719.75514    
    278000   295.96541      0.0018564113   0.39567784     734.29834     -2.026544       732.2718     
    279000   309.35589      0.0018564113   0.68835137     767.52049     -1.7040987      765.8164     
    280000   304.98603      0.0018564113   1.1466816      756.67876      0.5920493      757.27081    
    281000   280.40872      0.0018564113   2.2220937      695.70175     -0.80077856     694.90097    
    282000   301.16757      0.0018564113   0.29380689     747.20505     -0.17135247     747.0337     
    283000   319.0881       0.0018564113   1.8559431      791.66637     -0.51741165     791.14896    
    284000   297.30782      0.0018564113   2.0211064      737.62891     -2.9924059      734.6365     
    285000   292.87914      0.0018564113   0.52317728     726.64121     -2.0677832      724.57343    
    286000   321.40657      0.0018564113   0.25543935     797.41855     -2.044026       795.37453    
    287000   306.94689      0.0018564113   1.4213608      761.54369     -3.8948261      757.64886    
    288000   296.72728      0.0018564113   1.354566       736.18857     -3.6734014      732.51517    
    289000   287.48995      0.0018564113   0.97135524     713.2705      -2.6232053      710.64729    
    290000   300.72295      0.0018564113   0.24843377     746.10193     -4.122582       741.97935    
    291000   303.05136      0.0018564113   2.015753       751.87878     -3.5150166      748.36376    
    292000   303.22313      0.0018564113   1.037669       752.30494     -2.7342725      749.57066    
    293000   288.36877      0.0018564113   0.89161732     715.45086     -2.2638188      713.18704    
    294000   301.81426      0.0018564113   0.052938559    748.80949     -1.5463367      747.26315    
    295000   305.19475      0.0018564113   1.3344311      757.19658     -1.7837539      755.41283    
    296000   303.10579      0.0018564113   2.2891333      752.01382     -2.0098861      750.00394    
    297000   291.21701      0.0018564113   0.9621014      722.51744     -3.039011       719.47843    
    298000   303.52437      0.0018564113   0.89817477     753.05233     -3.0947489      749.95758    
    299000   306.56011      0.0018564113   1.1389047      760.58408     -2.8851798      757.6989     
    300000   295.62814      0.0018564113   1.2721135      733.46158     -3.2717357      730.18984    
    301000   292.91965      0.0018564113   0.80368355     726.74173     -2.6795781      724.06215    
    302000   302.2082       0.0018564113   0.21705953     749.78686     -4.3500928      745.43677    
    303000   310.31385      0.0018564113   1.3464591      769.89722     -2.9331392      766.96408    
    304000   300.31713      0.0018564113   1.3279369      745.09508     -2.417956       742.67712    
    305000   292.68796      0.0018564113   1.247232       726.16689     -2.6643726      723.50251    
    306000   295.03835      0.0018564113   0.56845202     731.99828     -2.5027611      729.49552    
    307000   312.69765      0.0018564113   1.1290747      775.81149     -2.2117484      773.59974    
    308000   306.11421      0.0018564113   1.2655984      759.47779     -2.3520933      757.1257     
    309000   296.919        0.0018564113   1.1809968      736.66422     -3.0595132      733.60471    
    310000   293.21602      0.0018564113   0.743974       727.47702     -2.135061       725.34195    
    311000   303.51292      0.0018564113   1.0865114      753.02391     -1.808601       751.21531    
    312000   300.6848       0.0018564113   0.93210335     746.00729     -1.8036967      744.20359    
    313000   306.52957      0.0018564113   1.3600859      760.50831     -1.7274955      758.78081    
    314000   308.33275      0.0018564113   1.0336351      764.98205     -2.2908306      762.69122    
    315000   292.32149      0.0018564113   1.0151887      725.25769     -1.3012489      723.95644    
    316000   300.15933      0.0018564113   1.1960569      744.70358     -2.8895002      741.81408    
    317000   313.87103      0.0018564113   1.0905554      778.72267     -3.7616576      774.96101    
    318000   293.13128      0.0018564113   1.3570043      727.2668      -3.2499839      724.01681    
    319000   294.38399      0.0018564113   0.79722941     730.37479     -3.4835551      726.89123    
    320000   326.70907      0.0018564113   0.92329249     810.5742      -3.0003356      807.57386    
    321000   305.05026      0.0018564113   1.1237591      756.83812     -2.7906106      754.04751    
    322000   288.82313      0.0018564113   1.0329249      716.57814     -5.0141533      711.56399    
    323000   289.21127      0.0018564113   1.0192972      717.54114     -3.418563       714.12258    
    324000   319.23106      0.0018564113   1.0764229      792.02105     -5.3260255      786.69502    
    325000   314.27761      0.0018564113   1.1680265      779.7314      -3.075646       776.65576    
    326000   291.63195      0.0018564113   0.98350476     723.54691     -2.6505827      720.89633    
    327000   301.59337      0.0018564113   0.90525619     748.26147     -7.4037118      740.85776    
    328000   299.52615      0.0018564113   0.91433848     743.13264     -5.4047368      737.72791    
    329000   299.92851      0.0018564113   1.1214201      744.13091     -5.5291121      738.6018     
    330000   306.17626      0.0018564113   1.0601191      759.63174     -4.5660345      755.0657     
    331000   301.34299      0.0018564113   1.0167498      747.64027     -5.5598597      742.08041    
    332000   295.45225      0.0018564113   1.0675904      733.02517     -4.0495461      728.97562    
    333000   301.92582      0.0018564113   0.91356255     749.08628     -4.64739        744.43889    
    334000   296.34981      0.0018564113   0.98329256     735.25204     -4.463484       730.78855    
    335000   300.04866      0.0018564113   1.7902667      744.429       -2.87687        741.55213    
    336000   317.09585      0.0018564113   1.3625595      786.72355     -3.9392995      782.78425    
    337000   312.97503      0.0018564113   1.024647       776.49968     -1.8829254      774.61675    
    338000   298.34505      0.0018564113   0.92654717     740.2023      -2.6744608      737.52784    
    339000   284.50713      0.0018564113   1.1170197      705.87002     -3.9539222      701.9161     
    340000   296.05237      0.0018564113   1.1857335      734.5141      -3.4877936      731.02631    
    341000   312.18701      0.0018564113   0.75525913     774.54457     -3.6467364      770.89783    
    342000   294.59233      0.0018564113   0.41176762     730.89169     -1.4568954      729.4348     
    343000   287.40629      0.0018564113   0.78139888     713.06292     -2.4913648      710.57155    
    344000   305.45867      0.0018564113   1.0746272      757.85137     -3.2257104      754.62566    
    345000   302.10049      0.0018564113   1.0872594      749.51963     -2.6306765      746.88896    
    346000   296.04126      0.0018564113   0.77571882     734.48652     -2.0820987      732.40442    
    347000   296.44515      0.0018564113   0.86904168     735.48859     -2.6108103      732.87778    
    348000   309.97715      0.0018564113   1.2781106      769.06185     -3.2209593      765.84089    
    349000   314.14881      0.0018564113   0.89623655     779.41186     -3.1491906      776.26267    
    350000   291.36736      0.0018564113   0.1074708      722.89044     -2.8746456      720.01579    
    351000   285.29853      0.0018564113   0.57659273     707.83351     -1.938832       705.89468    
    352000   301.06833      0.0018564113   2.9240921      746.95883     -1.8470051      745.11183    
    353000   309.50963      0.0018564113   0.9395896      767.90192     -4.6040231      763.2979     
    354000   295.90977      0.0018564113   0.081557621    734.16031     -3.6065882      730.55372    
    355000   290.34973      0.0018564113   0.49561834     720.36569     -4.6215958      715.7441     
    356000   293.99023      0.0018564113   2.431425       729.39787     -2.8491749      726.54869    
    357000   314.48099      0.0018564113   1.1284719      780.23601     -5.3771515      774.85886    
    358000   293.6851       0.0018564113  -0.29659673     728.64083     -4.0930473      724.54778    
    359000   296.34625      0.0018564113  -0.34028448     735.24321     -2.2407973      733.00242    
    360000   298.68122      0.0018564113   1.5603527      741.03634     -3.4904838      737.54585    
    361000   298.47439      0.0018564113   2.6510598      740.52318     -1.7850578      738.73813    
    362000   296.65897      0.0018564113   1.8737955      736.01909     -2.8850545      733.13404    
    363000   309.71896      0.0018564113  -0.00057037124  768.42127     -3.9947898      764.42648    
    364000   313.85561      0.0018564113  -2.1266981      778.68442     -3.7710532      774.91337    
    365000   267.15796      0.0018564113  -1.9839679      662.82625     -5.4766794      657.34957    
    366000   292.15884      0.0018564113   1.5314801      724.85414     -5.3725865      719.48155    
    367000   303.0561       0.0018564113   1.5620136      751.89054     -5.6026646      746.28788    
    368000   314.2269       0.0018564113   0.33201686     779.60561     -4.6319129      774.9737     
    369000   294.36741      0.0018564113  -1.1524632      730.33365     -4.611911       725.72174    
    370000   293.58087      0.0018564113   1.0563934      728.38222     -3.6855179      724.6967     
    371000   314.77189      0.0018564113   3.743415       780.95773     -3.5601383      777.39759    
    372000   302.10151      0.0018564113   0.13269621     749.52219     -1.1849073      748.33728    
    373000   286.00889      0.0018564113   0.96438279     709.59595     -1.9028087      707.69314    
    374000   306.74934      0.0018564113   1.8681922      761.05358     -2.6553776      758.3982     
    375000   306.33968      0.0018564113  -2.1325986      760.03719     -3.0929212      756.94427    
    376000   288.03084      0.0018564113  -0.70282542     714.61247     -2.5282943      712.08417    
    377000   295.85633      0.0018564113   1.2298329      734.0277      -2.7633678      731.26434    
    378000   313.21181      0.0018564113   3.9147741      777.08713     -2.7020455      774.38509    
    379000   301.29619      0.0018564113  -0.43390288     747.52416     -4.3790344      743.14513    
    380000   297.40032      0.0018564113   3.3976892      737.85838     -2.871524       734.98686    
    381000   311.45755      0.0018564113   1.3930802      772.73477     -3.7262121      769.00856    
    382000   287.25199      0.0018564113  -1.1502003      712.6801      -2.716351       709.96375    
    383000   288.87452      0.0018564113  -1.9667876      716.70564     -3.3517167      713.35392    
    384000   305.5507       0.0018564113   1.1780327      758.07972     -2.4403019      755.63941    
    385000   299.39728      0.0018564113   3.3978931      742.81291     -2.7218555      740.09105    
    386000   301.51409      0.0018564113   0.5694394      748.06476     -3.7217597      744.343      
    387000   298.56787      0.0018564113  -0.14976443     740.75512     -4.5795922      736.17553    
    388000   304.0952       0.0018564113   3.1132056      754.46858     -4.2525652      750.21601    
    389000   300.64647      0.0018564113   3.6767754      745.91219     -2.4382572      743.47393    
    390000   292.39018      0.0018564113   0.0057143839   725.4281      -5.0595677      720.36854    
    391000   295.26188      0.0018564113   0.13060123     732.55286     -5.3606969      727.19216    
    392000   303.45726      0.0018564113   2.1883523      752.88584     -3.4073692      749.47847    
    393000   300.12484      0.0018564113   2.7762805      744.61799     -3.3324196      741.28557    
    394000   294.85569      0.0018564113   0.75872856     731.5451      -2.2572091      729.28789    
    395000   305.81041      0.0018564113  -0.54030611     758.72406     -2.8116892      755.91237    
    396000   308.86573      0.0018564113  -1.9682076      766.30439     -2.4851048      763.81929    
    397000   294.62447      0.0018564113   1.2402451      730.97142     -3.5298292      727.44159    
    398000   303.79502      0.0018564113   1.0813313      753.72381     -2.3228663      751.40095    
    399000   290.58027      0.0018564113  -0.4621466      720.93767     -1.0283817      719.90929    
    400000   299.77752      0.0018564113   1.7937815      743.7563      -3.6077682      740.14853    
    401000   308.87212      0.0018564113   0.96580845     766.32024     -4.0615143      762.25872    
    402000   295.49307      0.0018564113   0.17719098     733.12646     -4.8206627      728.3058     
    403000   296.93238      0.0018564113   1.0623881      736.69742     -3.2320201      733.4654     
    404000   313.13177      0.0018564113   2.025625       776.88856     -2.1971053      774.69146    
    405000   315.61501      0.0018564113   0.56018547     783.04954     -2.3225001      780.72704    
    406000   295.98269      0.0018564113   1.0047621      734.34121     -2.0431084      732.2981     
    407000   301.49984      0.0018564113   1.5768672      748.02941     -2.4739944      745.55542    
    408000   316.2075       0.0018564113   0.97530792     784.51953     -1.6474932      782.87204    
    409000   318.05593      0.0018564113  -0.71956251     789.10554     -2.7944288      786.31111    
    410000   285.30732      0.0018564113  -0.018560881    707.85532     -2.5019631      705.35336    
    411000   292.6191       0.0018564113   1.6493048      725.99605     -1.5300683      724.46598    
    412000   321.98173      0.0018564113   1.2074302      798.84556     -3.6699871      795.17557    
    413000   306.11713      0.0018564113   0.76554947     759.48503     -4.7954938      754.68954    
    414000   280.95356      0.0018564113   0.99167636     697.05353     -2.6205454      694.43299    
    415000   295.79576      0.0018564113   0.86480185     733.87744     -3.9087146      729.96873    
    416000   316.1442       0.0018564113   1.0729385      784.36248     -4.8717101      779.49077    
    417000   309.71677      0.0018564113   0.5452635      768.41584     -3.0985742      765.31727    
    418000   286.44827      0.0018564113   1.0660379      710.68606     -4.0273634      706.6587     
    419000   294.68415      0.0018564113   1.3535156      731.11949     -4.9304203      726.18907    
    420000   310.83535      0.0018564113   0.64286918     771.19108     -1.2076945      769.98338    
    421000   293.00228      0.0018564113   1.2360685      726.94673     -2.777438       724.16929    
    422000   299.86617      0.0018564113   1.8396306      743.97623     -2.1021073      741.87412    
    423000   299.79103      0.0018564113   1.0546979      743.78981     -2.6837705      741.10604    
    424000   305.56011      0.0018564113   0.068983       758.10306     -2.0426536      756.0604     
    425000   289.94621      0.0018564113   0.58853126     719.36454     -2.5814116      716.78312    
    426000   287.65652      0.0018564113   1.9806895      713.68376     -3.048647       710.63511    
    427000   308.63334      0.0018564113   1.5688577      765.72782     -2.7383031      762.98952    
    428000   302.75965      0.0018564113   1.1765129      751.15505     -2.5938919      748.56116    
    429000   296.44157      0.0018564113   0.15574375     735.4797      -2.8055874      732.67412    
    430000   286.25943      0.0018564113   1.0669201      710.21753     -2.689536       707.528      
    431000   312.42516      0.0018564113   2.5554356      775.13542     -0.31396795     774.82146    
    432000   301.91682      0.0018564113   2.1696571      749.06395     -1.8967882      747.16717    
    433000   301.66712      0.0018564113   0.33665043     748.44444     -1.4265062      747.01793    
    434000   302.28509      0.0018564113   0.13390706     749.97764     -1.6255786      748.35206    
    435000   285.95077      0.0018564113   1.3813612      709.45174     -1.0817754      708.36996    
    436000   303.2273       0.0018564113   2.2030372      752.31529     -2.9185324      749.39675    
    437000   310.4163       0.0018564113  -0.054171476    770.15141     -2.1341653      768.01724    
    438000   304.52723      0.0018564113  -0.83984983     755.54046     -1.904654       753.6358     
    439000   288.88719      0.0018564113   1.2866072      716.73709     -1.8807262      714.85636    
    440000   305.4906       0.0018564113   3.1586255      757.93061     -3.3859511      754.54466    
    441000   317.49031      0.0018564113   0.85026896     787.70222     -2.1324131      785.5698     
    442000   308.48079      0.0018564113  -0.27601611     765.34934     -2.8164955      762.53284    
    443000   293.61222      0.0018564113   1.3964517      728.46001     -2.8776787      725.58233    
    444000   285.57425      0.0018564113   1.2728388      708.51759     -3.160233       705.35736    
    445000   315.68236      0.0018564113   2.2458594      783.21663     -4.3344626      778.88217    
    446000   295.03171      0.0018564113  -0.17177371     731.98182     -1.7542843      730.22753    
    447000   305.18655      0.0018564113   3.3713132      757.17625     -2.4909572      754.6853     
    448000   301.61095      0.0018564113   1.1674141      748.30508     -3.4124986      744.89258    
    449000   301.0284       0.0018564113  -0.35673875     746.85975     -3.8850534      742.97469    
    450000   294.59118      0.0018564113  -0.84038548     730.88885     -4.678059       726.21079    
    451000   289.56439      0.0018564113   1.2514504      718.41723     -3.7889934      714.62824    
    452000   299.51387      0.0018564113   1.1999187      743.10216     -3.3853513      739.71681    
    453000   301.19837      0.0018564113   1.7166508      747.28146     -2.9881389      744.29332    
    454000   303.99545      0.0018564113   0.90454569     754.2211      -4.2230022      749.9981     
    455000   293.87637      0.0018564113   0.08956079     729.11539     -3.1196909      725.99569    
    456000   298.58706      0.0018564113   2.0743123      740.80272     -2.4418314      738.36089    
    457000   297.38597      0.0018564113   1.1675519      737.82278     -2.0744034      735.74838    
    458000   296.30101      0.0018564113  -1.1787521      735.13097     -2.1861974      732.94478    
    459000   296.56899      0.0018564113  -0.11388786     735.79584     -1.9252661      733.87058    
    460000   292.77289      0.0018564113   2.3982902      726.37762     -1.7790571      724.59857    
    461000   302.74945      0.0018564113   1.1223517      751.12973     -1.6205406      749.50919    
    462000   303.33138      0.0018564113  -0.025431101    752.57351     -1.3317272      751.24179    
    463000   300.08656      0.0018564113   1.0143015      744.52303     -1.9213643      742.60167    
    464000   288.05341      0.0018564113   1.4624188      714.66846     -2.3114548      712.357      
    465000   298.12548      0.0018564113   1.3484261      739.65752     -2.7115015      736.94602    
    466000   302.92468      0.0018564113   0.98907193     751.56448     -2.9056051      748.65887    
    467000   299.0673       0.0018564113  -0.22519491     741.99421     -1.4448389      740.54937    
    468000   284.25246      0.0018564113   0.96338136     705.2382      -2.5088882      702.72931    
    469000   308.81718      0.0018564113   2.3523713      766.18394     -1.4185203      764.76542    
    470000   301.54514      0.0018564113   0.84329543     748.14181     -3.2301801      744.91163    
    471000   296.42049      0.0018564113   0.056165661    735.42742     -2.6272902      732.80013    
    472000   293.23032      0.0018564113   0.1424787      727.51252     -1.5585619      725.95396    
    473000   309.15364      0.0018564113   3.3361859      767.0187      -1.7245823      765.29412    
    474000   307.68276      0.0018564113   1.2307672      763.36941     -2.4839889      760.88542    
    475000   286.94553      0.0018564113   0.22114918     711.91978     -2.1707566      709.74902    
    476000   290.15936      0.0018564113   0.626615       719.89338     -2.1195834      717.77379    
    477000   295.59544      0.0018564113   2.3652977      733.38044     -3.2796233      730.10081    
    478000   318.89184      0.0018564113   1.0854689      791.17945     -1.4962708      789.68318    
    479000   321.38772      0.0018564113  -2.2866657      797.37178     -4.0142428      793.35754    
    480000   297.37352      0.0018564113   0.40707031     737.79191     -3.7223621      734.06954    
    481000   281.59495      0.0018564113   2.0378783      698.64482     -4.7860376      693.85878    
    482000   302.51308      0.0018564113   2.7371164      750.54329     -3.6550316      746.88826    
    483000   309.68223      0.0018564113   1.7192389      768.33015     -3.7294246      764.60073    
    484000   306.93291      0.0018564113   0.61430492     761.50902     -3.9912912      757.51773    
    485000   286.84075      0.0018564113  -0.34015523     711.65981     -3.448554       708.21125    
    486000   293.059        0.0018564113   1.0503072      727.08747     -2.6346509      724.45282    
    487000   307.44858      0.0018564113   1.160732       762.78841     -2.1102617      760.67814    
    488000   315.57945      0.0018564113   0.63556337     782.96131     -2.7007034      780.26061    
    489000   305.15614      0.0018564113   0.93400435     757.10081     -2.766669       754.33414    
    490000   299.59487      0.0018564113   1.1325373      743.30312     -4.0183747      739.28475    
    491000   299.47045      0.0018564113   1.1340204      742.99443     -3.41261        739.58182    
    492000   309.55824      0.0018564113   0.98059368     768.02252     -5.1965477      762.82597    
    493000   301.06689      0.0018564113   0.37486504     746.95524     -1.3175587      745.63769    
    494000   303.12896      0.0018564113   1.8449159      752.07131     -2.6164635      749.45485    
    495000   298.57913      0.0018564113   1.1042636      740.78305     -2.4697816      738.31327    
    496000   317.34563      0.0018564113   0.46007302     787.34326     -2.6963344      784.64693    
    497000   308.88226      0.0018564113   1.5631769      766.34539     -3.014039       763.33136    
    498000   290.05276      0.0018564113   1.4271176      719.6289      -2.5426428      717.08625    
    499000   298.45307      0.0018564113   0.91258809     740.4703      -2.0738243      738.39647    
    500000   307.83591      0.0018564113   1.0642056      763.74937     -3.5783372      760.17103    
    501000   296.43045      0.0018564113   1.311137       735.45211     -4.5186185      730.93349    
    502000   292.43049      0.0018564113   1.2767082      725.5281      -3.0777477      722.45035    
    503000   300.85593      0.0018564113   0.87111111     746.43185     -3.4709625      742.96089    
    504000   314.07452      0.0018564113   0.82250789     779.22755     -2.8378506      776.3897     
    505000   294.25942      0.0018564113   1.1430043      730.06574     -4.6422865      725.42345    
    506000   297.05145      0.0018564113   0.96555927     736.99283     -4.3312574      732.66157    
    507000   309.66008      0.0018564113   1.0127668      768.27519     -4.4844205      763.79077    
    508000   306.95389      0.0018564113   0.68466182     761.56107     -4.8739837      756.68708    
    509000   288.15481      0.0018564113   1.3295855      714.92002     -4.9651734      709.95484    
    510000   306.14505      0.0018564113   1.0897097      759.55431     -3.4841787      756.07013    
    511000   304.456        0.0018564113   0.70628975     755.36372     -2.7793124      752.58441    
    512000   296.42116      0.0018564113   0.69962786     735.42907     -4.3817819      731.04729    
    513000   289.88853      0.0018564113   1.2003018      719.22142     -3.5282937      715.69313    
    514000   302.17725      0.0018564113   1.3943155      749.71009     -3.519601       746.19049    
    515000   306.16085      0.0018564113   2.0074616      759.59351     -2.3163137      757.27719    
    516000   302.26635      0.0018564113   0.44158301     749.93115     -3.3421609      746.58899    
    517000   289.00082      0.0018564113   1.965501       717.019       -2.9190248      714.09998    
    518000   295.50808      0.0018564113   1.3186114      733.1637      -2.2384616      730.92524    
    519000   306.33543      0.0018564113   0.84047361     760.02665     -2.379798       757.64685    
    520000   292.92083      0.0018564113   0.89238605     726.74465     -2.3878468      724.3568     
    521000   295.20802      0.0018564113   1.2621387      732.41923     -2.5468761      729.87236    
    522000   304.50343      0.0018564113   1.6009139      755.48141     -1.4331393      754.04827    
    523000   303.43222      0.0018564113   1.1429367      752.8237      -1.6095027      751.2142     
    524000   307.68455      0.0018564113   0.17722124     763.37386     -2.1575732      761.21628    
    525000   290.2028       0.0018564113   0.65800707     720.00114     -3.8641434      716.13699    
    526000   314.38756      0.0018564113   2.4749615      780.00421     -3.1841294      776.82008    
    527000   306.15629      0.0018564113   0.41572023     759.5822      -4.4584601      755.12374    
    528000   295.62584      0.0018564113   1.4590732      733.45586     -3.6003464      729.85551    
    529000   291.43126      0.0018564113   1.7150135      723.04899     -3.6762392      719.37275    
    530000   301.95305      0.0018564113   1.6673653      749.15385     -3.5821115      745.57174    
    531000   312.32898      0.0018564113   1.0482001      774.89682     -3.5587037      771.33812    
    532000   300.85412      0.0018564113   0.78007571     746.42735     -4.5711064      741.85625    
    533000   274.28999      0.0018564113   0.89476595     680.52103     -3.7560666      676.76497    
    534000   297.11657      0.0018564113   1.2608443      737.1544      -4.4213207      732.73308    
    535000   310.83369      0.0018564113   0.75482723     771.18696     -4.0575048      767.12945    
    536000   299.78549      0.0018564113   0.15877052     743.77605     -3.723079       740.05297    
    537000   297.76044      0.0018564113   1.4219964      738.75186     -1.6650925      737.08676    
    538000   302.75311      0.0018564113   1.343573       751.13881     -1.9292139      749.20959    
    539000   311.65074      0.0018564113   1.1643073      773.21409     -2.8115738      770.40251    
    540000   307.22533      0.0018564113   0.97879248     762.23452     -3.1515073      759.08301    
    541000   291.22678      0.0018564113   1.1401528      722.54168     -5.3328139      717.20887    
    542000   292.2283       0.0018564113   0.98438318     725.02648     -2.7771211      722.24936    
    543000   303.72732      0.0018564113   1.0300109      753.55584     -2.5296041      751.02624    
    544000   294.68079      0.0018564113   1.4349556      731.11117     -3.3271132      727.78405    
    545000   300.64341      0.0018564113   1.1305677      745.90458     -3.2281385      742.67645    
    546000   299.97867      0.0018564113   0.86471172     744.25536     -2.8093589      741.446      
    547000   307.24965      0.0018564113   0.97117913     762.29485     -6.3454966      755.94935    
    548000   294.47942      0.0018564113   2.1204479      730.61157     -3.6643983      726.94717    
    549000   285.73415      0.0018564113   1.0720172      708.9143      -4.8109721      704.10333    
    550000   308.959        0.0018564113   0.48844684     766.5358      -5.7030093      760.83279    
    551000   302.63698      0.0018564113   1.280504       750.85069     -6.7580485      744.09265    
    552000   289.69158      0.0018564113   1.3107484      718.7328      -4.6565859      714.07621    
    553000   300.32096      0.0018564113   0.53523852     745.10458     -2.4320428      742.67254    
    554000   312.43109      0.0018564113  -0.11626146     775.15014     -2.7028537      772.44728    
    555000   303.30817      0.0018564113   1.9142764      752.51593     -3.3861531      749.12978    
    556000   299.99948      0.0018564113   1.4761911      744.30699     -2.7226341      741.58435    
    557000   299.496        0.0018564113   0.74074052     743.05784     -3.566279       739.49156    
    558000   305.53541      0.0018564113  -0.46077126     758.04178     -5.0980942      752.94368    
    559000   308.63117      0.0018564113   1.5130965      765.72243     -4.2172938      761.50514    
    560000   292.71051      0.0018564113   2.0687817      726.22283     -3.8033996      722.41943    
    561000   296.92321      0.0018564113   0.45330923     736.67466     -1.8795661      734.79509    
    562000   318.59127      0.0018564113   1.0579238      790.43373     -3.5491862      786.88455    
    563000   302.09085      0.0018564113   2.9904659      749.49573     -2.7052484      746.79048    
    564000   289.71805      0.0018564113   1.7005823      718.79847     -2.1141271      716.68434    
    565000   295.69928      0.0018564113   0.69660928     733.63807     -3.3501685      730.2879     
    566000   305.08697      0.0018564113   0.45454757     756.92919     -2.7309388      754.19825    
    567000   303.54049      0.0018564113   3.8551797      753.09233     -2.7481927      750.34414    
    568000   292.33357      0.0018564113   1.0926013      725.28766     -2.5392952      722.74836    
    569000   306.8625       0.0018564113   0.30372308     761.33432     -2.7214573      758.61286    
    570000   300.4637       0.0018564113   1.1910271      745.45873     -3.9384178      741.52031    
    571000   293.19068      0.0018564113   2.6322496      727.41415     -5.4151093      721.99904    
    572000   300.62357      0.0018564113   1.004444       745.85536     -4.4203164      741.43504    
    573000   309.79032      0.0018564113  -0.98601668     768.59832     -5.2103227      763.388      
    574000   295.43333      0.0018564113   2.1337301      732.97824     -4.3901366      728.5881     
    575000   290.20129      0.0018564113  -0.46341539     719.9974      -1.7060313      718.29137    
    576000   310.93905      0.0018564113   0.66591562     771.44836     -4.4154502      767.03291    
    577000   310.69876      0.0018564113   4.0706257      770.8522      -3.0635154      767.78868    
    578000   293.79407      0.0018564113   0.68491004     728.91119     -3.9669379      724.94425    
    579000   303.54777      0.0018564113   0.99167113     753.11039     -3.8638677      749.24652    
    580000   295.93097      0.0018564113   1.9421672      734.21289     -4.6227799      729.59011    
    581000   300.75325      0.0018564113  -0.31009247     746.1771      -4.1904318      741.98666    
    582000   306.22941      0.0018564113   0.89497905     759.76361     -3.0446901      756.71892    
    583000   289.44913      0.0018564113   3.0651977      718.13126     -2.839086       715.29217    
    584000   297.7476       0.0018564113   1.8105988      738.72001     -2.8771713      735.84284    
    585000   299.53512      0.0018564113   0.046237542    743.1549      -1.471722       741.68317    
    586000   309.99029      0.0018564113   0.70663541     769.09445     -4.8787195      764.21573    
    587000   294.49365      0.0018564113   2.313776       730.64686     -5.627909       725.01895    
    588000   290.191        0.0018564113   0.17523086     719.97186     -3.3921996      716.57966    
    589000   318.09716      0.0018564113   0.11848553     789.20783     -4.9224912      784.28534    
    590000   297.75281      0.0018564113   1.001348       738.73293     -4.5613679      734.17156    
    591000   296.70316      0.0018564113   1.6091252      736.12871     -6.332677       729.79603    
    592000   291.00367      0.0018564113   0.6703377      721.98814     -1.7870838      720.20105    
    593000   292.95765      0.0018564113   1.6917944      726.836       -1.6904942      725.14551    
    594000   292.29604      0.0018564113  -0.13043115     725.19453     -3.4139259      721.78061    
    595000   298.10625      0.0018564113   0.028890411    739.60983     -3.8921196      735.71771    
    596000   304.74591      0.0018564113   2.0476489      756.083       -3.6777055      752.40529    
    597000   304.85397      0.0018564113   2.6571156      756.35109     -2.03204        754.31905    
    598000   293.43802      0.0018564113   1.68933        728.02781     -2.8107576      725.21705    
    599000   285.83696      0.0018564113   0.1636368      709.16938     -0.63622052     708.53316    
    600000   313.22612      0.0018564113   2.2521877      777.12263     -2.3397954      774.78284    
    601000   297.85243      0.0018564113   1.8536392      738.9801      -2.3974293      736.58267    
    602000   285.0972       0.0018564113  -0.99754125     707.334       -3.1619923      704.17201    
    603000   301.66877      0.0018564113   0.5924122      748.44854     -1.9312317      746.5173     
    604000   319.33389      0.0018564113   1.166444       792.27617     -2.3715106      789.90466    
    605000   299.33641      0.0018564113   2.5560145      742.66188     -4.0113112      738.65057    
    606000   288.13244      0.0018564113   1.4689143      714.86453     -3.5227883      711.34175    
    607000   288.84488      0.0018564113   0.79302977     716.63212     -4.3309942      712.30112    
    608000   310.71739      0.0018564113   0.93095054     770.89842     -6.2433568      764.65506    
    609000   305.27367      0.0018564113   1.6687852      757.39239     -4.2080861      753.18431    
    610000   282.04088      0.0018564113   1.0611276      699.7512      -4.1880332      695.56317    
    611000   295.97877      0.0018564113   0.8168641      734.33148     -3.2939665      731.03751    
    612000   308.37826      0.0018564113   1.0823857      765.09497     -1.5379738      763.557      
    613000   301.08181      0.0018564113   1.1872568      746.99227     -3.8956326      743.09664    
    614000   290.77538      0.0018564113   1.0214335      721.42174     -2.1781499      719.24359    
    615000   302.39177      0.0018564113   0.76111608     750.24233     -2.1356896      748.10664    
    616000   315.48327      0.0018564113   0.51947744     782.72269     -1.2289374      781.49375    
    617000   306.09128      0.0018564113   1.0485294      759.4209      -2.3016895      757.11921    
    618000   297.12282      0.0018564113   1.2023834      737.1699      -1.0596064      736.11029    
    619000   290.62351      0.0018564113   1.0936152      721.04493     -2.8395344      718.2054     
    620000   293.80798      0.0018564113   0.41470036     728.94569     -3.8611205      725.08457    
    621000   299.32616      0.0018564113   0.48189272     742.63645     -2.8421473      739.7943     
    622000   301.42279      0.0018564113  -0.36088509     747.83824     -2.667877       745.17036    
    623000   300.91304      0.0018564113   2.7979153      746.57355     -3.5446773      743.02887    
    624000   279.13123      0.0018564113   2.5389556      692.53229     -2.7334213      689.79886    
    625000   305.83165      0.0018564113   0.38773341     758.77674     -1.390515       757.38623    
    626000   304.76703      0.0018564113  -0.22501495     756.1354      -3.2757085      752.8597     
    627000   300.92541      0.0018564113   1.4792178      746.60425     -4.4250058      742.17924    
    628000   307.85535      0.0018564113   1.8984403      763.79762     -3.8157296      759.98189    
    629000   287.84745      0.0018564113   1.0116828      714.15746     -3.2501181      710.90734    
    630000   301.37755      0.0018564113   0.48944996     747.72602     -2.5664612      745.15956    
    631000   307.66259      0.0018564113   1.5813435      763.31937     -3.3680388      759.95133    
    632000   308.14528      0.0018564113   1.624103       764.51694     -2.4587539      762.05819    
    633000   301.59707      0.0018564113  -0.34852367     748.27065     -1.4071636      746.86349    
    634000   305.04615      0.0018564113   1.154853       756.8279      -3.3197439      753.50815    
    635000   307.67015      0.0018564113   1.8238511      763.33811     -2.3826394      760.95547    
    636000   303.2266       0.0018564113   0.84180432     752.31355     -2.813638       749.49992    
    637000   307.12613      0.0018564113   0.90231444     761.9884      -1.7966378      760.19176    
    638000   296.02922      0.0018564113   1.551226       734.45665     -4.1861948      730.27045    
    639000   293.45569      0.0018564113   0.37204708     728.07165     -4.3932509      723.6784     
    640000   315.59709      0.0018564113   0.054142529    783.00509     -2.7230622      780.28203    
    641000   300.36051      0.0018564113   1.5967086      745.20271     -3.9103503      741.29236    
    642000   288.18282      0.0018564113   0.97658838     714.98953     -3.4749804      711.51455    
    643000   299.1873       0.0018564113   0.83165415     742.29193     -3.2646335      739.0273     
    644000   308.93151      0.0018564113   1.0114579      766.46758     -3.878396       762.58919    
    645000   307.92068      0.0018564113   1.1645391      763.95969     -3.8982997      760.06139    
    646000   298.24309      0.0018564113   1.2922222      739.94933     -4.6078547      735.34147    
    647000   296.2358       0.0018564113   1.0381151      734.96918     -5.5252145      729.44396    
    648000   309.88891      0.0018564113   1.0236601      768.84292     -5.0169878      763.82593    
    649000   298.29584      0.0018564113   1.0326422      740.0802      -3.6568673      736.42333    
    650000   295.20966      0.0018564113   1.1165615      732.42331     -5.1484646      727.27485    
    651000   297.88903      0.0018564113   1.1367086      739.07089     -4.8443291      734.22656    
    652000   304.2822       0.0018564113   0.5710687      754.93253     -4.2979631      750.63456    
    653000   303.42985      0.0018564113   1.0554492      752.81783     -3.7373426      749.08049    
    654000   289.14486      0.0018564113   1.811373       717.37636     -4.8516543      712.5247     
    655000   292.17003      0.0018564113   0.53523519     724.88191     -6.0506232      718.83128    
    656000   315.79233      0.0018564113   1.1458625      783.48947     -3.4616044      780.02786    
    657000   308.98786      0.0018564113   1.9957283      766.60739     -2.8655126      763.74188    
    658000   288.84592      0.0018564113   0.95477059     716.6347      -3.2949799      713.33972    
    659000   303.94667      0.0018564113   0.053255505    754.10006     -3.1631605      750.9369     
    660000   309.59189      0.0018564113   1.0457586      768.10601     -3.3431664      764.76284    
    661000   298.26861      0.0018564113   3.1280142      740.01264     -4.3936506      735.61899    
    662000   293.50404      0.0018564113   1.1733732      728.19161     -5.1528623      723.03875    
    663000   304.11556      0.0018564113   0.44862894     754.51908     -5.5011161      749.01796    
    664000   323.68025      0.0018564113   2.1379636      803.05961     -4.8926142      798.167      
    665000   294.75324      0.0018564113   4.2956813      731.29091     -7.0573867      724.23352    
    666000   289.19128      0.0018564113   0.11088293     717.49155     -4.668227       712.82332    
    667000   300.0455       0.0018564113  -0.54646759     744.42115     -5.2331989      739.18795    
    668000   313.65748      0.0018564113   0.53506255     778.19286     -5.1595449      773.03332    
    669000   308.68354      0.0018564113   2.7429878      765.85237     -6.1332514      759.71912    
    670000   291.50035      0.0018564113   2.4126689      723.22041     -6.3003847      716.92003    
    671000   290.90391      0.0018564113   1.3965789      721.74062     -4.8882775      716.85234    
    672000   300.65647      0.0018564113  -0.46464617     745.93698     -3.9039392      742.03304    
    673000   310.90295      0.0018564113   0.47978298     771.35879     -6.2534464      765.10535    
    674000   306.86532      0.0018564113   1.4581782      761.34132     -4.4808583      756.86046    
    675000   298.27199      0.0018564113   1.383866       740.02103     -6.4341236      733.58691    
    676000   292.73706      0.0018564113   0.44627923     726.28872     -5.3627573      720.92596    
    677000   282.24002      0.0018564113   1.2224913      700.24528     -5.5261993      694.71908    
    678000   307.77787      0.0018564113   0.98293032     763.60539     -3.6733938      759.93199    
    679000   301.1223       0.0018564113   1.0521675      747.09273     -3.9780302      743.1147     
    680000   291.50389      0.0018564113   1.0621735      723.22919     -4.1309307      719.09826    
    681000   301.27138      0.0018564113   1.0284794      747.46259     -4.1637589      743.29884    
    682000   305.26994      0.0018564113   1.0780331      757.38313     -4.5828504      752.80028    
    683000   296.17538      0.0018564113   0.6505775      734.81928     -4.2178146      730.60146    
    684000   293.29384      0.0018564113   1.1022701      727.67011     -4.8926621      722.77745    
    685000   297.59811      0.0018564113   1.0659464      738.34912     -8.0877146      730.26141    
    686000   304.73676      0.0018564113   0.94232198     756.06031     -6.7889943      749.27131    
    687000   308.28647      0.0018564113   1.0246497      764.86724     -3.5140275      761.35321    
    688000   303.88176      0.0018564113   1.3122113      753.93902     -3.9479628      749.99106    
    689000   287.20023      0.0018564113   1.0296494      712.55168     -2.6801476      709.87153    
    690000   289.52155      0.0018564113   0.73121036     718.31094     -3.295128       715.01581    
    691000   302.78767      0.0018564113   0.76033049     751.22456     -2.4389112      748.78565    
    692000   319.44401      0.0018564113   1.1639123      792.54939     -2.1408538      790.40853    
    693000   295.88795      0.0018564113   0.91070349     734.10617     -1.8626014      732.24356    
    694000   297.98978      0.0018564113   0.99273712     739.32086     -3.62204        735.69882    
    695000   305.1167       0.0018564113   0.96880302     757.00295     -2.267229       754.73572    
    696000   302.92168      0.0018564113   1.0112459      751.55704     -3.6099917      747.94705    
    697000   302.61553      0.0018564113   1.0375158      750.79748     -2.0079249      748.78955    
    698000   296.96243      0.0018564113   1.1078742      736.77197     -3.1901031      733.58186    
    699000   311.15687      0.0018564113   0.94824418     771.98876     -1.6601666      770.32859    
    700000   313.40037      0.0018564113   1.0425872      777.55495     -2.7442449      774.81071    
    701000   283.61231      0.0018564113   0.50837303     703.64996     -3.677377       699.97259    
    702000   288.71105      0.0018564113   1.3279223      716.30008     -4.3859342      711.91415    
    703000   307.13743      0.0018564113   1.0326718      762.01642     -3.6941945      758.32222    
    704000   300.51322      0.0018564113   0.8057802      745.58158     -2.3688089      743.21278    
    705000   293.38576      0.0018564113   1.0834751      727.89817     -0.60563499     727.29253    
    706000   296.87805      0.0018564113   1.5394095      736.56263     -3.9311737      732.63145    
    707000   309.88175      0.0018564113   0.9992804      768.82515     -5.3635043      763.46165    
    708000   301.27515      0.0018564113   0.76572832     747.47195     -4.1126553      743.35929    
    709000   292.86061      0.0018564113   0.98970595     726.59525     -2.4269218      724.16833    
    710000   296.99901      0.0018564113   1.1290084      736.86273     -1.3545914      735.50814    
    711000   305.72351      0.0018564113   1.0944847      758.50845     -3.1234715      755.38498    
    712000   305.9385       0.0018564113   1.0749655      759.04184     -4.5713648      754.47048    
    713000   311.50808      0.0018564113   1.0580803      772.86013     -6.9088438      765.95129    
    714000   298.71011      0.0018564113   0.86678943     741.10801     -5.3653428      735.74267    
    715000   303.17312      0.0018564113   1.02391        752.18087     -4.1652316      748.01564    
    716000   312.87867      0.0018564113   1.0225479      776.26061     -5.1905978      771.07001    
    717000   296.36744      0.0018564113   0.96163582     735.29578     -6.2113574      729.08442    
    718000   298.26149      0.0018564113   0.79514482     739.99499     -5.1450752      734.84991    
    719000   301.53465      0.0018564113   1.2686147      748.11577     -6.2830628      741.83271    
    720000   298.82138      0.0018564113   1.168969       741.38407     -5.5440935      735.83998    
    721000   302.52568      0.0018564113   0.97199655     750.57454     -5.5093039      745.06524    
    722000   301.32004      0.0018564113   0.82994638     747.58332     -6.6747666      740.90855    
    723000   297.5513       0.0018564113   1.0444321      738.23299     -6.3903153      731.84267    
    724000   296.8207       0.0018564113   1.2857362      736.42033     -6.8248195      729.59551    
    725000   295.01295      0.0018564113   1.1932242      731.93526     -7.3272706      724.60799    
    726000   300.16783      0.0018564113   0.43747586     744.72467     -6.8888213      737.83585    
    727000   305.25342      0.0018564113   0.68044456     757.34215     -6.6077303      750.73442    
    728000   291.31422      0.0018564113   2.046054       722.75861     -6.8069536      715.95166    
    729000   307.0334       0.0018564113   1.1149245      761.75833     -6.7592405      754.99909    
    730000   307.85378      0.0018564113   0.82324819     763.79373     -5.2771211      758.51661    
    731000   293.06367      0.0018564113   1.0243345      727.09905     -5.3688221      721.73023    
    732000   306.83475      0.0018564113   1.0379591      761.26547     -5.0093016      756.25617    
    733000   296.26628      0.0018564113   0.15090631     735.04481     -3.5000641      731.54475    
    734000   307.07763      0.0018564113   1.2946638      761.86806     -3.866445       758.00162    
    735000   304.22881      0.0018564113   1.0394252      754.80006     -5.337522       749.46254    
    736000   301.24402      0.0018564113   0.86321992     747.39471     -2.9279868      744.46672    
    737000   288.67306      0.0018564113   0.54304801     716.20581     -5.0717671      711.13404    
    738000   294.07537      0.0018564113   1.2893792      729.60911     -3.2933453      726.31576    
    739000   297.74224      0.0018564113   1.611721       738.70669     -3.6991247      735.00757    
    740000   298.76825      0.0018564113   1.1779366      741.25226     -1.6020956      739.65016    
    741000   301.35508      0.0018564113  -0.44654722     747.67026     -3.6759412      743.99432    
    742000   307.09553      0.0018564113  -0.93627908     761.91248     -5.1053288      756.80715    
    743000   297.87819      0.0018564113   1.9092999      739.04399     -4.8208421      734.22315    
    744000   313.14536      0.0018564113   1.911084       776.92227     -2.1971833      774.72509    
    745000   304.26302      0.0018564113   1.2132124      754.88495     -2.7355814      752.14937    
    746000   294.76348      0.0018564113  -1.7595193      731.31632     -5.1412921      726.17503    
    747000   300.41627      0.0018564113   0.64075356     745.34105     -3.9232927      741.41776    
    748000   302.57704      0.0018564113   2.0552287      750.70198     -2.192075       748.50991    
    749000   302.72074      0.0018564113   0.17367634     751.05849     -2.9105543      748.14794    
    750000   293.63522      0.0018564113   0.52945492     728.51707     -2.0907131      726.42636    
    751000   292.27019      0.0018564113   1.8731857      725.13039     -2.8182497      722.31214    
    752000   302.59934      0.0018564113   1.8057674      750.75731     -3.8288428      746.92847    
    753000   297.65091      0.0018564113   2.2968423      738.48012     -3.2161366      735.26398    
    754000   298.2671       0.0018564113   1.0798558      740.00889     -0.63959352     739.36929    
    755000   308.15121      0.0018564113  -0.082544123    764.53164     -2.8360918      761.69554    
    756000   301.75888      0.0018564113   2.9814468      748.67209     -2.0642725      746.60782    
    757000   307.49433      0.0018564113   1.98519        762.90192     -1.8982398      761.00368    
    758000   308.03623      0.0018564113   0.2483087      764.24638     -3.3655706      760.88081    
    759000   308.96615      0.0018564113  -0.58822226     766.55353     -3.7061761      762.84735    
    760000   294.01717      0.0018564113   2.4962707      729.46471     -2.3489148      727.1158     
    761000   296.30337      0.0018564113   1.0934137      735.13682     -3.7071172      731.4297     
    762000   315.10233      0.0018564113   0.89243802     781.77757     -3.5584798      778.21909    
    763000   312.9712       0.0018564113  -0.087974006    776.49018     -3.995917       772.49426    
    764000   288.80532      0.0018564113   0.92625499     716.53395     -2.9981426      713.53581    
    765000   305.58779      0.0018564113   2.6763295      758.17174     -3.6191637      754.55258    
    766000   315.7724       0.0018564113   0.53591213     783.44003     -3.3307702      780.10926    
    767000   302.93674      0.0018564113  -1.7959276      751.59441     -2.8499042      748.7445     
    768000   288.58954      0.0018564113   2.3749632      715.9986      -2.5708036      713.42779    
    769000   301.06817      0.0018564113   2.6257394      746.95843     -3.5321289      743.4263     
    770000   306.46572      0.0018564113   0.92105719     760.34991     -4.1496267      756.20028    
    771000   290.53891      0.0018564113   0.0018164508   720.83504     -5.6290683      715.20597    
    772000   299.2249       0.0018564113   0.82426447     742.38523     -4.9534615      737.43177    
    773000   305.20204      0.0018564113   5.6397209      757.21468     -6.4753516      750.73932    
    774000   311.67564      0.0018564113   0.60836229     773.27586     -5.9221971      767.35367    
    775000   318.77506      0.0018564113  -0.93475435     790.88971     -5.209793       785.67992    
    776000   290.37929      0.0018564113   0.41731853     720.43901     -6.6184567      713.82056    
    777000   298.33811      0.0018564113   1.8679156      740.18507     -6.6738551      733.51122    
    778000   305.15151      0.0018564113   1.6404786      757.0893      -5.9608697      751.12843    
    779000   323.39107      0.0018564113   0.40294218     802.34215     -6.9031686      795.43898    
    780000   290.9342       0.0018564113  -2.1054659      721.81577     -7.7054381      714.11033    
    781000   304.17865      0.0018564113   1.9874483      754.67561     -5.262208       749.4134     
    782000   300.66492      0.0018564113   4.9801538      745.95797     -5.7111989      740.24677    
    783000   301.91476      0.0018564113   0.14370307     749.05883     -5.4265671      743.63227    
    784000   303.07818      0.0018564113  -0.4715928      751.94533     -5.7553296      746.19       
    785000   300.97359      0.0018564113   1.825662       746.72378     -4.629881       742.0939     
    786000   309.42397      0.0018564113   3.1967748      767.68939     -3.5680851      764.12131    
    787000   300.14309      0.0018564113  -0.21261478     744.66328     -5.9844288      738.67885    
    788000   278.29615      0.0018564113   1.1043364      690.46043     -5.1961905      685.26423    
    789000   308.83586      0.0018564113   2.7067713      766.23029     -4.2458735      761.98441    
    790000   318.43277      0.0018564113   1.6518216      790.04047     -4.919587       785.12088    
    791000   295.29433      0.0018564113  -1.9207583      732.63337     -6.1299615      726.50341    
    792000   287.09192      0.0018564113   0.36890447     712.28298     -4.8293458      707.45363    
    793000   312.22713      0.0018564113   1.7220818      774.64411     -3.6925536      770.95156    
    794000   304.29282      0.0018564113   0.014062356    754.95889     -5.0804252      749.87846    
    795000   283.3434       0.0018564113  -0.75548916     702.98279     -4.8788285      698.10396    
    796000   298.98503      0.0018564113   2.8400745      741.79009     -4.6693576      737.12073    
    797000   308.10626      0.0018564113   2.9562815      764.42013     -3.7752586      760.64487    
    798000   310.59746      0.0018564113   0.59493837     770.60087     -4.5892941      766.01158    
    799000   288.32849      0.0018564113  -0.52572246     715.35093     -5.2178857      710.13305    
    800000   294.87978      0.0018564113   2.1229129      731.60487     -3.6184905      727.98638    
    801000   316.73933      0.0018564113   1.1584015      785.83902     -5.9326388      779.90638    
    802000   304.9688       0.0018564113   0.21957301     756.636       -7.045672       749.59033    
    803000   294.39593      0.0018564113   0.69785002     730.40442     -6.8014099      723.60301    
    804000   313.98754      0.0018564113   1.7908608      779.01174     -6.193639       772.81811    
    805000   311.78712      0.0018564113   1.4570681      773.55243     -6.0153333      767.53709    
    806000   302.04658      0.0018564113   1.0043099      749.38589     -7.1188104      742.26708    
    807000   296.41041      0.0018564113   0.70076366     735.4024      -4.6030503      730.79935    
    808000   289.23305      0.0018564113   0.90739932     717.59518     -3.1639487      714.43123    
    809000   304.54957      0.0018564113   1.2759649      755.59587     -5.6629843      749.93288    
    810000   297.7554       0.0018564113   0.39572056     738.73935     -4.5012365      734.23812    
    811000   301.92679      0.0018564113   0.93739493     749.08868     -4.5204824      744.5682     
    812000   310.88674      0.0018564113   1.2582274      771.31857     -3.7142667      767.6043     
    813000   298.08011      0.0018564113   1.0353685      739.54496     -3.9778882      735.56707    
    814000   293.93085      0.0018564113   0.57202316     729.25055     -3.2150543      726.03549    
    815000   299.84456      0.0018564113   1.1211644      743.92263     -3.7949992      740.12763    
    816000   299.81388      0.0018564113   1.4587801      743.84651     -2.8746387      740.97187    
    817000   295.66209      0.0018564113   0.19492831     733.5458      -3.6682377      729.87757    
    818000   293.51185      0.0018564113   0.31475627     728.211       -3.9124166      724.29858    
    819000   304.29075      0.0018564113   1.3027693      754.95374     -4.7168099      750.23693    
    820000   311.30739      0.0018564113   1.2121023      772.36223     -4.0348709      768.32736    
    821000   293.62829      0.0018564113   0.68525484     728.49988     -4.1532335      724.34665    
    822000   306.18301      0.0018564113   0.92986555     759.64849     -4.6752453      754.97325    
    823000   295.97617      0.0018564113   1.4124226      734.32504     -5.6281653      728.69687    
    824000   296.97287      0.0018564113   1.8305672      736.79788     -5.5591429      731.23873    
    825000   328.58082      0.0018564113   0.83537928     815.21807     -3.6451252      811.57295    
    826000   321.58048      0.0018564113   1.4088048      797.85002     -1.9231784      795.92685    
    827000   299.88498      0.0018564113   0.54402687     744.0229      -3.7679337      740.25496    
    828000   290.06559      0.0018564113   0.39467199     719.66072     -3.7548701      715.90585    
    829000   293.9148       0.0018564113   1.2881894      729.21072     -4.2888582      724.92186    
    830000   311.79611      0.0018564113   2.0624882      773.57475     -5.0883794      768.48638    
    831000   303.42911      0.0018564113  -0.91920236     752.81599     -3.9282219      748.88777    
    832000   290.75461      0.0018564113   1.0111844      721.37021     -2.1760213      719.19419    
    833000   309.68858      0.0018564113   1.9195809      768.34589     -4.9250351      763.42086    
    834000   302.11185      0.0018564113  -0.90877157     749.54782     -3.113879       746.43394    
    835000   294.59765      0.0018564113  -0.35638065     730.90488     -4.196426       726.70846    
    836000   292.13699      0.0018564113   2.2273874      724.79992     -5.4313133      719.36861    
    837000   308.87613      0.0018564113   2.3303107      766.33018     -5.1305753      761.19961    
    838000   309.69795      0.0018564113   1.6198474      768.36915     -3.4459197      764.92324    
    839000   297.83456      0.0018564113  -1.3279734      738.93575     -4.3640311      734.57172    
    840000   299.65829      0.0018564113  -0.17869451     743.46048     -3.7666522      739.69383    
    841000   298.93186      0.0018564113   3.0994568      741.65818     -2.5910137      739.06717    
    842000   307.48426      0.0018564113   1.729415       762.87694     -3.6706912      759.20624    
    843000   304.93193      0.0018564113  -0.38022775     756.54453     -0.30227237     756.24225    
    844000   289.139        0.0018564113  -1.7540885      717.36183     -3.0332711      714.32856    
    845000   294.45142      0.0018564113   2.9292051      730.5421      -3.9912757      726.55082    
    846000   283.3078       0.0018564113   0.90805569     702.89445     -3.2679096      699.62654    
    847000   295.63876      0.0018564113   3.3249909      733.4879      -4.4966344      728.99127    
    848000   306.51694      0.0018564113  -0.096446651    760.47697     -4.5968836      755.88009    
    849000   293.81103      0.0018564113  -0.11013585     728.95326     -5.3290694      723.62419    
    850000   293.99356      0.0018564113   2.2925345      729.40614     -3.579837       725.8263     
    851000   302.12089      0.0018564113   1.8145634      749.57026     -4.130332       745.43993    
    852000   308.93486      0.0018564113   0.67661897     766.47589     -3.1010368      763.37486    
    853000   294.8146       0.0018564113   0.41201378     731.44315     -2.7391271      728.70403    
    854000   283.00682      0.0018564113   0.71507025     702.14772     -2.2633774      699.88435    
    855000   291.52102      0.0018564113   1.1280058      723.27169     -2.1078988      721.1638     
    856000   314.88622      0.0018564113   2.8502305      781.24139     -1.9899951      779.25139    
    857000   302.68775      0.0018564113   1.4585392      750.97664     -4.379136       746.5975     
    858000   300.29505      0.0018564113   1.5908823      745.0403      -5.3273709      739.71293    
    859000   289.28358      0.0018564113   0.90155258     717.72053     -3.7420769      713.97845    
    860000   292.67252      0.0018564113   0.6793991      726.1286      -4.6224078      721.50619    
    861000   295.8441       0.0018564113   1.1355989      733.99737     -6.5091492      727.48822    
    862000   305.32854      0.0018564113   2.7463774      757.52852     -5.3561538      752.17237    
    863000   299.27839      0.0018564113  -0.80879947     742.51793     -5.5491645      736.96876    
    864000   303.46904      0.0018564113  -0.0027610572   752.91506     -6.1485889      746.76647    
    865000   302.0636       0.0018564113   2.6151777      749.42812     -4.5582214      744.8699     
    866000   296.61774      0.0018564113   1.3497068      735.91679     -3.4806062      732.43618    
    867000   306.86475      0.0018564113  -5.7106108      761.3399      -2.89256        758.44734    
    868000   297.60353      0.0018564113   2.6651361      738.36256     -3.6684461      734.69411    
    869000   305.19971      0.0018564113   0.66101593     757.20888     -1.2834918      755.92539    
    870000   295.32822      0.0018564113  -1.0868914      732.71746     -3.1191166      729.59834    
    871000   306.0053       0.0018564113   1.3283946      759.20758     -3.7099955      755.49758    
    872000   311.66089      0.0018564113   2.8790598      773.23925     -3.2566117      769.98264    
    873000   294.55122      0.0018564113  -0.33739321     730.78969     -3.2222194      727.56747    
    874000   302.39816      0.0018564113   0.85253181     750.25817     -5.3684411      744.88973    
    875000   295.86693      0.0018564113   1.1689914      734.05401     -3.8036724      730.25034    
    876000   300.94291      0.0018564113   1.0872494      746.64767     -2.8871937      743.76047    
    877000   296.88399      0.0018564113   0.8754632      736.57737     -2.8380629      733.7393     
    878000   297.98048      0.0018564113   0.26104601     739.29778     -2.0063106      737.29147    
    879000   301.77255      0.0018564113   4.7118743      748.70601     -3.9069673      744.79905    
    880000   304.39802      0.0018564113   0.98221431     755.21988     -4.2231473      750.99673    
    881000   297.614        0.0018564113   0.59853075     738.38854     -3.5885917      734.79995    
    882000   289.94084      0.0018564113   1.1159691      719.35123     -7.2589677      712.09226    
    883000   316.39153      0.0018564113   1.0750636      784.9761      -2.337039       782.63906    
    884000   302.10193      0.0018564113   1.0934536      749.5232      -3.9461216      745.57708    
    885000   291.13351      0.0018564113   0.94514245     722.31027     -3.2777003      719.03257    
    886000   290.74987      0.0018564113   0.96044437     721.35844     -6.0896718      715.26877    
    887000   309.96418      0.0018564113   1.0764946      769.02967     -6.8008893      762.22878    
    888000   296.59823      0.0018564113   1.3606919      735.86838     -5.665155       730.20322    
    889000   296.97321      0.0018564113   1.0001785      736.79872     -7.6410631      729.15766    
    890000   298.723        0.0018564113   0.82056714     741.13999     -5.8805883      735.2594     
    891000   317.90721      0.0018564113   0.93049915     788.73654     -4.4139752      784.32257    
    892000   307.42362      0.0018564113   1.0743225      762.72647     -4.7311184      757.99535    
    893000   298.56797      0.0018564113   0.97368386     740.75536     -4.9303751      735.82498    
    894000   298.68431      0.0018564113   1.0198945      741.04401     -7.1783889      733.86562    
    895000   316.26012      0.0018564113   1.0962111      784.65008     -4.7630802      779.887      
    896000   299.67173      0.0018564113   1.0189169      743.49382     -4.6483124      738.8455     
    897000   283.78236      0.0018564113   0.97998175     704.07185     -4.2059567      699.86589    
    898000   308.00378      0.0018564113   1.070754       764.16586     -3.2603246      760.90553    
    899000   315.3139       0.0018564113   1.2664244      782.30248     -3.3195657      778.98291    
    900000   294.16432      0.0018564113   0.95173771     729.82979     -4.8916633      724.93812    
    901000   303.01044      0.0018564113   0.45911271     751.77725     -5.6092661      746.16799    
    902000   298.30746      0.0018564113   0.38552494     740.10904     -3.2542227      736.85481    
    903000   295.53352      0.0018564113   1.8493856      733.22682     -3.8016535      729.42516    
    904000   296.93769      0.0018564113   1.5805676      736.71059     -4.2927711      732.41782    
    905000   304.73223      0.0018564113   0.12696662     756.04906     -3.5948032      752.45426    
    906000   290.97225      0.0018564113   0.021729687    721.91017     -4.7576344      717.15254    
    907000   299.84697      0.0018564113   1.7218062      743.92859     -2.9773938      740.95119    
    908000   300.58979      0.0018564113  -1.5702092      745.77157     -1.7182192      744.05335    
    909000   289.78149      0.0018564113   0.9214302      718.95585     -2.9317024      716.02415    
    910000   315.1027       0.0018564113   1.654439       781.77849     -3.7436286      778.03486    
    911000   303.64904      0.0018564113   0.57060932     753.36164     -2.6066395      750.755      
    912000   288.85103      0.0018564113   0.15847171     716.64736     -2.4209707      714.22639    
    913000   297.4473       0.0018564113   1.97655        737.97496     -2.3847182      735.59024    
    914000   327.22649      0.0018564113   2.3216261      811.85794     -2.4315316      809.42641    
    915000   296.16519      0.0018564113   0.70667647     734.794       -2.8914296      731.90257    
    916000   294.64506      0.0018564113   0.93689078     731.0225      -2.7120214      728.31048    
    917000   308.51733      0.0018564113   2.0612851      765.44        -2.267922       763.17208    
    918000   304.64309      0.0018564113   0.90344138     755.8279      -3.5204737      752.30743    
    919000   278.30643      0.0018564113   0.88746878     690.48592     -3.7906349      686.69529    
    920000   307.7435       0.0018564113   1.304864       763.52011     -5.6251023      757.89501    
    921000   313.34373      0.0018564113   0.35523094     777.41444     -5.2984821      772.11596    
    922000   285.85023      0.0018564113   0.98443075     709.2023      -4.7943986      704.4079     
    923000   299.97817      0.0018564113   0.99869694     744.2541      -6.3232301      737.93087    
    924000   308.74873      0.0018564113   1.4934456      766.0141      -6.1970564      759.81705    
    925000   314.90476      0.0018564113   1.4134834      781.28738     -5.9006725      775.38671    
    926000   294.38634      0.0018564113   0.88876677     730.38062     -7.7947236      722.5859     
    927000   291.17459      0.0018564113   0.55488055     722.41219     -5.1633747      717.24882    
    928000   303.70492      0.0018564113   0.59808492     753.50027     -5.6849274      747.81534    
    929000   299.99204      0.0018564113   2.0410678      744.28851     -5.9143117      738.3742     
    930000   299.48185      0.0018564113   1.0679798      743.02273     -6.2685097      736.75422    
    931000   305.33259      0.0018564113   0.5626763      757.53857     -5.2382556      752.30031    
    932000   299.41736      0.0018564113   1.0926206      742.86273     -6.2156616      736.64706    
    933000   292.84922      0.0018564113   1.2306152      726.56698     -8.0298146      718.53716    
    934000   294.84575      0.0018564113  -0.26967046     731.52042     -2.9143603      728.60606    
    935000   308.32771      0.0018564113   0.90209027     764.96955     -6.9983563      757.9712     
    936000   299.70805      0.0018564113   1.0596042      743.58393     -7.6100029      735.97393    
    937000   284.04669      0.0018564113   1.5653757      704.72766     -5.8858815      698.84177    
    938000   297.62459      0.0018564113   0.97990889     738.41482     -7.7996514      730.61517    
    939000   306.77376      0.0018564113   0.77206828     761.11416     -6.1439996      754.97016    
    940000   304.25472      0.0018564113   0.92651374     754.86435     -6.670617       748.19374    
    941000   297.24438      0.0018564113   1.7570795      737.4715      -5.4097362      732.06176    
    942000   293.54975      0.0018564113   0.048546729    728.30503     -4.3435829      723.96145    
    943000   311.09362      0.0018564113  -0.97262632     771.83186     -4.6364627      767.1954     
    944000   305.97471      0.0018564113   1.1073697      759.13168     -3.9683767      755.1633     
    945000   294.338        0.0018564113   1.8340941      730.26069     -5.2874769      724.97322    
    946000   292.49332      0.0018564113   1.0605013      725.68398     -2.4482337      723.23575    
    947000   308.19818      0.0018564113   0.83772919     764.64818     -3.6193979      761.02878    
    948000   313.1425       0.0018564113   0.85438614     776.91518     -2.9104582      774.00472    
    949000   294.29217      0.0018564113   1.2706619      730.14699     -2.2628819      727.88411    
    950000   296.19235      0.0018564113   1.14575        734.86138     -4.1731717      730.68821    
    951000   308.53949      0.0018564113   0.2962547      765.49499     -3.7979927      761.697      
    952000   302.59085      0.0018564113   0.78030726     750.73625     -3.7950346      746.94121    
    953000   295.59058      0.0018564113   0.96147248     733.36838     -2.2005703      731.16781    
    954000   293.03898      0.0018564113   3.3080712      727.03779     -5.6671853      721.37061    
    955000   298.36955      0.0018564113   0.10841346     740.26307     -4.0861739      736.1769     
    956000   305.53845      0.0018564113   0.9961039      758.04932     -6.6677068      751.38161    
    957000   300.54472      0.0018564113   0.4971489      745.65974     -5.6034394      740.0563     
    958000   291.13698      0.0018564113   1.8787022      722.31886     -6.7283895      715.59047    
    959000   300.60709      0.0018564113   1.2812339      745.81448     -5.0616176      740.75286    
    960000   300.11346      0.0018564113   0.4531705      744.58976     -3.218738       741.37103    
    961000   297.85765      0.0018564113   0.88222593     738.99304     -3.7542086      735.23883    
    962000   307.44686      0.0018564113   1.8011009      762.78414     -3.9238284      758.86031    
    963000   286.77936      0.0018564113   1.1949976      711.50751     -4.4694774      707.03803    
    964000   296.52417      0.0018564113   0.063932964    735.68463     -3.6939265      731.9907     
    965000   305.99778      0.0018564113  -0.040933204    759.18894     -5.1821201      754.00681    
    966000   309.77502      0.0018564113   1.9796527      768.56036     -5.0177757      763.54259    
    967000   290.29678      0.0018564113  -0.051192454    720.2343      -4.9383086      715.29599    
    968000   291.68046      0.0018564113  -3.7344431      723.66727     -4.5760128      719.09126    
    969000   317.58453      0.0018564113  -0.68446567     787.93596     -4.7720609      783.1639     
    970000   299.84914      0.0018564113   2.403257       743.93398     -6.0670323      737.86695    
    971000   290.60422      0.0018564113   1.6442097      720.99709     -2.9415549      718.05553    
    972000   278.43947      0.0018564113  -0.80296673     690.81599     -2.5728386      688.24315    
    973000   305.00096      0.0018564113  -0.14175774     756.7158      -4.1684631      752.54733    
    974000   307.41334      0.0018564113   0.95475355     762.70097     -5.0823164      757.61865    
    975000   294.33722      0.0018564113   2.0246882      730.25877     -2.3621882      727.89658    
    976000   294.4055       0.0018564113   0.81496358     730.42816     -4.3893862      726.03877    
    977000   305.01219      0.0018564113  -1.6335876      756.74364     -2.5536869      754.18995    
    978000   301.82933      0.0018564113   1.2146033      748.8469      -4.7659628      744.08094    
    979000   293.28373      0.0018564113   1.759002       727.64502     -1.9832133      725.66181    
    980000   299.78622      0.0018564113   1.3838681      743.77789     -3.9214892      739.8564     
    981000   302.55791      0.0018564113   0.115179       750.65451     -4.0948162      746.5597     
    982000   308.86479      0.0018564113   1.0872687      766.30207     -3.4036386      762.89843    
    983000   289.65451      0.0018564113   1.1507378      718.64083     -4.4882223      714.15261    
    984000   301.32466      0.0018564113   0.35181263     747.59478     -3.8305794      743.7642     
    985000   308.48983      0.0018564113   0.88349441     765.37178     -5.6527924      759.71899    
    986000   291.63073      0.0018564113   1.0358641      723.54388     -7.3313234      716.21255    
    987000   294.25495      0.0018564113   1.2029708      730.05465     -5.71452        724.34013    
    988000   296.46663      0.0018564113   0.85015808     735.54189     -6.4339219      729.10796    
    989000   306.69069      0.0018564113   1.3040265      760.90805     -2.2869047      758.62115    
    990000   298.80449      0.0018564113   1.0246883      741.34219     -2.3280311      739.01415    
    991000   300.50015      0.0018564113   0.92831964     745.54915     -3.371819       742.17733    
    992000   294.73808      0.0018564113   0.380156       731.2533      -2.0366636      729.21663    
    993000   302.65425      0.0018564113   1.0866831      750.89354     -2.234741       748.6588     
    994000   302.43072      0.0018564113   1.5444115      750.33896     -1.5931217      748.74583    
    995000   300.22642      0.0018564113   0.99601976     744.87003     -1.7240837      743.14594    
    996000   301.75244      0.0018564113   0.97912186     748.65612     -1.6608889      746.99524    
    997000   302.59149      0.0018564113   1.0831966      750.73783     -2.4874419      748.25039    
    998000   296.88452      0.0018564113   0.96880054     736.57867     -2.1392505      734.43942    
    999000   293.70711      0.0018564113   0.73852472     728.69543     -1.3657844      727.32964    
   1000000   307.41562      0.0018564113   0.64240982     762.70664     -2.5572161      760.14942    
   1001000   294.00103      0.0018564113   1.7375751      729.42467     -2.6694268      726.75524    
   1002000   292.40563      0.0018564113   1.8009407      725.46644     -4.1057687      721.36067    
   1003000   296.93709      0.0018564113   0.61849286     736.70909     -3.9839147      732.72518    
   1004000   303.66022      0.0018564113   1.1147253      753.38938     -4.2741941      749.11519    
   1005000   294.73655      0.0018564113   1.4242348      731.2495      -3.4281982      727.82131    
   1006000   294.66908      0.0018564113   0.87562145     731.08212     -2.56793        728.51419    
   1007000   291.74086      0.0018564113   0.67741052     723.81712     -1.6770689      722.14005    
   1008000   303.18135      0.0018564113   1.0817491      752.2013      -2.062072       750.13922    
   1009000   306.51285      0.0018564113   0.99262234     760.46684     -2.8518159      757.61502    
   1010000   291.41548      0.0018564113   0.96956978     723.00984     -2.3551348      720.6547     
   1011000   301.94238      0.0018564113   1.2520335      749.12736     -0.7180057      748.40935    
   1012000   320.29632      0.0018564113   1.0984063      794.66401     -2.9796292      791.68438    
   1013000   307.31093      0.0018564113   1.1642562      762.44689     -1.5781829      760.86871    
   1014000   285.02923      0.0018564113   0.95104274     707.16539     -2.4455021      704.71989    
   1015000   293.73554      0.0018564113   0.99133881     728.76596     -3.6174461      725.14852    
   1016000   318.71618      0.0018564113   1.2502511      790.74363     -4.660354       786.08327    
   1017000   309.5014       0.0018564113   1.0943384      767.88151     -3.6226079      764.25891    
   1018000   291.22307      0.0018564113   1.5128209      722.53246     -4.5355751      717.99689    
   1019000   300.26105      0.0018564113   1.1701624      744.95594     -2.808833       742.14711    
   1020000   292.61088      0.0018564113  -0.26583755     725.97566     -4.584209       721.39145    
   1021000   297.30038      0.0018564113  -0.47998491     737.61044     -3.8101602      733.80028    
   1022000   307.54142      0.0018564113   1.5692525      763.01874     -4.307043       758.7117     
   1023000   297.6518       0.0018564113   2.5926573      738.48232     -3.1606546      735.32167    
   1024000   299.62628      0.0018564113   0.29512988     743.38106     -4.175808       739.20525    
   1025000   308.95719      0.0018564113   1.1881787      766.53131     -0.99598973     765.53532    
   1026000   290.18822      0.0018564113   1.9401433      719.96498     -4.4506923      715.51429    
   1027000   299.91179      0.0018564113   0.89165245     744.08941     -4.1947013      739.89471    
   1028000   302.64809      0.0018564113  -0.061810975    750.87826     -4.6047279      746.27353    
   1029000   307.48302      0.0018564113   0.89130475     762.87386     -4.5111936      758.36267    
   1030000   296.3831       0.0018564113   0.9916801      735.33463     -3.1835058      732.15113    
   1031000   308.96062      0.0018564113   2.2305324      766.5398      -3.358379       763.18143    
   1032000   285.84145      0.0018564113   0.29646846     709.18051     -3.0367748      706.14374    
   1033000   290.10061      0.0018564113   0.44534191     719.74762     -3.3507193      716.3969     
   1034000   316.41673      0.0018564113   1.6681901      785.03863     -2.0589339      782.9797     
   1035000   296.71049      0.0018564113   1.231104       736.14691     -2.3029177      733.84399    
   1036000   290.7206       0.0018564113   0.2490137      721.28581     -3.5904133      717.6954     
   1037000   309.27032      0.0018564113   1.1025152      767.3082      -3.0963374      764.21186    
   1038000   315.67173      0.0018564113   1.4084967      783.19027     -3.2318561      779.95842    
   1039000   303.74208      0.0018564113   1.4338673      753.59248     -2.4098662      751.18262    
   1040000   282.45248      0.0018564113   1.0782764      700.7724      -2.0702468      698.70215    
   1041000   305.46171      0.0018564113  -0.050885794    757.85893     -2.3625752      755.49635    
   1042000   307.96587      0.0018564113   2.0954274      764.0718      -2.0022796      762.06952    
   1043000   290.71275      0.0018564113   1.7276472      721.26635     -2.3615739      718.90478    
   1044000   288.41348      0.0018564113   0.92197251     715.56179     -3.6751192      711.88667    
   1045000   299.82469      0.0018564113  -0.62593002     743.87332     -4.619253       739.25406    
   1046000   304.34883      0.0018564113   0.31153133     755.09783     -2.7248175      752.37301    
   1047000   298.03648      0.0018564113   1.1547273      739.43672     -2.7270773      736.70964    
   1048000   304.3347       0.0018564113   1.1893539      755.06277     -2.1741645      752.88861    
   1049000   296.30606      0.0018564113   1.623516       735.14351     -4.2704857      730.87302    
   1050000   295.79807      0.0018564113   0.44339394     733.88318     -5.4356764      728.4475     
   1051000   315.47286      0.0018564113   1.4600417      782.69686     -4.3928355      778.30403    
   1052000   304.24499      0.0018564113   1.5120502      754.8402      -4.4259238      750.41428    
   1053000   291.94964      0.0018564113   0.80652117     724.33511     -3.9521504      720.38296    
   1054000   299.70475      0.0018564113   0.4509993      743.57574     -4.1041004      739.47164    
   1055000   294.3505       0.0018564113   1.0834983      730.2917      -4.4967657      725.79494    
   1056000   299.64747      0.0018564113   1.5254275      743.43364     -5.8872377      737.54641    
   1057000   305.31628      0.0018564113   1.0969079      757.49811     -4.6473049      752.8508     
   1058000   302.41055      0.0018564113   0.79745842     750.2889      -3.9171584      746.37174    
   1059000   304.10375      0.0018564113   1.0656187      754.48978     -2.9663346      751.52345    
   1060000   300.41042      0.0018564113   1.0549842      745.32654     -3.2773891      742.04915    
   1061000   300.37236      0.0018564113   0.84137778     745.2321      -3.2580467      741.97406    
   1062000   296.8686       0.0018564113   1.0797808      736.53918     -3.0728758      733.4663     
   1063000   290.61977      0.0018564113   1.3359995      721.03567     -2.4622897      718.57338    
   1064000   307.67014      0.0018564113   1.408919       763.33809     -1.6713811      761.66671    
   1065000   302.7209       0.0018564113  -0.68110257     751.0589      -2.1373082      748.92159    
   1066000   291.80896      0.0018564113   1.5184746      723.98608     -1.5562153      722.42987    
   1067000   313.9601       0.0018564113   1.8951783      778.94367     -2.2085598      776.73511    
   1068000   312.95061      0.0018564113   0.55110276     776.4391      -3.0089895      773.43011    
   1069000   287.23259      0.0018564113   0.64027657     712.63198     -1.995836       710.63614    
   1070000   295.68669      0.0018564113   1.159675       733.60684     -1.5833098      732.02353    
   1071000   307.39915      0.0018564113   2.4538284      762.66576     -3.9217186      758.74404    
   1072000   312.18445      0.0018564113   0.088458103    774.53823     -1.6646172      772.87361    
   1073000   292.79297      0.0018564113   1.2191254      726.42743     -0.91938681     725.50805    
   1074000   309.76476      0.0018564113   1.634123       768.5349      -2.6539071      765.88099    
   1075000   317.5816       0.0018564113   1.1663705      787.92871     -3.6724593      784.25625    
   1076000   295.50962      0.0018564113   0.38378841     733.1675      -4.8642511      728.30325    
   1077000   293.60378      0.0018564113   1.6733876      728.43907     -3.0446916      725.39438    
   1078000   294.80199      0.0018564113   1.3479586      731.41185     -4.5403409      726.87151    
   1079000   298.0659       0.0018564113   1.7176073      739.50972     -4.2198061      735.28991    
   1080000   307.49128      0.0018564113   1.0628934      762.89435     -3.8834804      759.01087    
   1081000   298.34017      0.0018564113  -0.61640212     740.19019     -5.1148078      735.07538    
   1082000   292.55961      0.0018564113   2.1619032      725.84846     -3.5572192      722.29124    
   1083000   313.09536      0.0018564113   0.4366983      776.79821     -4.5534457      772.24477    
   1084000   313.14926      0.0018564113  -0.15462581     776.93196     -3.4003697      773.53159    
   1085000   291.73199      0.0018564113   2.8774577      723.7951      -2.7810438      721.01405    
   1086000   298.53423      0.0018564113   1.1912436      740.67165     -5.6317652      735.03989    
   1087000   291.23711      0.0018564113   0.55156434     722.56731     -3.9535087      718.6138     
   1088000   286.64927      0.0018564113   0.95699439     711.18474     -4.023501       707.16124    
   1089000   299.22378      0.0018564113   0.80051678     742.38245     -3.5908238      738.79162    
   1090000   280.1562       0.0018564113   0.78744513     695.07526     -1.1609605      693.9143     
   1091000   302.24839      0.0018564113   1.0927105      749.88659     -1.4831285      748.40346    
   1092000   305.2105       0.0018564113   1.4975514      757.23566     -3.3534503      753.88221    
   1093000   308.81869      0.0018564113   1.2070099      766.18768     -3.1716155      763.01606    
   1094000   287.70559      0.0018564113   0.98775221     713.80549     -2.7991431      711.00635    
   1095000   298.18474      0.0018564113   0.96980284     739.80455     -3.4124144      736.39213    
   1096000   309.20454      0.0018564113   0.95311847     767.14498     -1.6751566      765.46983    
   1097000   296.04661      0.0018564113   1.0223243      734.4998      -3.821569       730.67823    
   1098000   300.79063      0.0018564113   0.9282894      746.26985     -3.0617231      743.20813    
   1099000   305.98448      0.0018564113   1.0036683      759.15592     -3.2236328      755.93229    
   1100000   298.95566      0.0018564113   1.5185707      741.71724     -2.5021746      739.21507    
   1101000   308.0903       0.0018564113   1.718235       764.38052     -2.4350164      761.94551    
   1102000   300.44859      0.0018564113   0.56133594     745.42124     -2.3364784      743.08476    
   1103000   301.90083      0.0018564113   1.1492293      749.02428     -0.9935909      748.03069    
   1104000   297.36012      0.0018564113   1.5889551      737.75866     -1.679183       736.07948    
   1105000   299.6626       0.0018564113   0.012281321    743.47117     -2.7385858      740.73259    
   1106000   297.41835      0.0018564113   0.69550484     737.90312     -1.8332834      736.06983    
   1107000   295.00435      0.0018564113   1.4883693      731.91394     -2.4143326      729.4996     
   1108000   301.35906      0.0018564113   2.9069553      747.68014     -3.6491479      744.03099    
   1109000   304.18348      0.0018564113   1.2288962      754.68759     -3.1509412      751.53665    
   1110000   305.63674      0.0018564113   0.8897499      758.29319     -1.6362541      756.65693    
   1111000   302.61796      0.0018564113   0.95575314     750.8035      -1.7551685      749.04833    
   1112000   287.56165      0.0018564113   1.5240706      713.44838     -1.4595093      711.98887    
   1113000   294.77962      0.0018564113   2.1606994      731.35637     -2.6809651      728.6754     
   1114000   313.43643      0.0018564113   1.133145       777.64442     -0.98018779     776.66423    
   1115000   295.2108       0.0018564113   0.43565334     732.42613     -1.8784953      730.54763    
   1116000   292.59399      0.0018564113   1.6303966      725.93375     -2.7295034      723.20425    
   1117000   313.53254      0.0018564113   1.398463       777.88287     -3.0878739      774.795      
   1118000   299.35973      0.0018564113   0.82291438     742.71975     -1.0431146      741.67663    
   1119000   287.11095      0.0018564113   0.99366986     712.33017     -2.959301       709.37087    
   1120000   306.1053       0.0018564113   0.90425309     759.45568     -3.4561896      755.99949    
   1121000   304.69969      0.0018564113   0.9086788      755.96833     -4.5566945      751.41163    
   1122000   298.4602       0.0018564113   1.1408879      740.48798     -3.1878519      737.30013    
   1123000   286.38717      0.0018564113   0.99648449     710.53446     -4.1788251      706.35564    
   1124000   298.19601      0.0018564113   1.0610036      739.83253     -3.7868333      736.0457     
   1125000   294.63523      0.0018564113   1.0549924      730.99812     -3.3535665      727.64455    
   1126000   307.55425      0.0018564113   1.1243109      763.05056     -3.3691161      759.68145    
   1127000   311.5704       0.0018564113   0.96468873     773.01474     -3.2077466      769.80699    
   1128000   294.58606      0.0018564113   0.83328305     730.87612     -3.0654153      727.81071    
   1129000   292.2281       0.0018564113   1.3445424      725.02598     -2.2111805      722.8148     
   1130000   313.2863       0.0018564113   0.92192972     777.27194     -3.4832332      773.78871    
   1131000   308.48689      0.0018564113   0.64064268     765.36447     -2.9580445      762.40642    
   1132000   298.08938      0.0018564113   0.87531625     739.56798     -4.4985764      735.0694     
   1133000   293.26157      0.0018564113   1.0636316      727.59004     -3.2676969      724.32235    
   1134000   299.5908       0.0018564113   1.0542858      743.29304     -3.8959648      739.39708    
   1135000   323.54351      0.0018564113   0.99500787     802.72037     -2.0135577      800.70682    
   1136000   304.01405      0.0018564113   0.98984717     754.26725     -2.6052534      751.66199    
   1137000   290.11662      0.0018564113   1.1987366      719.78734     -2.2207903      717.56655    
   1138000   297.62152      0.0018564113   1.2530157      738.4072      -2.808444       735.59876    
   1139000   313.57681      0.0018564113  -0.071981818    777.9927      -1.6556271      776.33707    
   1140000   298.2881       0.0018564113   0.0013008026   740.061       -1.5612666      738.49973    
   1141000   301.75894      0.0018564113   0.96097918     748.67225     -1.7656669      746.90658    
   1142000   300.21769      0.0018564113   1.3133172      744.84835     -3.2784959      741.56986    
   1143000   290.71993      0.0018564113   0.96585647     721.28417     -3.4825146      717.80166    
   1144000   298.61247      0.0018564113   0.73767826     740.86577     -2.0088122      738.85696    
   1145000   294.34431      0.0018564113   0.78718644     730.27636     -4.2914009      725.98495    
   1146000   302.07992      0.0018564113   1.2910984      749.4686      -2.8999909      746.56861    
   1147000   301.59111      0.0018564113   0.41843474     748.25587     -3.3957316      744.86014    
   1148000   303.89071      0.0018564113   0.48802101     753.96123     -3.4558103      750.50542    
   1149000   297.55635      0.0018564113   0.9977509      738.2455      -1.2427078      737.00279    
   1150000   296.37056      0.0018564113   1.5214218      735.30354     -2.0818896      733.22165    
   1151000   304.51178      0.0018564113   0.42208655     755.50213     -1.0423832      754.45975    
   1152000   302.11772      0.0018564113   0.70855191     749.56239     -0.24437049     749.31802    
   1153000   303.11704      0.0018564113   2.0516901      752.04173     -2.3863188      749.65541    
   1154000   295.57391      0.0018564113   1.0496349      733.32703     -0.80084202     732.52618    
   1155000   304.78353      0.0018564113   0.46910603     756.17634     -2.6916671      753.48468    
   1156000   297.83352      0.0018564113   0.077134369    738.93316     -2.4888611      736.4443     
   1157000   296.65678      0.0018564113   2.0887509      736.01365     -3.205726       732.80793    
   1158000   308.51365      0.0018564113   2.5195062      765.43087     -3.5219713      761.9089     
   1159000   296.82006      0.0018564113   0.082070095    736.41875     -2.9784176      733.44033    
   1160000   292.68366      0.0018564113   1.4923736      726.15624     -2.1923325      723.96391    
   1161000   309.80011      0.0018564113   1.4075609      768.62262     -2.9421668      765.68046    
   1162000   294.01163      0.0018564113  -0.12379245     729.45095     -3.0379676      726.41298    
   1163000   284.61234      0.0018564113   1.5885394      706.13107     -2.7551062      703.37597    
   1164000   297.07429      0.0018564113   1.5832605      737.04951     -2.6586215      734.39089    
   1165000   309.79012      0.0018564113  -0.58222012     768.59782     -2.7792188      765.8186     
   1166000   302.35786      0.0018564113   0.99604034     750.15818     -1.8014861      748.35669    
   1167000   287.4738       0.0018564113   2.465653       713.23043     -1.5353916      711.69504    
   1168000   293.29849      0.0018564113   1.2559239      727.68164     -1.0092424      726.6724     
   1169000   293.55264      0.0018564113   0.5871407      728.3122      -3.7637648      724.54843    
   1170000   300.7998       0.0018564113   2.2678833      746.29259     -3.9240127      742.36857    
   1171000   289.40756      0.0018564113   1.0543189      718.02813     -2.2715653      715.75656    
   1172000   310.74389      0.0018564113   1.0430998      770.96415     -3.910611       767.05354    
   1173000   310.17013      0.0018564113   0.52874005     769.54063     -3.3380053      766.20263    
   1174000   300.25689      0.0018564113   1.0298679      744.94562     -2.9679953      741.97762    
   1175000   303.08731      0.0018564113   1.0809787      751.96798     -3.8662618      748.10172    
   1176000   301.00427      0.0018564113   1.3371127      746.79988     -0.84441935     745.95546    
   1177000   298.28898      0.0018564113   0.93294788     740.06319     -3.0191005      737.04409    
   1178000   311.68728      0.0018564113   1.1852202      773.30473     -2.9497946      770.35494    
   1179000   295.20176      0.0018564113   0.92067348     732.4037      -3.2474677      729.15623    
   1180000   295.70294      0.0018564113   1.0155461      733.64714     -3.2424804      730.40466    
   1181000   308.43336      0.0018564113   1.0149687      765.23168     -2.2626457      762.96903    
   1182000   300.88866      0.0018564113   1.135197       746.51305     -1.6627408      744.85031    
   1183000   306.87244      0.0018564113   0.72633906     761.35899     -2.8705958      758.4884     
   1184000   299.13211      0.0018564113   0.23006326     742.15502     -2.4923245      739.6627     
   1185000   304.28046      0.0018564113   1.233227       754.92822     -2.4884851      752.43973    
   1186000   304.45469      0.0018564113   1.2512449      755.36048     -1.7281695      753.63231    
   1187000   305.92393      0.0018564113   0.23457024     759.0057      -2.2573238      756.74837    
   1188000   295.91106      0.0018564113   0.57698515     734.1635      -5.4860769      728.67742    
   1189000   288.36356      0.0018564113   1.3967335      715.43794     -4.6860382      710.7519     
   1190000   311.79115      0.0018564113   1.3840004      773.56245     -2.994103       770.56834    
   1191000   302.28047      0.0018564113   0.93942513     749.96617     -2.4685044      747.49766    
   1192000   293.26569      0.0018564113   0.64569357     727.60026     -2.5552519      725.04501    
   1193000   310.90157      0.0018564113   1.1558547      771.35536     -2.0440406      769.31132    
   1194000   299.61067      0.0018564113   1.1434908      743.34232     -1.6013435      741.74098    
   1195000   296.46879      0.0018564113   1.3669766      735.54724     -1.4152923      734.13195    
   1196000   309.77243      0.0018564113   1.0253575      768.55394     -1.8732236      766.68071    
   1197000   314.61136      0.0018564113   0.9549084      780.55945     -1.7453877      778.81407    
   1198000   295.79819      0.0018564113   0.48380209     733.88347     -2.9042725      730.9792     
   1199000   286.82796      0.0018564113   1.3414336      711.62807     -2.1134363      709.51464    
   1200000   309.91093      0.0018564113   1.5161689      768.89757     -3.8211833      765.07638    
   1201000   305.60353      0.0018564113   0.93410304     758.21079     -3.4315965      754.77919    
   1202000   286.18043      0.0018564113   1.3146104      710.02154     -3.8300005      706.19154    
   1203000   285.22573      0.0018564113   1.0373046      707.6529      -4.2677219      703.38518    
   1204000   318.18833      0.0018564113   0.30647048     789.43403     -4.1327843      785.30124    
   1205000   296.7821       0.0018564113   2.3053404      736.32456     -4.7075023      731.61706    
   1206000   279.66182      0.0018564113   1.8487046      693.84868     -4.8681316      688.98055    
   1207000   302.00153      0.0018564113   0.45057235     749.27413     -4.6882108      744.58592    
   1208000   300.04536      0.0018564113   0.33184902     744.42082     -3.7136841      740.70714    
   1209000   294.29776      0.0018564113   0.633275       730.16086     -5.4369369      724.72393    
   1210000   310.17277      0.0018564113   1.3288641      769.54718     -2.0208357      767.52635    
   1211000   294.79875      0.0018564113   1.8653621      731.40383     -3.2034442      728.20039    
   1212000   285.74547      0.0018564113   0.35795735     708.94239     -2.9805799      705.96181    
   1213000   319.5804       0.0018564113   0.75554446     792.88778     -1.8584219      791.02936    
   1214000   301.64903      0.0018564113   2.5620543      748.39956     -3.8401396      744.55943    
   1215000   279.93905      0.0018564113   0.9145435      694.53651     -3.2936211      691.24289    
   1216000   314.86559      0.0018564113   0.16695007     781.1902      -3.7667094      777.42349    
   1217000   311.54005      0.0018564113   1.9716325      772.93945     -4.5750046      768.36445    
   1218000   298.81407      0.0018564113   2.4660698      741.36594     -3.6426772      737.72327    
   1219000   291.6594       0.0018564113   0.027168383    723.61501     -3.1276596      720.48735    
   1220000   299.58383      0.0018564113   0.151025       743.27574     -2.0402757      741.23547    
   1221000   315.54261      0.0018564113   0.79309091     782.86992     -2.5818062      780.28811    
   1222000   300.90586      0.0018564113   3.2621077      746.55573     -1.9777324      744.578      
   1223000   283.03205      0.0018564113   0.61680564     702.21032     -3.0518057      699.15852    
   1224000   305.13933      0.0018564113   0.48655044     757.05908     -0.0062602252   757.05282    
   1225000   302.64737      0.0018564113   1.2270002      750.87647     -0.8789151      749.99756    
   1226000   297.38765      0.0018564113   1.8870278      737.82697     -1.7012494      736.12572    
   1227000   284.89802      0.0018564113  -1.5858008      706.83984     -0.66150426     706.17834    
   1228000   309.66599      0.0018564113   0.070756757    768.28985     -0.9699343      767.31992    
   1229000   315.56129      0.0018564113   3.6644377      782.91627     -2.3298779      780.58639    
   1230000   279.5828       0.0018564113   3.6078495      693.65264     -3.3969668      690.25567    
   1231000   291.59428      0.0018564113   0.20899613     723.45343     -3.7838416      719.66959    
   1232000   298.78543      0.0018564113   0.47436132     741.29489     -5.0834496      736.21144    
   1233000   312.4531       0.0018564113   1.1093701      775.20476     -5.018122       770.18664    
   1234000   297.59888      0.0018564113   1.1110625      738.35102     -6.3466652      732.00435    
   1235000   297.78986      0.0018564113   1.2650719      738.82486     -3.8776458      734.94721    
   1236000   308.68729      0.0018564113  -0.22641987     765.86168     -1.6209971      764.24069    
   1237000   296.84603      0.0018564113   1.4493011      736.48317     -2.6446827      733.83849    
   1238000   285.47394      0.0018564113   1.2999503      708.26872     -1.4166447      706.85207    
   1239000   297.047        0.0018564113   0.55738693     736.9818      -2.4405217      734.54128    
   1240000   311.43541      0.0018564113   0.69577792     772.67983     -1.8603518      770.81948    
   1241000   306.7334       0.0018564113   1.2953049      761.01403     -4.0773578      756.93667    
   1242000   284.52038      0.0018564113   0.88140596     705.9029      -3.5622143      702.34068    
   1243000   298.48571      0.0018564113   0.80752552     740.55127     -3.5469672      737.00431    
   1244000   312.44406      0.0018564113   1.203932       775.18232     -4.4859243      770.69639    
   1245000   302.9271       0.0018564113   1.2143572      751.57048     -2.8496385      748.72084    
   1246000   293.21765      0.0018564113   1.0171288      727.48107     -2.2229018      725.25816    
   1247000   299.10034      0.0018564113   0.73761946     742.07619     -4.0524019      738.02379    
   1248000   306.92047      0.0018564113   1.1133569      761.47814     -4.3318014      757.14634    
   1249000   300.59369      0.0018564113   0.97975844     745.78122     -2.6376326      743.14359    
   1250000   298.39845      0.0018564113   0.98681148     740.33478     -3.1195642      737.21521    
   1251000   294.77527      0.0018564113   1.1579945      731.34556     -2.0245904      729.32097    
   1252000   307.47517      0.0018564113   1.2418092      762.85437     -1.9407065      760.91367    
   1253000   300.45688      0.0018564113   0.89462371     745.44179     -3.4559787      741.98582    
   1254000   294.15701      0.0018564113   0.38123522     729.81164     -2.6054412      727.2062     
   1255000   306.22744      0.0018564113   1.158541       759.75873     -0.53802718     759.2207     
   1256000   303.30666      0.0018564113   1.0761611      752.51219     -2.1117499      750.40044    
   1257000   296.73971      0.0018564113   0.54781402     736.2194      -1.1104714      735.10893    
   1258000   300.67875      0.0018564113   0.84594453     745.99228     -1.3262189      744.66606    
   1259000   295.63338      0.0018564113   1.6845925      733.47456     -1.1277579      732.3468     
   1260000   305.58132      0.0018564113   2.2993196      758.15568     -2.6297301      755.52595    
   1261000   313.76018      0.0018564113   0.75829142     778.44767     -2.4041204      776.04355    
   1262000   303.80041      0.0018564113   0.18146416     753.7372       0.2179394      753.95514    
   1263000   299.71487      0.0018564113   1.2258644      743.60086     -0.55887477     743.04199    
   1264000   304.33935      0.0018564113   1.8915793      755.07431     -2.0444061      753.02991    
   1265000   290.26622      0.0018564113   0.58691709     720.1585      -1.80696        718.35154    
   1266000   295.29949      0.0018564113   0.75780571     732.64616     -1.8978604      730.7483     
   1267000   303.207        0.0018564113   1.1892449      752.26492     -1.6229669      750.64195    
   1268000   304.69283      0.0018564113   2.1030074      755.95131     -1.6720386      754.27928    
   1269000   311.43703      0.0018564113   1.4990416      772.68386     -1.654676       771.02918    
   1270000   296.81286      0.0018564113   0.30699278     736.4009      -2.3377546      734.06314    
   1271000   295.12126      0.0018564113   0.64570342     732.20399     -3.7026069      728.50139    
   1272000   301.75275      0.0018564113   1.6134152      748.6569      -2.828086       745.82881    
   1273000   299.16765      0.0018564113   1.7398226      742.24317     -4.0528767      738.1903     
   1274000   296.75355      0.0018564113   0.87033328     736.25374     -3.6771814      732.57656    
   1275000   298.8823       0.0018564113   0.78826508     741.53523     -2.691665       738.84356    
   1276000   310.20722      0.0018564113   1.5002554      769.63266     -1.8483853      767.78428    
   1277000   299.23072      0.0018564113   1.1226744      742.39965     -4.4724098      737.92724    
   1278000   293.76995      0.0018564113  -0.0044808906   728.85134     -3.6628833      725.18846    
   1279000   298.54335      0.0018564113   1.4151401      740.69427     -2.7114763      737.9828     
   1280000   316.1345       0.0018564113   0.57519272     784.33841     -3.3230927      781.01532    
   1281000   294.78737      0.0018564113   0.99935513     731.37559     -3.5019116      727.87368    
   1282000   294.01232      0.0018564113   1.020252       729.45266     -3.2766412      726.17602    
   1283000   322.45538      0.0018564113   1.2087117      800.02069     -2.4375131      797.58317    
   1284000   302.46209      0.0018564113   0.7161204      750.41678     -2.1284095      748.28837    
   1285000   296.13373      0.0018564113   0.87021589     734.71595     -0.92405529     733.79189    
   1286000   286.53382      0.0018564113   1.6017477      710.8983      -1.8690101      709.02929    
   1287000   299.34473      0.0018564113   1.2310938      742.68254     -1.9357625      740.74677    
   1288000   301.17968      0.0018564113   1.0140064      747.23508     -2.4652342      744.76984    
   1289000   313.54756      0.0018564113   1.0890749      777.92014     -0.86199896     777.05814    
   1290000   315.84507      0.0018564113   1.2246083      783.62033     -3.1146612      780.50567    
   1291000   292.57099      0.0018564113   1.023831       725.87668     -1.2072081      724.66948    
   1292000   301.4475       0.0018564113   0.84200067     747.89956     -4.1754233      743.72414    
   1293000   314.54326      0.0018564113   1.0816225      780.39049     -0.38155394     780.00893    
   1294000   306.43771      0.0018564113   1.2842094      760.2804      -2.0309126      758.24949    
   1295000   277.56427      0.0018564113   0.76506939     688.64462     -1.8077118      686.8369     
   1296000   303.50413      0.0018564113   0.93433315     753.00212     -3.5277972      749.47433    
   1297000   308.87294      0.0018564113   1.0057225      766.32227     -2.1340633      764.18821    
   1298000   292.78293      0.0018564113   1.8238567      726.40253     -2.3135911      724.08894    
   1299000   291.38153      0.0018564113   0.74099513     722.92561     -3.764727       719.16088    
   1300000   291.64506      0.0018564113   0.86712372     723.57942     -2.1314075      721.44801    
   1301000   304.33718      0.0018564113   0.29479577     755.06894     -2.4061342      752.66281    
   1302000   307.42954      0.0018564113   2.3938345      762.74117     -0.70664273     762.03452    
   1303000   289.13841      0.0018564113   2.506057       717.36036     -1.6414674      715.71889    
   1304000   293.54981      0.0018564113   0.52488003     728.30517     -2.2682051      726.03697    
   1305000   315.18973      0.0018564113   0.022969241    781.99441     -3.8585388      778.13587    
   1306000   301.44025      0.0018564113   1.5570429      747.88158     -1.3146901      746.56689    
   1307000   295.37714      0.0018564113   1.8343178      732.83882     -1.5801903      731.25863    
   1308000   298.10529      0.0018564113   0.62519072     739.60744     -1.6055493      738.00189    
   1309000   317.92076      0.0018564113   1.0914386      788.77016     -2.3058211      786.46434    
   1310000   297.9265       0.0018564113   1.2913923      739.16385     -1.3046821      737.85917    
   1311000   293.25675      0.0018564113   0.85828096     727.57808     -2.4533766      725.12471    
   1312000   306.45297      0.0018564113   1.0456937      760.31828     -2.2774298      758.04085    
   1313000   304.54811      0.0018564113   1.0330145      755.59225     -3.0764255      752.51583    
   1314000   283.89263      0.0018564113   0.76780634     704.34545     -4.0684308      700.27701    
   1315000   309.71853      0.0018564113   1.1652638      768.42022     -4.2936815      764.12654    
   1316000   295.6329       0.0018564113   1.2351047      733.47337     -6.1378267      727.33554    
   1317000   296.45888      0.0018564113   0.50089044     735.52266     -2.1282024      733.39446    
   1318000   312.05903      0.0018564113   1.2188764      774.22706     -4.2385875      769.98847    
   1319000   310.8922       0.0018564113   2.1044678      771.33212     -3.218397       768.11373    
   1320000   288.72338      0.0018564113   0.68947801     716.33066     -2.6511116      713.67955    
   1321000   308.80887      0.0018564113  -0.14264572     766.16331     -0.95456781     765.20874    
   1322000   304.13488      0.0018564113   2.5837173      754.56703     -1.4998705      753.06716    
   1323000   302.7258       0.0018564113   1.4950987      751.07105     -2.898445       748.1726     
   1324000   290.93951      0.0018564113   1.0851865      721.82894     -4.0264634      717.80248    
   1325000   298.37574      0.0018564113  -0.32254687     740.27843     -1.1420152      739.13642    
   1326000   310.89084      0.0018564113  -0.37118142     771.32875     -2.5359547      768.7928     
   1327000   306.99723      0.0018564113   2.6709624      761.66858     -3.8915754      757.777      
   1328000   281.88203      0.0018564113   1.1678868      699.35709     -1.4878727      697.86922    
   1329000   304.00006      0.0018564113  -1.7153681      754.23254     -2.1935276      752.03901    
   1330000   310.44431      0.0018564113   3.4071778      770.2209      -1.2712369      768.94966    
   1331000   291.14548      0.0018564113   3.5937346      722.33997     -3.8364879      718.50348    
   1332000   298.05966      0.0018564113   0.96382103     739.49423     -2.3909408      737.10329    
   1333000   324.01334      0.0018564113  -3.5701047      803.88603     -3.5215529      800.36448    
   1334000   303.36436      0.0018564113   1.6277516      752.65533     -2.6538506      750.00148    
   1335000   292.44362      0.0018564113   3.4055871      725.56068     -4.472949       721.08773    
   1336000   293.24291      0.0018564113   1.1020735      727.54374     -4.1593438      723.38439    
   1337000   306.07544      0.0018564113  -0.86861356     759.38159     -4.0079182      755.37367    
   1338000   317.47255      0.0018564113  -0.4870063      787.65816     -4.6509361      783.00722    
   1339000   299.80933      0.0018564113   3.6281205      743.8352      -4.6539888      739.18121    
   1340000   292.42913      0.0018564113   2.8527511      725.52473     -5.0203465      720.50439    
   1341000   290.98805      0.0018564113   0.75002052     721.94937     -7.9008804      714.04849    
   1342000   307.45929      0.0018564113  -1.953522       762.81498     -7.2976678      755.51731    
   1343000   297.87208      0.0018564113   0.62185816     739.02883     -7.3213417      731.70749    
   1344000   307.11302      0.0018564113   0.90392988     761.95588     -8.5482724      753.4076     
   1345000   297.40988      0.0018564113   2.0701378      737.88212     -6.7816182      731.1005     
   1346000   294.5552       0.0018564113  -2.2853443      730.79956     -6.5867071      724.21285    
   1347000   306.49168      0.0018564113   1.4924272      760.41431     -2.6989405      757.71537    
   1348000   300.79457      0.0018564113   2.9150042      746.27963     -4.8248332      741.45479    
   1349000   293.20059      0.0018564113   1.4501232      727.43875     -3.1370855      724.30166    
   1350000   300.99352      0.0018564113  -3.6663304      746.77323     -3.1163181      743.65691    
   1351000   311.48201      0.0018564113   0.68200269     772.79545     -4.8851521      767.9103     
   1352000   285.245        0.0018564113   1.9921508      707.7007      -4.5170952      703.18361    
   1353000   296.39254      0.0018564113  -0.3978576      735.35806     -2.444831       732.91323    
   1354000   313.62273      0.0018564113   1.3011862      778.10663     -4.6192754      773.48736    
   1355000   296.78843      0.0018564113   1.8586425      736.34027     -3.1584503      733.18182    
   1356000   296.74314      0.0018564113   1.8582362      736.2279      -4.1268103      732.10109    
   1357000   301.08331      0.0018564113  -0.8018795      746.99598     -4.5404233      742.45556    
   1358000   309.40808      0.0018564113   0.70754159     767.64996     -2.6586993      764.99127    
   1359000   297.00125      0.0018564113   3.2742739      736.86828     -1.6650785      735.2032     
   1360000   293.38386      0.0018564113   0.71014859     727.89344     -4.2620365      723.63141    
   1361000   299.13437      0.0018564113  -1.7490861      742.16062     -4.0610993      738.09952    
   1362000   307.44806      0.0018564113   1.2660362      762.78712     -4.7843534      758.00277    
   1363000   297.59037      0.0018564113   1.7041821      738.32991     -5.0856179      733.24429    
   1364000   293.73321      0.0018564113   0.7631132      728.7602      -2.6474469      726.11275    
   1365000   289.59681      0.0018564113  -1.0860681      718.49766     -3.3284925      715.16917    
   1366000   310.53569      0.0018564113  -0.34414183     770.4476      -4.3877609      766.05984    
   1367000   300.37132      0.0018564113   1.1631916      745.22952     -2.5759087      742.65361    
   1368000   293.77803      0.0018564113   1.318526       728.87139     -1.320625       727.55076    
   1369000   293.75837      0.0018564113   0.68933041     728.8226      -3.3483484      725.47425    
   1370000   300.80723      0.0018564113   0.038151601    746.31102     -3.717533       742.59348    
   1371000   307.80805      0.0018564113   2.8802731      763.68025     -5.1564936      758.52376    
   1372000   299.73519      0.0018564113   3.3454232      743.65128     -3.3599543      740.29132    
   1373000   294.86521      0.0018564113   1.9047522      731.5687      -3.9897022      727.579      
   1374000   276.3954       0.0018564113   1.0983357      685.7446      -3.0745324      682.67007    
   1375000   309.36206      0.0018564113  -0.038136833    767.5358      -4.4915416      763.04426    
   1376000   307.1897       0.0018564113   1.9645352      762.14611     -7.1476597      754.99845    
   1377000   301.75424      0.0018564113   1.1906516      748.66058     -5.4288727      743.23171    
   1378000   295.65385      0.0018564113  -0.17984684     733.52536     -3.2868168      730.23854    
   1379000   300.82433      0.0018564113   0.75652547     746.35345     -5.7631404      740.59031    
   1380000   309.41534      0.0018564113   1.7789924      767.66799     -4.8807548      762.78724    
   1381000   303.3547       0.0018564113   1.3605762      752.63137     -5.8399382      746.79143    
   1382000   291.13447      0.0018564113   0.7871579      722.31265     -5.157844       717.15481    
   1383000   308.17528      0.0018564113   0.70076538     764.59137     -4.8973646      759.694      
   1384000   314.25465      0.0018564113   1.3122125      779.67446     -3.459783       776.21468    
   1385000   308.02326      0.0018564113   1.2351397      764.21419     -4.5885666      759.62563    
   1386000   283.19552      0.0018564113   0.79354122     702.61589     -4.1190977      698.49679    
   1387000   294.37926      0.0018564113   0.71320856     730.36306     -2.9287485      727.43431    
   1388000   312.11337      0.0018564113   1.3360371      774.36188     -3.2140025      771.14788    
   1389000   289.43734      0.0018564113   1.2471541      718.10201     -2.9677286      715.13428    
   1390000   292.55845      0.0018564113   0.79228642     725.84559     -4.974347       720.87124    
   1391000   303.79994      0.0018564113   1.0241105      753.73603     -6.7145249      747.02151    
   1392000   290.80303      0.0018564113   1.351914       721.49033     -7.6902189      713.80012    
   1393000   300.07217      0.0018564113   0.99666183     744.48732     -7.5195728      736.96775    
   1394000   311.14268      0.0018564113   0.85267693     771.95356     -5.7538146      766.19975    
   1395000   301.80991      0.0018564113   0.96160471     748.79871     -6.0237743      742.77494    
   1396000   298.00374      0.0018564113   1.1077185      739.35549     -7.5860997      731.76939    
   1397000   302.14354      0.0018564113   1.2095904      749.62645     -7.6909972      741.93546    
   1398000   294.13043      0.0018564113   1.0041677      729.7457      -6.0220481      723.72365    
   1399000   305.74448      0.0018564113   1.0781737      758.56047     -4.5651544      753.99532    
   1400000   297.36264      0.0018564113   1.0964212      737.76491     -5.236491       732.52842    
   1401000   294.52159      0.0018564113   1.0600538      730.71617     -5.3352061      725.38097    
   1402000   306.85614      0.0018564113   1.2658826      761.31855     -4.0104069      757.30814    
   1403000   299.54735      0.0018564113   0.51447049     743.18524     -4.1015003      739.08373    
   1404000   291.21797      0.0018564113   1.1399435      722.51982     -3.4198718      719.09995    
   1405000   306.36442      0.0018564113   1.2256939      760.09857     -3.1252645      756.97331    
   1406000   308.27989      0.0018564113   1.028736       764.85091     -2.936631       761.91427    
   1407000   299.04533      0.0018564113   1.1592154      741.9397      -0.91324786     741.02646    
   1408000   297.78193      0.0018564113   1.0696409      738.80518     -2.7741378      736.03105    
   1409000   301.79454      0.0018564113   0.76609744     748.76057     -3.513277       745.24729    
   1410000   307.16071      0.0018564113   1.0949415      762.0742      -5.5713201      756.50288    
   1411000   295.51617      0.0018564113   1.4121665      733.18376     -4.8486312      728.33513    
   1412000   286.886        0.0018564113   1.2669692      711.77207     -4.9737721      706.7983     
   1413000   299.12085      0.0018564113   0.71398356     742.12707     -4.6628627      737.4642     
   1414000   307.07595      0.0018564113   0.97101414     761.8639      -3.4360248      758.42788    
   1415000   304.76989      0.0018564113   2.5023032      756.1425      -5.0221249      751.12038    
   1416000   291.19574      0.0018564113   1.0342335      722.46467     -2.4705292      719.99414    
   1417000   314.938        0.0018564113  -1.1415992      781.36987     -3.0946696      778.2752     
   1418000   308.83704      0.0018564113   1.4560363      766.2332      -3.7645284      762.46868    
   1419000   298.43175      0.0018564113   2.1042216      740.41741     -3.5947022      736.82271    
   1420000   286.35672      0.0018564113   1.1008317      710.45893     -5.3092322      705.14969    
   1421000   285.85211      0.0018564113  -0.11847574     709.20696     -4.7248509      704.48211    
   1422000   308.18912      0.0018564113   0.38998706     764.62571     -3.4379687      761.18774    
   1423000   320.94112      0.0018564113   1.8393405      796.26376     -2.9118719      793.35188    
   1424000   287.70183      0.0018564113   1.2861277      713.79618     -2.5380433      711.25813    
   1425000   287.92893      0.0018564113  -1.2403174      714.35962     -2.7643281      711.59529    
   1426000   317.63497      0.0018564113  -0.13605623     788.06112     -3.1008473      784.96027    
   1427000   306.45651      0.0018564113   1.309907       760.32705     -5.6189744      754.70808    
   1428000   288.68623      0.0018564113   1.6377988      716.2385      -4.1424064      712.09609    
   1429000   299.03322      0.0018564113  -0.42922683     741.90965     -4.9614267      736.94823    
   1430000   310.60354      0.0018564113   1.3568645      770.61594     -3.6219877      766.99395    
   1431000   296.95543      0.0018564113   1.8967627      736.7546      -3.0699472      733.68465    
   1432000   291.42214      0.0018564113   0.12461354     723.02637     -3.3730309      719.65334    
   1433000   296.22375      0.0018564113   0.62580258     734.93929     -3.1254051      731.81389    
   1434000   311.82647      0.0018564113   1.7531896      773.65006     -3.1835493      770.46651    
   1435000   308.60068      0.0018564113   1.8046406      765.6468      -0.97303015     764.67377    
   1436000   291.20307      0.0018564113   0.51642703     722.48283     -1.9602146      720.52262    
   1437000   299.12079      0.0018564113   0.3772185      742.12691     -3.4375918      738.68932    
   1438000   304.02487      0.0018564113   2.6370932      754.29407     -0.84833908     753.44573    
   1439000   292.09964      0.0018564113   2.2107841      724.70725     -2.8602742      721.84698    
   1440000   299.72543      0.0018564113   0.57385512     743.62706     -3.4346285      740.19243    
   1441000   296.45951      0.0018564113   0.81671356     735.52423     -1.1186774      734.40555    
   1442000   315.07635      0.0018564113   1.6699455      781.71312     -2.4525205      779.26059    
   1443000   301.72999      0.0018564113   1.2322451      748.60043     -2.3843174      746.21612    
   1444000   298.17726      0.0018564113   0.90195763     739.786       -2.0558648      737.73014    
   1445000   307.54007      0.0018564113   0.72755405     763.0154      -3.4702805      759.54512    
   1446000   311.03685      0.0018564113   1.4479828      771.691       -2.8049137      768.88608    
   1447000   291.5174       0.0018564113   1.5756384      723.2627      -3.3212919      719.94141    
   1448000   299.35863      0.0018564113   0.7239999      742.71701     -4.5674639      738.14955    
   1449000   305.27972      0.0018564113   0.89562814     757.4074      -3.217516       754.18989    
   1450000   294.33094      0.0018564113   2.2013339      730.24318     -3.6289733      726.61421    
   1451000   301.21685      0.0018564113   0.69291809     747.32731     -4.3588894      742.96842    
   1452000   304.44469      0.0018564113  -0.0020399696   755.33566     -5.4249601      749.9107     
   1453000   309.44721      0.0018564113   1.1501766      767.74705     -3.3536292      764.39342    
   1454000   279.12502      0.0018564113   2.2474613      692.51687     -4.510856       688.00601    
   1455000   298.78244      0.0018564113   0.83588366     741.28747     -5.2417021      736.04577    
   1456000   312.31738      0.0018564113   0.58704756     774.86802     -4.8310459      770.03697    
   1457000   301.11212      0.0018564113   1.1599655      747.06747     -4.2967538      742.77071    
   1458000   293.02604      0.0018564113   1.5488603      727.00567     -3.2683284      723.73734    
   1459000   289.52379      0.0018564113   0.75139169     718.3165      -3.7295651      714.58693    
   1460000   311.96369      0.0018564113   0.77601749     773.99051     -3.6730368      770.31747    
   1461000   317.47341      0.0018564113   1.1717533      787.66029     -4.0711804      783.58911    
   1462000   292.66655      0.0018564113   1.2574289      726.11378     -3.9838208      722.12996    
   1463000   293.66033      0.0018564113   0.85963815     728.57936     -2.4781365      726.10123    
   1464000   299.036        0.0018564113   0.42891548     741.91656     -2.3426093      739.57396    
   1465000   303.46392      0.0018564113   0.98799628     752.90236     -3.4033658      749.499      
   1466000   304.53634      0.0018564113   1.4367074      755.56306     -6.2934171      749.26964    
   1467000   291.69252      0.0018564113   1.1561029      723.69717     -4.9562028      718.74097    
   1468000   301.1718       0.0018564113   0.94623869     747.21555     -4.3278291      742.88772    
   1469000   306.08306      0.0018564113   0.76089162     759.4005      -5.9197681      753.48073    
   1470000   296.71492      0.0018564113   0.95056103     736.15789     -3.8046205      732.35327    
   1471000   296.25412      0.0018564113   1.5384491      735.01463     -3.8106029      731.20403    
   1472000   286.2852       0.0018564113   0.96821773     710.28146     -4.5120381      705.76942    
   1473000   297.89508      0.0018564113   1.0042475      739.08591     -3.5725418      735.51336    
   1474000   291.27347      0.0018564113   1.0057034      722.65751     -6.0329875      716.62452    
   1475000   300.76027      0.0018564113   1.3631892      746.19451     -4.5393833      741.65513    
   1476000   312.46808      0.0018564113   0.95828913     775.24191     -3.2793381      771.96257    
   1477000   308.81297      0.0018564113   0.78515267     766.17349     -1.9411109      764.23238    
   1478000   290.56204      0.0018564113   0.28394827     720.89243     -3.2405953      717.65183    
   1479000   294.69022      0.0018564113   1.4415931      731.13457     -2.5239775      728.61059    
   1480000   323.33836      0.0018564113   0.13112073     802.2114      -3.3190063      798.89239    
   1481000   303.16879      0.0018564113   0.76198146     752.17013     -1.4955954      750.67453    
   1482000   288.86393      0.0018564113   0.949746       716.67937     -2.8681456      713.81122    
   1483000   295.43078      0.0018564113   1.0274548      732.97191     -3.916793       729.05511    
   1484000   309.14218      0.0018564113   1.2397863      766.99026     -3.2675502      763.72271    
   1485000   309.60083      0.0018564113   0.84831179     768.12819     -3.6792555      764.44894    
   1486000   302.61377      0.0018564113   0.30803968     750.79311     -0.94633051     749.84678    
   1487000   294.18421      0.0018564113   0.55155656     729.87913     -1.4036081      728.47553    
   1488000   292.43788      0.0018564113   2.673096       725.54644     -1.2202257      724.32622    
   1489000   306.96827      0.0018564113   1.4446891      761.59673     -1.8470191      759.74971    
   1490000   294.12393      0.0018564113   0.89967961     729.72959     -2.0441352      727.68545    
   1491000   301.72416      0.0018564113   0.72375023     748.58595     -2.0074806      746.57847    
   1492000   290.90335      0.0018564113   0.29442791     721.73922     -3.3603048      718.37892    
   1493000   299.39081      0.0018564113   1.8647392      742.79686     -3.5624999      739.23436    
   1494000   305.51999      0.0018564113   1.6596426      758.00352     -3.5981678      754.40535    
   1495000   305.50281      0.0018564113   1.6389874      757.96089     -2.830216       755.13067    
   1496000   298.04509      0.0018564113   0.34856269     739.45807     -3.1550918      736.30298    
   1497000   302.19519      0.0018564113   1.4798141      749.75459     -2.1130183      747.64157    
   1498000   310.8529       0.0018564113   3.1425786      771.23462     -1.4278137      769.80681    
   1499000   295.87103      0.0018564113  -0.062004204    734.06417     -2.449801       731.61437    
   1500000   281.53698      0.0018564113   3.8056816      698.50101     -2.5780686      695.92294    
   1501000   312.04716      0.0018564113   1.467353       774.19762     -3.0814926      771.11612    
   1502000   304.59854      0.0018564113  -1.1884618      755.71737     -3.2980705      752.4193     
   1503000   296.44593      0.0018564113   0.92296645     735.49051     -2.9607895      732.52972    
   1504000   303.78683      0.0018564113   2.723974       753.70349     -2.8170946      750.8864     
   1505000   296.19996      0.0018564113  -2.1823986      734.88027     -2.6507344      732.22953    
   1506000   288.93461      0.0018564113   1.9096616      716.85472     -2.1391955      714.71553    
   1507000   317.21708      0.0018564113   1.6436955      787.02431     -1.6219945      785.40232    
   1508000   318.01726      0.0018564113  -0.82967342     789.00958     -2.9335764      786.076      
   1509000   292.64511      0.0018564113  -0.21669455     726.06058     -2.6835061      723.37707    
   1510000   286.68611      0.0018564113   1.4703196      711.27615     -1.9920821      709.28407    
   1511000   303.90016      0.0018564113   1.2113337      753.98468     -4.5124117      749.47227    
   1512000   318.83088      0.0018564113  -2.2794415      791.0282      -6.3371667      784.69103    
   1513000   296.47822      0.0018564113  -2.5272526      735.57063     -4.2390211      731.33161    
   1514000   285.02137      0.0018564113   0.48549527     707.14587     -2.309453       704.83641    
   1515000   301.66519      0.0018564113   1.1342394      748.43966     -0.91715711     747.5225     
   1516000   305.30155      0.0018564113   2.3646111      757.46157     -2.5847203      754.87685    
   1517000   305.26011      0.0018564113   1.1969008      757.35875     -1.5578005      755.80095    
   1518000   277.13255      0.0018564113   0.10278591     687.57351     -1.7009583      685.87255    
   1519000   304.59835      0.0018564113   3.1860607      755.71691     -1.1591662      754.55775    
   1520000   309.1218       0.0018564113   0.45736766     766.93972     -2.3223257      764.61739    
   1521000   285.3924       0.0018564113  -0.069034984    708.06642     -1.7254716      706.34095    
   1522000   293.42641      0.0018564113   0.80021542     727.999       -1.9984967      726.0005     
   1523000   315.08643      0.0018564113   3.2225592      781.73811     -1.2644318      780.47368    
   1524000   304.19356      0.0018564113   0.63533287     754.71262     -1.6531024      753.05952    
   1525000   289.83243      0.0018564113  -0.40617959     719.08224     -0.37735813     718.70488    
   1526000   290.14884      0.0018564113   0.38398227     719.86726     -1.6734789      718.19378    
   1527000   302.9896       0.0018564113   2.1528925      751.72554     -0.33766112     751.38788    
   1528000   309.21542      0.0018564113   2.917857       767.17197     -1.7622387      765.40974    
   1529000   296.02904      0.0018564113  -0.71545379     734.4562      -2.1765088      732.2797     
   1530000   291.26398      0.0018564113   1.1012245      722.63395     -0.93559802     721.69836    
   1531000   310.13795      0.0018564113   2.7443747      769.46079     -3.5604939      765.9003     
   1532000   310.34695      0.0018564113   0.9292192      769.97934     -1.1974468      768.78189    
   1533000   304.00313      0.0018564113  -0.55294763     754.24015     -1.8736966      752.36646    
   1534000   287.15385      0.0018564113   1.7421595      712.43661     -2.5367695      709.89984    
   1535000   298.31599      0.0018564113   2.831753       740.13019     -2.491461       737.63873    
   1536000   307.18564      0.0018564113   2.8949407      762.13604     -3.0791515      759.05689    
   1537000   302.84966      0.0018564113  -1.4584408      751.37836     -1.6689845      749.70937    
   1538000   289.40853      0.0018564113  -0.13796141     718.03053     -3.6929056      714.33762    
   1539000   291.47214      0.0018564113   2.1053839      723.15042     -3.2494594      719.90096    
   1540000   313.75845      0.0018564113   2.86354        778.44336     -4.9772851      773.46607    
   1541000   311.16869      0.0018564113   0.0028308399   772.01809     -2.7661344      769.25195    
   1542000   282.86193      0.0018564113  -0.60992293     701.78825     -2.4420227      699.34622    
   1543000   282.01409      0.0018564113   2.7527406      699.68474     -4.3562026      695.32854    
   1544000   305.70003      0.0018564113   1.6482709      758.45019     -3.2632914      755.1869     
   1545000   314.15157      0.0018564113  -1.4952602      779.41872     -1.8915503      777.52716    
   1546000   298.34767      0.0018564113   0.98230445     740.2088      -0.91554841     739.29325    
   1547000   304.06648      0.0018564113   2.0856562      754.39732     -2.6415281      751.7558     
   1548000   300.71546      0.0018564113  -0.60452658     746.08334     -2.780859       743.30248    
   1549000   295.90782      0.0018564113   2.7837719      734.15546     -2.9241456      731.23132    
   1550000   313.2139       0.0018564113   3.474273       777.09232     -3.8124596      773.27986    
   1551000   296.81881      0.0018564113  -1.2904051      736.41566     -1.6103975      734.80526    
   1552000   293.69454      0.0018564113   0.049571916    728.66426     -1.211445       727.45282    
   1553000   307.41458      0.0018564113   1.7250192      762.70405     -1.2178931      761.48615    
   1554000   305.49019      0.0018564113   1.5936421      757.92959     -0.14176926     757.78782    
   1555000   290.79944      0.0018564113  -0.82704542     721.48143     -0.93883632     720.54259    
   1556000   305.49795      0.0018564113   2.7727259      757.94884     -0.8764044      757.07244    
   1557000   314.03423      0.0018564113   0.89362936     779.12759     -0.27938399     778.8482     
   1558000   297.7848       0.0018564113  -2.2287655      738.81229     -2.0336883      736.7786     
   1559000   287.55953      0.0018564113   1.8183151      713.44311     -1.2752633      712.16785    
   1560000   309.82392      0.0018564113   3.0526106      768.68168     -1.3645086      767.31717    
   1561000   306.77321      0.0018564113   1.2552984      761.11279     -1.8802589      759.23253    
   1562000   301.4295       0.0018564113   0.33123102     747.85489     -1.4704406      746.38445    
   1563000   290.828        0.0018564113  -0.22516491     721.55228     -1.1472954      720.40499    
   1564000   300.86015      0.0018564113   1.4622593      746.44232     -0.8780078      745.56432    
   1565000   292.74932      0.0018564113   1.4444923      726.31913     -1.9523026      724.36683    
   1566000   304.30879      0.0018564113   1.1815002      754.9985      -2.2718976      752.7266     
   1567000   306.74209      0.0018564113   0.22266256     761.03558     -2.2316405      758.80394    
   1568000   300.12528      0.0018564113   1.5935455      744.61909     -3.3161512      741.30294    
   1569000   295.54424      0.0018564113   2.0675744      733.25341     -2.7062315      730.54718    
   1570000   293.27898      0.0018564113   2.4928421      727.63324     -3.5381634      724.09507    
   1571000   306.90596      0.0018564113   0.87388456     761.44215     -3.1857851      758.25637    
   1572000   305.31784      0.0018564113   0.40524376     757.50198     -1.8381532      755.66382    
   1573000   281.33342      0.0018564113   1.4863272      697.99598     -2.9676949      695.02829    
   1574000   297.36152      0.0018564113   1.516803       737.76212     -3.5193873      734.24273    
   1575000   309.94362      0.0018564113  -0.24357549     768.97866     -2.7565991      766.22206    
   1576000   288.65373      0.0018564113  -0.51941298     716.15785     -3.476756       712.6811     
   1577000   282.86444      0.0018564113   1.3859205      701.79447     -1.6894802      700.10499    
   1578000   317.89164      0.0018564113   0.96514158     788.69793     -3.2719594      785.42597    
   1579000   299.53096      0.0018564113   0.44353362     743.14456     -2.8824626      740.2621     
   1580000   295.11273      0.0018564113   1.3677156      732.18281     -3.8034944      728.37931    
   1581000   294.26836      0.0018564113   1.5403435      730.08791     -0.81868282     729.26923    
   1582000   310.89799      0.0018564113   1.8198017      771.34649     -2.8988563      768.44764    
   1583000   312.76428      0.0018564113  -0.63085335     775.97681     -2.1394387      773.83737    
   1584000   286.07384      0.0018564113   0.35226281     709.75707     -2.3187905      707.43828    
   1585000   297.26036      0.0018564113   2.1230771      737.51115     -3.2696203      734.24153    
   1586000   304.52264      0.0018564113   1.2956585      755.52905     -2.4862118      753.04284    
   1587000   311.47733      0.0018564113   0.46244476     772.78384     -2.3327718      770.45107    
   1588000   281.51481      0.0018564113   0.31122367     698.446       -4.0347661      694.41124    
   1589000   290.60129      0.0018564113   2.3366032      720.98982     -2.4843189      718.5055     
   1590000   300.05188      0.0018564113   3.0114239      744.43698     -2.7120568      741.72492    
   1591000   302.72984      0.0018564113  -1.0757009      751.08108     -1.0270853      750.054      
   1592000   311.64969      0.0018564113  -1.4610376      773.21147     -1.8765397      771.33493    
   1593000   298.49326      0.0018564113   1.3241318      740.57001     -1.446085       739.12392    
   1594000   297.33549      0.0018564113   1.6637699      737.69755     -1.7155827      735.98197    
   1595000   296.50835      0.0018564113   1.2970588      735.64538     -1.3242159      734.32117    
   1596000   301.67978      0.0018564113  -1.2726219      748.47585     -1.4446455      747.0312     
   1597000   293.59699      0.0018564113   4.0058318      728.42223     -4.178926       724.2433     
   1598000   303.52573      0.0018564113   5.3439948      753.05571     -6.9251227      746.13059    
   1599000   307.42937      0.0018564113   0.43465551     762.74073     -6.0294634      756.71127    
   1600000   281.7605       0.0018564113  -3.2506242      699.05557     -4.5065632      694.54901    
   1601000   299.41891      0.0018564113   1.5146492      742.86656     -2.5598732      740.30669    
   1602000   305.39996      0.0018564113   3.7365491      757.70573     -1.5574861      756.14824    
   1603000   309.67495      0.0018564113   0.49885882     768.31209     -0.61688631     767.6952     
   1604000   287.24809      0.0018564113   0.57611584     712.67044     -1.5654905      711.10495    
   1605000   301.81324      0.0018564113   1.2492244      748.80696     -1.2778491      747.52912    
   1606000   302.88922      0.0018564113   2.107925       751.47651     -0.94488712     750.53163    
   1607000   300.90837      0.0018564113  -0.58728298     746.56196     -2.0790215      744.48294    
   1608000   304.05078      0.0018564113   0.48477317     754.35835     -1.1166147      753.24174    
   1609000   294.73681      0.0018564113   1.1291659      731.25014     -1.004762       730.24538    
   1610000   307.88889      0.0018564113   5.5699459      763.88084     -1.0774625      762.80337    
   1611000   300.10288      0.0018564113   0.68949445     744.56351     -1.9503043      742.6132     
   1612000   298.27048      0.0018564113   0.86118354     740.01728     -2.5137891      737.50349    
   1613000   311.13573      0.0018564113   4.3149121      771.93631     -2.4813769      769.45494    
   1614000   301.3435       0.0018564113   0.52058054     747.64152     -1.26837        746.37315    
   1615000   299.22744      0.0018564113  -1.1444068      742.39153     -1.487403       740.90412    
   1616000   295.13993      0.0018564113   1.7254065      732.25031     -0.69706752     731.55324    
   1617000   303.28732      0.0018564113   1.8998423      752.46421     -0.832717       751.6315     
   1618000   308.88179      0.0018564113   1.8728996      766.34424     -1.4411921      764.90305    
   1619000   315.8391       0.0018564113  -2.3612989      783.60551     -3.3729319      780.23257    
   1620000   294.62856      0.0018564113   0.87674513     730.98158     -1.0452531      729.93632    
   1621000   298.86014      0.0018564113   1.1952904      741.48024     -2.0141203      739.46612    
   1622000   300.43891      0.0018564113   2.5966722      745.39722     -1.9795034      743.41771    
   1623000   296.46179      0.0018564113   0.40755199     735.52986     -1.6699938      733.85987    
   1624000   304.93619      0.0018564113   0.2645319      756.55509     -3.5129529      753.04214    
   1625000   297.68067      0.0018564113  -0.77677051     738.55395     -3.0623641      735.49159    
   1626000   294.88871      0.0018564113   0.062070187    731.62703     -3.1166332      728.5104     
   1627000   292.133        0.0018564113   1.9938114      724.79001     -2.1719178      722.6181     
   1628000   297.65024      0.0018564113   2.3318048      738.47844     -1.7142717      736.76417    
   1629000   304.84803      0.0018564113  -0.37546915     756.33638     -2.5552         753.78118    
   1630000   288.16111      0.0018564113   1.0895555      714.93564     -2.7283597      712.20729    
   1631000   302.30132      0.0018564113   2.0311988      750.0179      -3.7654849      746.25241    
   1632000   297.87284      0.0018564113   3.3626549      739.03074     -2.7287593      736.30198    
   1633000   313.12997      0.0018564113   1.6826667      776.8841      -3.29588        773.58822    
   1634000   300.86365      0.0018564113   0.29718523     746.45101     -2.5996503      743.85135    
   1635000   297.65514      0.0018564113   0.99314057     738.49062     -1.8441194      736.6465     
   1636000   292.70374      0.0018564113   1.482356       726.20606     -4.7374765      721.46858    
   1637000   304.25892      0.0018564113   1.4177362      754.87477     -3.8122429      751.06253    
   1638000   310.35681      0.0018564113   0.99937834     770.00381     -3.9292445      766.07456    
   1639000   293.76886      0.0018564113   1.0749758      728.84863     -3.8691076      724.97952    
   1640000   288.02759      0.0018564113   0.86794298     714.6044      -5.3472981      709.2571     
   1641000   301.5094       0.0018564113   0.75638429     748.05314     -5.6495311      742.40361    
   1642000   316.14969      0.0018564113   1.0486176      784.37611     -5.6318966      778.74421    
   1643000   302.66974      0.0018564113   1.370536       750.93197     -4.0372168      746.89475    
   1644000   294.2817       0.0018564113   0.77446849     730.12102     -5.0899231      725.03109    
   1645000   298.72031      0.0018564113   1.077771       741.13332     -5.6301562      735.50316    
   1646000   302.13035      0.0018564113   1.0476368      749.59372     -5.0929842      744.50074    
   1647000   310.08218      0.0018564113   1.1025121      769.32244     -4.4620055      764.86044    
   1648000   301.47267      0.0018564113   1.0498661      747.96199     -5.8776211      742.08437    
   1649000   287.02612      0.0018564113   0.072785485    712.11971     -5.1532094      706.9665     
   1650000   303.85098      0.0018564113   0.87595575     753.86266     -5.774929       748.08773    
   1651000   309.62841      0.0018564113   1.4536246      768.19661     -4.2621294      763.93449    
   1652000   299.17352      0.0018564113   1.4964867      742.25776     -4.2397639      738.018      
   1653000   288.76543      0.0018564113   0.56766776     716.43498     -4.4762934      711.95869    
   1654000   300.65917      0.0018564113   1.0380091      745.94369     -4.5109426      741.43275    
   1655000   300.45016      0.0018564113   0.67469125     745.42512     -4.7205798      740.70454    
   1656000   304.64765      0.0018564113   1.0693724      755.83923     -3.0478791      752.79135    
   1657000   312.56625      0.0018564113   1.2838443      775.48549     -3.3021321      772.18335    
   1658000   302.16476      0.0018564113   0.95141782     749.67911     -2.5879974      747.09111    
   1659000   306.98823      0.0018564113   0.80546877     761.64625     -2.6600118      758.98624    
   1660000   288.62333      0.0018564113   1.1330094      716.08244     -1.5175979      714.56484    
   1661000   296.05595      0.0018564113   1.1979619      734.52296     -2.128726       732.39424    
   1662000   309.8492       0.0018564113   0.97129323     768.74442     -1.6736158      767.0708     
   1663000   294.95332      0.0018564113   1.0074692      731.78731     -1.7887985      729.99851    
   1664000   294.25856      0.0018564113   0.97171039     730.06361     -1.9285708      728.13504    
   1665000   307.59179      0.0018564113   0.74611858     763.14371     -1.2352706      761.90844    
   1666000   304.10358      0.0018564113   1.6330907      754.48937     -3.2874009      751.20197    
   1667000   289.79178      0.0018564113   0.60105555     718.9814      -1.885722       717.09567    
   1668000   298.77645      0.0018564113   0.74858617     741.27261     -2.8824658      738.39014    
   1669000   313.74921      0.0018564113   1.280635       778.42043     -1.8646012      776.55583    
   1670000   297.45363      0.0018564113   1.0335627      737.99065     -2.5015616      735.48909    
   1671000   284.98955      0.0018564113   1.198831       707.06694     -4.015101       703.05183    
   1672000   299.43896      0.0018564113   0.89089748     742.91632     -2.651181       740.26514    
   1673000   306.18054      0.0018564113   1.0954708      759.64236     -2.3737409      757.26862    
   1674000   290.42715      0.0018564113   0.82213498     720.55776     -2.7016433      717.85612    
   1675000   296.85252      0.0018564113   1.0658987      736.4993      -3.5318036      732.96749    
   1676000   296.18752      0.0018564113   1.4481516      734.8494      -4.6779358      730.17147    
   1677000   314.78111      0.0018564113   0.43782066     780.9806      -4.3731223      776.60748    
   1678000   300.29739      0.0018564113   0.65946887     745.04609     -3.1457342      741.90036    
   1679000   299.06217      0.0018564113   1.5669871      741.98149     -3.7906664      738.19082    
   1680000   307.58523      0.0018564113   1.1109344      763.12744     -4.1690594      758.95838    
   1681000   310.07         0.0018564113   0.67208938     769.29223     -3.2140515      766.07818    
   1682000   297.92426      0.0018564113   0.6667694      739.15831     -1.3354622      737.82285    
   1683000   295.13381      0.0018564113   1.1926346      732.23512     -1.9221332      730.31299    
   1684000   298.97622      0.0018564113   1.1832717      741.76824      0.5026668      742.27091    
   1685000   299.4076       0.0018564113   0.90989447     742.83851     -1.2736283      741.56488    
   1686000   303.56815      0.0018564113   0.92848265     753.16095     -1.5039224      751.65703    
   1687000   301.63724      0.0018564113   0.97074669     748.3703      -0.52301828     747.84728    
   1688000   295.01202      0.0018564113   1.4834743      731.93296     -2.3620107      729.57095    
   1689000   307.01045      0.0018564113   1.1886438      761.70138     -1.673022       760.02836    
   1690000   310.02432      0.0018564113   0.96455047     769.17889     -2.8378271      766.34107    
   1691000   289.14317      0.0018564113   0.68533431     717.37218     -1.9513553      715.42083    
   1692000   289.90448      0.0018564113   1.3410252      719.261       -1.6571474      717.60386    
   1693000   292.55932      0.0018564113   1.8012155      725.84774     -2.7773613      723.07037    
   1694000   306.81994      0.0018564113   0.91047315     761.22872     -4.5136776      756.71504    
   1695000   284.39064      0.0018564113   0.2376834      705.58101     -4.451512       701.12949    
   1696000   313.55724      0.0018564113   1.1853606      777.94414     -3.5099835      774.43416    
   1697000   325.71297      0.0018564113   1.1608073      808.10285     -2.6328177      805.47003    
   1698000   296.81314      0.0018564113   1.0191359      736.40158     -3.2242234      733.17736    
   1699000   294.79664      0.0018564113   1.0645163      731.39859     -2.2673014      729.13129    
   1700000   309.36489      0.0018564113   1.1432533      767.54281     -2.4955223      765.04729    
   1701000   318.87869      0.0018564113   0.73288225     791.14681     -3.6736882      787.47312    
   1702000   293.37077      0.0018564113   1.015803       727.86098     -3.1654625      724.69552    
   1703000   302.93314      0.0018564113   1.0365019      751.58547     -1.92647        749.659      
   1704000   299.39894      0.0018564113   0.78024437     742.81702     -2.8329201      739.9841     
   1705000   297.1083       0.0018564113   1.0997455      737.13389     -1.4344663      735.69943    
   1706000   295.33332      0.0018564113   1.81895        732.7301      -0.30646249     732.42364    
   1707000   294.5355       0.0018564113   0.90821065     730.75069     -1.6332454      729.11744    
   1708000   296.75465      0.0018564113   0.88831123     736.25645     -3.1441085      733.11235    
   1709000   317.43116      0.0018564113   1.6328364      787.55545     -3.4525867      784.10286    
   1710000   299.90824      0.0018564113   1.5202497      744.0806      -4.6541935      739.42641    
   1711000   293.49574      0.0018564113   0.19429164     728.17103     -2.6803068      725.49072    
   1712000   316.27233      0.0018564113  -0.94018264     784.68036     -2.2438266      782.43654    
   1713000   297.3497       0.0018564113   1.4884859      737.73279     -3.8283941      733.9044     
   1714000   290.70689      0.0018564113   0.34577046     721.25181     -3.7794575      717.47235    
   1715000   309.84755      0.0018564113  -0.095262124    768.74031     -1.9852209      766.75509    
   1716000   306.91383      0.0018564113   1.5387924      761.46168     -3.9004852      757.5612     
   1717000   280.46306      0.0018564113   0.66008854     695.83659     -0.65493274     695.18166    
   1718000   300.80058      0.0018564113   0.20464546     746.29454     -4.1371476      742.15739    
   1719000   313.98769      0.0018564113   1.189258       779.01211     -2.6193531      776.39275    
   1720000   300.28326      0.0018564113   1.2111223      745.01103     -3.2027298      741.8083     
   1721000   285.27586      0.0018564113   3.4446224      707.77728     -3.2954856      704.4818     
   1722000   291.87696      0.0018564113   1.337743       724.15479     -2.4611274      721.69367    
   1723000   306.72727      0.0018564113  -0.029202166    760.99882     -2.8013362      758.19749    
   1724000   309.47977      0.0018564113  -0.10944126     767.82783     -2.2014547      765.62638    
   1725000   293.76293      0.0018564113   3.8871792      728.83392     -2.2844222      726.5495     
   1726000   294.78548      0.0018564113   0.85628224     731.37091     -2.0780233      729.29288    
   1727000   317.43345      0.0018564113  -1.9775589      787.56113     -2.0616482      785.49948    
   1728000   299.66326      0.0018564113   1.3912744      743.47281     -1.98875        741.48406    
   1729000   300.77322      0.0018564113   1.554261       746.22664     -0.90419213     745.32245    
   1730000   298.37506      0.0018564113   2.0454331      740.27675     -2.5667901      737.70996    
   1731000   299.9511       0.0018564113  -0.54048731     744.18695     -1.996708       742.19024    
   1732000   295.64174      0.0018564113   1.9931831      733.4953      -2.148617       731.34668    
   1733000   300.94479      0.0018564113   2.5436142      746.65232     -0.69134202     745.96098    
   1734000   302.22382      0.0018564113   1.4827101      749.82563     -2.9085637      746.91707    
   1735000   293.97736      0.0018564113   0.95691956     729.36593     -2.1067182      727.25921    
   1736000   304.3518       0.0018564113   0.91448039     755.10521     -2.558651       752.54656    
   1737000   302.9369       0.0018564113   1.8774511      751.5948      -2.0248552      749.56995    
   1738000   294.29847      0.0018564113   0.34362574     730.16261     -1.1772659      728.98534    
   1739000   305.35067      0.0018564113   0.48627347     757.58344     -2.3984917      755.18495    
   1740000   309.00039      0.0018564113   1.0170543      766.63849     -2.9167292      763.72176    
   1741000   308.25435      0.0018564113   1.3785223      764.78755     -2.3801278      762.40742    
   1742000   291.85702      0.0018564113   1.4257309      724.10531     -3.6147051      720.4906     
   1743000   287.53478      0.0018564113   0.69261396     713.38172     -2.8255467      710.55617    
   1744000   302.31543      0.0018564113   0.40369905     750.05292     -2.8858141      747.1671     
   1745000   315.26896      0.0018564113   1.5404219      782.19099     -2.9912963      779.19969    
   1746000   292.46741      0.0018564113   1.3828558      725.61971     -3.7304951      721.88921    
   1747000   286.37155      0.0018564113   0.95057087     710.49572     -2.0980789      708.39764    
   1748000   294.33205      0.0018564113   0.85656554     730.24593     -2.0535272      728.1924     
   1749000   309.03881      0.0018564113   1.093686       766.73381     -2.980306       763.7535     
   1750000   301.22247      0.0018564113   1.9543291      747.34125     -1.8649238      745.47633    
   1751000   282.02737      0.0018564113   1.2445933      699.71767     -3.0738637      696.64381    
   1752000   296.96453      0.0018564113  -0.067887811    736.77718     -2.2302649      734.54692    
   1753000   308.91191      0.0018564113   0.72299066     766.41896     -1.5943345      764.82463    
   1754000   306.96054      0.0018564113   1.6971518      761.57755     -3.3396458      758.23791    
   1755000   288.07417      0.0018564113   1.0544653      714.71996     -5.0366916      709.68327    
   1756000   300.48964      0.0018564113  -0.28430237     745.52307     -3.1024784      742.42059    
   1757000   294.09298      0.0018564113  -2.8928941      729.6528      -5.1354615      724.51734    
   1758000   309.3232       0.0018564113   0.52348616     767.43938     -3.9008492      763.53853    
   1759000   307.58978      0.0018564113   2.8295729      763.13873     -4.3725188      758.76621    
   1760000   297.7164       0.0018564113   2.5514542      738.64259     -3.4104248      735.23216    
   1761000   281.89965      0.0018564113  -0.35011603     699.40081     -4.998495       694.40231    
   1762000   300.80504      0.0018564113   0.57133681     746.3056      -4.8078617      741.49774    
   1763000   302.76129      0.0018564113   2.1039396      751.15911     -4.3677552      746.79135    
   1764000   287.57964      0.0018564113   0.94887988     713.49301     -3.5275636      709.96544    
   1765000   298.1004       0.0018564113  -1.3069524      739.5953      -5.0295604      734.56574    
   1766000   309.87043      0.0018564113   1.1139119      768.79709     -2.4882318      766.30886    
   1767000   297.26468      0.0018564113   2.3640003      737.52186     -4.6254047      732.89646    
   1768000   292.17961      0.0018564113  -0.66440923     724.90566     -3.7373927      721.16827    
   1769000   298.54968      0.0018564113   0.5017653      740.70998     -2.3548458      738.35513    
   1770000   320.4832       0.0018564113   2.4711404      795.12765     -3.6452194      791.48243    
   1771000   296.20676      0.0018564113   3.0190116      734.89714     -3.320312       731.57682    
   1772000   290.17697      0.0018564113   0.071576249    719.93707     -3.7197531      716.21731    
   1773000   315.46601      0.0018564113  -2.2637127      782.67987     -1.9001112      780.77976    
   1774000   308.79181      0.0018564113   3.1893791      766.12098     -3.7196525      762.40133    
   1775000   296.28082      0.0018564113   1.0080403      735.08089     -4.2788511      730.80204    
   1776000   297.69772      0.0018564113  -0.35101516     738.59625     -3.6778487      734.91841    
   1777000   317.55276      0.0018564113   3.2501379      787.85714     -2.9198185      784.93732    
   1778000   304.49342      0.0018564113   1.4925553      755.45658     -2.8577719      752.59881    
   1779000   298.14467      0.0018564113  -1.116733       739.70514     -2.9493897      736.75575    
   1780000   298.88879      0.0018564113   1.0371339      741.55132     -2.8934971      738.65783    
   1781000   295.18743      0.0018564113   1.4597688      732.36816     -4.0323664      728.3358     
   1782000   294.12322      0.0018564113  -0.060306417    729.72781     -4.0630828      725.66472    
   1783000   299.29523      0.0018564113   1.259685       742.55972     -5.140491       737.41923    
   1784000   289.23109      0.0018564113   1.9855745      717.59031     -5.2358282      712.35449    
   1785000   304.06749      0.0018564113  -0.30835894     754.39982     -4.4290161      749.9708     
   1786000   314.2945       0.0018564113   0.036865948    779.77331     -4.9672926      774.80601    
   1787000   302.81985      0.0018564113   0.55011943     751.30438     -3.6647156      747.63967    
   1788000   300.67429      0.0018564113   3.8199656      745.9812      -2.5038242      743.47738    
   1789000   293.70404      0.0018564113   1.0631228      728.68783     -3.0265886      725.66124    
   1790000   308.7452       0.0018564113   0.34891069     766.00535     -2.3592701      763.64608    
   1791000   311.26534      0.0018564113   3.669869       772.25789     -2.9097331      769.34816    
   1792000   292.25774      0.0018564113   0.17115693     725.0995      -1.9296612      723.16984    
   1793000   300.10638      0.0018564113  -2.7017872      744.5722      -2.2835865      742.28861    
   1794000   316.82248      0.0018564113   1.2947403      786.0453      -4.6311917      781.4141     
   1795000   300.07248      0.0018564113   1.8324665      744.4881      -3.7855013      740.7026     
   1796000   279.51799      0.0018564113  -0.13168325     693.49184     -4.6392947      688.85254    
   1797000   306.37075      0.0018564113  -1.141012       760.11426     -3.6660063      756.44826    
   1798000   307.82695      0.0018564113   2.3156571      763.72715     -4.8816774      758.84547    
   1799000   284.60775      0.0018564113   0.69489326     706.11966     -3.4495055      702.67016    
   1800000   294.86216      0.0018564113   0.3458277      731.56114     -3.1200427      728.4411     
   1801000   317.44176      0.0018564113   1.2337537      787.58175     -2.2708388      785.31091    
   1802000   298.87864      0.0018564113   1.8984525      741.52615     -1.7142681      739.81188    
   1803000   296.37159      0.0018564113  -1.3530173      735.30609     -3.1802169      732.12587    
   1804000   306.87791      0.0018564113   0.95696843     761.37254     -2.475344       758.8972     
   1805000   299.53669      0.0018564113   4.0862185      743.1588      -2.8616493      740.29715    
   1806000   283.12743      0.0018564113   0.5820242      702.44696     -1.4827746      700.96418    
   1807000   287.72922      0.0018564113  -0.0062551282   713.86413     -2.6303522      711.23378    
   1808000   310.41455      0.0018564113   1.1128732      770.14705     -1.4439278      768.70312    
   1809000   308.88071      0.0018564113   4.4398267      766.34155     -1.6524742      764.68907    
   1810000   287.70343      0.0018564113   0.21656777     713.80014     -4.3380269      709.46211    
   1811000   304.67413      0.0018564113  -0.44949274     755.90492     -2.5876925      753.31723    
   1812000   315.24471      0.0018564113   1.1348601      782.13082     -3.2580116      778.87281    
   1813000   300.11577      0.0018564113   2.3426832      744.59551     -3.3216843      741.27382    
   1814000   287.88194      0.0018564113   1.3792137      714.24302     -3.0474382      711.19558    
   1815000   297.94727      0.0018564113   0.52035559     739.21539     -4.7897899      734.4256     
   1816000   307.92586      0.0018564113  -1.1841207      763.97254     -4.0911551      759.88139    
   1817000   309.22022      0.0018564113   1.5166134      767.1839      -2.9454855      764.23841    
   1818000   292.5691       0.0018564113   2.7738086      725.87201     -2.5332083      723.3388     
   1819000   297.62137      0.0018564113  -0.7089472      738.40683     -2.7827587      735.62407    
   1820000   306.79829      0.0018564113  -0.10976387     761.17501     -1.3923556      759.78266    
   1821000   314.27284      0.0018564113   2.8629039      779.71958     -2.8508476      776.86873    
   1822000   301.45071      0.0018564113   3.3305926      747.90753     -1.7229571      746.18457    
   1823000   301.7652       0.0018564113   1.8643604      748.68778     -2.4948461      746.19294    
   1824000   286.97648      0.0018564113  -1.1271972      711.99657     -2.6276299      709.36894    
   1825000   299.37292      0.0018564113   1.9025235      742.75247     -2.6162051      740.13626    
   1826000   301.90461      0.0018564113   1.5787357      749.03365     -2.7631606      746.27049    
   1827000   276.94515      0.0018564113   0.27577104     687.10854     -1.9501783      685.15836    
   1828000   297.35172      0.0018564113   0.66407576     737.73781     -2.6327845      735.10502    
   1829000   316.78597      0.0018564113   0.75304155     785.95472     -2.8882232      783.0665     
   1830000   309.31035      0.0018564113   1.7193426      767.40752     -2.8818173      764.5257     
   1831000   286.72715      0.0018564113   1.5348901      711.37796     -3.2765586      708.1014     
   1832000   301.20435      0.0018564113   0.7551337      747.29628     -2.5334849      744.7628     
   1833000   305.81385      0.0018564113  -0.18780957     758.73258     -1.7581435      756.97444    
   1834000   307.77007      0.0018564113   1.2904956      763.58602     -1.9480105      761.63801    
   1835000   292.60575      0.0018564113   2.8783756      725.96292     -1.576933       724.38599    
   1836000   292.05519      0.0018564113   0.75623618     724.59697     -3.1890663      721.4079     
   1837000   310.14472      0.0018564113   0.6273407      769.47759     -1.5913016      767.88629    
   1838000   295.43719      0.0018564113   2.8540986      732.98782     -2.3598949      730.62792    
   1839000   299.70188      0.0018564113   0.78575351     743.56863     -4.2182287      739.3504     
   1840000   317.4213       0.0018564113  -0.061442657    787.531       -5.6640061      781.86699    
   1841000   296.55865      0.0018564113   2.0823948      735.77018     -3.2789049      732.49128    
   1842000   289.86836      0.0018564113  -0.52178194     719.17139     -2.1557181      717.01567    
   1843000   311.52295      0.0018564113   0.17227881     772.89701     -2.1976957      770.69932    
   1844000   302.06563      0.0018564113   3.5483236      749.43316     -2.4860426      746.94712    
   1845000   285.99737      0.0018564113   1.4471155      709.56736     -2.8346892      706.73267    
   1846000   306.85873      0.0018564113  -0.11597235     761.32497     -3.2054794      758.11949    
   1847000   309.89086      0.0018564113   0.77709072     768.84777     -5.2220209      763.62575    
   1848000   295.11957      0.0018564113   2.0448229      732.19978     -4.4335094      727.76627    
   1849000   292.49551      0.0018564113   1.0360334      725.68943     -4.1507884      721.53864    
   1850000   299.21244      0.0018564113  -1.6836261      742.35432     -3.2414825      739.11284    
   1851000   306.44613      0.0018564113   1.135186       760.30131     -2.5202206      757.78109    
   1852000   304.61014      0.0018564113   3.0384559      755.74616     -3.1625806      752.58357    
   1853000   288.0797       0.0018564113   0.52891264     714.73367     -3.5248261      711.20884    
   1854000   310.19587      0.0018564113   0.60347393     769.60449     -2.2446351      767.35986    
   1855000   310.42596      0.0018564113   1.7197779      770.17536     -2.0251059      768.15025    
   1856000   290.48702      0.0018564113   1.178341       720.70631     -0.84067982     719.86563    
   1857000   296.14519      0.0018564113   0.29821437     734.74437     -0.65229748     734.09207    
   1858000   301.53533      0.0018564113   1.2658152      748.11746     -2.5700842      745.54738    
   1859000   293.25938      0.0018564113   0.88717991     727.58461     -2.9912469      724.59336    
   1860000   302.39699      0.0018564113   0.55060382     750.25526     -2.5696424      747.68562    
   1861000   296.98611      0.0018564113   1.6822333      736.83073     -2.8845794      733.94615    
   1862000   286.59901      0.0018564113   1.185542       711.06004     -3.425432       707.63461    
   1863000   289.09646      0.0018564113   0.88465805     717.25628     -2.4271624      714.82912    
   1864000   310.0629       0.0018564113   0.54271792     769.27459     -3.6500132      765.62458    
   1865000   314.17963      0.0018564113   1.3326191      779.48833     -3.9456713      775.54266    
   1866000   301.39403      0.0018564113   1.0434068      747.76689     -6.1107573      741.65613    
   1867000   288.78463      0.0018564113   0.87213568     716.48262     -4.3228253      712.1598     
   1868000   308.54268      0.0018564113   0.92011606     765.50289     -3.2434456      762.25945    
   1869000   300.6506       0.0018564113   1.0283018      745.92241     -4.6944489      741.22797    
   1870000   285.94983      0.0018564113   0.96436603     709.44942     -5.4859291      703.96349    
   1871000   305.71036      0.0018564113   1.055366       758.47583     -3.1418655      755.33397    
   1872000   300.33378      0.0018564113   1.2044047      745.13638     -4.0870188      741.04936    
   1873000   308.27706      0.0018564113   1.4000551      764.84387     -4.580328       760.26354    
   1874000   300.76227      0.0018564113   0.88555892     746.19947     -3.187972       743.0115     
   1875000   305.05501      0.0018564113   0.9864238      756.84989     -4.7786579      752.07123    
   1876000   298.05605      0.0018564113   1.0247656      739.48527     -3.526789       735.95848    
   1877000   308.11963      0.0018564113   1.17886        764.4533      -3.8512706      760.60203    
   1878000   317.41441      0.0018564113   1.138272       787.5139      -5.43471        782.07919    
   1879000   305.96214      0.0018564113   0.81346975     759.10049     -2.4956461      756.60485    
   1880000   284.52088      0.0018564113   0.91488292     705.90416     -2.8386226      703.06553    
   1881000   298.88087      0.0018564113   1.5143469      741.53167     -3.0301305      738.50154    
   1882000   312.30007      0.0018564113   1.1683391      774.82509     -2.8147127      772.01038    
   1883000   311.87472      0.0018564113   0.55960232     773.76978     -2.4350156      771.33477    
   1884000   294.18771      0.0018564113   0.83317403     729.88783     -2.0382812      727.84955    
   1885000   302.22501      0.0018564113   1.09113        749.82857     -0.9745732      748.854      
   1886000   294.49418      0.0018564113   1.1578646      730.64819     -0.49955415     730.14864    
   1887000   305.32282      0.0018564113   1.0951261      757.51434     -3.271854       754.24249    
   1888000   299.37431      0.0018564113   0.1268285      742.75592     -3.2433015      739.51261    
   1889000   295.17713      0.0018564113   0.89380082     732.3426      -2.1785521      730.16405    
   1890000   293.80867      0.0018564113   1.3004913      728.94741     -2.6014423      726.34596    
   1891000   293.57515      0.0018564113   1.4695243      728.36804     -3.9685686      724.39947    
   1892000   314.84205      0.0018564113   1.3242248      781.1318      -3.4893125      777.64249    
   1893000   301.95903      0.0018564113   0.84906645     749.16868     -3.5306455      745.63803    
   1894000   282.78593      0.0018564113   0.72559651     701.59969     -2.9249117      698.67478    
   1895000   298.60713      0.0018564113   1.1499508      740.85253     -3.0607339      737.7918     
   1896000   311.88516      0.0018564113   1.3487223      773.79568     -2.3461735      771.4495     
   1897000   310.83181      0.0018564113   0.55159138     771.1823      -2.2536322      768.92867    
   1898000   292.12935      0.0018564113   0.83798687     724.78096     -2.1834996      722.59747    
   1899000   284.94532      0.0018564113   0.99154064     706.95718     -4.3712903      702.58589    
   1900000   305.11639      0.0018564113   0.89809428     757.00218     -3.7739383      753.22825    
   1901000   332.06003      0.0018564113   1.1147813      823.85008     -2.3875279      821.46256    
   1902000   295.81672      0.0018564113   1.1433726      733.92943     -3.3998778      730.52955    
   1903000   280.55317      0.0018564113   0.98312992     696.06015     -3.9227014      692.13745    
   1904000   303.70764      0.0018564113   0.96830741     753.50702     -3.083602       750.42342    
   1905000   309.75936      0.0018564113   1.0667826      768.5215      -4.8000745      763.72143    
   1906000   289.67055      0.0018564113  -0.28176304     718.68063     -3.3390218      715.34161    
   1907000   286.46003      0.0018564113   0.68281775     710.71524     -3.921346       706.7939     
   1908000   290.34417      0.0018564113   0.84664949     720.35189     -4.1058962      716.246      
   1909000   298.30499      0.0018564113   1.2647578      740.10289     -4.5002499      735.60264    
   1910000   316.06581      0.0018564113   1.0430104      784.168       -3.8684024      780.2996     
   1911000   290.79508      0.0018564113   1.1872541      721.47061     -2.4164587      719.05415    
   1912000   285.39104      0.0018564113   0.89511167     708.06303     -3.8997378      704.1633     
   1913000   317.00452      0.0018564113   1.2132979      786.49694     -2.4365649      784.06038    
   1914000   305.98971      0.0018564113   0.54306018     759.16891     -2.0351445      757.13376    
   1915000   293.79724      0.0018564113   0.74312517     728.91906     -4.0885685      724.83049    
   1916000   292.1036       0.0018564113   1.0139576      724.71708     -4.0551121      720.66197    
   1917000   311.11844      0.0018564113   1.4055277      771.89342     -2.0526102      769.8408     
   1918000   317.91926      0.0018564113   0.070691216    788.76646     -2.2902643      786.4762     
   1919000   283.70589      0.0018564113   0.3312633      703.88212     -3.0375846      700.84454    
   1920000   307.80652      0.0018564113   1.5528518      763.67646     -2.2474119      761.42905    
   1921000   302.07018      0.0018564113   1.488519       749.44443     -2.7432012      746.70123    
   1922000   308.55412      0.0018564113   0.65903268     765.53127     -5.6902814      759.84099    
   1923000   290.02663      0.0018564113   0.86091179     719.56406     -3.8154325      715.74863    
   1924000   305.89867      0.0018564113   3.5770068      758.94303     -3.496868       755.44616    
   1925000   319.50707      0.0018564113   1.5430688      792.70586     -3.8925184      788.81334    
   1926000   303.15639      0.0018564113   0.50912278     752.13935     -2.6842901      749.45506    
   1927000   273.6215       0.0018564113   0.88150159     678.86247     -3.9292898      674.93318    
   1928000   291.86865      0.0018564113   1.1811766      724.13416     -2.213338       721.92082    
   1929000   318.90809      0.0018564113   3.578739       791.21977     -4.618827       786.60094    
   1930000   303.37639      0.0018564113  -0.74426114     752.68518     -6.5349593      746.15022    
   1931000   288.09684      0.0018564113   0.38053972     714.77621     -6.8790938      707.89711    
   1932000   307.54035      0.0018564113   4.2849232      763.01607     -3.9965329      759.01954    
   1933000   316.5562       0.0018564113   0.8394521      785.38465     -3.1326212      782.25203    
   1934000   297.1838       0.0018564113  -0.029033997    737.3212      -2.1749925      735.14621    
   1935000   287.17825      0.0018564113   4.3567367      712.49716     -2.4422762      710.05489    
   1936000   302.46762      0.0018564113   0.32640643     750.4305      -2.8627916      747.5677     
   1937000   301.56604      0.0018564113  -2.3761907      748.19366     -2.2843792      745.90928    
   1938000   298.47402      0.0018564113   3.289079       740.52228     -3.1800038      737.34227    
   1939000   293.55851      0.0018564113  -2.7636362      728.32677     -4.3927544      723.93401    
   1940000   288.15763      0.0018564113   0.7871135      714.92701     -4.0119802      710.91503    
   1941000   299.99038      0.0018564113   2.6183085      744.28441     -3.978768       740.30564    
   1942000   295.68082      0.0018564113   4.8381335      733.59226     -0.82414872     732.76811    
   1943000   304.44536      0.0018564113   2.4362507      755.33732     -5.0146641      750.32266    
   1944000   298.19035      0.0018564113  -1.0238353      739.81847     -4.7645021      735.05397    
   1945000   288.50804      0.0018564113   3.4073347      715.7964      -3.2667798      712.52962    
   1946000   297.05314      0.0018564113   1.9158257      736.99703     -3.3817671      733.61526    
   1947000   306.39478      0.0018564113  -2.0340678      760.17388     -3.6199223      756.55396    
   1948000   305.1913       0.0018564113  -3.8740573      757.18802     -3.572297       753.61573    
   1949000   296.93612      0.0018564113  -0.27326527     736.70669     -3.2302236      733.47647    
   1950000   294.2149       0.0018564113   3.0371588      729.95528     -3.873308       726.08198    
   1951000   293.45537      0.0018564113   3.7920244      728.07086     -4.051532       724.01933    
   1952000   293.18093      0.0018564113   1.1394619      727.38997     -4.14702        723.24295    
   1953000   294.01291      0.0018564113  -1.4350462      729.45414     -6.2363175      723.21782    
   1954000   308.15476      0.0018564113   5.3104667      764.54045     -4.7219445      759.8185     
   1955000   304.51288      0.0018564113  -0.99028047     755.50485     -5.0525611      750.45229    
   1956000   289.89114      0.0018564113  -1.7431141      719.22792     -4.625687       714.60223    
   1957000   289.44954      0.0018564113   1.6710764      718.13228     -3.4919164      714.64036    
   1958000   312.30118      0.0018564113   5.1567174      774.82784     -3.7978748      771.02997    
   1959000   308.76873      0.0018564113   0.078663645    766.06374     -4.2282528      761.83549    
   1960000   291.65019      0.0018564113  -2.6056797      723.59216     -3.7331982      719.85896    
   1961000   288.31635      0.0018564113   3.5195731      715.32081     -4.3197047      711.0011     
   1962000   315.08997      0.0018564113   1.2266866      781.7469      -2.5924582      779.15444    
   1963000   301.52511      0.0018564113  -2.0486387      748.0921      -0.25057711     747.84152    
   1964000   288.92747      0.0018564113  -0.11922948     716.83701     -2.0269337      714.81008    
   1965000   305.50471      0.0018564113   3.8201718      757.96561     -3.2783511      754.68725    
   1966000   305.20457      0.0018564113   0.9516162      757.22095     -4.1263691      753.09459    
   1967000   286.13464      0.0018564113  -3.2382812      709.90794     -1.4253507      708.48259    
   1968000   293.21687      0.0018564113   2.24599        727.47913     -0.51106082     726.96807    
   1969000   310.53678      0.0018564113   3.4713925      770.4503      -1.9031703      768.54713    
   1970000   302.39517      0.0018564113   0.005795563    750.25075      0.019999549    750.27075    
   1971000   289.93904      0.0018564113  -0.87951281     719.34676     -1.8843768      717.46238    
   1972000   296.72428      0.0018564113   2.5609239      736.18112     -1.1091116      735.07201    
   1973000   308.20264      0.0018564113   2.2976986      764.65925     -2.5679756      762.09128    
   1974000   309.80626      0.0018564113  -1.631511       768.63788     -3.4490288      765.18885    
   1975000   290.92105      0.0018564113   0.54780926     721.78315     -3.7839773      717.99917    
   1976000   300.73096      0.0018564113   1.0922514      746.1218      -4.6276344      741.49417    
   1977000   293.86239      0.0018564113   1.8000642      729.08069     -1.7192293      727.36146    
   1978000   295.69726      0.0018564113   1.4823665      733.63305     -3.6867198      729.94633    
   1979000   296.01184      0.0018564113  -0.78600444     734.41353     -3.3372324      731.0763     
   1980000   302.51083      0.0018564113   2.1250978      750.53772     -4.3363756      746.20134    
   1981000   315.66577      0.0018564113   0.52209912     783.17549     -4.8662354      778.30925    
   1982000   292.76896      0.0018564113  -0.017763881    726.36787     -3.9340675      722.4338     
   1983000   296.67789      0.0018564113   0.83700153     736.06603     -3.2482478      732.81778    
   1984000   288.20562      0.0018564113   1.529528       715.04609     -2.2179413      712.82815    
   1985000   303.07133      0.0018564113   1.1880874      751.92834     -2.1597127      749.76862    
   1986000   297.3774       0.0018564113   0.0041775553   737.80153     -2.5740764      735.22745    
   1987000   290.98948      0.0018564113   1.3179054      721.95292     -1.8184363      720.13449    
   1988000   305.47267      0.0018564113   1.2092634      757.88612     -1.6160616      756.27006    
   1989000   301.64956      0.0018564113   1.0835032      748.40088     -1.6820296      746.71885    
   1990000   288.0032       0.0018564113   1.3478809      714.54388     -2.4350639      712.10882    
   1991000   304.98367      0.0018564113  -0.69348989     756.6729      -2.9138285      753.75907    
   1992000   324.06331      0.0018564113   1.2400432      804.01001     -4.0395571      799.97046    
   1993000   308.13621      0.0018564113   2.2620198      764.49444     -4.4895511      760.00488    
   1994000   290.15094      0.0018564113   1.7131566      719.87247     -4.1690015      715.70347    
   1995000   289.82614      0.0018564113   1.013225       719.06665     -5.2007246      713.86592    
   1996000   303.8166       0.0018564113   0.66706893     753.77736     -3.3234968      750.45386    
   1997000   300.23027      0.0018564113   0.40297444     744.87958     -2.6823534      742.19722    
   1998000   303.81459      0.0018564113   1.4651675      753.77236     -5.1483505      748.62401    
   1999000   296.42311      0.0018564113   1.4636538      735.43392     -4.4517437      730.98217    
   2000000   296.81185      0.0018564113   0.27627768     736.39837     -2.5842148      733.81415    
   2001000   297.84098      0.0018564113   0.90703519     738.95168     -4.3006942      734.65098    
   2002000   302.79645      0.0018564113   1.0945647      751.24633     -2.7102408      748.53609    
   2003000   310.33581      0.0018564113   1.2847838      769.9517      -1.2600583      768.69164    
   2004000   297.58083      0.0018564113   0.68008889     738.30624     -1.6556219      736.65062    
   2005000   296.56943      0.0018564113   0.73231993     735.79693     -0.86486299     734.93207    
   2006000   303.41056      0.0018564113   1.2144464      752.76996     -3.2940043      749.47595    
   2007000   295.33313      0.0018564113   1.0422551      732.72964     -2.3938725      730.33577    
   2008000   309.57257      0.0018564113   0.24078037     768.05807     -3.7053103      764.35276    
   2009000   305.76372      0.0018564113   1.2874318      758.60822     -1.7631199      756.8451     
   2010000   304.40101      0.0018564113   1.32357        755.22729     -1.7442263      753.48307    
   2011000   290.46177      0.0018564113   1.0663745      720.64366     -2.9140587      717.7296     
   2012000   293.56078      0.0018564113   0.81450656     728.33239     -0.79355775     727.53883    
   2013000   310.40054      0.0018564113   0.89683231     770.11229     -1.9016609      768.21063    
   2014000   305.28153      0.0018564113   1.5562644      757.41189     -2.4378157      754.97407    
   2015000   288.1344       0.0018564113   0.45371252     714.8694      -2.9649515      711.90445    
   2016000   301.2158       0.0018564113   0.85698833     747.32471     -1.5210036      745.8037     
   2017000   303.18652      0.0018564113   1.0803763      752.21411     -1.0988753      751.11524    
   2018000   293.82959      0.0018564113   1.3833494      728.99932     -3.1152605      725.88406    
   2019000   305.35761      0.0018564113   0.94308879     757.60064     -1.0349162      756.56572    
   2020000   304.16906      0.0018564113   0.9646991      754.65181     -2.3228002      752.32901    
   2021000   296.57243      0.0018564113   1.3555252      735.80438     -1.8485319      733.95585    
   2022000   286.5929       0.0018564113   1.0167678      711.04488     -1.6492397      709.39564    
   2023000   300.24354      0.0018564113   0.85429616     744.9125      -2.5977028      742.3148     
   2024000   311.04005      0.0018564113   1.133283       771.69894     -3.2868313      768.41211    
   2025000   305.64611      0.0018564113   1.1396572      758.31643     -3.1761514      755.14028    
   2026000   304.27227      0.0018564113   1.0260948      754.9079      -3.0557613      751.85214    
   2027000   282.86726      0.0018564113   0.96236485     701.80147     -3.1089683      698.6925     
   2028000   309.57163      0.0018564113   1.1591948      768.05574     -3.1787047      764.87703    
   2029000   308.79848      0.0018564113   0.88211818     766.13753     -3.1872463      762.95029    
   2030000   302.23623      0.0018564113   1.0468765      749.85643     -4.0006529      745.85577    
   2031000   303.01442      0.0018564113   1.1583816      751.78712     -1.9324675      749.85466    
   2032000   294.34036      0.0018564113   1.2415871      730.26654     -3.6892165      726.57733    
   2033000   294.62597      0.0018564113   0.99109833     730.97516     -2.9880602      727.9871     
   2034000   315.33514      0.0018564113   0.77339077     782.35517     -1.2626647      781.09251    
   2035000   302.51627      0.0018564113   1.7195925      750.55121     -1.5689359      748.98228    
   2036000   290.20391      0.0018564113   1.1922925      720.0039      -1.3000077      718.70389    
   2037000   290.21008      0.0018564113   0.81366516     720.01922     -2.6871033      717.33212    
   2038000   305.3387       0.0018564113   0.87047549     757.55373     -1.3232949      756.23043    
   2039000   307.54997      0.0018564113   1.1587922      763.03995     -2.4474639      760.59249    
   2040000   304.86279      0.0018564113   1.3379261      756.37299     -1.1006272      755.27236    
   2041000   293.82714      0.0018564113   1.3734633      728.99324     -2.6590381      726.3342     
   2042000   284.10364      0.0018564113   1.2133686      704.86896     -3.3889648      701.47999    
   2043000   302.37519      0.0018564113   0.65805219     750.20117     -4.3850591      745.81611    
   2044000   308.25776      0.0018564113   1.0829715      764.79599     -5.4187115      759.37728    
   2045000   295.28507      0.0018564113   1.467861       732.6104      -4.7335064      727.8769     
   2046000   288.20596      0.0018564113   0.96538285     715.04694     -1.4686742      713.57827    
   2047000   302.47319      0.0018564113   0.90028354     750.44432     -4.0502869      746.39403    
   2048000   308.76664      0.0018564113   1.0774054      766.05854     -5.0175519      761.04098    
   2049000   305.52134      0.0018564113   0.44004377     758.00687     -3.4844469      754.52242    
   2050000   292.49298      0.0018564113   0.86558402     725.68313     -3.7704895      721.91264    
   2051000   311.76465      0.0018564113   1.6324428      773.49668     -2.8108316      770.68585    
   2052000   300.27267      0.0018564113   0.40544455     744.98477     -1.6456541      743.33912    
   2053000   289.30026      0.0018564113   0.88077201     717.76191     -1.0652522      716.69666    
   2054000   309.53234      0.0018564113   3.609996       767.95826     -1.8943886      766.06387    
   2055000   304.93067      0.0018564113   0.32410246     756.5414      -2.4943819      754.04702    
   2056000   292.24162      0.0018564113   0.47987782     725.05951     -0.66502847     724.39448    
   2057000   294.16195      0.0018564113   1.0823199      729.82391     -0.38783722     729.43607    
   2058000   315.804        0.0018564113   1.9250839      783.51844     -2.4862863      781.03215    
   2059000   309.47784      0.0018564113   0.62395551     767.82305     -2.1684866      765.65456    
   2060000   303.08208      0.0018564113   0.70769468     751.95499     -1.8600917      750.0949     
   2061000   295.63593      0.0018564113  -0.05643277     733.4809      -2.1713325      731.30957    
   2062000   289.28206      0.0018564113   1.1542654      717.71677     -0.96772827     716.74904    
   2063000   298.72735      0.0018564113   2.3444073      741.15079     -2.5925471      738.55825    
   2064000   299.51936      0.0018564113   0.75350539     743.11579     -2.9328538      740.18294    
   2065000   295.81447      0.0018564113   0.48252003     733.92386     -4.0362815      729.88757    
   2066000   301.1454       0.0018564113   1.0701148      747.15004     -4.9250731      742.22497    
   2067000   302.07981      0.0018564113   1.2077803      749.46834     -3.8932578      745.57509    
   2068000   296.06903      0.0018564113   0.93025172     734.55543     -3.1589114      731.39651    
   2069000   295.63303      0.0018564113   1.0164048      733.4737      -3.2553715      730.21833    
   2070000   300.37328      0.0018564113   0.75270185     745.2344      -2.0909724      743.14342    
   2071000   314.75924      0.0018564113   0.89759676     780.92636     -1.4903326      779.43603    
   2072000   294.34235      0.0018564113   1.3531445      730.27149      0.25343959     730.52493    
   2073000   290.76575      0.0018564113   0.1852775      721.39784     -1.0004239      720.39741    
   2074000   312.01088      0.0018564113   1.1664524      774.10758     -1.0460943      773.06149    
   2075000   297.2432       0.0018564113   1.9253528      737.46858     -1.1889862      736.27959    
   2076000   290.56475      0.0018564113   1.2007031      720.89917      0.41621122     721.31538    
   2077000   294.84711      0.0018564113   0.59206803     731.5238      -1.7765555      729.74725    
   2078000   315.42437      0.0018564113   0.9790665      782.57656     -1.1555768      781.42099    
   2079000   294.39836      0.0018564113   2.911757       730.41046     -1.1285464      729.28191    
   2080000   289.50892      0.0018564113   1.2166104      718.2796      -2.5504342      715.72917    
   2081000   292.34049      0.0018564113  -0.062472829    725.3048      -2.8336691      722.47113    
   2082000   298.37561      0.0018564113   1.0044193      740.2781      -2.5617093      737.71639    
   2083000   312.08417      0.0018564113   1.3546596      774.28943     -2.6236125      771.66581    
   2084000   297.11092      0.0018564113   3.0887213      737.14038     -1.5979627      735.54242    
   2085000   296.90923      0.0018564113   2.5762632      736.64        -3.532697       733.1073     
   2086000   298.53237      0.0018564113  -0.57704995     740.66704     -3.32497        737.34207    
   2087000   308.85216      0.0018564113   0.66524058     766.27072     -4.3277402      761.94298    
   2088000   297.51133      0.0018564113   2.7370906      738.13381     -3.025242       735.10857    
   2089000   297.82453      0.0018564113   1.0417329      738.91087     -1.7668353      737.14403    
   2090000   298.47723      0.0018564113   0.62158554     740.53024     -3.2614675      737.26877    
   2091000   301.96953      0.0018564113   0.45641603     749.19474     -3.8580605      745.33668    
   2092000   301.56992      0.0018564113   0.85532098     748.20329     -3.6600842      744.54321    
   2093000   311.13042      0.0018564113   1.9304845      771.92316     -2.6553516      769.26781    
   2094000   290.66785      0.0018564113   1.6566738      721.15495     -4.2617481      716.8932     
   2095000   296.48995      0.0018564113   0.24867096     735.59975     -4.6752883      730.92446    
   2096000   313.92734      0.0018564113   4.2334076      778.86239     -3.1290452      775.73335    
   2097000   293.34754      0.0018564113   1.6686206      727.80334     -5.1339533      722.66938    
   2098000   292.05202      0.0018564113   0.56432231     724.58911     -4.2676244      720.32149    
   2099000   307.50976      0.0018564113  -1.1986392      762.9402      -3.5857411      759.35446    
   2100000   308.02177      0.0018564113   1.4220688      764.21049     -4.2899776      759.92051    
   2101000   287.84141      0.0018564113   1.9122769      714.14246     -4.2675666      709.87489    
   2102000   291.7201       0.0018564113  -0.15283326     723.76562     -1.1327188      722.6329     
   2103000   311.77052      0.0018564113   1.2923293      773.51125     -4.1825648      769.32868    
   2104000   297.31916      0.0018564113   1.6230358      737.65703     -3.6650455      733.99198    
   2105000   277.75496      0.0018564113   0.023424219    689.1177      -4.0948695      685.02283    
   2106000   305.7079       0.0018564113   0.047248616    758.46974     -4.3957469      754.07399    
   2107000   304.83791      0.0018564113   1.0439399      756.31126     -4.6160768      751.69518    
   2108000   299.27748      0.0018564113   1.5578356      742.51569     -5.6733756      736.84231    
   2109000   287.11915      0.0018564113   0.95596912     712.35052     -3.8474725      708.50304    
   2110000   295.4178       0.0018564113   0.64530886     732.93971     -5.008054       727.93166    
   2111000   316.58838      0.0018564113   1.1113761      785.46449     -3.0386088      782.42588    
   2112000   285.35084      0.0018564113   1.4023207      707.96329     -3.4514673      704.51183    
   2113000   291.7851       0.0018564113   1.0783519      723.92688     -2.4155503      721.51133    
   2114000   312.44544      0.0018564113   1.0222456      775.18575     -2.3530991      772.83265    
   2115000   302.5597       0.0018564113   1.0726535      750.65896     -3.7596904      746.89927    
   2116000   297.47625      0.0018564113   0.67477637     738.04678     -2.8414667      735.20532    
   2117000   288.67474      0.0018564113   1.0136243      716.20999     -4.5087227      711.70126    
   2118000   307.68557      0.0018564113   1.0767641      763.37639     -3.6092822      759.7671     
   2119000   308.60508      0.0018564113   1.0717838      765.65771     -3.0473867      762.61032    
   2120000   284.46702      0.0018564113   0.99143414     705.77052     -1.5104814      704.26004    
   2121000   298.11639      0.0018564113   0.75226055     739.63498     -2.2596914      737.37528    
   2122000   317.09318      0.0018564113   1.6762995      786.71692     -1.9883194      784.7286     
   2123000   306.22841      0.0018564113   1.1159786      759.76113     -2.1704259      757.5907     
   2124000   296.15433      0.0018564113  -0.066367445    734.76705     -1.1008204      733.66623    
   2125000   299.24274      0.0018564113   0.8616098      742.42948     -2.9616734      739.46781    
   2126000   313.89595      0.0018564113   2.165459       778.78451     -3.7782624      775.00625    
   2127000   298.30822      0.0018564113   1.1000188      740.11092     -3.8821619      736.22876    
   2128000   300.72703      0.0018564113   0.61651181     746.11204     -3.6944254      742.41762    
   2129000   303.04926      0.0018564113   1.6875972      751.87357     -3.247747       748.62582    
   2130000   298.55227      0.0018564113   1.2195177      740.71641     -1.7057542      739.01066    
   2131000   288.59733      0.0018564113   0.57436879     716.01792     -1.938616       714.0793     
   2132000   287.23689      0.0018564113  -0.97114637     712.64264     -1.2397461      711.40289    
   2133000   315.90734      0.0018564113   1.0639512      783.77482     -1.6815529      782.09327    
   2134000   298.92894      0.0018564113   2.7388297      741.65093     -1.3194229      740.33151    
   2135000   287.13468      0.0018564113   0.55343839     712.38906      1.0122559      713.40132    
   2136000   311.81122      0.0018564113   1.2173112      773.61223     -1.9871247      771.62511    
   2137000   308.42772      0.0018564113   0.85972201     765.21766     -0.79390592     764.42376    
   2138000   299.08233      0.0018564113   2.5499774      742.0315      -0.53557358     741.49593    
   2139000   299.55011      0.0018564113  -0.78286611     743.19209     -0.42496506     742.76712    
   2140000   301.69549      0.0018564113   1.6677044      748.51482     -1.8916872      746.62313    
   2141000   288.81455      0.0018564113   2.5167746      716.55687     -2.4674439      714.08942    
   2142000   285.67646      0.0018564113  -1.0484252      708.77117     -2.3286865      706.44249    
   2143000   316.70819      0.0018564113  -1.0492049      785.76176     -2.2550814      783.50668    
   2144000   304.25527      0.0018564113   2.0964029      754.86572     -3.7826498      751.08307    
   2145000   296.50322      0.0018564113   1.2519201      735.63267     -2.9866326      732.64604    
   2146000   296.52198      0.0018564113   0.89474451     735.6792      -3.8815969      731.7976     
   2147000   324.47531      0.0018564113   0.16985347     805.03219     -3.7671514      801.26504    
   2148000   310.92297      0.0018564113   2.2519139      771.40845     -1.8274462      769.581      
   2149000   287.85356      0.0018564113   1.3301484      714.17261     -4.2572285      709.91538    
   2150000   306.2529       0.0018564113  -0.22834219     759.82189     -4.4862742      755.33561    
   2151000   327.97831      0.0018564113   1.1025205      813.72322     -3.7676178      809.9556     
   2152000   298.22121      0.0018564113   1.5471108      739.89504     -2.871609       737.02343    
   2153000   294.25352      0.0018564113   1.2849449      730.05109     -4.3244499      725.72664    
   2154000   295.96255      0.0018564113  -1.1005132      734.29125     -2.8240396      731.46721    
   2155000   306.64394      0.0018564113   1.216758       760.79207     -5.5773325      755.21474    
   2156000   295.44303      0.0018564113   2.8266778      733.0023      -5.4610304      727.54127    
   2157000   291.19334      0.0018564113   0.84828802     722.45871     -5.6549814      716.80373    
   2158000   304.52164      0.0018564113   0.24192005     755.52658     -4.1071146      751.41946    
   2159000   312.60149      0.0018564113   0.30421193     775.57292     -6.3427511      769.23017    
   2160000   296.70962      0.0018564113   1.6322869      736.14474     -5.4689115      730.67583    
   2161000   291.44223      0.0018564113  -0.072104737    723.07622     -5.5473558      717.52886    
   2162000   310.03236      0.0018564113   1.0020097      769.19884     -5.698325       763.50051    
   2163000   300.24167      0.0018564113   1.4804773      744.90785     -6.3284312      738.57942    
   2164000   287.04987      0.0018564113   1.0931503      712.17865     -4.6031961      707.57545    
   2165000   295.7385       0.0018564113  -0.12194837     733.73536     -3.5254243      730.20994    
   2166000   308.44014      0.0018564113  -0.09399242     765.2485      -4.0474074      761.20109    
   2167000   302.12417      0.0018564113   1.3112329      749.5784      -3.2397156      746.33869    
   2168000   298            0.0018564113   3.3394588      739.34622     -3.1112877      736.23493    
   2169000   295.33805      0.0018564113   0.49937451     732.74184     -3.239872       729.50197    
   2170000   305.41076      0.0018564113   0.72193314     757.73251     -2.1941113      755.5384     
   2171000   299.06733      0.0018564113   0.97637066     741.99429     -1.2467896      740.7475     
   2172000   297.94929      0.0018564113   0.9797738      739.22039     -0.97446515     738.24593    
   2173000   304.17504      0.0018564113   2.9491569      754.66666     -1.0000076      753.66665    
   2174000   307.54946      0.0018564113  -0.13109712     763.03868     -2.2591892      760.77949    
   2175000   312.73745      0.0018564113   1.0613949      775.91024     -0.65275289     775.25748    
   2176000   288.47489      0.0018564113   3.2459752      715.71415     -1.9460413      713.76811    
   2177000   298.67288      0.0018564113   0.1737735      741.01566     -3.0371923      737.97847    
   2178000   323.5279       0.0018564113   1.676398       802.68163     -1.5982082      801.08342    
   2179000   300.47099      0.0018564113   1.6631297      745.47681     -1.4045888      744.07222    
   2180000   286.76513      0.0018564113  -1.1741586      711.4722      -2.4320845      709.04012    
   2181000   293.69362      0.0018564113   1.0510306      728.66196     -2.7045687      725.9574     
   2182000   295.48988      0.0018564113   1.4958745      733.11853     -3.0073884      730.11114    
   2183000   299.67428      0.0018564113  -0.43528576     743.50015     -4.6256155      738.87453    
   2184000   309.97007      0.0018564113   1.8042314      769.04428     -2.2108986      766.83338    
   2185000   296.74998      0.0018564113   1.7642446      736.24488     -3.863278       732.3816     
   2186000   294.23735      0.0018564113   1.6937328      730.01097     -5.2196271      724.79134    
   2187000   308.72651      0.0018564113  -1.221315       765.95899     -3.4753198      762.48367    
   2188000   312.19054      0.0018564113   0.51956281     774.55335     -2.4872183      772.06613    
   2189000   303.86474      0.0018564113   2.611692       753.89679     -3.1465611      750.75023    
   2190000   294.78064      0.0018564113   1.0603033      731.35888     -3.4039807      727.9549     
   2191000   302.54132      0.0018564113  -0.25438798     750.61337     -3.9940647      746.6193     
   2192000   314.17108      0.0018564113   0.70482028     779.46711     -3.4420357      776.02508    
   2193000   295.04314      0.0018564113   2.7731206      732.01017     -4.5224752      727.48769    
   2194000   287.98165      0.0018564113  -0.248959       714.49041     -5.0223403      709.46807    
   2195000   319.9601       0.0018564113   2.0340384      793.82984     -3.9566653      789.87317    
   2196000   318.17978      0.0018564113   3.1224829      789.41282     -2.2411807      787.17164    
   2197000   297.84732      0.0018564113   3.7025228      738.96742     -2.801812       736.1656     
   2198000   290.1167       0.0018564113   1.493783       719.78753     -3.4034544      716.38407    
   2199000   286.20092      0.0018564113   0.54510592     710.07237     -3.7405302      706.33184    
   2200000   305.70639      0.0018564113   0.46339975     758.46598     -4.5940679      753.87191    
   2201000   310.82426      0.0018564113   1.4022961      771.16356     -6.178179       764.98538    
   2202000   289.98674      0.0018564113   1.2167619      719.46508     -2.8012103      716.66387    
   2203000   294.40643      0.0018564113  -0.24973023     730.43046     -4.1651395      726.26532    
   2204000   307.26275      0.0018564113   0.32906453     762.32734     -5.6781614      756.64918    
   2205000   300.95764      0.0018564113   2.922784       746.6842      -6.1720624      740.51214    
   2206000   294.42407      0.0018564113   2.0712507      730.47424     -7.2762361      723.198      
   2207000   303.69966      0.0018564113   1.0980633      753.48723     -3.6982692      749.78896    
   2208000   300.7835       0.0018564113   0.62959866     746.25217     -3.4285392      742.82363    
   2209000   306.12707      0.0018564113   1.97565        759.50971     -5.4586965      754.05101    
   2210000   299.7835       0.0018564113   1.2566235      743.77112     -6.1677798      737.60334    
   2211000   298.36103      0.0018564113   1.4890082      740.24193     -4.8378793      735.40405    
   2212000   290.67983      0.0018564113  -1.0475726      721.18467     -2.3142799      718.87039    
   2213000   302.64651      0.0018564113  -0.54534688     750.87432     -3.187272       747.68705    
   2214000   320.82893      0.0018564113   2.2836206      795.98542     -1.2325095      794.75291    
   2215000   290.40065      0.0018564113   1.9876145      720.49202     -0.65900133     719.83302    
   2216000   281.37532      0.0018564113  -0.29232802     698.09994     -3.5556698      694.54427    
   2217000   301.83608      0.0018564113   0.85735107     748.86364     -2.1187957      746.74484    
   2218000   298.51523      0.0018564113   1.9520058      740.62452     -2.5461339      738.07839    
   2219000   301.76528      0.0018564113   1.2068073      748.68797     -0.66488135     748.02309    
   2220000   306.55419      0.0018564113  -0.44526713     760.5694      -1.3611179      759.20828    
   2221000   300.60145      0.0018564113   1.0167422      745.80047     -2.3938901      743.40658    
   2222000   309.96373      0.0018564113   1.9652861      769.02855     -3.1265448      765.902      
   2223000   315.33346      0.0018564113   0.90061198     782.35101     -1.9160304      780.43498    
   2224000   306.16862      0.0018564113   0.56287469     759.61278     -2.8408682      756.77191    
   2225000   292.91588      0.0018564113   1.4484807      726.73238     -2.0207804      724.7116     
   2226000   291.14617      0.0018564113   2.4477183      722.34166     -2.5611348      719.78053    
   2227000   300.7214       0.0018564113   1.2209154      746.09809     -1.746684       744.3514     
   2228000   303.55646      0.0018564113  -0.93282679     753.13196     -2.4247773      750.70718    
   2229000   305.21629      0.0018564113   1.8643185      757.25004     -1.03249        756.21755    
   2230000   291.10727      0.0018564113   1.7319376      722.24515     -2.3305203      719.91463    
   2231000   297.38055      0.0018564113   1.0514521      737.80934     -2.3015523      735.50778    
   2232000   302.44578      0.0018564113   0.51324347     750.37633     -3.3210607      747.05527    
   2233000   312.41758      0.0018564113   0.51623874     775.11662     -3.9687981      771.14782    
   2234000   300.25099      0.0018564113   1.3496737      744.93098     -6.4777248      738.45325    
   2235000   296.83094      0.0018564113   1.0314541      736.44573     -6.2950544      730.15068    
   2236000   292.20999      0.0018564113   1.004595       724.98105     -5.0947904      719.88626    
   2237000   301.18348      0.0018564113   1.2444254      747.24451     -4.8297143      742.4148     
   2238000   318.06994      0.0018564113   1.1259642      789.14028     -5.6926423      783.44764    
   2239000   285.27453      0.0018564113   0.48946379     707.77396     -3.8348207      703.93914    
   2240000   288.04228      0.0018564113   1.6779709      714.64084     -2.1188332      712.52201    
   2241000   309.01155      0.0018564113   1.4729945      766.66618     -2.1618915      764.50429    
   2242000   300.77149      0.0018564113  -0.33111901     746.22235     -2.4275019      743.79485    
   2243000   296.15168      0.0018564113   1.183505       734.76049     -1.2973587      733.46313    
   2244000   307.25309      0.0018564113   2.7179777      762.30339     -2.5891673      759.71422    
   2245000   301.71342      0.0018564113   0.69530206     748.5593      -2.1847376      746.37456    
   2246000   299.61175      0.0018564113   1.0706449      743.34502     -3.2571854      740.08783    
   2247000   311.8068       0.0018564113   3.1298158      773.60127     -0.43030828     773.17096    
   2248000   301.09949      0.0018564113   0.21380839     747.03614     -2.1368788      744.89926    
   2249000   289.4916       0.0018564113  -0.70082918     718.23664     -1.3550688      716.88157    
   2250000   295.51145      0.0018564113   1.6455263      733.17205     -1.8758624      731.29619    
   2251000   292.45895      0.0018564113   2.985248       725.59872     -2.7992114      722.79951    
   2252000   311.57292      0.0018564113   1.7781626      773.021       -3.2434445      769.77755    
   2253000   297.99979      0.0018564113  -1.5817982      739.34569     -4.6065845      734.73911    
   2254000   296.26764      0.0018564113   1.4668968      735.04819     -2.1210302      732.92716    
   2255000   307.52006      0.0018564113   2.0246915      762.96574     -1.8871511      761.07859    
   2256000   313.74525      0.0018564113  -2.9783334      778.41062     -1.6270833      776.78354    
   2257000   299.32029      0.0018564113   0.54122305     742.6219      -3.229839       739.39206    
   2258000   290.59454      0.0018564113   3.9147512      720.97308     -3.7374129      717.23566    
   2259000   301.85277      0.0018564113   1.1781954      748.90505     -3.1544555      745.75059    
   2260000   291.74086      0.0018564113  -1.0503678      723.81712     -3.8536273      719.96349    
   2261000   297.11423      0.0018564113   1.4223122      737.1486      -3.258855       733.88974    
   2262000   322.02669      0.0018564113   2.2984289      798.9571      -3.0987274      795.85838    
   2263000   307.6902       0.0018564113  -0.94122642     763.38787     -0.62440423     762.76347    
   2264000   292.29361      0.0018564113  -1.55808        725.1885      -3.5167751      721.67172    
   2265000   291.87206      0.0018564113   0.28285548     724.14263     -2.6067682      721.53586    
   2266000   310.10297      0.0018564113   3.7020022      769.37401     -2.2050456      767.16897    
   2267000   295.74365      0.0018564113  -0.16305208     733.74814     -3.2280049      730.52013    
   2268000   287.59058      0.0018564113   0.33062845     713.52016     -2.2214519      711.29871    
   2269000   302.27507      0.0018564113   1.7765037      749.95279     -3.566593       746.38619    
   2270000   306.03405      0.0018564113   1.0505126      759.27891     -0.8636995      758.41521    
   2271000   299.05605      0.0018564113  -0.32704207     741.96631     -2.625593       739.34072    
   2272000   303.51429      0.0018564113  -0.62506262     753.02732     -1.6842036      751.34312    
   2273000   298.59914      0.0018564113   1.9401         740.83269     -0.54771068     740.28498    
   2274000   296.09373      0.0018564113   1.1115372      734.61672     -2.4628664      732.15385    
   2275000   304.51111      0.0018564113   0.34149271     755.50045     -3.2784258      752.22203    
   2276000   298.26592      0.0018564113   0.78410742     740.00596     -1.9597417      738.04622    
   2277000   296.46182      0.0018564113   2.405766       735.52994     -3.468433       732.06151    
   2278000   304.17611      0.0018564113   1.6591569      754.66931     -2.9452658      751.72404    
   2279000   301.45087      0.0018564113  -0.66041616     747.90792     -1.9130952      745.99482    
   2280000   300.6908       0.0018564113  -0.97718398     746.02217     -3.4481634      742.57401    
   2281000   302.37317      0.0018564113   2.319563       750.19616     -3.3034571      746.8927     
   2282000   302.51712      0.0018564113   1.4533351      750.55332     -2.2465551      748.30677    
   2283000   299.40144      0.0018564113  -0.39638826     742.82323     -2.8448237      739.9784     
   2284000   291.76017      0.0018564113   0.39545934     723.86502     -3.1076476      720.75737    
   2285000   302.80906      0.0018564113   1.4776455      751.27762     -4.3730968      746.90452    
   2286000   302.08098      0.0018564113   1.1567088      749.47125     -3.9113509      745.5599     
   2287000   293.38269      0.0018564113  -0.92722148     727.89054     -3.5802872      724.31025    
   2288000   292.25458      0.0018564113  -0.44259175     725.09166     -3.3966646      721.69499    
   2289000   305.67769      0.0018564113   3.0009126      758.39476     -2.5859504      755.80881    
   2290000   296.95248      0.0018564113   1.8792684      736.74729     -3.3253575      733.42194    
   2291000   295.29752      0.0018564113  -2.1011304      732.64128     -4.2941958      728.34708    
   2292000   306.63894      0.0018564113   5.1233433      760.77965     -3.9218659      756.85779    
   2293000   308.77413      0.0018564113   0.96657972     766.07712     -2.7743709      763.30275    
   2294000   290.9708       0.0018564113  -1.4177621      721.90658     -2.4905817      719.41599    
   2295000   286.7326       0.0018564113   1.0878737      711.39149     -3.0158816      708.37561    
   2296000   301.93763      0.0018564113   1.4846005      749.11559     -2.397792       746.71779    
   2297000   310.12674      0.0018564113   1.1020022      769.43299     -3.5944206      765.83857    
   2298000   295.903        0.0018564113  -1.041663       734.14349     -1.6938922      732.4496     
   2299000   294.16683      0.0018564113   0.99230522     729.83602     -3.7702558      726.06577    
   2300000   300.29532      0.0018564113   1.7020738      745.04096     -5.0293512      740.01161    
   2301000   305.41399      0.0018564113   0.50220763     757.74052     -4.5213822      753.21913    
   2302000   302.12807      0.0018564113   0.3119006      749.58808     -3.8825904      745.70549    
   2303000   286.02661      0.0018564113   2.2172167      709.63991     -3.7778029      705.86211    
   2304000   296.33531      0.0018564113   1.4681525      735.21608     -3.5173461      731.69874    
   2305000   312.28688      0.0018564113  -0.059184065    774.79235     -3.4432279      771.34912    
   2306000   298.65364      0.0018564113  -0.060841795    740.96791     -4.2801141      736.6878     
   2307000   288.49958      0.0018564113   1.0386469      715.77542     -5.8830857      709.89233    
   2308000   305.52274      0.0018564113   1.2495371      758.01033     -2.8407202      755.16961    
   2309000   309.8791       0.0018564113   0.96962078     768.81858     -2.4841427      766.33444    
   2310000   294.58866      0.0018564113   0.94783437     730.88258     -3.588075       727.29451    
   2311000   296.63653      0.0018564113   1.0228815      735.96341     -4.6582665      731.30514    
   2312000   308.71873      0.0018564113   1.1301619      765.93968     -4.853256       761.08643    
   2313000   303.18597      0.0018564113   1.7129054      752.21276     -5.0530034      747.15976    
   2314000   309.46372      0.0018564113   1.0199015      767.78801     -3.8329745      763.95504    
   2315000   302.51636      0.0018564113   0.62902853     750.55143     -5.121998       745.42943    
   2316000   300.86522      0.0018564113   0.30866161     746.45491     -4.1009473      742.35396    
   2317000   291.73567      0.0018564113   1.2199757      723.80425     -3.192587       720.61166    
   2318000   302.51159      0.0018564113   1.1379087      750.53959     -3.4214282      747.11816    
   2319000   296.84962      0.0018564113   0.4835407      736.49209     -3.9889241      732.50316    
   2320000   301.16987      0.0018564113   2.0514815      747.21076     -4.1147942      743.09596    
   2321000   290.78062      0.0018564113   1.845651       721.43473     -3.8854464      717.54928    
   2322000   304.96737      0.0018564113   1.7201226      756.63246     -3.3495069      753.28295    
   2323000   308.94558      0.0018564113   0.4356448      766.5025      -4.1484406      762.35406    
   2324000   301.19103      0.0018564113  -1.5575271      747.26326     -3.2653362      743.99792    
   2325000   286.35444      0.0018564113  -0.74096189     710.45326     -3.0419794      707.41128    
   2326000   298.10194      0.0018564113   1.0612395      739.59913     -6.2119877      733.38714    
   2327000   311.15258      0.0018564113   1.4272026      771.97813     -5.1783464      766.79978    
   2328000   311.171        0.0018564113  -0.64354715     772.02384     -4.3545148      767.66932    
   2329000   291.89254      0.0018564113   1.3532476      724.19344     -3.2144824      720.97896    
   2330000   296.34715      0.0018564113   1.3405862      735.24546     -2.3654681      732.87999    
   2331000   333.17574      0.0018564113   1.1061239      826.6182      -2.5606626      824.05754    
   2332000   296.70177      0.0018564113   0.78261867     736.12527     -3.0709545      733.05432    
   2333000   296.60107      0.0018564113   1.2355339      735.87543     -3.1477923      732.72764    
   2334000   304.22515      0.0018564113   1.0627156      754.79098     -1.6796964      753.11128    
   2335000   310.26928      0.0018564113   0.91351667     769.78664     -3.2791412      766.5075     
   2336000   293.38273      0.0018564113   1.0121243      727.89064     -3.5620852      724.32855    
   2337000   298.5391       0.0018564113   1.393501       740.68372     -4.1598655      736.52386    
   2338000   300.35125      0.0018564113   0.86768897     745.17974     -5.0741534      740.10559    
   2339000   281.5358       0.0018564113   1.3697845      698.49808     -5.0229822      693.4751     
   2340000   297.0852       0.0018564113   1.242864       737.07657     -1.9083103      735.16826    
   2341000   310.48976      0.0018564113   0.94929442     770.33365     -2.281581       768.05206    
   2342000   304.32792      0.0018564113   1.1753976      755.04596     -2.7178576      752.3281     
   2343000   288.724        0.0018564113   0.98534158     716.33221     -1.9452056      714.387      
   2344000   287.24747      0.0018564113   1.076077       712.66888     -2.5078966      710.16099    
   2345000   304.87415      0.0018564113   1.0590283      756.40116     -2.4620015      753.93916    
   2346000   309.20096      0.0018564113   1.0424351      767.13611     -2.9358763      764.20023    
   2347000   300.77838      0.0018564113   1.0175318      746.23944     -1.6671345      744.57231    
   2348000   297.63432      0.0018564113   0.75760676     738.43894     -4.6367843      733.80216    
   2349000   286.56382      0.0018564113   1.5268872      710.97273     -3.8251373      707.14759    
   2350000   307.55582      0.0018564113   1.108555       763.05447     -5.2931366      757.76133    
   2351000   302.3534       0.0018564113   0.6427069      750.14711     -4.0815976      746.06551    
   2352000   297.91191      0.0018564113   0.99896681     739.12765     -4.7495085      734.37814    
   2353000   303.94909      0.0018564113   1.3565027      754.10608     -5.3601549      748.74593    
   2354000   310.05732      0.0018564113   0.64077296     769.26076     -2.108717       767.15204    
   2355000   286.5933       0.0018564113   0.86857533     711.04587     -2.8106118      708.23526    
   2356000   289.86775      0.0018564113   1.3847259      719.16988     -3.3139569      715.85592    
   2357000   314.01516      0.0018564113   1.3967092      779.08026     -3.3642382      775.71602    
   2358000   306.66283      0.0018564113   0.7991538      760.83892     -2.9850733      757.85385    
   2359000   281.93875      0.0018564113   0.3047043      699.49782     -6.7877813      692.71004    
   2360000   296.57242      0.0018564113   0.45654671     735.80435     -4.6738941      731.13046    
   2361000   298.24391      0.0018564113   1.8914762      739.95136     -3.9827711      735.96858    
   2362000   310.22858      0.0018564113   1.4841929      769.68565     -4.4745775      765.21107    
   2363000   293.25954      0.0018564113   0.63440041     727.58501     -5.2974622      722.28755    
   2364000   301.47367      0.0018564113   1.1737687      747.96449     -4.0292016      743.93529    
   2365000   307.08223      0.0018564113   2.7742035      761.87947     -3.6185602      758.26091    
   2366000   306.35743      0.0018564113   1.0579546      760.08124     -3.451936       756.6293     
   2367000   293.98297      0.0018564113  -1.8129294      729.37985     -2.8448003      726.53505    
   2368000   306.13346      0.0018564113   2.0312548      759.52555     -2.2623429      757.26321    
   2369000   307.66891      0.0018564113   1.8270524      763.33504     -1.5397228      761.79532    
   2370000   299.37221      0.0018564113  -0.066274217    742.75071     -0.44015667     742.31055    
   2371000   296.25567      0.0018564113   1.2642762      735.01848     -1.6891239      733.32936    
   2372000   303.72533      0.0018564113   1.7886583      753.55093     -1.2997893      752.25114    
   2373000   302.09331      0.0018564113   0.91013751     749.50182     -1.1812242      748.3206     
   2374000   316.67457      0.0018564113   0.18516388     785.67833     -2.622632       783.05569    
   2375000   322.21529      0.0018564113  -3.1877486      799.42501     -2.067652       797.35736    
   2376000   300.94731      0.0018564113   1.0249385      746.65856     -2.942266       743.7163     
   2377000   287.17027      0.0018564113   1.3735678      712.47736     -3.2919923      709.18537    
   2378000   304.50055      0.0018564113   2.4531611      755.47426     -3.3977712      752.07649    
   2379000   316.90361      0.0018564113   1.1916145      786.2466      -3.2000476      783.04655    
   2380000   297.05963      0.0018564113   0.41890245     737.01313     -1.4343217      735.57881    
   2381000   285.66576      0.0018564113   2.5336979      708.74463     -3.6017784      705.14285    
   2382000   304.99087      0.0018564113   1.1892083      756.69076     -2.5927362      754.09802    
   2383000   306.21341      0.0018564113   0.30836827     759.72392     -4.7725305      754.95139    
   2384000   287.87946      0.0018564113  -0.013616933    714.23689     -2.9296024      711.30728    
   2385000   299.85673      0.0018564113   1.4950177      743.95282     -3.4544827      740.49834    
   2386000   314.24818      0.0018564113   0.25963896     779.65839     -2.2009656      777.45743    
   2387000   284.35358      0.0018564113   1.138586       705.48907     -2.6642616      702.82481    
   2388000   297.96909      0.0018564113   1.7069532      739.26953     -1.9800788      737.28946    
   2389000   301.69214      0.0018564113   0.45094366     748.50651     -1.1751864      747.33132    
   2390000   292.86189      0.0018564113   0.72503193     726.59843     -1.7956049      724.80283    
   2391000   296.11408      0.0018564113   1.3539125      734.6672      -1.5673772      733.09983    
   2392000   315.27822      0.0018564113   0.67152172     782.21394     -2.1389626      780.07498    
   2393000   301.04796      0.0018564113  -0.27302025     746.90829     -4.3335621      742.57473    
   2394000   308.38853      0.0018564113   1.390099       765.12045     -3.1183031      762.00215    
   2395000   311.10182      0.0018564113   2.1058745      771.85219     -2.25645        769.59574    
   2396000   300.35207      0.0018564113   1.47183        745.18176     -3.0925221      742.08924    
   2397000   289.42881      0.0018564113   0.38879684     718.08086     -3.0448957      715.03596    
   2398000   298.15254      0.0018564113   0.26682828     739.72467     -3.2980267      736.42664    
   2399000   301.4111       0.0018564113   0.21564888     747.80926     -2.6141211      745.19514    
   2400000   293.39112      0.0018564113   0.72499646     727.91147     -1.6541351      726.25733    
   2401000   287.58509      0.0018564113   1.3578725      713.50654     -2.1738571      711.33268    
   2402000   312.07863      0.0018564113   1.3536859      774.27567     -3.1690561      771.10662    
   2403000   308.01312      0.0018564113   0.63355741     764.18904     -3.5677986      760.62124    
   2404000   294.95846      0.0018564113   0.21287519     731.80008     -4.5439426      727.25614    
   2405000   293.75444      0.0018564113   0.76835569     728.81287     -2.8227454      725.99013    
   2406000   298.39665      0.0018564113   2.5496552      740.33032     -2.9928669      737.33745    
   2407000   310.24453      0.0018564113   1.0876808      769.72523     -2.7639503      766.96128    
   2408000   302.63829      0.0018564113   0.61567318     750.85395     -2.9595431      747.8944     
   2409000   293.17748      0.0018564113  -1.1617271      727.3814      -4.1062944      723.2751     
   2410000   290.55913      0.0018564113   1.3179406      720.8852      -2.2214122      718.66379    
   2411000   290.20071      0.0018564113   1.1725536      719.99596     -2.386192       717.60977    
   2412000   298.49469      0.0018564113   2.1773902      740.57355     -3.1227541      737.4508     
   2413000   300.26745      0.0018564113   1.1187078      744.97182     -0.66026945     744.31155    
   2414000   288.92929      0.0018564113   0.48983999     716.84152     -3.0590888      713.78243    
   2415000   292.23671      0.0018564113   0.55673496     725.04733     -2.9929743      722.05435    
   2416000   305.38342      0.0018564113   1.6913349      757.66469     -3.3630592      754.30163    
   2417000   296.88269      0.0018564113   0.39715942     736.57413     -2.5722182      734.00191    
   2418000   289.98056      0.0018564113   0.72296384     719.44977     -2.8749032      716.57487    
   2419000   317.6314       0.0018564113   1.7991686      788.05225     -3.6199042      784.43235    
   2420000   304.37607      0.0018564113   0.78168629     755.16542     -4.7476289      750.41779    
   2421000   284.73085      0.0018564113   1.0246452      706.42508     -3.4599387      702.96514    
   2422000   298.74422      0.0018564113   1.641966       741.19265     -4.7385279      736.45412    
   2423000   304.03424      0.0018564113   0.99599542     754.31732     -3.649752       750.66757    
   2424000   310.77614      0.0018564113   0.16406498     771.04417     -4.770757       766.27341    
   2425000   292.65201      0.0018564113   1.2732116      726.07769     -3.5509207      722.52677    
   2426000   292.35536      0.0018564113   1.1425662      725.34171     -3.4256999      721.91601    
   2427000   301.34721      0.0018564113   0.85718979     747.65073     -4.6814252      742.96931    
   2428000   302.67397      0.0018564113   0.75941715     750.94247     -4.149581       746.79289    
   2429000   288.06362      0.0018564113   1.1044099      714.69377     -3.8181306      710.87564    
   2430000   301.99496      0.0018564113   1.1791361      749.25782     -3.0782131      746.17961    
   2431000   319.947        0.0018564113   1.0640666      793.79732     -3.1474596      790.64986    
   2432000   302.38144      0.0018564113   0.96768399     750.21669     -5.5561079      744.66059    
   2433000   286.46025      0.0018564113   0.99780159     710.71578     -8.5355147      702.18027    
   2434000   298.01151      0.0018564113   1.1192197      739.37476     -3.8500245      735.52474    
   2435000   303.43779      0.0018564113   1.0239975      752.83752     -5.7858153      747.05171    
   2436000   304.09002      0.0018564113   0.84294587     754.45573     -4.9581631      749.49756    
   2437000   285.49196      0.0018564113   0.97468323     708.31343     -3.5898092      704.72362    
   2438000   296.06135      0.0018564113   0.89998312     734.53638     -3.9532199      730.58316    
   2439000   314.77778      0.0018564113   1.1956582      780.97234     -2.9104705      778.06187    
   2440000   300.59602      0.0018564113   1.3143051      745.78702     -4.4948357      741.29219    
   2441000   300.34668      0.0018564113   0.083039874    745.16839     -3.6703935      741.498      
   2442000   315.10671      0.0018564113   0.16753789     781.78843     -3.7054054      778.08302    
   2443000   293.8029       0.0018564113   1.5977852      728.9331      -4.3476918      724.5854     
   2444000   295.95406      0.0018564113   0.2263219      734.27018     -5.6814967      728.58868    
   2445000   306.47251      0.0018564113   0.91850921     760.36674     -5.5381494      754.82859    
   2446000   310.74678      0.0018564113   2.7863247      770.97133     -5.757962       765.21337    
   2447000   293.37447      0.0018564113   1.4699624      727.87015     -6.7586636      721.11149    
   2448000   294.78488      0.0018564113  -1.593342       731.36941     -6.303821       725.06558    
   2449000   307.98896      0.0018564113   0.80331192     764.12909     -4.7713516      759.35774    
   2450000   308.86045      0.0018564113   1.3139713      766.29128     -5.4720382      760.81924    
   2451000   299.23806      0.0018564113   1.4096436      742.41787     -5.8904815      736.52738    
   2452000   301.41525      0.0018564113   1.1295164      747.81954     -4.7123045      743.10723    
   2453000   287.83323      0.0018564113   0.94496489     714.12218     -4.7361605      709.38602    
   2454000   304.07963      0.0018564113   1.1405401      754.42993     -2.8865286      751.54341    
   2455000   308.22613      0.0018564113   0.97800583     764.71753     -4.0534505      760.66408    
   2456000   296.15838      0.0018564113   0.68608524     734.77712     -5.8650465      728.91207    
   2457000   276.67572      0.0018564113   1.026575       686.44008     -2.8889854      683.55109    
   2458000   305.7967       0.0018564113   1.2692715      758.69003     -4.383128       754.3069     
   2459000   307.46122      0.0018564113   0.65612538     762.81976     -4.1682887      758.65148    
   2460000   298.08895      0.0018564113   0.98723907     739.5669      -1.9268973      737.64       
   2461000   298.79929      0.0018564113   0.98279858     741.32927     -2.5109337      738.81834    
   2462000   317.0686       0.0018564113   1.1322593      786.65594     -3.4386225      783.21732    
   2463000   313.25131      0.0018564113   1.0348495      777.18513     -3.0148873      774.17024    
   2464000   300.81205      0.0018564113   3.6332901      746.323       -3.1583336      743.16466    
   2465000   274.74321      0.0018564113   0.53835942     681.64548     -2.7581473      678.88734    
   2466000   308.38186      0.0018564113   0.70975318     765.1039      -1.0669352      764.03696    
   2467000   303.45853      0.0018564113   1.765734       752.88897     -1.4576648      751.43131    
   2468000   287.4325       0.0018564113   0.84841134     713.12796     -3.77551        709.35245    
   2469000   293.5275       0.0018564113   0.64616653     728.24981     -2.5613726      725.68844    
   2470000   310.7271       0.0018564113   2.6938738      770.9225      -1.7721977      769.1503     
   2471000   303.89658      0.0018564113   1.0936674      753.97578     -1.0375256      752.93826    
   2472000   289.06289      0.0018564113   0.17901269     717.17299     -1.8407382      715.33225    
   2473000   308.93141      0.0018564113  -1.6856116      766.46735     -3.0096201      763.45773    
   2474000   309.24486      0.0018564113   1.5061634      767.24502     -3.3445524      763.90047    
   2475000   299.04765      0.0018564113   1.2518179      741.94546     -1.6295028      740.31595    
   2476000   290.3439       0.0018564113   0.042139875    720.35123     -1.2702152      719.08101    
   2477000   295.58294      0.0018564113   0.11233502     733.34943     -1.2822212      732.06721    
   2478000   319.23803      0.0018564113   0.67030316     792.03835     -4.3973776      787.64097    
   2479000   297.96611      0.0018564113   2.5070984      739.26213     -3.5967193      735.66541    
   2480000   293.81376      0.0018564113   0.96826508     728.96003     -2.0828483      726.87719    
   2481000   313.89883      0.0018564113   0.45632299     778.79165     -4.2029499      774.5887     
   2482000   303.88088      0.0018564113   3.6484848      753.93684     -2.3600075      751.57683    
   2483000   291.96155      0.0018564113   2.6834483      724.36467     -1.3173313      723.04733    
   2484000   290.91162      0.0018564113   0.15189753     721.75975     -1.0380126      720.72174    
   2485000   309.62137      0.0018564113  -1.8165687      768.17915     -2.181171       765.99798    
   2486000   306.66575      0.0018564113   2.4957869      760.84618     -1.0092678      759.83691    
   2487000   289.97163      0.0018564113   1.7244329      719.4276      -2.7438055      716.6838     
   2488000   304.3543       0.0018564113  -0.88529918     755.11142     -1.3201489      753.79127    
   2489000   315.35647      0.0018564113   2.1135004      782.4081      -3.1322662      779.27583    
   2490000   292.84843      0.0018564113   1.1825889      726.56504     -3.2862504      723.27879    
   2491000   297.68657      0.0018564113   0.25164189     738.56859     -2.274338       736.29426    
   2492000   309.5876       0.0018564113   1.0499754      768.09538     -2.8622721      765.2331     
   2493000   300.72928      0.0018564113   1.5675578      746.11764     -3.6388254      742.47882    
   2494000   293.55793      0.0018564113   1.4328916      728.32531     -2.5091498      725.81616    
   2495000   298.29971      0.0018564113   1.016612       740.08979     -2.5183649      737.57143    
   2496000   312.71246      0.0018564113   0.78006236     775.84823     -2.97305        772.87518    
   2497000   310.78082      0.0018564113   1.2148635      771.05579     -3.3938254      767.66196    
   2498000   301.39197      0.0018564113   1.3667871      747.76178     -3.2285231      744.53325    
   2499000   294.66361      0.0018564113   1.0631868      731.06853     -3.2520814      727.81645    
   2500000   297.05362      0.0018564113   1.0673999      736.99822     -2.557129       734.44109    
   2501000   303.47776      0.0018564113   0.90502055     752.93669     -4.0458255      748.89087    
   2502000   298.00581      0.0018564113   1.2714286      739.36063     -3.5940419      735.76659    
   2503000   297.90701      0.0018564113   1.2071903      739.11551     -2.5999025      736.51561    
   2504000   300.43979      0.0018564113   0.73452559     745.39939     -3.2896888      742.1097     
   2505000   289.46642      0.0018564113   0.84409202     718.17417     -3.0884318      715.08574    
   2506000   310.22902      0.0018564113   1.086254       769.68675     -1.7943617      767.89239    
   2507000   313.89914      0.0018564113   1.2209497      778.79241     -2.9511249      775.84128    
   2508000   298.02662      0.0018564113   1.0464595      739.41226     -3.3451849      736.06707    
   2509000   298.84598      0.0018564113   0.77317387     741.4451      -2.3379285      739.10717    
   2510000   312.07044      0.0018564113   0.97839699     774.25536     -4.8645868      769.39078    
   2511000   306.13654      0.0018564113   1.8311623      759.53319     -3.9522947      755.58089    
   2512000   288.04927      0.0018564113   1.1630337      714.65818     -3.6022933      711.05589    
   2513000   281.65172      0.0018564113   0.75074        698.78568     -1.9977532      696.78793    
   2514000   305.74457      0.0018564113   0.89830028     758.5607      -3.0657063      755.495      
   2515000   307.79751      0.0018564113   0.889291       763.65411     -2.0127352      761.64137    
   2516000   302.60211      0.0018564113   1.5056401      750.76417     -2.476927       748.28724    
   2517000   297.86365      0.0018564113   1.2463348      739.00792     -2.1970205      736.81089    
   2518000   289.61567      0.0018564113   0.12601236     718.54447     -3.9058874      714.63859    
   2519000   312.52246      0.0018564113   0.41601348     775.37685     -4.8808283      770.49602    
   2520000   305.02937      0.0018564113   0.85770308     756.78628     -2.0972325      754.68905    
   2521000   288.82715      0.0018564113   1.6533105      716.58811     -3.4116264      713.17648    
   2522000   302.56165      0.0018564113   0.80554306     750.6638      -3.355618       747.30818    
   2523000   304.08786      0.0018564113   0.48719688     754.45037     -3.0456971      751.40467    
   2524000   295.6147       0.0018564113   1.0982202      733.42822     -3.8689363      729.55928    
   2525000   302.80159      0.0018564113   1.4924596      751.2591      -3.5897535      747.66934    
   2526000   291.90913      0.0018564113   1.2056117      724.23459     -2.7001006      721.53449    
   2527000   298.31088      0.0018564113   0.83301945     740.11751     -3.6356344      736.48187    
   2528000   311.24986      0.0018564113   1.0665356      772.21948     -1.4821204      770.73736    
   2529000   293.58424      0.0018564113   1.4814005      728.39058     -2.0754383      726.31514    
   2530000   291.31714      0.0018564113   0.86362683     722.76586     -2.076951       720.68891    
   2531000   304.69011      0.0018564113   0.38755998     755.94456     -2.3820614      753.5625     
   2532000   305.11484      0.0018564113   1.270631       756.99832     -1.1380643      755.86026    
   2533000   289.96016      0.0018564113   1.2775896      719.39915     -1.9623607      717.43679    
   2534000   294.72412      0.0018564113   0.72424098     731.21866     -1.0548339      730.16382    
   2535000   301.34515      0.0018564113   0.040853943    747.64561     -2.2390391      745.40658    
   2536000   292.06605      0.0018564113   1.2311288      724.62392     -1.191104       723.43282    
   2537000   299.01907      0.0018564113   1.7283665      741.87456     -1.8552429      740.01932    
   2538000   301.58534      0.0018564113   0.1213543      748.24153     -1.7117057      746.52983    
   2539000   300.29916      0.0018564113  -0.33013332     745.05048     -0.28632546     744.76416    
   2540000   306.82417      0.0018564113   1.6965557      761.23922     -3.7868294      757.45239    
   2541000   288.22505      0.0018564113   3.1948276      715.09428     -2.9381778      712.15611    
   2542000   295.64207      0.0018564113   1.2702732      733.49612     -2.6990037      730.79711    
   2543000   307.91972      0.0018564113   0.23977405     763.95732     -2.3258735      761.63144    
   2544000   298.01071      0.0018564113   1.8370905      739.37279     -3.8756058      735.49719    
   2545000   291.98642      0.0018564113   1.4756899      724.42636     -2.2174347      722.20893    
   2546000   292.32894      0.0018564113   0.89717848     725.27616     -1.4488735      723.82729    
   2547000   300.48886      0.0018564113  -0.015865635    745.52114     -4.2066563      741.31448    
   2548000   311.88618      0.0018564113   0.85035071     773.79821     -2.52229        771.27592    
   2549000   296.30501      0.0018564113   1.4414413      735.14089     -2.8259584      732.31493    
   2550000   296.73606      0.0018564113   1.0119968      736.21034     -2.7982145      733.41212    
   2551000   300.33689      0.0018564113   1.1042352      745.14409     -3.1580109      741.98608    
   2552000   307.98019      0.0018564113   1.0470268      764.10733     -3.5682075      760.53912    
   2553000   316.92517      0.0018564113   1.2243045      786.30009     -2.8142252      783.48586    
   2554000   285.62079      0.0018564113   1.4895567      708.63305     -2.5796244      706.05343    
   2555000   295.24734      0.0018564113   0.8511717      732.5168      -1.3853395      731.13146    
   2556000   304.61005      0.0018564113  -0.24802768     755.74593     -3.5063142      752.23961    
   2557000   293.64078      0.0018564113   0.55809357     728.53087     -2.3107421      726.22013    
   2558000   296.82072      0.0018564113   2.4160597      736.42039     -2.0039201      734.41647    
   2559000   287.2155       0.0018564113   0.49232658     712.58958     -2.4964643      710.09311    
   2560000   303.30255      0.0018564113   0.93425462     752.50199     -4.4283681      748.07362    
   2561000   306.00992      0.0018564113   0.83123126     759.21905     -2.2871034      756.93195    
   2562000   305.81174      0.0018564113   1.2590045      758.72737     -3.7973787      754.92999    
   2563000   292.26866      0.0018564113   2.8141622      725.12661     -3.2703632      721.85625    
   2564000   286.89983      0.0018564113   1.4084601      711.80637     -1.8048665      710.00151    
   2565000   298.95353      0.0018564113  -0.25430051     741.71194     -3.1721699      738.53977    
   2566000   301.61746      0.0018564113  -0.74659008     748.32124     -3.5859936      744.73525    
   2567000   303.79078      0.0018564113  -0.13747513     753.71331     -2.8304253      750.88288    
   2568000   296.34731      0.0018564113   1.9944989      735.24583     -4.0525416      731.19329    
   2569000   301.05735      0.0018564113   1.5672632      746.93158     -4.9150855      742.01649    
   2570000   298.75341      0.0018564113  -1.274137       741.21544     -3.8805295      737.33492    
   2571000   307.79337      0.0018564113   0.69274514     763.64383     -2.2723183      761.37151    
   2572000   292.58949      0.0018564113   1.5665037      725.92259     -3.5001874      722.4224     
   2573000   300.44783      0.0018564113   1.0374734      745.41934     -1.5563969      743.86295    
   2574000   301.92867      0.0018564113   0.95191499     749.09334     -3.1576836      745.93566    
   2575000   286.50746      0.0018564113   0.77533108     710.83291     -2.0558912      708.77701    
   2576000   313.58532      0.0018564113   0.53520113     778.01383     -3.0572333      774.95659    
   2577000   306.45899      0.0018564113   1.8318172      760.33319     -1.2101147      759.12308    
   2578000   295.35378      0.0018564113   1.0070251      732.78087     -1.0929431      731.68793    
   2579000   296.7111       0.0018564113  -0.44344754     736.14841     -1.0279471      735.12046    
   2580000   307.87827      0.0018564113   1.3150028      763.85448     -2.8038916      761.05059    
   2581000   303.63478      0.0018564113   2.3645602      753.32626     -1.5276669      751.7986     
   2582000   282.89493      0.0018564113   0.11085849     701.87013     -1.595204       700.27492    
   2583000   304.37011      0.0018564113   0.66567592     755.15063     -1.6638427      753.48679    
   2584000   302.49033      0.0018564113   1.4834729      750.48685     -1.6311525      748.8557     
   2585000   297.40706      0.0018564113   1.1677747      737.87511     -3.3170389      734.55807    
   2586000   296.54257      0.0018564113   0.32751653     735.73028     -4.9753597      730.75492    
   2587000   310.18941      0.0018564113   0.63006426     769.58848     -2.0603439      767.52814    
   2588000   296.99758      0.0018564113   1.4548791      736.85918     -5.1840553      731.67512    
   2589000   298.47445      0.0018564113   2.1732632      740.52334     -4.1059035      736.41743    
   2590000   291.27939      0.0018564113   1.6600401      722.6722      -3.4091852      719.26301    
   2591000   278.90214      0.0018564113   1.2190166      691.96391     -4.3359365      687.62797    
   2592000   306.16469      0.0018564113   0.17322477     759.60303     -3.0012539      756.60178    
   2593000   316.84076      0.0018564113   0.019957908    786.09067     -3.6629897      782.42768    
   2594000   300.34017      0.0018564113   2.5373755      745.15223     -3.5015767      741.65066    
   2595000   301.77584      0.0018564113   3.7364804      748.71418     -4.2394397      744.47474    
   2596000   301.5417       0.0018564113   0.36415469     748.13327     -4.1182777      744.01499    
   2597000   309.25387      0.0018564113   1.1286984      767.26737     -3.7032966      763.56407    
   2598000   292.7511       0.0018564113   1.4199731      726.32354     -3.3162983      723.00724    
   2599000   291.88101      0.0018564113   1.5036737      724.16484     -3.1654695      720.99937    
   2600000   303.99431      0.0018564113   0.35793099     754.21827     -5.4341396      748.78413    
   2601000   301.66212      0.0018564113   0.47259293     748.43202     -3.5639088      744.86811    
   2602000   300.96671      0.0018564113   1.076268       746.70671     -1.4784181      745.22829    
   2603000   303.25759      0.0018564113   0.35104248     752.39044     -3.4922717      748.89817    
   2604000   309.15747      0.0018564113   0.87487238     767.02821     -3.9706871      763.05753    
   2605000   298.81011      0.0018564113   2.6813372      741.35613     -3.2948347      738.0613     
   2606000   292.8013       0.0018564113   0.61414968     726.4481      -0.83047704     725.61762    
   2607000   304.10134      0.0018564113   0.77864269     754.4838      -4.7891374      749.69466    
   2608000   314.72629      0.0018564113   1.3174549      780.8446      -1.9291377      778.91546    
   2609000   297.52714      0.0018564113   1.890893       738.17302     -1.8097078      736.36332    
   2610000   291.87163      0.0018564113   0.91846724     724.14155     -3.4534541      720.6881     
   2611000   309.78728      0.0018564113   0.65066119     768.59079     -2.4219643      766.16883    
   2612000   307.75494      0.0018564113   1.2064505      763.54848     -2.03552        761.51296    
   2613000   288.75601      0.0018564113   1.1111576      716.41163     -2.021143       714.39048    
   2614000   293.23467      0.0018564113   1.0804762      727.52329     -2.3890632      725.13423    
   2615000   299.15396      0.0018564113   0.58321256     742.20922     -1.2174025      740.99182    
   2616000   297.28094      0.0018564113   0.95754899     737.56221     -2.0077501      735.55446    
   2617000   309.34459      0.0018564113   0.99364166     767.49247     -2.3574162      765.13505    
   2618000   291.74756      0.0018564113   0.9659695      723.83375     -2.2367564      721.59699    
   2619000   295.52678      0.0018564113   0.98143247     733.2101      -1.4403495      731.76975    
   2620000   312.11632      0.0018564113   1.3287005      774.36919     -0.27059339     774.09859    
   2621000   306.7927       0.0018564113   0.96240754     761.16115     -0.45917774     760.70197    
   2622000   287.32645      0.0018564113   0.63735049     712.86484     -0.75563482     712.10921    
   2623000   304.11774      0.0018564113   1.0505011      754.52451     -2.0793691      752.44514    
   2624000   312.02626      0.0018564113   1.6196628      774.14576     -1.7114957      772.43426    
   2625000   297.39233      0.0018564113   1.0212659      737.83858     -0.88115148     736.95743    
   2626000   297.62422      0.0018564113   0.95061248     738.41389     -1.5219792      736.89191    
   2627000   296.89755      0.0018564113   0.9386999      736.61101     -0.70955774     735.90145    
   2628000   305.22764      0.0018564113   1.1456543      757.27818     -1.5634488      755.71473    
   2629000   296.44049      0.0018564113   0.59592943     735.47704     -1.0873171      734.38972    
   2630000   296.0658       0.0018564113   1.2015627      734.5474      -2.8568227      731.69058    
   2631000   308.66551      0.0018564113   1.3010156      765.80763     -5.2096059      760.59802    
   2632000   297.1514       0.0018564113   0.93831224     737.24082     -4.8919888      732.34883    
   2633000   291.61686      0.0018564113   0.18220511     723.50947     -3.7720829      719.73738    
   2634000   301.39767      0.0018564113   1.7434784      747.77593     -2.6135482      745.16238    
   2635000   306.54603      0.0018564113   1.2390309      760.54916     -3.0712159      757.47795    
   2636000   310.3787       0.0018564113   0.49267582     770.05811     -3.7474607      766.31065    
   2637000   293.54721      0.0018564113   0.36928707     728.29872     -3.225784       725.07293    
   2638000   264.19114      0.0018564113  -1.0077456      655.46549     -3.7816351      651.68386    
   2639000   296.47665      0.0018564113   0.61954507     735.56674     -3.5056008      732.06114    
   2640000   290.22174      0.0018564113   3.5124265      720.04814     -4.7588408      715.2893     
   2641000   302.51761      0.0018564113   2.0988047      750.55453     -1.8499394      748.70459    
   2642000   310.23071      0.0018564113  -0.67375251     769.69093     -0.34548776     769.34545    
   2643000   306.52415      0.0018564113   0.75782857     760.49486     -2.1557488      758.33912    
   2644000   291.60071      0.0018564113   2.34384        723.46939     -0.46235079     723.00704    
   2645000   309.01628      0.0018564113   1.7121484      766.6779      -2.7068265      763.97108    
   2646000   304.78706      0.0018564113  -0.81578349     756.18511     -2.0280372      754.15707    
   2647000   292.87061      0.0018564113   1.2029591      726.62005     -2.3970298      724.22302    
   2648000   290.52784      0.0018564113   2.9697842      720.80758     -2.0742773      718.73331    
   2649000   293.49593      0.0018564113   1.353561       728.17149     -1.3519491      726.81954    
   2650000   297.14666      0.0018564113   0.16866075     737.22905     -1.631616       735.59743    
   2651000   298.10203      0.0018564113  -0.72964622     739.59935     -3.0194828      736.57987    
   2652000   301.63582      0.0018564113   1.6333332      748.3668       0.90092206     749.26772    
   2653000   304.10313      0.0018564113   0.77907772     754.48825     -2.9038869      751.58437    
   2654000   301.63803      0.0018564113  -2.6953688      748.37228     -3.4033469      744.96893    
   2655000   297.4605       0.0018564113   0.67600104     738.0077      -2.5263091      735.48139    
   2656000   309.1559       0.0018564113   1.9153156      767.0243      -1.630728       765.39357    
   2657000   294.7181       0.0018564113  -1.43264        731.20373     -2.4893297      728.7144     
   2658000   296.17308      0.0018564113   2.0398468      734.81357     -3.6968471      731.11673    
   2659000   315.90782      0.0018564113   2.1753362      783.776       -5.3280874      778.44792    
   2660000   294.02479      0.0018564113  -0.01390796     729.4836      -2.8884247      726.59517    
   2661000   298.32916      0.0018564113   0.99347739     740.16287     -3.2890118      736.87386    
   2662000   312.34331      0.0018564113   1.5660478      774.93237     -2.6487853      772.28358    
   2663000   311.26659      0.0018564113   0.83803019     772.26099     -3.2730274      768.98797    
   2664000   278.68051      0.0018564113  -0.053201256    691.41404     -6.1032588      685.31078    
   2665000   294.35272      0.0018564113   1.9535033      730.29721     -3.2625212      727.03469    
   2666000   310.66247      0.0018564113   1.8639691      770.76214     -2.677183       768.08496    
   2667000   320.09713      0.0018564113   1.7956202      794.1698      -3.4689189      790.70088    
   2668000   293.13188      0.0018564113  -0.84195113     727.26828     -3.4734299      723.79485    
   2669000   291.69987      0.0018564113   2.62226        723.71542     -2.3975836      721.31784    
   2670000   311.62875      0.0018564113   0.65869314     773.15951     -3.4266467      769.73287    
   2671000   293.85262      0.0018564113  -1.6316674      729.05644     -3.1619896      725.89445    
   2672000   288.91159      0.0018564113   2.7294125      716.79762     -5.3888318      711.40879    
   2673000   297.68375      0.0018564113   3.3329661      738.5616      -3.0493142      735.51228    
   2674000   323.09335      0.0018564113   0.85243997     801.60352     -5.0388268      796.56469    
   2675000   296.73073      0.0018564113   0.14695577     736.19712     -4.3358826      731.86123    
   2676000   298.47294      0.0018564113   1.7186387      740.51959     -4.3227181      736.19688    
   2677000   290.64237      0.0018564113   1.9406319      721.09174     -3.2350035      717.85673    
   2678000   307.38623      0.0018564113   0.85836407     762.63372     -2.4512973      760.18242    
   2679000   291.30558      0.0018564113   0.15415877     722.73717     -4.2813124      718.45586    
   2680000   292.22917      0.0018564113   1.2719739      725.02864     -2.4841615      722.54448    
   2681000   293.76349      0.0018564113   1.6908314      728.83531     -3.1502084      725.6851     
   2682000   318.78558      0.0018564113   1.0438688      790.91581     -2.1376324      788.77818    
   2683000   295.9345       0.0018564113   0.86576784     734.22165     -4.0758654      730.14579    
   2684000   287.76433      0.0018564113   1.4632947      713.95123     -4.5009856      709.45024    
   2685000   313.68708      0.0018564113   2.5391908      778.2663      -2.5947554      775.67154    
   2686000   307.0751       0.0018564113   0.96369483     761.8618      -0.96992005     760.89188    
   2687000   296.99422      0.0018564113   0.56827638     736.85085     -2.244718       734.60613    
   2688000   288.17246      0.0018564113   0.75271838     714.96383     -2.2915087      712.67232    
   2689000   303.09358      0.0018564113   1.6740167      751.98353     -2.5747503      749.40878    
   2690000   313.86726      0.0018564113   0.92775489     778.71332     -3.4589115      775.2544     
   2691000   300.96549      0.0018564113   0.79558034     746.70369     -4.106878       742.59681    
   2692000   289.34409      0.0018564113   0.6903718      717.87067     -4.3325333      713.53814    
   2693000   288.03452      0.0018564113   1.2678838      714.62159     -5.9438559      708.67773    
   2694000   316.43365      0.0018564113   1.2816351      785.0806      -3.6656933      781.4149     
   2695000   314.63011      0.0018564113   0.81786433     780.60598     -3.3558595      777.25012    
   2696000   289.01723      0.0018564113   0.60662666     717.05971     -4.3325886      712.72712    
   2697000   293.73971      0.0018564113   1.1611185      728.77632     -3.1401996      725.63612    
   2698000   309.67505      0.0018564113   1.4070165      768.31233     -1.8498748      766.46245    
   2699000   317.34674      0.0018564113   0.388658       787.34601     -1.6371886      785.70882    
   2700000   288.21584      0.0018564113   0.57285052     715.07144     -0.82486568     714.24658    
   2701000   302.79378      0.0018564113   1.3004175      751.23971     -1.2701129      749.9696     
   2702000   311.94227      0.0018564113   0.79032006     773.93738     -1.1852868      772.75209    
   2703000   309.77816      0.0018564113  -0.0070588493   768.56816     -1.0227453      767.54542    
   2704000   298.80855      0.0018564113   1.0996278      741.35224     -1.2424712      740.10977    
   2705000   297.7741       0.0018564113   1.0813394      738.78575     -1.4484938      737.33725    
   2706000   303.7584       0.0018564113   1.0693897      753.63296     -2.0678216      751.56513    
   2707000   315.01693      0.0018564113   1.0981765      781.5657      -2.2583905      779.30731    
   2708000   298.95497      0.0018564113   1.073815       741.71552     -1.3508687      740.36466    
   2709000   292.85619      0.0018564113   0.50212981     726.58428     -1.9551896      724.62909    
   2710000   307.61871      0.0018564113   0.27739871     763.21049     -2.7578205      760.45267    
   2711000   311.62275      0.0018564113   1.2502896      773.14463     -1.5445579      771.60007    
   2712000   295.73371      0.0018564113   1.2162685      733.72349     -2.3382236      731.38526    
   2713000   281.84377      0.0018564113   0.92947402     699.26216     -2.352504       696.90965    
   2714000   304.98549      0.0018564113   0.81331848     756.67741     -2.7173225      753.96008    
   2715000   305.41696      0.0018564113   1.4298722      757.7479      -3.407064       754.34084    
   2716000   297.52532      0.0018564113   1.2836908      738.16852     -2.8848988      735.28362    
   2717000   306.73089      0.0018564113   0.88150033     761.0078      -2.9032114      758.10459    
   2718000   304.49499      0.0018564113  -0.61919211     755.46045     -2.7583958      752.70206    
   2719000   300.47542      0.0018564113   2.0044238      745.48779     -2.8213974      742.66639    
   2720000   295.68774      0.0018564113   2.3864548      733.60942     -1.4548156      732.15461    
   2721000   311.73694      0.0018564113   0.74811777     773.42795     -2.4928006      770.93514    
   2722000   309.14624      0.0018564113   0.35839095     767.00035     -3.3969874      763.60336    
   2723000   293.83152      0.0018564113   1.0255744      729.00409     -5.717437       723.28665    
   2724000   301.46308      0.0018564113   1.2196625      747.93821     -3.6458893      744.29232    
   2725000   298.82463      0.0018564113   1.0461799      741.39215     -3.4834823      737.90867    
   2726000   303.75039      0.0018564113   0.89787133     753.61308     -4.0528413      749.56024    
   2727000   294.78058      0.0018564113   1.545295       731.35875     -3.6577672      727.70098    
   2728000   301.11508      0.0018564113   1.3219008      747.07482     -1.7458935      745.32892    
   2729000   301.02695      0.0018564113   0.59401216     746.85615     -2.3119717      744.54418    
   2730000   292.87592      0.0018564113  -0.082201284    726.63322     -0.77472058     725.8585     
   2731000   296.39697      0.0018564113   1.2500731      735.36906     -2.1140826      733.25498    
   2732000   292.93163      0.0018564113   1.2216914      726.77144     -1.0449643      725.72647    
   2733000   305.78451      0.0018564113   0.63912597     758.6598      -1.8313942      756.8284     
   2734000   303.83516      0.0018564113   1.1126064      753.82341     -0.098538284    753.72487    
   2735000   300.74137      0.0018564113   1.9178392      746.14763     -2.925559       743.22207    
   2736000   292.54085      0.0018564113   1.1391151      725.80192     -2.395901       723.40602    
   2737000   302.98826      0.0018564113   0.45892425     751.72221     -3.8929639      747.82925    
   2738000   302.44659      0.0018564113   1.1598493      750.37833     -3.1187354      747.25959    
   2739000   295.9574       0.0018564113   1.1565846      734.27847     -3.1283373      731.15013    
   2740000   281.80505      0.0018564113   0.82838936     699.16611     -3.2789119      695.8872     
   2741000   305.37978      0.0018564113   0.79466308     757.65566     -4.6040826      753.05158    
   2742000   311.42568      0.0018564113   0.56428615     772.6557      -4.5618716      768.09383    
   2743000   294.5122       0.0018564113   1.3860394      730.69289     -4.5556896      726.1372     
   2744000   301.95237      0.0018564113  -0.033812784    749.15216     -6.0794108      743.07274    
   2745000   307.66563      0.0018564113   0.46083045     763.32692     -7.4152323      755.91169    
   2746000   302.10223      0.0018564113   1.6714451      749.52395     -5.8520662      743.67188    
   2747000   299.69262      0.0018564113   1.3238519      743.54566     -3.7614275      739.78423    
   2748000   292.62797      0.0018564113   0.89062904     726.01807     -4.6667134      721.35136    
   2749000   295.19479      0.0018564113   0.73912681     732.38641     -5.6074952      726.77891    
   2750000   303.41954      0.0018564113   1.3999443      752.79225     -3.1422353      749.65002    
   2751000   307.66927      0.0018564113   1.5703845      763.33594     -3.193067       760.14288    
   2752000   289.21053      0.0018564113   1.3919745      717.53929     -2.2178819      715.3214     
   2753000   286.38498      0.0018564113   0.81154975     710.52902     -3.9601448      706.56887    
   2754000   308.77794      0.0018564113   0.79158371     766.08657     -2.4450318      763.64154    
   2755000   304.14977      0.0018564113   1.0117588      754.60396     -3.1524177      751.45154    
   2756000   302.38128      0.0018564113   1.3836719      750.21628     -1.8815264      748.33476    
   2757000   296.63157      0.0018564113   1.8017041      735.95109     -2.3525953      733.5985     
   2758000   303.92357      0.0018564113  -1.1208555      754.04275     -2.4114344      751.63132    
   2759000   310.25569      0.0018564113   1.2787762      769.75293     -4.1610051      765.59192    
   2760000   289.86068      0.0018564113   1.1039839      719.15233     -3.3335733      715.81876    
   2761000   296.33564      0.0018564113   0.66668458     735.2169      -2.3604481      732.85645    
   2762000   314.33677      0.0018564113   1.1000331      779.87818     -4.4885173      775.38966    
   2763000   288.91282      0.0018564113   1.3196714      716.80068     -2.6696115      714.13107    
   2764000   290.77546      0.0018564113   0.97536363     721.42193     -4.9831298      716.4388     
   2765000   311.24133      0.0018564113   1.0003509      772.19833     -3.434556       768.76377    
   2766000   309.14396      0.0018564113   1.0643144      766.99469     -3.3752562      763.61943    
   2767000   296.69836      0.0018564113   1.0238879      736.1168      -3.3335443      732.78326    
   2768000   291.98715      0.0018564113   1.0159802      724.42816     -2.6220381      721.80612    
   2769000   309.70997      0.0018564113   1.1382486      768.39898     -3.1946905      765.20429    
   2770000   308.47164      0.0018564113   0.82775154     765.32665     -2.3174219      763.00922    
   2771000   302.20311      0.0018564113   1.5387041      749.77425     -4.5003731      745.27388    
   2772000   290.04655      0.0018564113   0.89962683     719.61348     -1.6146801      717.9988     
   2773000   295.55207      0.0018564113   0.98464657     733.27284     -2.9802648      730.29258    
   2774000   310.40063      0.0018564113   1.1125309      770.11253     -3.2006125      766.91192    
   2775000   291.15852      0.0018564113   1.6005721      722.37232     -2.9923588      719.37996    
   2776000   295.6027       0.0018564113   0.98990718     733.39844     -2.6560215      730.74242    
   2777000   317.04539      0.0018564113  -0.20498421     786.59836     -3.4912683      783.10709    
   2778000   303.34656      0.0018564113   1.4870124      752.61117     -2.8083191      749.80286    
   2779000   300.51919      0.0018564113   1.7406515      745.5964      -2.3780385      743.21836    
   2780000   301.07829      0.0018564113   1.9395981      746.98354     -2.6130315      744.37051    
   2781000   300.17553      0.0018564113   0.81195283     744.74376     -2.4033013      742.34046    
   2782000   292.05398      0.0018564113   0.17850637     724.59396     -2.2694177      722.32455    
   2783000   297.75933      0.0018564113   1.6432058      738.7491      -3.3808503      735.36825    
   2784000   297.83597      0.0018564113   0.77478267     738.93926     -4.1186276      734.82063    
   2785000   307.78487      0.0018564113   0.90024884     763.62276     -2.0048046      761.61795    
   2786000   306.6135       0.0018564113   0.98574035     760.71655     -2.0901554      758.62639    
   2787000   301.87727      0.0018564113   2.746167       748.96582     -2.4029562      746.56287    
   2788000   293.24013      0.0018564113   1.9211238      727.53684     -2.8631142      724.67373    
   2789000   288.46455      0.0018564113   0.48156501     715.68851     -3.047261       712.64125    
   2790000   301.6205       0.0018564113  -1.0184976      748.32877     -1.1522864      747.17648    
   2791000   301.03043      0.0018564113   1.1304876      746.86479     -1.6595852      745.2052     
   2792000   292.84071      0.0018564113   3.0263875      726.54587     -2.7113317      723.83454    
   2793000   289.46802      0.0018564113   0.067302558    718.17814     -4.7429464      713.43519    
   2794000   302.86503      0.0018564113  -1.1135756      751.4165      -5.7610805      745.65542    
   2795000   321.52675      0.0018564113   1.5256781      797.71673     -5.5035509      792.21318    
   2796000   306.74134      0.0018564113   1.5120838      761.03373     -4.292988       756.74074    
   2797000   295.29692      0.0018564113   1.2381805      732.63979     -3.1274092      729.51238    
   2798000   290.34104      0.0018564113   0.27086536     720.34413     -3.2387208      717.10541    
   2799000   308.52948      0.0018564113   1.0349841      765.47014     -3.6796975      761.79044    
   2800000   298.22446      0.0018564113   1.6516138      739.9031      -3.6444737      736.25862    
   2801000   285.61177      0.0018564113   2.3312791      708.61069     -3.8616298      704.74906    
   2802000   293.63361      0.0018564113   0.42583897     728.51307     -4.394092       724.11898    
   2803000   328.76786      0.0018564113   1.9490733      815.68211     -3.9888815      811.69323    
   2804000   300.41017      0.0018564113   1.4050359      745.32592     -4.3446176      740.9813     
   2805000   286.65521      0.0018564113   1.3513061      711.19947     -5.843805       705.35567    
   2806000   299.6559       0.0018564113   0.18772349     743.45454     -7.8794149      735.57512    
   2807000   298.7968       0.0018564113  -2.1546241      741.3231      -5.3808994      735.9422     
   2808000   298.30786      0.0018564113   0.5616728      740.11003     -4.4368533      735.67318    
   2809000   303.50733      0.0018564113   1.4488633      753.01005     -2.7057762      750.30428    
   2810000   300.94172      0.0018564113   0.82793082     746.64469     -4.9818169      741.66287    
   2811000   314.81984      0.0018564113   0.056098619    781.07669     -5.3450618      775.73163    
   2812000   305.15168      0.0018564113   1.7151687      757.08973     -5.6061502      751.48358    
   2813000   285.91584      0.0018564113   1.354641       709.36508     -3.9603014      705.40477    
   2814000   285.07044      0.0018564113   0.89453291     707.26762     -3.3423803      703.92524    
   2815000   310.2131       0.0018564113   0.63868035     769.64725     -3.6881161      765.95913    
   2816000   302.71161      0.0018564113   1.0328981      751.03585     -4.1178214      746.91803    
   2817000   292.80663      0.0018564113   0.97724616     726.46132     -4.4258286      722.03549    
   2818000   295.97226      0.0018564113   0.95679824     734.31533     -3.5271253      730.78821    
   2819000   307.8895       0.0018564113   1.7413911      763.88233     -2.882748       760.99958    
   2820000   295.30215      0.0018564113   2.275779       732.65278     -2.6840068      729.96878    
   2821000   306.43322      0.0018564113   1.4378642      760.26927     -2.1309229      758.13834    
   2822000   305.74771      0.0018564113   0.72428158     758.56849     -3.9083671      754.66013    
   2823000   297.82603      0.0018564113   0.40884325     738.9146      -3.4737363      735.44086    
   2824000   299.02354      0.0018564113   2.0800633      741.88565     -2.8224701      739.06318    
   2825000   305.65813      0.0018564113   0.18613454     758.34625     -2.1756947      756.17056    
   2826000   292.5842       0.0018564113   0.37015157     725.90948     -2.243173       723.6663     
   2827000   298.97272      0.0018564113   0.9597643      741.75956     -2.1290032      739.63056    
   2828000   306.29617      0.0018564113   2.5163972      759.92925     -2.5430828      757.38617    
   2829000   304.09263      0.0018564113   0.013531871    754.4622      -3.9085097      750.55369    
   2830000   299.15612      0.0018564113   0.26771595     742.21457     -3.4897404      738.72483    
   2831000   301.23999      0.0018564113   1.1471081      747.38472     -3.7902245      743.59449    
   2832000   305.93627      0.0018564113   2.5740033      759.03631     -4.5247319      754.51158    
   2833000   300.14971      0.0018564113  -0.54191517     744.67969     -4.2891488      740.39054    
   2834000   307.6275       0.0018564113   0.52600539     763.2323      -6.1998641      757.03244    
   2835000   301.94884      0.0018564113  -0.46252145     749.1434      -6.573976       742.56943    
   2836000   291.77548      0.0018564113   0.89919508     723.903       -4.6510326      719.25197    
   2837000   306.50193      0.0018564113   1.4528491      760.43974     -2.9577539      757.48199    
   2838000   303.24263      0.0018564113   0.23869507     752.35332     -2.5966225      749.7567     
   2839000   292.96176      0.0018564113   1.387256       726.84621     -0.44470569     726.40151    
   2840000   293.81178      0.0018564113   1.8267042      728.95512     -0.55998214     728.39514    
   2841000   306.49379      0.0018564113   1.6766201      760.41955     -1.9472993      758.47225    
   2842000   306.52815      0.0018564113  -0.71662707     760.50479     -1.7863138      758.71848    
   2843000   292.34401      0.0018564113   0.83427871     725.31354     -3.969946       721.34359    
   2844000   289.86006      0.0018564113   2.0697987      719.15081     -4.7065553      714.44426    
   2845000   305.84464      0.0018564113   0.71635588     758.80899     -4.4458102      754.36318    
   2846000   298.67718      0.0018564113   0.67973883     741.02633     -2.0305487      738.99578    
   2847000   295.89755      0.0018564113   1.1433004      734.12997     -3.963757       730.16621    
   2848000   296.43462      0.0018564113   2.1954841      735.46247     -2.0457051      733.41677    
   2849000   325.36278      0.0018564113   0.29339861     807.23403     -2.0668517      805.16718    
   2850000   296.69537      0.0018564113  -0.2788932      736.1094      -3.4556583      732.65374    
   2851000   283.90058      0.0018564113   0.32699412     704.36517     -3.5868222      700.77834    
   2852000   296.7515       0.0018564113   1.7907547      736.24865     -3.5910306      732.65762    
   2853000   309.50824      0.0018564113  -1.3893344      767.89848     -3.6083953      764.29009    
   2854000   303.76505      0.0018564113  -0.51355327     753.64947     -3.2946842      750.35479    
   2855000   299.46129      0.0018564113   2.0573292      742.97171     -4.3511755      738.62054    
   2856000   305.02001      0.0018564113   0.65522937     756.76306     -4.6731056      752.08996    
   2857000   290.48519      0.0018564113  -1.6813392      720.70178     -4.120367       716.58141    
   2858000   297.67983      0.0018564113   2.1971829      738.55186     -4.8503727      733.70149    
   2859000   303.39636      0.0018564113   1.5351127      752.73473     -3.7085624      749.02617    
   2860000   306.27673      0.0018564113   0.93972894     759.88101     -5.4644685      754.41654    
   2861000   305.61891      0.0018564113  -0.079622657    758.24895     -5.6793553      752.5696     
   2862000   298.64611      0.0018564113   2.104118       740.94924     -5.3923388      735.5569     
   2863000   297.81399      0.0018564113   1.8824551      738.88471     -4.3081036      734.57661    
   2864000   301.11615      0.0018564113   2.1383754      747.07746     -4.5797301      742.49773    
   2865000   305.01034      0.0018564113  -0.8424705      756.73906     -3.1644377      753.57462    
   2866000   302.773        0.0018564113  -0.40253813     751.18816     -3.7948444      747.39332    
   2867000   295.39466      0.0018564113   1.4387959      732.88229     -3.9082649      728.97403    
   2868000   300.40296      0.0018564113   2.2417118      745.30803     -5.5145503      739.79348    
   2869000   294.22464      0.0018564113  -0.030892945    729.97945     -2.2169558      727.76249    
   2870000   303.4092       0.0018564113   0.59663059     752.76659     -3.8206733      748.94592    
   2871000   305.73507      0.0018564113   4.3112422      758.53713     -3.1066499      755.43048    
   2872000   299.205        0.0018564113   0.29112596     742.33584     -2.3744551      739.96139    
   2873000   295.83852      0.0018564113   0.97304211     733.98353     -2.5054841      731.47804    
   2874000   302.98072      0.0018564113   4.1536811      751.70351     -1.6801311      750.02338    
   2875000   302.99187      0.0018564113   3.0851956      751.73118     -0.11489143     751.61628    
   2876000   301.55145      0.0018564113   1.520584       748.15745     -1.6041395      746.55331    
   2877000   309.2183       0.0018564113  -5.772586       767.17913     -1.0605467      766.11858    
   2878000   302.75524      0.0018564113   1.9467289      751.14409     -1.525171       749.61892    
   2879000   307.41377      0.0018564113   1.4682095      762.70204     -1.7431618      760.95888    
   2880000   305.56244      0.0018564113   0.46130976     758.10883     -1.4115805      756.69725    
   2881000   296.72976      0.0018564113   0.088024632    736.19472     -0.94774681     735.24697    
   2882000   291.29882      0.0018564113   2.6644321      722.72039     -0.70723855     722.01315    
   2883000   307.11148      0.0018564113  -1.596311       761.95206     -1.4714261      760.48063    
   2884000   296.99886      0.0018564113  -0.36872668     736.86237     -3.7504815      733.11189    
   2885000   289.69166      0.0018564113   3.3762316      718.73299     -2.3560488      716.37694    
   2886000   294.30636      0.0018564113   1.5786684      730.1822      -2.2466407      727.93556    
   2887000   302.26625      0.0018564113  -0.44824692     749.93091     -3.4480409      746.48287    
   2888000   297.58684      0.0018564113   0.67764932     738.32115     -4.4834038      733.83775    
   2889000   297.84578      0.0018564113   2.0369075      738.9636      -4.3755003      734.5881     
   2890000   299.66513      0.0018564113   2.5676558      743.47744     -3.752668       739.72477    
   2891000   294.78787      0.0018564113   0.073895688    731.37684     -4.4819962      726.89485    
   2892000   299.35796      0.0018564113   1.6271829      742.71535     -3.0912226      739.62413    
   2893000   315.45132      0.0018564113   1.7189778      782.64341     -3.3671849      779.27622    
   2894000   302.90249      0.0018564113   1.4490675      751.50942     -2.8750362      748.63439    
   2895000   300.70713      0.0018564113  -0.58855668     746.06268     -5.7481571      740.31452    
   2896000   299.70478      0.0018564113   1.193301       743.57583     -2.5151403      741.06069    
   2897000   305.57253      0.0018564113   1.9162086      758.13387     -4.1018652      754.03201    
   2898000   303.81099      0.0018564113  -0.10614831     753.76343     -4.3453459      749.41809    
   2899000   289.37844      0.0018564113   0.57305896     717.95588     -6.0588929      711.89699    
   2900000   297.34299      0.0018564113   1.2679325      737.71614     -5.2863594      732.42978    
   2901000   299.03338      0.0018564113   2.0082817      741.91006     -5.8315534      736.0785     
   2902000   302.47219      0.0018564113   1.6407879      750.44184     -6.0844624      744.35738    
   2903000   314.17039      0.0018564113  -0.71752642     779.46539     -4.2211752      775.24422    
   2904000   297.55035      0.0018564113   0.54135578     738.23063     -5.0967332      733.13389    
   2905000   295.14975      0.0018564113   0.75433022     732.27468     -3.4464869      728.82819    
   2906000   302.50708      0.0018564113   2.768354       750.5284      -1.7570813      748.77132    
   2907000   298.14829      0.0018564113   0.17731003     739.71412     -3.4929862      736.22113    
   2908000   278.94385      0.0018564113   1.4476065      692.06737     -3.1681409      688.89923    
   2909000   302.14757      0.0018564113   2.916012       749.63644     -3.7957693      745.84067    
   2910000   303.91867      0.0018564113   1.6668563      754.0306      -4.852468       749.17813    
   2911000   301.71817      0.0018564113   0.62808513     748.57109     -5.0993339      743.47175    
   2912000   304.81693      0.0018564113  -0.72661851     756.25922     -4.7378651      751.52135    
   2913000   307.83013      0.0018564113   1.1181814      763.73503     -5.4298565      758.30517    
   2914000   302.94635      0.0018564113   2.4066671      751.61824     -4.5747306      747.04351    
   2915000   298.11341      0.0018564113   1.7450153      739.6276      -4.7096119      734.91798    
   2916000   304.58178      0.0018564113  -1.2250364      755.67579     -2.693282       752.98251    
   2917000   298.40583      0.0018564113  -0.71725575     740.35309     -2.5395092      737.81359    
   2918000   285.63258      0.0018564113   3.3773418      708.66231     -4.279898       704.38242    
   2919000   303.65105      0.0018564113   0.75378462     753.36664     -5.1017878      748.26485    
   2920000   322.0584       0.0018564113  -0.56775009     799.03577     -7.5332472      791.50252    
   2921000   292.19094      0.0018564113   0.67764905     724.93379     -6.1531326      718.78066    
   2922000   290.75893      0.0018564113   2.5047244      721.38092     -6.3207017      715.06022    
   2923000   304.63251      0.0018564113   2.1851524      755.80166     -2.5889425      753.21272    
   2924000   317.85717      0.0018564113   1.2866751      788.61239     -4.2056706      784.40672    
   2925000   306.64184      0.0018564113   1.342564       760.78686     -3.124454       757.66241    
   2926000   299.21761      0.0018564113  -2.8461981      742.36714     -5.3388531      737.02829    
   2927000   284.36627      0.0018564113  -0.34451904     705.52055     -3.6499591      701.87059    
   2928000   298.16567      0.0018564113   1.6772255      739.75724     -3.5832564      736.17399    
   2929000   306.62067      0.0018564113   1.0422453      760.73433     -3.6473597      757.08697    
   2930000   296.61226      0.0018564113   3.1749005      735.90318     -4.6362638      731.26692    
   2931000   308.58013      0.0018564113  -1.0739447      765.59582     -2.8868952      762.70893    
   2932000   296.65329      0.0018564113   3.6783228      736.00499     -3.1966256      732.80837    
   2933000   296.08356      0.0018564113   7.114038       734.59147     -3.8042505      730.78722    
   2934000   301.30474      0.0018564113  -0.7444973      747.54536     -2.3681612      745.17719    
   2935000   300.1361       0.0018564113   0.79898971     744.64594     -3.5113318      741.13461    
   2936000   296.43419      0.0018564113   2.242195       735.46139     -2.04126        733.42013    
   2937000   304.41827      0.0018564113   1.3802875      755.27012     -4.1046242      751.16549    
   2938000   302.51312      0.0018564113  -0.095186947    750.54339     -3.2797139      747.26368    
   2939000   282.44735      0.0018564113   1.4687503      700.75965     -1.6346702      699.12498    
   2940000   306.23586      0.0018564113   1.9674384      759.77961     -2.6079464      757.17166    
   2941000   305.31551      0.0018564113   1.120193       757.49621     -3.2300955      754.26611    
   2942000   287.74458      0.0018564113  -0.96753783     713.90223     -2.4868672      711.41536    
   2943000   294.8135       0.0018564113   1.6246974      731.44041     -2.040685       729.39973    
   2944000   314.44792      0.0018564113   2.3005786      780.15397     -3.2582173      776.89575    
   2945000   306.97782      0.0018564113   1.068658       761.62042     -2.2402258      759.3802     
   2946000   290.51548      0.0018564113   0.43197475     720.77691     -3.0926033      717.68431    
   2947000   291.70661      0.0018564113  -0.83394118     723.73215     -2.1517349      721.58041    
   2948000   303.20514      0.0018564113   1.6201035      752.26031     -4.5167754      747.74353    
   2949000   313.79538      0.0018564113   2.0735389      778.53498     -2.6343365      775.90065    
   2950000   284.12186      0.0018564113   0.060882557    704.91416     -2.164508       702.74965    
   2951000   291.41756      0.0018564113   1.4119978      723.015       -5.3703233      717.64468    
   2952000   315.78811      0.0018564113   1.0733631      783.479       -3.7260697      779.75293    
   2953000   304.62767      0.0018564113   1.0511015      755.78966     -5.5641531      750.2255     
   2954000   299.65349      0.0018564113   0.98781886     743.44856     -3.563674       739.88489    
   2955000   295.37402      0.0018564113   0.77367678     732.83109     -4.4634585      728.36763    
   2956000   299.98289      0.0018564113   1.0952521      744.26582     -2.9639702      741.30185    
   2957000   308.76788      0.0018564113   1.2638434      766.06162     -2.5949454      763.46667    
   2958000   311.78883      0.0018564113  -0.35436276     773.55669     -1.9481019      771.60859    
   2959000   295.63623      0.0018564113   0.99190175     733.48164     -3.2144386      730.26721    
   2960000   296.58609      0.0018564113   1.0278469      735.83828     -1.6849852      734.15329    
   2961000   312.55081      0.0018564113   1.1191377      775.44717     -2.8118943      772.63528    
   2962000   298.35131      0.0018564113   1.0306296      740.21781     -3.2348923      736.98292    
   2963000   301.07233      0.0018564113   1.3586066      746.96876     -3.2557011      743.71306    
   2964000   297.2579       0.0018564113   0.78107291     737.50504     -2.8097388      734.6953     
   2965000   299.90506      0.0018564113   0.36393619     744.07271     -2.6188813      741.45383    
   2966000   300.10421      0.0018564113   1.1222267      744.56681     -3.3256023      741.2412     
   2967000   292.98747      0.0018564113   1.2771046      726.91        -3.3809957      723.529      
   2968000   304.79061      0.0018564113   1.0234418      756.19391     -5.746945       750.44696    
   2969000   299.63739      0.0018564113   0.97461805     743.40861     -3.9112139      739.4974     
   2970000   299.76119      0.0018564113   1.0039774      743.71577     -2.1612132      741.55456    
   2971000   301.53522      0.0018564113   1.0219883      748.11719     -3.3594459      744.75774    
   2972000   315.5576       0.0018564113   1.1081512      782.90711     -1.7398969      781.16721    
   2973000   302.72747      0.0018564113   0.95796612     751.0752      -2.5059668      748.56923    
   2974000   304.80087      0.0018564113   1.1324893      756.21936     -3.1791516      753.04021    
   2975000   303.77816      0.0018564113   1.1000874      753.68198     -2.4923663      751.18961    
   2976000   301.88965      0.0018564113   0.98503116     748.99655     -3.6259042      745.37065    
   2977000   300.09982      0.0018564113   1.1788078      744.55592     -3.1788316      741.37709    
   2978000   295.92351      0.0018564113   1.1446815      734.1944      -3.1300391      731.06436    
   2979000   306.75173      0.0018564113   1.2273095      761.05951     -4.3617267      756.69778    
   2980000   292.42887      0.0018564113   0.80016054     725.52409     -3.3556208      722.16847    
   2981000   292.23378      0.0018564113   0.90945872     725.04006     -0.78908496     724.25098    
   2982000   309.0404       0.0018564113   0.8504579      766.73774     -2.7067164      764.03102    
   2983000   313.53464      0.0018564113   1.8400177      777.88809     -4.74626        773.14183    
   2984000   287.45301      0.0018564113  -1.0580648      713.17885     -1.2596381      711.91921    
   2985000   299.54601      0.0018564113  -0.17593028     743.18191     -3.2524607      739.92945    
   2986000   303.20677      0.0018564113   2.0568045      752.26436     -3.7819758      748.48238    
   2987000   299.09358      0.0018564113   0.02423723     742.05942     -2.7185856      739.34083    
   2988000   302.79613      0.0018564113   0.20410238     751.24554     -2.9536083      748.29194    
   2989000   292.3465       0.0018564113   3.3287669      725.31972     -2.3600652      722.95965    
   2990000   294.74362      0.0018564113   0.81304664     731.26706     -2.1870791      729.07998    
   2991000   312.56627      0.0018564113   0.85875434     775.48554     -2.3821001      773.10344    
   2992000   309.96786      0.0018564113   1.5045517      769.0388      -3.1500503      765.88875    
   2993000   292.31321      0.0018564113   1.8558401      725.23712     -1.920332       723.31679    
   2994000   299.92823      0.0018564113  -1.1894386      744.1302      -1.5885765      742.54162    
   2995000   307.7468       0.0018564113  -1.8868412      763.5283      -2.0968153      761.43148    
   2996000   304.86093      0.0018564113   1.8776945      756.36838     -1.7057461      754.66263    
   2997000   292.42478      0.0018564113   2.2727485      725.51393     -1.5726913      723.94124    
   2998000   282.6828       0.0018564113  -3.4259629      701.34383     -1.95438        699.38945    
   2999000   314.56328      0.0018564113   0.7751475      780.44016     -2.3093839      778.13078    
   3000000   302.96473      0.0018564113   1.3996683      751.66385     -2.8946823      748.76917    
   3001000   290.00238      0.0018564113   1.5393884      719.50391     -3.6664254      715.83748    
   3002000   290.72737      0.0018564113   0.10226922     721.30262     -2.713911       718.58871    
   3003000   304.97559      0.0018564113  -1.2162263      756.65284     -3.2136419      753.4392     
   3004000   295.2779       0.0018564113   4.7519008      732.59262     -1.7662691      730.82635    
   3005000   293.39184      0.0018564113   2.3818339      727.91325     -4.0161991      723.89705    
   3006000   288.30699      0.0018564113  -1.5219548      715.2976      -3.9429227      711.35467    
   3007000   304.766        0.0018564113   0.87617754     756.13285     -4.0966597      752.03619    
   3008000   299.04256      0.0018564113   1.9830329      741.93282     -4.8393212      737.0935     
   3009000   291.76869      0.0018564113   0.37639959     723.88617     -3.8777263      720.00845    
   3010000   306.56222      0.0018564113  -0.55148414     760.58932     -3.7535203      756.8358     
   3011000   315.5666       0.0018564113   3.7189065      782.92942     -4.2514558      778.67797    
   3012000   296.37674      0.0018564113   3.6069761      735.31885     -3.1876882      732.13116    
   3013000   296.63636      0.0018564113   1.3424606      735.96299     -3.4108565      732.55214    
   3014000   304.54564      0.0018564113  -2.291801       755.58612     -4.2354031      751.35072    
   3015000   306.14468      0.0018564113   0.12382857     759.55338     -3.8981267      755.65525    
   3016000   296.74347      0.0018564113   1.9666794      736.22873     -4.8451726      731.38356    
   3017000   294.28948      0.0018564113   0.080721161    730.1403      -4.5225947      725.61771    
   3018000   308.88026      0.0018564113  -1.0758504      766.34044     -1.6724232      764.66802    
   3019000   306.60106      0.0018564113  -1.2637217      760.68568     -2.6421561      758.04352    
   3020000   299.62677      0.0018564113   1.8401889      743.38228     -2.0373727      741.34491    
   3021000   288.7377       0.0018564113   0.96277606     716.3662      -2.5556583      713.81054    
   3022000   302.13688      0.0018564113  -1.3350018      749.60993     -2.1956603      747.41427    
   3023000   300.16209      0.0018564113  -2.9861054      744.71041     -4.3141411      740.39627    
   3024000   306.26282      0.0018564113   1.8356321      759.8465      -2.5411277      757.30537    
   3025000   309.91704      0.0018564113   1.5193073      768.91271     -4.5865221      764.32619    
   3026000   305.1337       0.0018564113   3.3669134      757.04513     -3.5904672      753.45466    
   3027000   283.30495      0.0018564113  -0.64629373     702.8874      -4.7678704      698.11953    
   3028000   308.88068      0.0018564113  -0.81032636     766.34148     -3.2240025      763.11747    
   3029000   307.36266      0.0018564113   1.7887148      762.57523     -3.5669978      759.00824    
   3030000   292.50573      0.0018564113   1.9609851      725.71479     -3.2926648      722.42212    
   3031000   289.74374      0.0018564113  -1.7394761      718.86222     -3.3513084      715.51091    
   3032000   299.95607      0.0018564113  -0.743318       744.19928     -4.4855115      739.71377    
   3033000   318.30782      0.0018564113   1.5514457      789.73048     -4.4548309      785.27565    
   3034000   303.80676      0.0018564113   2.8219755      753.75296     -4.4712474      749.28171    
   3035000   294.6855       0.0018564113   2.2881796      731.12286     -2.7329893      728.38987    
   3036000   298.55588      0.0018564113  -1.7617479      740.72537     -3.6141531      737.11121    
   3037000   309.5549       0.0018564113   0.59450185     768.01425     -3.0989805      764.91527    
   3038000   297.19859      0.0018564113   4.5376472      737.3579      -2.0242118      735.33369    
   3039000   294.22889      0.0018564113   2.4284911      729.98999     -4.1702183      725.81977    
   3040000   300.00924      0.0018564113   0.37446232     744.33119     -2.4915188      741.83967    
   3041000   305.92208      0.0018564113  -2.117899       759.00113     -2.4670221      756.5341     
   3042000   311.29474      0.0018564113   2.0413327      772.33083     -3.3573221      768.97351    
   3043000   291.26486      0.0018564113   2.141861       722.63616     -2.9712875      719.66487    
   3044000   306.24873      0.0018564113  -1.535037       759.81154     -2.3148202      757.49672    
   3045000   310.6532       0.0018564113   1.2831863      770.73914     -2.8091954      767.92995    
   3046000   289.57083      0.0018564113   2.4942108      718.43322     -4.0480935      714.38513    
   3047000   292.05309      0.0018564113   0.44955413     724.59176     -2.9627518      721.62901    
   3048000   301.49675      0.0018564113  -0.57267858     748.02174     -3.0110221      745.01071    
   3049000   309.36811      0.0018564113   2.8816264      767.55082     -2.3897239      765.16109    
   3050000   292.13099      0.0018564113   1.8851023      724.78504     -3.2504201      721.53462    
   3051000   298.5708       0.0018564113   0.25776422     740.76238     -3.2711885      737.49119    
   3052000   318.70629      0.0018564113   0.77823417     790.71909     -2.6436122      788.07548    
   3053000   299.66144      0.0018564113   1.3149347      743.4683      -3.3959178      740.07238    
   3054000   292.05582      0.0018564113   1.3539214      724.59854     -2.369908       722.22863    
   3055000   283.18119      0.0018564113   0.76487422     702.58035     -3.6368886      698.94346    
   3056000   304.49087      0.0018564113   0.99492009     755.45023     -5.0918543      750.35838    
   3057000   305.41678      0.0018564113   1.6459141      757.74745     -4.7060896      753.04136    
   3058000   278.04055      0.0018564113   1.2006735      689.82626     -2.7496799      687.07658    
   3059000   295.35891      0.0018564113   0.70606578     732.79359     -5.6072271      727.18636    
   3060000   320.09238      0.0018564113   1.1052786      794.15803     -5.0193931      789.13864    
   3061000   298.03227      0.0018564113   1.101918       739.42628     -3.480326       735.94596    
   3062000   291.84662      0.0018564113   1.1031904      724.07951     -5.6634522      718.41606    
   3063000   293.15699      0.0018564113   1.0034806      727.33057     -5.44527        721.8853     
   3064000   300.36607      0.0018564113   1.0041114      745.21649     -6.5997729      738.61672    
   3065000   309.62426      0.0018564113   1.0987129      768.18632     -4.9707504      763.21557    
   3066000   295.19391      0.0018564113   0.89874946     732.38424     -5.9696045      726.41463    
   3067000   297.1377       0.0018564113   1.0550834      737.20683     -4.5958746      732.61095    
   3068000   302.48074      0.0018564113   1.1244543      750.46304     -4.3101343      746.15291    
   3069000   309.99951      0.0018564113   1.362443       769.11733     -4.8273174      764.29002    
   3070000   293.5436       0.0018564113   0.63452009     728.28976     -4.5205599      723.7692     
   3071000   293.6573       0.0018564113   1.6205268      728.57185     -5.6316243      722.94022    
   3072000   299.39783      0.0018564113   1.6830906      742.81428     -4.9584516      737.85582    
   3073000   303.81472      0.0018564113   0.89794679     753.77269     -2.3619656      751.41072    
   3074000   286.73296      0.0018564113  -0.01321542     711.39239     -4.3940429      706.99835    
   3075000   296.1558       0.0018564113   1.2998635      734.7707      -4.9391371      729.83157    
   3076000   314.50571      0.0018564113   1.9188565      780.29734     -4.9184409      775.3789     
   3077000   302.18364      0.0018564113  -0.48555784     749.72593     -3.7607985      745.96513    
   3078000   295.61953      0.0018564113   0.97672948     733.4402      -4.4506198      728.98958    
   3079000   306.75955      0.0018564113   4.5003466      761.0789      -5.8286913      755.25021    
   3080000   305.58466      0.0018564113   0.84937282     758.16396     -4.3136561      753.8503     
   3081000   295.7107       0.0018564113  -0.92282183     733.66639     -4.3518254      729.31456    
   3082000   284.80715      0.0018564113  -0.64944835     706.61439     -3.359846       703.25455    
   3083000   299.96889      0.0018564113   1.8055687      744.23108     -5.3850237      738.84606    
   3084000   298.64731      0.0018564113   2.0783816      740.9522      -4.1920278      736.76017    
   3085000   307.95632      0.0018564113   1.1511268      764.04811     -3.6748513      760.37326    
   3086000   295.53883      0.0018564113   0.30927651     733.23999     -3.8941697      729.34582    
   3087000   303.44651      0.0018564113   1.5368494      752.85914     -5.2813713      747.57777    
   3088000   308.27102      0.0018564113   0.6943157      764.82891     -5.4800901      759.34882    
   3089000   302.90194      0.0018564113  -0.80294358     751.50807     -5.5875283      745.92054    
   3090000   281.21943      0.0018564113   1.2783547      697.71316     -4.7146659      692.99849    
   3091000   305.60437      0.0018564113   2.1336899      758.21286     -6.2597136      751.95315    
   3092000   315.11526      0.0018564113   0.85234822     781.80965     -6.1254742      775.68418    
   3093000   304.45508      0.0018564113   0.45610908     755.36145     -6.7683099      748.59314    
   3094000   289.46746      0.0018564113   0.9147189      718.17674     -6.6613594      711.51538    
   3095000   288.45386      0.0018564113   1.3763485      715.66197     -3.5630194      712.09895    
   3096000   311.66405      0.0018564113   2.2092915      773.2471      -5.3683741      767.87872    
   3097000   300.52602      0.0018564113  -0.74615839     745.61335     -5.0482214      740.56513    
   3098000   295.67474      0.0018564113   1.1376839      733.57718     -4.4093851      729.16779    
   3099000   308.41611      0.0018564113   7.3486758      765.18887     -6.3419721      758.8469     
   3100000   303.49757      0.0018564113  -0.8232087      752.98584     -6.6981781      746.28766    
   3101000   291.48         0.0018564113   0.9853416      723.16991     -3.7109918      719.45892    
   3102000   308.57552      0.0018564113   3.9319143      765.58436     -2.8841714      762.70019    
   3103000   301.45077      0.0018564113   0.14215585     747.90768     -4.9027721      743.00491    
   3104000   304.54952      0.0018564113  -0.14392827     755.59574     -5.6695977      749.92614    
   3105000   289.64937      0.0018564113   3.3143537      718.62807     -4.0907127      714.53736    
   3106000   300.38294      0.0018564113   3.9337517      745.25836     -5.4528335      739.80553    
   3107000   312.89926      0.0018564113   1.9876021      776.31168     -4.7527233      771.55896    
   3108000   301.17519      0.0018564113  -2.2833301      747.22396     -5.07865        742.14531    
   3109000   291.89085      0.0018564113  -0.18428353     724.18925     -5.7299224      718.45932    
   3110000   304.89772      0.0018564113   0.51513121     756.45965     -4.2249063      752.23474    
   3111000   305.93962      0.0018564113   5.3759809      759.04462     -4.1312397      754.91338    
   3112000   310.8974       0.0018564113  -2.6304626      771.34501     -3.7006564      767.64435    
   3113000   292.77107      0.0018564113   0.37830193     726.37309     -4.3201353      722.05295    
   3114000   290.30632      0.0018564113   2.3805779      720.25799     -3.4340238      716.82397    
   3115000   304.48063      0.0018564113   0.731709       755.42484     -4.6349761      750.78987    
   3116000   299.81113      0.0018564113  -3.0276891      743.83968     -3.2340618      740.60561    
   3117000   293.16593      0.0018564113  -0.37950891     727.35277     -3.5530783      723.79969    
   3118000   295.28891      0.0018564113   1.5249618      732.61991     -3.8974764      728.72244    
   3119000   315.19765      0.0018564113   0.52148558     782.01405     -4.7863829      777.22767    
   3120000   302.51336      0.0018564113   0.17874742     750.54397     -3.8292224      746.71475    
   3121000   292.84231      0.0018564113   0.73149696     726.54984     -3.9176292      722.63221    
   3122000   298.34432      0.0018564113   0.64179202     740.20049     -4.925002       735.27549    
   3123000   309.95932      0.0018564113   2.7667054      769.01762     -3.6813755      765.33625    
   3124000   301.4579       0.0018564113  -1.1244699      747.92536     -3.3648837      744.56048    
   3125000   297.47334      0.0018564113   0.81332022     738.03957     -3.6620879      734.37748    
   3126000   300.63737      0.0018564113   3.0992931      745.88959     -2.1082577      743.78133    
   3127000   302.37751      0.0018564113   1.095693       750.20693     -3.6003348      746.6066     
   3128000   290.15899      0.0018564113  -0.45353619     719.89244     -3.8742961      716.01815    
   3129000   301.00147      0.0018564113   1.2705017      746.79294     -3.5196353      743.27331    
   3130000   308.06256      0.0018564113   3.7135471      764.3117      -3.8123699      760.49933    
   3131000   295.84954      0.0018564113   1.1292255      734.01088     -3.8426688      730.16821    
   3132000   296.74248      0.0018564113   0.60749399     736.22626     -5.5993563      730.62691    
   3133000   297.68319      0.0018564113  -1.2607079      738.56019     -5.6136584      732.94654    
   3134000   294.65129      0.0018564113   1.2270442      731.03798     -5.2534643      725.78452    
   3135000   295.73585      0.0018564113   2.1748029      733.72879     -4.095826       729.63296    
   3136000   299.70881      0.0018564113   1.1908857      743.58583     -3.9501153      739.63571    
   3137000   292.67644      0.0018564113   0.65607996     726.13831     -4.4768914      721.66142    
   3138000   290.3607       0.0018564113   1.0668193      720.39291     -4.5637677      715.82914    
   3139000   300.31822      0.0018564113   1.1551258      745.09777     -4.9968919      740.10088    
   3140000   305.8156       0.0018564113   1.1200221      758.73692     -5.7800356      752.95689    
   3141000   294.73836      0.0018564113   0.93688021     731.254       -4.5938814      726.66012    
   3142000   303.72214      0.0018564113   1.1548147      753.54301     -2.3396809      751.20333    
   3143000   311.97089      0.0018564113   1.0205491      774.00838     -3.4520405      770.55633    
   3144000   295.02429      0.0018564113   0.94319086     731.96341     -3.6843848      728.27902    
   3145000   279.3807       0.0018564113   1.1091325      693.15122     -3.0512667      690.09995    
   3146000   300.96783      0.0018564113   1.0813648      746.70948     -3.2561227      743.45336    
   3147000   302.93429      0.0018564113   0.72597118     751.58833     -3.4447851      748.14354    
   3148000   301.80445      0.0018564113   0.93104433     748.78516     -4.918058       743.8671     
   3149000   288.9007       0.0018564113   1.5815947      716.7706      -2.4726582      714.29794    
   3150000   292.23997      0.0018564113   1.2030239      725.05541     -3.9757141      721.0797     
   3151000   302.50374      0.0018564113   1.1308377      750.52011     -3.6532567      746.86685    
   3152000   306.13378      0.0018564113   0.99771242     759.52634     -3.9791128      755.54723    
   3153000   299.31975      0.0018564113   0.62494836     742.62056     -3.9727035      738.64786    
   3154000   285.82391      0.0018564113   1.5343931      709.13701     -5.2379541      703.89906    
   3155000   325.51183      0.0018564113   1.689916       807.60381     -2.1927788      805.41103    
   3156000   305.15694      0.0018564113   0.88069338     757.10278     -3.142737       753.96005    
   3157000   292.80558      0.0018564113   0.85335813     726.45872     -2.7689573      723.68976    
   3158000   295.76197      0.0018564113   1.0559975      733.79361     -4.0111056      729.7825     
   3159000   308.61442      0.0018564113   1.0431177      765.68088     -4.5202942      761.16058    
   3160000   311.6682       0.0018564113   1.2002606      773.25739     -4.1003178      769.15707    
   3161000   289.55522      0.0018564113   0.91795656     718.39448     -4.295653       714.09883    
   3162000   288.38574      0.0018564113   0.82310606     715.49296     -3.3357476      712.15721    
   3163000   302.35201      0.0018564113   0.84710579     750.14366     -4.2787795      745.86488    
   3164000   310.83922      0.0018564113   1.0933974      771.20068     -3.8286293      767.37206    
   3165000   306.96813      0.0018564113   1.1126477      761.5964      -2.4692292      759.12717    
   3166000   285.59046      0.0018564113   1.0468703      708.5578      -2.7882828      705.76952    
   3167000   284.86189      0.0018564113   0.6791652      706.75021     -1.2420762      705.50813    
   3168000   306.62576      0.0018564113   0.92456647     760.74696     -3.0294444      757.71752    
   3169000   302.42538      0.0018564113   1.060666       750.3257      -4.3943102      745.93139    
   3170000   295.6765       0.0018564113   1.6383501      733.58154     -5.9583309      727.62321    
   3171000   305.41873      0.0018564113   0.78179635     757.75228     -4.6558174      753.09646    
   3172000   319.56511      0.0018564113   1.2149524      792.84985     -3.9514827      788.89837    
   3173000   286.95259      0.0018564113   1.253583       711.93728     -4.7231404      707.21414    
   3174000   290.58454      0.0018564113   0.77528117     720.94825     -5.6848716      715.26338    
   3175000   303.0982       0.0018564113   0.62693945     751.995       -3.4280173      748.56698    
   3176000   315.24732      0.0018564113   1.1767534      782.13729     -3.5051807      778.6321     
   3177000   299.95354      0.0018564113   1.1562057      744.19299     -2.8457583      741.34723    
   3178000   299.55621      0.0018564113   0.97880784     743.20722     -2.3491609      740.85806    
   3179000   292.53425      0.0018564113   0.72411651     725.78554     -1.5033621      724.28218    
   3180000   305.92061      0.0018564113   0.86124325     758.99745     -2.0709059      756.92655    
   3181000   294.41121      0.0018564113   1.3247913      730.44233     -2.7374422      727.70489    
   3182000   306.65659      0.0018564113   0.98434592     760.82346     -2.4897276      758.33374    
   3183000   299.62574      0.0018564113   0.67875263     743.37972     -3.6703159      739.70941    
   3184000   303.66232      0.0018564113   1.1398375      753.39458     -3.0755143      750.31906    
   3185000   300.81757      0.0018564113   1.1411567      746.33667     -4.1071887      742.22948    
   3186000   297.56758      0.0018564113   0.95938065     738.27337     -3.8378809      734.43549    
   3187000   296.91853      0.0018564113   1.0010537      736.66305     -4.3843904      732.27866    
   3188000   294.53566      0.0018564113   0.99159298     730.75109     -5.7013989      725.04969    
   3189000   294.45992      0.0018564113   0.96729776     730.56317     -3.563579       726.99959    
   3190000   296.23193      0.0018564113   0.8258389      734.95959     -3.0193568      731.94023    
   3191000   294.41131      0.0018564113   0.89999905     730.44257     -3.6616685      726.78091    
   3192000   299.76316      0.0018564113   2.0270727      743.72066     -3.1050964      740.61557    
   3193000   301.80285      0.0018564113   0.90773469     748.78118     -2.4177084      746.36347    
   3194000   300.64091      0.0018564113   0.95084652     745.89838     -2.933035       742.96535    
   3195000   302.33071      0.0018564113   1.5446749      750.09083     -3.7330579      746.35777    
   3196000   307.47281      0.0018564113   1.6625         762.84852     -3.9106833      758.93784    
   3197000   293.56526      0.0018564113   0.80241454     728.3435      -4.11702        724.22648    
   3198000   295.63396      0.0018564113   0.68686539     733.476       -4.4035228      729.07248    
   3199000   305.24892      0.0018564113   0.50421027     757.33098     -5.8765148      751.45447    
   3200000   313.84049      0.0018564113   1.3504287      778.64691     -6.1562         772.49071    
   3201000   305.42978      0.0018564113   1.4787372      757.77971     -5.4721841      752.30752    
   3202000   295.51729      0.0018564113   0.9733573      733.18654     -5.4883665      727.69817    
   3203000   296.04183      0.0018564113   0.84210631     734.48793     -4.594691       729.89324    
   3204000   309.35351      0.0018564113   1.5039101      767.51458     -4.4968231      763.01776    
   3205000   301.07249      0.0018564113   1.1788888      746.96915     -3.8984159      743.07073    
   3206000   295.11966      0.0018564113   1.0037142      732.20002     -2.9184385      729.28158    
   3207000   282.72413      0.0018564113   0.86197426     701.44636     -5.0922693      696.35409    
   3208000   295.36826      0.0018564113   1.0573372      732.81679     -4.7009554      728.11584    
   3209000   305.21979      0.0018564113   0.99787142     757.25872     -4.6236785      752.63504    
   3210000   299.27769      0.0018564113   1.0095914      742.51619     -3.9490921      738.5671     
   3211000   308.85724      0.0018564113   1.5469037      766.28334     -4.0981502      762.18519    
   3212000   304.8304       0.0018564113   0.58070546     756.29262     -5.0821436      751.21047    
   3213000   298.54238      0.0018564113   1.0404491      740.69186     -3.9780059      736.71386    
   3214000   294.91658      0.0018564113   1.222781       731.69617     -5.633657       726.06251    
   3215000   312.8458       0.0018564113   1.1498248      776.17906     -3.8235525      772.3555     
   3216000   302.83995      0.0018564113   0.29281289     751.35428     -2.6257296      748.72855    
   3217000   287.51451      0.0018564113   0.35939927     713.33142     -3.9683313      709.36309    
   3218000   281.91267      0.0018564113   0.83156949     699.43311     -4.0392296      695.39389    
   3219000   308.60848      0.0018564113   1.1704333      765.66614     -5.4808863      760.18525    
   3220000   306.84433      0.0018564113   0.90415553     761.28924     -7.6026426      753.6866     
   3221000   293.91691      0.0018564113   0.68798076     729.21596     -7.8204315      721.39553    
   3222000   305.88104      0.0018564113   1.0753454      758.89929     -6.9861237      751.91317    
   3223000   313.51777      0.0018564113   1.0506166      777.84622     -5.2700498      772.57617    
   3224000   304.77939      0.0018564113   0.98453068     756.16608     -7.3059672      748.86011    
   3225000   299.51161      0.0018564113   1.0072757      743.09657     -4.2370187      738.85955    
   3226000   295.02931      0.0018564113   0.95353705     731.97586     -6.1182802      725.85758    
   3227000   309.03267      0.0018564113   1.0292362      766.71857     -6.1247719      760.5938     
   3228000   308.20915      0.0018564113   1.0138643      764.67539     -5.5789583      759.09643    
   3229000   284.3957       0.0018564113   0.53022666     705.59357     -6.9281034      698.66547    
   3230000   293.53094      0.0018564113   1.0807704      728.25835     -4.9311512      723.3272     
   3231000   310.0729       0.0018564113   0.67434286     769.29942     -4.1869433      765.11248    
   3232000   303.31804      0.0018564113   1.5826796      752.54042     -3.2608914      749.27953    
   3233000   281.31187      0.0018564113   0.85556578     697.94251     -2.8185221      695.12399    
   3234000   297.10512      0.0018564113   0.99529602     737.12599     -1.7433833      735.38261    
   3235000   306.87484      0.0018564113   0.79920885     761.36494     -3.3099269      758.05501    
   3236000   288.08236      0.0018564113   1.3452826      714.74028     -4.1469411      710.59334    
   3237000   307.11307      0.0018564113   0.96125588     761.95598     -2.7398301      759.21615    
   3238000   308.90282      0.0018564113   1.0337949      766.3964      -3.3719215      763.02448    
   3239000   309.92934      0.0018564113   1.8599601      768.94323     -4.2114693      764.73176    
   3240000   296.69493      0.0018564113   1.1909455      736.10829     -4.4571069      731.65119    
   3241000   285.75607      0.0018564113   0.73816269     708.96868     -4.1487206      704.81996    
   3242000   303.17778      0.0018564113   0.88976475     752.19243     -5.5473435      746.64508    
   3243000   313.03978      0.0018564113   1.0011845      776.66032     -3.576944       773.08338    
   3244000   295.29377      0.0018564113   1.4158066      732.63199     -3.4375954      729.19439    
   3245000   286.82401      0.0018564113   1.0109302      711.61829     -3.7482669      707.87002    
   3246000   296.32591      0.0018564113  -0.24919481     735.19275     -4.4683398      730.72441    
   3247000   315.11226      0.0018564113   1.5602723      781.80221     -4.5551907      777.24702    
   3248000   299.32417      0.0018564113   1.8183999      742.63152     -6.6708685      735.96065    
   3249000   298.00811      0.0018564113   0.35525361     739.36633     -5.0026514      734.36368    
   3250000   307.52963      0.0018564113   1.6046782      762.98949     -3.3236606      759.66583    
   3251000   291.3512       0.0018564113   1.2369795      722.85036     -3.6179591      719.2324     
   3252000   307.32037      0.0018564113  -0.10047371     762.4703      -3.2082984      759.262      
   3253000   313.8042       0.0018564113   1.5447196      778.55687     -4.4805128      774.07635    
   3254000   291.92502      0.0018564113   1.9565065      724.27402     -1.4785308      722.79549    
   3255000   280.97508      0.0018564113   1.6460587      697.10693     -2.8360809      694.27084    
   3256000   292.38049      0.0018564113  -0.90685808     725.40406     -3.1735902      722.23047    
   3257000   309.6921       0.0018564113   1.3555647      768.35463     -0.96519293     767.38943    
   3258000   295.76319      0.0018564113   1.2620584      733.79662     -3.9768399      729.81978    
   3259000   286.0884       0.0018564113   0.10418596     709.7932      -0.39630749     709.39689    
   3260000   301.8891       0.0018564113  -0.1265675      748.99518     -2.5825966      746.41259    
   3261000   312.00291      0.0018564113   1.8072667      774.08783     -2.1638662      771.92396    
   3262000   294.3108       0.0018564113   2.6844496      730.19321     -1.8799045      728.3133     
   3263000   286.0377       0.0018564113  -0.14958661     709.66741     -2.2949929      707.37242    
   3264000   281.78484      0.0018564113   0.39269845     699.11595     -1.4853479      697.6306     
   3265000   309.11888      0.0018564113   0.78497804     766.93247     -2.8267733      764.1057     
   3266000   298.91814      0.0018564113   2.45759        741.62415     -2.035169       739.58898    
   3267000   291.65606      0.0018564113   0.57989249     723.60672     -2.7216668      720.88506    
   3268000   303.23208      0.0018564113   0.61300592     752.32714     -2.9959556      749.33118    
   3269000   318.63039      0.0018564113   2.1596083      790.53079     -3.4871809      787.04361    
   3270000   296.88177      0.0018564113   1.5723622      736.57185     -4.4192161      732.15264    
   3271000   292.03349      0.0018564113   0.20753651     724.54315     -6.6356533      717.90749    
   3272000   306.80793      0.0018564113   0.70550231     761.19892     -5.4589478      755.73998    
   3273000   316.87272      0.0018564113   1.4163419      786.16995     -4.3522171      781.81773    
   3274000   293.58795      0.0018564113   1.2131835      728.3998      -5.7579385      722.64186    
   3275000   297.29865      0.0018564113   0.22226911     737.60615     -5.6771926      731.92895    
   3276000   316.04048      0.0018564113   1.0369254      784.10513     -4.7802981      779.32483    
   3277000   294.32352      0.0018564113   1.6030367      730.22477     -7.5587538      722.66602    
   3278000   308.97337      0.0018564113   0.18292915     766.57145     -6.18872        760.38273    
   3279000   308.78253      0.0018564113   1.5644179      766.09798     -4.0058987      762.09208    
   3280000   291.30302      0.0018564113   2.1635384      722.73083     -3.6877636      719.04306    
   3281000   304.04013      0.0018564113   0.70396905     754.33193     -4.7591327      749.5728     
   3282000   309.48944      0.0018564113   0.98386938     767.85183     -2.9941627      764.85767    
   3283000   300.92913      0.0018564113   1.1686948      746.61348     -5.4691837      741.14429    
   3284000   295.26671      0.0018564113   1.3751469      732.56485     -6.72735        725.8375     
   3285000   299.51078      0.0018564113   1.0563657      743.09449     -4.478991       738.6155     
   3286000   305.41         0.0018564113   0.99741525     757.73064     -3.85876        753.87188    
   3287000   313.03449      0.0018564113   1.100289       776.64719     -2.8175117      773.82968    
   3288000   296.39532      0.0018564113   1.3304006      735.36497     -2.7833276      732.58164    
   3289000   292.32754      0.0018564113   1.0951608      725.27267     -3.2225329      722.05014    
   3290000   296.0598       0.0018564113   0.95123856     734.53253     -4.05212        730.48041    
   3291000   316.27268      0.0018564113   1.0793149      784.68123     -4.313077       780.36815    
   3292000   308.33972      0.0018564113   1.080174       764.99935     -5.9768839      759.02246    
   3293000   299.6185       0.0018564113   1.3460529      743.36176     -3.5726497      739.78911    
   3294000   285.53478      0.0018564113   0.96744932     708.41967     -5.422579       702.99709    
   3295000   305.51658      0.0018564113   1.0137357      757.99507     -2.935467       755.0596     
   3296000   318.61427      0.0018564113   1.0867462      790.49078     -6.048465       784.44232    
   3297000   291.46967      0.0018564113   1.0046285      723.14428     -4.3212408      718.82304    
   3298000   298.48022      0.0018564113   0.8111491      740.53765     -4.0931652      736.44448    
   3299000   304.80032      0.0018564113   1.0756418      756.21801     -3.4888876      752.72912    
   3300000   312.71844      0.0018564113   0.72607842     775.86306     -4.9528897      770.91017    
   3301000   288.57538      0.0018564113   0.51079596     715.96347     -3.4130726      712.5504     
   3302000   296.11606      0.0018564113   1.8283551      734.67211     -2.3055641      732.36654    
   3303000   305.45752      0.0018564113   1.1526689      757.84852     -4.6619017      753.18662    
   3304000   298.76269      0.0018564113   1.0122869      741.23846     -3.1419478      738.09651    
   3305000   285.34013      0.0018564113   0.19825967     707.93672     -4.1178092      703.81891    
   3306000   303.891        0.0018564113   0.94404976     753.96195     -3.8291897      750.13276    
   3307000   292.14015      0.0018564113   1.5039989      724.80777     -3.7781451      721.02962    
   3308000   301.81762      0.0018564113   2.3264685      748.81783     -5.2490151      743.56882    
   3309000   314.56982      0.0018564113   1.3234881      780.4564      -4.1596242      776.29678    
   3310000   291.27054      0.0018564113   0.34701106     722.65024     -4.8789133      717.77133    
   3311000   295.4214       0.0018564113   1.0984037      732.94863     -4.1607403      728.78789    
   3312000   302.26422      0.0018564113   0.99909792     749.92586     -2.6290329      747.29683    
   3313000   308.10621      0.0018564113   1.3931338      764.42        -3.3463941      761.07361    
   3314000   300.17521      0.0018564113   0.90948521     744.74296     -3.0051549      741.73781    
   3315000   297.67896      0.0018564113   1.1396408      738.5497      -1.3324497      737.21725    
   3316000   297.67484      0.0018564113   0.71560064     738.53948     -3.3989707      735.14051    
   3317000   308.47895      0.0018564113   0.87364065     765.34477     -2.0551182      763.28965    
   3318000   296.00634      0.0018564113   1.8715301      734.39989     -2.5383456      731.86154    
   3319000   295.61404      0.0018564113   0.95164347     733.42659     -2.1623899      731.2642     
   3320000   310.6406       0.0018564113   0.49540691     770.70788     -1.9881555      768.71973    
   3321000   309.54669      0.0018564113   0.82614613     767.99387     -2.3268         765.66707    
   3322000   296.77532      0.0018564113   1.5820593      736.30775     -3.6072174      732.70054    
   3323000   292.50476      0.0018564113   1.0722844      725.71238     -3.2193312      722.49305    
   3324000   297.76265      0.0018564113  -0.42838016     738.75734     -3.5675613      735.18978    
   3325000   307.67265      0.0018564113   0.82358183     763.34434     -3.1023264      760.24201    
   3326000   297.25017      0.0018564113   1.7884465      737.48586     -4.3424777      733.14338    
   3327000   285.11048      0.0018564113   0.85562218     707.36695     -3.5519652      703.81499    
   3328000   302.2147       0.0018564113   0.2424076      749.80301     -3.1730701      746.62994    
   3329000   317.42058      0.0018564113   1.2709101      787.52922     -2.2669133      785.26231    
   3330000   295.32272      0.0018564113   1.0261176      732.7038      -3.2029341      729.50087    
   3331000   282.45238      0.0018564113   0.85402063     700.77213     -3.6825552      697.08958    
   3332000   297.85669      0.0018564113   1.2098573      738.99066     -3.4883309      735.50233    
   3333000   302.95683      0.0018564113   1.025723       751.64425     -3.5301309      748.11412    
   3334000   295.1783       0.0018564113   0.99039835     732.3455      -2.8008065      729.5447     
   3335000   302.88951      0.0018564113   1.2498493      751.47724     -2.172921       749.30431    
   3336000   301.13094      0.0018564113   1.0951273      747.11417     -2.3474015      744.76676    
   3337000   312.77171      0.0018564113   0.85681466     775.99524     -3.8930818      772.10216    
   3338000   300.88927      0.0018564113   0.942646       746.51458     -2.4660172      744.04856    
   3339000   297.77489      0.0018564113   1.0745357      738.7877      -3.7494147      735.03829    
   3340000   304.36845      0.0018564113   1.1189918      755.14652     -3.8926243      751.25389    
   3341000   291.06611      0.0018564113   0.91408936     722.14304     -3.6851532      718.45789    
   3342000   295.1377       0.0018564113   0.73858599     732.24478     -3.4616387      728.78314    
   3343000   309.12535      0.0018564113   1.0131769      766.94852     -2.7474816      764.20104    
   3344000   291.73715      0.0018564113   2.5087542      723.8079      -3.762335       720.04557    
   3345000   298.87973      0.0018564113   0.63928765     741.52884     -2.8792852      738.64955    
   3346000   303.3509       0.0018564113   0.49359992     752.62195     -3.5630554      749.05889    
   3347000   298.10951      0.0018564113   0.092097114    739.6179      -1.8540676      737.76383    
   3348000   292.11744      0.0018564113   2.4751891      724.75141     -3.4739375      721.27748    
   3349000   290.43311      0.0018564113   0.28516836     720.57254     -3.140422       717.43212    
   3350000   301.40968      0.0018564113   0.26438091     747.80573     -5.6137476      742.19199    
   3351000   309.76592      0.0018564113   2.0672259      768.53778     -4.3420222      764.19576    
   3352000   287.03816      0.0018564113   2.00767        712.14958     -3.8422197      708.30736    
   3353000   289.22124      0.0018564113   1.1519678      717.56586     -4.059168       713.50669    
   3354000   312.71012      0.0018564113  -0.37838313     775.84244     -4.9585293      770.88391    
   3355000   321.29042      0.0018564113   2.0028349      797.13039     -3.7400006      793.39039    
   3356000   301.16772      0.0018564113   2.6831604      747.20541     -5.1781604      742.02725    
   3357000   296.814        0.0018564113   1.0785676      736.40372     -4.8914933      731.51222    
   3358000   302.98554      0.0018564113   0.69102107     751.71546     -2.9449733      748.77049    
   3359000   302.98473      0.0018564113   0.95438323     751.71346     -3.0202543      748.6932     
   3360000   297.96995      0.0018564113   1.0815153      739.27166     -4.2287835      735.04288    
   3361000   296.63841      0.0018564113   1.6138609      735.96807     -4.5974589      731.37062    
   3362000   302.21653      0.0018564113   0.67461203     749.80754     -4.5572308      745.25031    
   3363000   298.70527      0.0018564113  -0.005401489    741.096       -4.1159283      736.98007    
   3364000   300.15435      0.0018564113   1.8868453      744.69121     -4.785154       739.90606    
   3365000   294.92849      0.0018564113   0.72069952     731.72571     -2.5743997      729.15131    
   3366000   315.55166      0.0018564113   0.23865381     782.89238     -2.3249814      780.5674     
   3367000   293.99459      0.0018564113   1.526537       729.40867     -2.4839096      726.92476    
   3368000   281.77508      0.0018564113  -0.12183851     699.09175     -3.8145066      695.27724    
   3369000   306.57864      0.0018564113   0.51645203     760.63005     -4.2177382      756.41231    
   3370000   314.9779       0.0018564113   1.0651058      781.46885     -3.7539267      777.71492    
   3371000   305.08418      0.0018564113   2.5013635      756.92227     -3.021375       753.9009     
   3372000   280.92361      0.0018564113   0.9711554      696.97922     -3.4353935      693.54383    
   3373000   301.46383      0.0018564113  -0.72767779     747.94008     -4.4492499      743.49083    
   3374000   304.62283      0.0018564113   3.4640461      755.77763     -3.9110198      751.86661    
   3375000   290.30081      0.0018564113   0.90212814     720.24432     -1.4644006      718.77992    
   3376000   298.64205      0.0018564113  -0.16329092     740.93915     -3.5409945      737.39816    
   3377000   320.24316      0.0018564113  -0.85762999     794.53212     -2.3846024      792.14752    
   3378000   303.94027      0.0018564113   1.7511811      754.08419     -3.2704892      750.8137     
   3379000   292.06089      0.0018564113   0.91962898     724.61112     -3.3047041      721.30641    
   3380000   303.65682      0.0018564113  -0.083880234    753.38093     -2.9725271      750.4084     
   3381000   310.18886      0.0018564113   1.2020542      769.58711     -3.3310067      766.25611    
   3382000   276.51241      0.0018564113   1.4224103      686.0349      -1.1654779      684.86943    
   3383000   289.09883      0.0018564113   1.1108055      717.26218     -2.297531       714.96464    
   3384000   309.06089      0.0018564113   0.71657927     766.78858     -2.0693864      764.7192     
   3385000   301.6506       0.0018564113   1.087218       748.40346     -2.8761888      745.52727    
   3386000   300.39869      0.0018564113   2.0689833      745.29743     -3.3675385      741.92989    
   3387000   312.71403      0.0018564113   0.79918495     775.85212     -0.7838973      775.06822    
   3388000   311.01721      0.0018564113  -0.68072306     771.64228     -0.63922108     771.00306    
   3389000   301.78466      0.0018564113   0.74252431     748.73606     -1.4869695      747.24909    
   3390000   298.78164      0.0018564113   2.4437528      741.2855      -1.3721924      739.9133     
   3391000   298.87026      0.0018564113   1.3387494      741.50535     -2.0510661      739.45429    
   3392000   297.21866      0.0018564113   0.028465216    737.40769     -1.9771151      735.43057    
   3393000   296.17807      0.0018564113   1.1622111      734.82594     -3.9779953      730.84795    
   3394000   295.51492      0.0018564113   1.2169683      733.18065     -5.8122555      727.3684     
   3395000   291.21012      0.0018564113   0.86630577     722.50034     -2.9932957      719.50704    
   3396000   280.20171      0.0018564113   0.74698411     695.18816     -6.7725486      688.41561    
   3397000   294.35424      0.0018564113   0.32244219     730.30098     -5.8813757      724.4196     
   3398000   310.6241       0.0018564113   0.46558055     770.66697     -4.1180614      766.54891    
   3399000   305.82047      0.0018564113   1.1071121      758.74901     -2.4002146      756.34879    
   3400000   293.94432      0.0018564113   1.1463296      729.28395     -3.2169397      726.06701    
   3401000   284.21753      0.0018564113   0.89293982     705.15152     -4.9515429      700.19998    
   3402000   311.65393      0.0018564113   0.94325968     773.222       -4.287266       768.93473    
   3403000   318.21901      0.0018564113   1.139246       789.51013     -3.5041952      786.00594    
   3404000   290.28973      0.0018564113   1.0339586      720.21682     -4.6911715      715.52565    
   3405000   296.13592      0.0018564113   1.034828       734.72139     -1.7496947      732.97169    
   3406000   307.83576      0.0018564113   1.0415375      763.749       -2.7784159      760.97059    
   3407000   318.48886      0.0018564113   0.95113733     790.17965     -2.3353201      787.84433    
   3408000   306.21508      0.0018564113   1.0403054      759.72805     -2.6735421      757.05451    
   3409000   294.47231      0.0018564113   1.0408716      730.59391     -4.3841994      726.20971    
   3410000   286.09197      0.0018564113   0.89811369     709.80208     -0.73921791     709.06286    
   3411000   307.36982      0.0018564113   0.13221667     762.59301     -1.5585379      761.03447    
   3412000   309.69112      0.0018564113   1.3397868      768.35222     -3.7001287      764.65209    
   3413000   301.40875      0.0018564113   1.4198182      747.80342     -5.1360757      742.66734    
   3414000   292.10086      0.0018564113   0.93508942     724.71029     -3.5220569      721.18823    
   3415000   322.22949      0.0018564113   0.97362322     799.46024     -3.8414898      795.61875    
   3416000   306.20612      0.0018564113   1.2761014      759.70582     -3.5822222      756.1236     
   3417000   298.27383      0.0018564113   1.0374794      740.0256      -3.1526159      736.87299    
   3418000   294.57431      0.0018564113   1.3562815      730.84697     -2.6640481      728.18293    
   3419000   295.92918      0.0018564113   0.94770151     734.20846     -1.7299276      732.47853    
   3420000   308.07625      0.0018564113   1.021321       764.34566     -3.4407397      760.90492    
   3421000   283.41093      0.0018564113   1.3155577      703.15032     -3.6964604      699.45386    
   3422000   298.69171      0.0018564113   0.82752632     741.06237     -3.6778211      737.38455    
   3423000   298.97303      0.0018564113   1.1413298      741.76033     -5.3269287      736.4334     
   3424000   301.61064      0.0018564113   1.0816984      748.30432     -4.2100372      744.09429    
   3425000   320.84971      0.0018564113   0.59681578     796.03698     -2.003251       794.03373    
   3426000   299.53866      0.0018564113   0.9993898      743.16366     -1.5164283      741.64723    
   3427000   289.2114       0.0018564113   1.059577       717.54145     -1.8770121      715.66443    
   3428000   306.0902       0.0018564113   1.4235439      759.41822     -2.7168226      756.7014     
   3429000   310.07079      0.0018564113   1.1058615      769.29417     -3.4348119      765.85936    
   3430000   297.42772      0.0018564113  -0.057215067    737.92636     -3.9440018      733.98236    
   3431000   295.1717       0.0018564113   1.0952899      732.32912     -2.0758219      730.2533     
   3432000   309.97097      0.0018564113   1.7746414      769.04651     -2.2477536      766.79876    
   3433000   300.4746       0.0018564113   0.75635693     745.48577     -2.0009668      743.4848     
   3434000   284.41848      0.0018564113   1.0294802      705.65008     -1.3429835      704.30709    
   3435000   303.68755      0.0018564113   1.215151       753.45717     -1.4357678      752.02141    
   3436000   301.48158      0.0018564113   1.009209       747.98412     -2.1004004      745.88372    
   3437000   283.42306      0.0018564113   0.59239799     703.18043     -0.098956077    703.08147    
   3438000   290.88532      0.0018564113   0.97637974     721.69449     -1.4469189      720.24757    
   3439000   306.4501       0.0018564113   1.0432798      760.31113     -0.71179228     759.59934    
   3440000   299.10231      0.0018564113   1.5347656      742.08108     -1.4225599      740.65852    
   3441000   298.86065      0.0018564113   1.1535444      741.4815      -2.2590544      739.22245    
   3442000   301.29089      0.0018564113   0.96770245     747.51101     -1.5995403      745.91147    
   3443000   299.25089      0.0018564113  -0.067142272    742.4497      -3.1398486      739.30985    
   3444000   292.67539      0.0018564113   0.80412771     726.1357      -3.7182258      722.41747    
   3445000   291.85732      0.0018564113   1.6690942      724.10606     -4.0243357      720.08172    
   3446000   306.69946      0.0018564113   1.0055311      760.9298      -3.5578999      757.3719     
   3447000   311.88118      0.0018564113  -0.079273597    773.78581     -3.3525562      770.43325    
   3448000   296.1599       0.0018564113   0.70874993     734.78087     -2.5488646      732.23201    
   3449000   292.55147      0.0018564113   1.526619       725.82825     -3.4087673      722.41948    
   3450000   314.6693       0.0018564113   1.3819559      780.70321     -4.1814185      776.52179    
   3451000   304.0684       0.0018564113   0.28195155     754.40207     -2.4888231      751.91325    
   3452000   285.69481      0.0018564113   0.72588441     708.8167      -3.318674       705.49803    
   3453000   297.3009       0.0018564113   1.0369539      737.61172     -1.6333899      735.97833    
   3454000   301.48736      0.0018564113   1.3797738      747.99845     -2.3704614      745.62799    
   3455000   301.60014      0.0018564113   1.2721879      748.27826     -2.2119943      746.06627    
   3456000   301.06364      0.0018564113   0.40945351     746.9472      -1.4348908      745.51231    
   3457000   292.93218      0.0018564113   0.91664797     726.77282     -1.7242179      725.04861    
   3458000   304.88075      0.0018564113   1.1576539      756.41755     -1.1660766      755.25148    
   3459000   296.02056      0.0018564113   0.67950616     734.43518     -2.4596941      731.97548    
   3460000   293.97489      0.0018564113   0.89096623     729.3598      -3.1454455      726.21435    
   3461000   294.84286      0.0018564113   1.793264       731.51326     -3.3028089      728.21045    
   3462000   306.12965      0.0018564113   1.0375232      759.51609     -2.7931982      756.72289    
   3463000   291.99002      0.0018564113   0.31871293     724.43528     -3.7504272      720.68486    
   3464000   298.30361      0.0018564113   0.96598482     740.09947     -1.88697        738.2125     
   3465000   300.94408      0.0018564113   1.5986042      746.65056     -2.7596582      743.8909     
   3466000   311.69613      0.0018564113   0.42856555     773.3267      -2.4557342      770.87097    
   3467000   289.39515      0.0018564113   0.59219214     717.99736     -3.7697575      714.2276     
   3468000   285.16948      0.0018564113   2.2316578      707.51334     -3.3052883      704.20806    
   3469000   305.35523      0.0018564113   1.8321215      757.59475     -2.8324536      754.7623     
   3470000   325.92773      0.0018564113   1.0636758      808.63569     -2.8391225      805.79657    
   3471000   300.14399      0.0018564113   0.36133483     744.66552     -3.8586566      740.80686    
   3472000   294.79286      0.0018564113   0.56617215     731.38921     -1.6059434      729.78327    
   3473000   301.43507      0.0018564113   2.07183        747.86872     -2.6749495      745.19377    
   3474000   305.09057      0.0018564113   1.8859383      756.93811     -2.7502071      754.18791    
   3475000   307.22544      0.0018564113   0.3547441      762.23478     -2.0504743      760.18431    
   3476000   300.37099      0.0018564113   0.10858395     745.22872     -0.94002102     744.28869    
   3477000   280.87687      0.0018564113   1.7384964      696.86326     -1.7038187      695.15945    
   3478000   303.9758       0.0018564113   2.7924629      754.17234     -1.9600387      752.21231    
   3479000   310.93534      0.0018564113   1.3680342      771.43915     -1.6157068      769.82344    
   3480000   298.25292      0.0018564113  -0.097021912    739.97372     -2.4669607      737.50676    
   3481000   286.01949      0.0018564113   1.4027492      709.62223     -1.2760434      708.34619    
   3482000   297.17208      0.0018564113   1.9300164      737.29213     -1.3675743      735.92456    
   3483000   315.20213      0.0018564113   0.075435464    782.02518     -0.89279027     781.13239    
   3484000   296.06772      0.0018564113   1.0128631      734.55218     -2.5288928      732.02329    
   3485000   290.39992      0.0018564113   3.413623       720.49021     -1.9053226      718.58489    
   3486000   312.57353      0.0018564113   0.27960656     775.50355     -1.9210903      773.58246    
   3487000   290.7894       0.0018564113  -0.49933131     721.45653     -2.809587       718.64694    
   3488000   296.43845      0.0018564113   2.3056545      735.47196     -3.5296995      731.94226    
   3489000   293.54773      0.0018564113  -1.0440292      728.30002     -2.6511582      725.64886    
   3490000   290.38043      0.0018564113   0.52324179     720.44186     -3.4355792      717.00628    
   3491000   305.98401      0.0018564113   1.8571523      759.15476     -3.4843785      755.67038    
   3492000   306.16265      0.0018564113   1.6557737      759.59798     -1.8303967      757.76758    
   3493000   286.73741      0.0018564113  -0.28966756     711.40341     -3.1009032      708.30251    
   3494000   296.98236      0.0018564113   0.4665432      736.82143     -2.6435835      734.17784    
   3495000   299.92303      0.0018564113   2.0310446      744.11731     -3.6917289      740.42558    
   3496000   300.06685      0.0018564113   1.3991384      744.47413     -3.4299891      741.04414    
   3497000   312.113        0.0018564113   1.3814914      774.36095     -4.5698279      769.79112    
   3498000   315.68908      0.0018564113  -0.64183971     783.2333      -5.2380451      777.99526    
   3499000   298.09345      0.0018564113   0.783918       739.57806     -4.0239487      735.55412    
   3500000   292.27251      0.0018564113   1.1909071      725.13614     -5.9250637      719.21108    
   3501000   299.16789      0.0018564113   1.4479054      742.24379     -5.1975308      737.04626    
   3502000   320.82155      0.0018564113   0.75781856     795.96711     -3.1307836      792.83633    
   3503000   310.77583      0.0018564113  -0.30148262     771.0434      -3.6354521      767.40794    
   3504000   295.36596      0.0018564113   0.19551322     732.8111      -4.2442597      728.56684    
   3505000   285.88915      0.0018564113   3.5299847      709.29887     -3.3896351      705.90923    
   3506000   305.42577      0.0018564113   2.487066       757.76975     -3.8865029      753.88325    
   3507000   306.41228      0.0018564113   0.71090233     760.21731     -3.5236961      756.69361    
   3508000   298.53326      0.0018564113  -0.38502421     740.66924     -2.6922583      737.97699    
   3509000   289.82433      0.0018564113   0.65996891     719.06216     -1.6011848      717.46097    
   3510000   277.87322      0.0018564113   1.4025069      689.41111     -2.8237535      686.58736    
   3511000   302.77056      0.0018564113   1.0916545      751.1821      -3.1875993      747.9945     
   3512000   313.58204      0.0018564113   1.1660469      778.00569     -1.3312886      776.6744     
   3513000   296.05944      0.0018564113   1.1162442      734.53164     -1.1438736      733.38776    
   3514000   295.48601      0.0018564113   0.99181588     733.10893     -1.5809099      731.52802    
   3515000   297.70552      0.0018564113   1.0254936      738.61561     -4.1433661      734.47225    
   3516000   329.34763      0.0018564113   1.2027487      817.12055     -3.0758026      814.04475    
   3517000   301.28203      0.0018564113   1.0315409      747.48903     -2.0834152      745.40562    
   3518000   295.34178      0.0018564113   1.0343645      732.7511      -1.7824734      730.96863    
   3519000   303.91635      0.0018564113   1.2295997      754.02485     -3.7767938      750.24805    
   3520000   304.16758      0.0018564113   1.1165189      754.64815     -3.5957776      751.05237    
   3521000   307.10357      0.0018564113   0.48230454     761.93243     -2.7636756      759.16875    
   3522000   298.4562       0.0018564113   1.0892027      740.47807     -1.4045196      739.07355    
   3523000   303.49179      0.0018564113   2.3495288      752.9715      -1.1662736      751.80522    
   3524000   301.60681      0.0018564113  -0.30881232     748.29481     -3.1653357      745.12947    
   3525000   313.71531      0.0018564113  -1.4216342      778.33632     -3.0772916      775.25903    
   3526000   296.99016      0.0018564113  -0.41595342     736.84077     -4.2738466      732.56693    
   3527000   294.16281      0.0018564113   0.71333204     729.82603     -5.7533772      724.07265    
   3528000   300.96536      0.0018564113   3.4241886      746.70335     -3.6331518      743.0702     
   3529000   306.69586      0.0018564113   1.6282449      760.92089     -3.4969249      757.42396    
   3530000   319.28135      0.0018564113  -0.7064965      792.14584     -3.3579304      788.78791    
   3531000   278.43104      0.0018564113   1.7399616      690.79508     -2.7313324      688.06375    
   3532000   306.10447      0.0018564113   2.6719835      759.45363     -2.924991       756.52864    
   3533000   305.06459      0.0018564113   0.002525234    756.87365     -2.012424       754.86123    
   3534000   301.3245       0.0018564113   0.62109838     747.5944      -3.6411276      743.95327    
   3535000   290.7558       0.0018564113   0.63057817     721.37316     -3.1758296      718.19733    
   3536000   296.2217       0.0018564113   2.7509216      734.93421     -2.0902012      732.84401    
   3537000   311.60777      0.0018564113   1.1197849      773.10746     -3.0064392      770.10102    
   3538000   300.80142      0.0018564113  -0.56875996     746.29662     -3.2874911      743.00912    
   3539000   302.67297      0.0018564113   1.3823879      750.93999     -3.5057609      747.43423    
   3540000   304.4798       0.0018564113   2.2229183      755.42277     -4.8434619      750.57931    
   3541000   286.16559      0.0018564113   0.91830091     709.98471     -2.936682       707.04803    
   3542000   290.1684       0.0018564113  -0.33816108     719.91581     -2.4604602      717.45535    
   3543000   307.75915      0.0018564113   2.3351213      763.55894     -1.006931       762.55201    
   3544000   309.88815      0.0018564113   0.99992876     768.84105     -2.5773926      766.26365    
   3545000   288.92939      0.0018564113   0.20767891     716.84177     -2.8798791      713.9619     
   3546000   288.28302      0.0018564113   2.5252167      715.23811     -1.9012519      713.33686    
   3547000   304.45593      0.0018564113   2.6110587      755.36355     -1.485884       753.87766    
   3548000   315.49392      0.0018564113   1.3091817      782.74911     -1.2112103      781.5379     
   3549000   290.87859      0.0018564113   0.28987719     721.67779      0.21790153     721.89569    
   3550000   289.92879      0.0018564113   0.62154143     719.32131     -1.954877       717.36644    
   3551000   304.21538      0.0018564113   3.1457856      754.76676     -2.88236        751.8844     
   3552000   319.93448      0.0018564113   1.1910673      793.76626     -3.957129       789.80913    
   3553000   302.51887      0.0018564113   0.32580863     750.55766     -1.1848386      749.37283    
   3554000   283.34732      0.0018564113  -0.49130241     702.99251     -2.2547828      700.73773    
   3555000   298.74589      0.0018564113   1.6806907      741.19679     -1.6365628      739.56023    
   3556000   313.75189      0.0018564113   1.2563875      778.42709     -1.7295931      776.69749    
   3557000   308.20174      0.0018564113  -0.30622027     764.65701     -0.69036989     763.96664    
   3558000   289.57937      0.0018564113   0.51673014     718.45441     -2.0164639      716.43794    
   3559000   285.09571      0.0018564113   0.98758336     707.33031     -2.0340989      705.29621    
   3560000   303.58973      0.0018564113   1.2202864      753.21449     -1.8644346      751.35005    
   3561000   303.10232      0.0018564113   1.1203091      752.0052      -2.0289187      749.97628    
   3562000   301.04549      0.0018564113   1.5281615      746.90215     -3.1788148      743.72333    
   3563000   289.08901      0.0018564113   1.0139864      717.23781     -2.1896756      715.04814    
   3564000   300.98474      0.0018564113   1.189972       746.75144     -2.8171986      743.93425    
   3565000   314.07878      0.0018564113   0.93729693     779.23811     -3.6588365      775.57927    
   3566000   294.4757       0.0018564113   1.2116982      730.60232     -3.8302166      726.7721     
   3567000   296.3348       0.0018564113   0.98788749     735.2148      -5.2859225      729.92888    
   3568000   323.02588      0.0018564113   0.85505793     801.43612     -8.6761987      792.75992    
   3569000   301.63907      0.0018564113   1.2606679      748.37485     -5.9076478      742.4672     
   3570000   287.93722      0.0018564113   1.1218661      714.38019     -4.3012477      710.07894    
   3571000   297.14264      0.0018564113   0.94373799     737.21908     -2.9719807      734.2471     
   3572000   322.25798      0.0018564113   0.78709779     799.53093     -1.3880456      798.14289    
   3573000   297.00415      0.0018564113   1.3129987      736.87548     -2.6720198      734.20346    
   3574000   282.17702      0.0018564113   0.4901777      700.08897     -1.2860348      698.80294    
   3575000   312.90866      0.0018564113   0.99935424     776.335       -2.8583031      773.4767     
   3576000   299.65135      0.0018564113   1.4541206      743.44325     -2.6532954      740.78995    
   3577000   290.82273      0.0018564113   0.050229148    721.5392      -2.5798016      718.9594     
   3578000   311.35336      0.0018564113   1.1576399      772.47626     -3.4294758      769.04679    
   3579000   311.50763      0.0018564113   2.5170853      772.85901     -3.9751126      768.8839     
   3580000   295.15975      0.0018564113   2.2382032      732.29948     -3.702159       728.59732    
   3581000   289.06871      0.0018564113   1.1343868      717.18744     -4.1003082      713.08713    
   3582000   297.42007      0.0018564113   0.36512833     737.9074      -2.5730862      735.33431    
   3583000   311.93886      0.0018564113  -0.031705917    773.9289      -3.9375862      769.99131    
   3584000   318.69339      0.0018564113   2.904421       790.68709     -3.1989457      787.48815    
   3585000   282.00482      0.0018564113   2.9236061      699.66174     -4.058886       695.60285    
   3586000   286.45244      0.0018564113   1.1443426      710.69639     -2.9543866      707.742      
   3587000   296.81032      0.0018564113  -0.13397726     736.39458     -2.1219646      734.27262    
   3588000   318.40612      0.0018564113   0.91770504     789.97437     -3.1013077      786.87306    
   3589000   290.09009      0.0018564113   1.6013472      719.7215      -4.0061892      715.71531    
   3590000   293.7704       0.0018564113   0.90072275     728.85245     -3.2304659      725.62198    
   3591000   314.10222      0.0018564113   0.25503059     779.29627     -1.7722435      777.52403    
   3592000   305.84403      0.0018564113   1.3567995      758.80746     -1.3969265      757.41053    
   3593000   286.97348      0.0018564113   1.5722206      711.98911     -3.5900686      708.39905    
   3594000   290.60691      0.0018564113   1.2754274      721.00374     -1.3536294      719.65011    
   3595000   295.48808      0.0018564113   0.66526305     733.11408     -0.1191814      732.9949     
   3596000   312.08186      0.0018564113   0.77185063     774.2837      -1.6732481      772.61046    
   3597000   309.71065      0.0018564113   1.3085658      768.40067     -3.731165       764.6695     
   3598000   294.24595      0.0018564113   1.0710905      730.03232     -2.4699172      727.5624     
   3599000   296.61518      0.0018564113   0.99327079     735.91045     -1.2610139      734.64943    
   3600000   312.3664       0.0018564113   0.95379389     774.98964     -1.6785259      773.31112    
   3601000   302.62361      0.0018564113   1.0697449      750.81751     -1.6434509      749.17406    
   3602000   301.81415      0.0018564113   0.75335709     748.80922     -1.5175698      747.29165    
   3603000   280.27126      0.0018564113   0.69870597     695.36071     -1.0178724      694.34284    
   3604000   310.45384      0.0018564113   1.1357258      770.24454     -1.4647416      768.7798     
   3605000   306.83497      0.0018564113   1.60354        761.26601     -2.1147595      759.15125    
   3606000   301.79346      0.0018564113   0.53243232     748.75788     -1.6275732      747.13031    
   3607000   303.00756      0.0018564113   0.77657993     751.7701      -2.1837428      749.58636    
   3608000   293.51163      0.0018564113   1.0261529      728.21045     -1.915718       726.29474    
   3609000   299.17342      0.0018564113   1.648382       742.2575      -2.0776274      740.17987    
   3610000   294.52002      0.0018564113   0.94975426     730.71229     -3.0540128      727.65828    
   3611000   287.12087      0.0018564113   0.4486184      712.3548      -4.8733587      707.48144    
   3612000   301.57011      0.0018564113   1.0858262      748.20376     -3.8339692      744.36979    
   3613000   302.30892      0.0018564113   1.0897648      750.03676     -3.0766264      746.96013    
   3614000   306.5301       0.0018564113   1.1329433      760.50962     -2.1558588      758.35376    
   3615000   301.57824      0.0018564113   1.025679       748.22393     -1.770351       746.45358    
   3616000   299.52409      0.0018564113   1.0078585      743.12752     -2.4944509      740.63307    
   3617000   309.46565      0.0018564113   0.63341416     767.79281     -1.9755295      765.81728    
   3618000   302.31321      0.0018564113   1.148662       750.04742     -3.488762       746.55866    
   3619000   297.21733      0.0018564113   1.0055709      737.40438     -4.7200088      732.68437    
   3620000   311.67725      0.0018564113   0.88846641     773.27985     -4.2705273      769.00933    
   3621000   307.96175      0.0018564113   1.3106233      764.06159     -3.98477        760.07682    
   3622000   302.62297      0.0018564113   1.1688585      750.81594     -2.5876039      748.22833    
   3623000   304.58525      0.0018564113   0.99727344     755.6844      -3.357337       752.32706    
   3624000   296.04571      0.0018564113   0.67687739     734.49756     -2.9400061      731.55756    
   3625000   300.862        0.0018564113   0.90378254     746.44692     -1.226235       745.22069    
   3626000   313.63804      0.0018564113   1.4053586      778.14462     -1.4974081      776.64721    
   3627000   297.46532      0.0018564113   1.3691214      738.01965     -2.3761894      735.64346    
   3628000   284.63681      0.0018564113   0.8849948      706.19178     -3.4214715      702.77031    
   3629000   305.58314      0.0018564113   0.63070296     758.1602      -1.9573169      756.20289    
   3630000   317.62937      0.0018564113   0.94175199     788.04722     -2.8032248      785.24399    
   3631000   293.27235      0.0018564113   1.3547347      727.61678     -1.9675672      725.64921    
   3632000   290.82364      0.0018564113   0.98115646     721.54147     -2.5075473      719.03392    
   3633000   301.96556      0.0018564113   1.1060637      749.18488     -2.3629512      746.82193    
   3634000   317.04145      0.0018564113   0.94238037     786.58858     -2.4246951      784.16389    
   3635000   308.2585       0.0018564113   1.038905       764.79782     -3.8658508      760.93197    
   3636000   289.45181      0.0018564113   0.99900785     718.13792     -4.1462541      713.99166    
   3637000   302.21879      0.0018564113   0.60750584     749.81316     -3.5598617      746.2533     
   3638000   315.5423       0.0018564113   1.3340879      782.86916     -3.5311337      779.33802    
   3639000   298.17572      0.0018564113   1.2118498      739.78219     -1.6562178      738.12597    
   3640000   294.48142      0.0018564113   0.99757468     730.61652     -1.9557338      728.66079    
   3641000   298.37273      0.0018564113   1.0186994      740.27098     -2.7858077      737.48517    
   3642000   302.55596      0.0018564113   1.065002       750.64969     -3.6237042      747.02598    
   3643000   301.74788      0.0018564113   1.3901832      748.6448      -3.1333015      745.5115     
   3644000   298.00062      0.0018564113   1.0565241      739.34776     -1.5110167      737.83674    
   3645000   295.01362      0.0018564113  -0.20601243     731.93692     -1.5752928      730.36163    
   3646000   311.32825      0.0018564113   1.2863867      772.41396     -1.4842092      770.92975    
   3647000   297.48838      0.0018564113   1.7548095      738.07688     -1.9626722      736.1142     
   3648000   288.05591      0.0018564113   1.4400107      714.67465     -3.1195995      711.55505    
   3649000   295.61855      0.0018564113   0.87922005     733.43778     -3.6856714      729.75211    
   3650000   297.23477      0.0018564113   1.0792001      737.44767     -1.452092       735.99558    
   3651000   305.95458      0.0018564113   1.1683365      759.08176     -2.1913129      756.89044    
   3652000   291.41429      0.0018564113   0.98005127     723.00688     -3.515673       719.4912     
   3653000   291.31138      0.0018564113   0.5526515      722.75158     -3.7028684      719.04871    
   3654000   308.07207      0.0018564113   1.1344197      764.3353      -2.5616078      761.77369    
   3655000   305.60176      0.0018564113   1.4054116      758.20638     -1.79095        756.41543    
   3656000   294.68318      0.0018564113   0.97652874     731.11709     -1.7826657      729.33443    
   3657000   291.41956      0.0018564113   0.5653595      723.01997     -3.0585141      719.96145    
   3658000   310.51687      0.0018564113   0.95180427     770.40091     -3.3455498      767.05536    
   3659000   314.23755      0.0018564113   0.86441991     779.63203     -4.4265198      775.20551    
   3660000   301.00571      0.0018564113   1.8309868      746.80346     -2.7423675      744.06109    
   3661000   287.08012      0.0018564113   1.0298072      712.2537      -4.2636825      707.99002    
   3662000   308.53085      0.0018564113   1.0400572      765.47354     -4.0563508      761.41719    
   3663000   312.89663      0.0018564113   1.5195458      776.30516     -2.703899       773.60126    
   3664000   290.91781      0.0018564113   0.98689059     721.77512     -3.338713       718.4364     
   3665000   291.98523      0.0018564113   1.0528016      724.4234      -2.7610312      721.66236    
   3666000   322.63306      0.0018564113   1.1975414      800.46152     -1.9935631      798.46795    
   3667000   302.87498      0.0018564113  -0.095059706    751.44117     -4.2747568      747.16641    
   3668000   287.34976      0.0018564113   1.041915       712.92268     -4.1563132      708.76637    
   3669000   318.75541      0.0018564113   1.627687       790.84095     -5.1863457      785.65461    
   3670000   310.71717      0.0018564113   1.1416936      770.89786     -5.2088685      765.689      
   3671000   293.20861      0.0018564113  -0.054416654    727.45866     -3.9808849      723.47777    
   3672000   283.73396      0.0018564113   0.67994037     703.95177     -2.8079758      701.14379    
   3673000   315.18517      0.0018564113   1.1166032      781.9831      -4.379596       777.6035     
   3674000   304.18259      0.0018564113   1.0042001      754.68538     -5.1820596      749.50332    
   3675000   293.38604      0.0018564113   1.0537652      727.89886     -3.9844862      723.91437    
   3676000   296.8089       0.0018564113   1.1646634      736.39106     -2.0405674      734.35049    
   3677000   290.65742      0.0018564113   1.3609026      721.12906     -2.9478589      718.1812     
   3678000   295.60537      0.0018564113   0.52410855     733.40506     -2.593767       730.81129    
   3679000   303.98356      0.0018564113   0.95519623     754.19158     -3.441887       750.7497     
   3680000   311.59088      0.0018564113   1.2558207      773.06557     -3.1031434      769.96242    
   3681000   294.15798      0.0018564113   1.0123891      729.81406     -4.2777017      725.53635    
   3682000   287.0404       0.0018564113   1.0108357      712.15514     -4.2618917      707.89324    
   3683000   302.5749       0.0018564113   0.91715787     750.69666     -4.4499251      746.24673    
   3684000   305.20859      0.0018564113   1.0568971      757.23093     -4.1788331      753.05209    
   3685000   301.46763      0.0018564113   0.84507747     747.9495      -5.9530638      741.99643    
   3686000   290.87563      0.0018564113   0.98958547     721.67046     -5.3749453      716.29552    
   3687000   304.01902      0.0018564113   1.168178       754.27957     -4.3021454      749.97742    
   3688000   297.62406      0.0018564113   1.2402889      738.4135      -5.0164611      733.39704    
   3689000   305.78522      0.0018564113   1.0159703      758.66156     -4.2577107      754.40385    
   3690000   309.10603      0.0018564113   0.99488951     766.90058     -3.9828479      762.91773    
   3691000   300.40139      0.0018564113   0.85466034     745.30413     -5.81793        739.4862     
   3692000   287.46673      0.0018564113   0.63397752     713.21288     -5.0890927      708.12379    
   3693000   290.16821      0.0018564113   0.90654657     719.91533     -3.6152769      716.30005    
   3694000   302.66117      0.0018564113   1.0016684      750.91071     -3.4074807      747.50323    
   3695000   306.64915      0.0018564113   0.98821744     760.80499     -2.4140228      758.39097    
   3696000   297.24757      0.0018564113   1.045593       737.47941      0.34545416     737.82487    
   3697000   297.87509      0.0018564113   1.0748455      739.03632     -1.9999085      737.03641    
   3698000   317.05949      0.0018564113   1.0191659      786.63334     -3.2372746      783.39606    
   3699000   299.70671      0.0018564113   0.99530974     743.58061     -1.3675281      742.21308    
   3700000   297.8014       0.0018564113   1.0496949      738.85349     -2.5258461      736.32765    
   3701000   296.42347      0.0018564113   1.1706784      735.4348      -4.6584274      730.77637    
   3702000   304.36523      0.0018564113   1.5804466      755.13853     -6.1991286      748.9394     
   3703000   311.69563      0.0018564113   0.7278904      773.32545     -6.2703151      767.05513    
   3704000   300.47021      0.0018564113   0.95799278     745.47488     -3.0510094      742.42387    
   3705000   289.7678       0.0018564113   0.57200196     718.9219      -4.7182102      714.20369    
   3706000   299.8831       0.0018564113   1.6861004      744.01824     -3.3377153      740.68052    
   3707000   310.40101      0.0018564113   1.2655098      770.11346     -3.1659351      766.94752    
   3708000   317.62312      0.0018564113   1.1269881      788.03172     -4.0537857      783.97794    
   3709000   294.59481      0.0018564113   0.95641139     730.89784     -3.9294869      726.96835    
   3710000   288.39967      0.0018564113   1.128514       715.52754     -4.3431035      711.18443    
   3711000   299.83026      0.0018564113   1.0521794      743.88715     -2.677738       741.20941    
   3712000   311.93601      0.0018564113   1.0417696      773.92184     -3.3728462      770.549      
   3713000   301.60422      0.0018564113   1.0254963      748.28838     -2.6835351      745.60485    
   3714000   310.26189      0.0018564113   1.740234       769.76829     -2.3752426      767.39305    
   3715000   294.6043       0.0018564113   2.4591717      730.92138     -3.4396621      727.48172    
   3716000   287.66566      0.0018564113   0.16297763     713.70644     -3.5143627      710.19208    
   3717000   300.36392      0.0018564113   0.37413536     745.21116     -2.7275891      742.48357    
   3718000   314.83617      0.0018564113   0.63720326     781.11723     -1.8218055      779.29542    
   3719000   301.00671      0.0018564113   1.2382567      746.80594     -3.5110923      743.29484    
   3720000   288.1579       0.0018564113   1.5838845      714.92769     -5.2475548      709.68014    
   3721000   293.48797      0.0018564113   0.63974753     728.15173     -2.7702186      725.38152    
   3722000   312.16338      0.0018564113   1.520488       774.48595     -2.9373702      771.54858    
   3723000   300.49964      0.0018564113   1.071056       745.54788     -3.1849765      742.36291    
   3724000   294.46771      0.0018564113   1.0172486      730.58251     -4.5425949      726.03991    
   3725000   302.33549      0.0018564113   0.78554893     750.10268     -3.2713383      746.83134    
   3726000   305.23002      0.0018564113   1.0420511      757.28409     -4.9125685      752.37152    
   3727000   294.17529      0.0018564113   0.83938445     729.857       -2.6355802      727.22142    
   3728000   302.60098      0.0018564113   0.78582671     750.76136     -5.3914236      745.36994    
   3729000   291.55131      0.0018564113   1.0372717      723.34684     -6.3714472      716.97539    
   3730000   291.49029      0.0018564113   1.2170883      723.19544     -5.4922611      717.70318    
   3731000   307.27698      0.0018564113   1.0410449      762.36266     -4.6124957      757.75017    
   3732000   305.23022      0.0018564113   0.93588504     757.2846      -6.0011048      751.2835     
   3733000   296.88856      0.0018564113   0.97836306     736.5887      -6.7350988      729.8536     
   3734000   293.52368      0.0018564113   1.1889122      728.24034     -8.3048464      719.9355     
   3735000   301.61108      0.0018564113   1.736394       748.3054      -6.7572543      741.54814    
   3736000   314.12144      0.0018564113   1.0725348      779.34396     -8.1923822      771.15158    
   3737000   308.98689      0.0018564113   0.91236881     766.60499     -6.9522054      759.65279    
   3738000   290.564        0.0018564113   0.93765511     720.8973      -6.1851198      714.71218    
   3739000   285.9294       0.0018564113   1.7536592      709.39873     -2.9674628      706.43127    
   3740000   307.6395       0.0018564113   1.255073       763.26209     -4.6150201      758.64707    
   3741000   312.22622      0.0018564113   0.1423653      774.64187     -4.4830514      770.15882    
   3742000   285.49365      0.0018564113   0.43363548     708.31763     -2.0455701      706.27206    
   3743000   298.64189      0.0018564113   1.4071284      740.93877     -2.6941772      738.24459    
   3744000   310.12565      0.0018564113   0.11162113     769.43028     -4.807104       764.62318    
   3745000   300.34644      0.0018564113   0.83352339     745.1678      -2.4658901      742.70191    
   3746000   289.20818      0.0018564113   0.95123354     717.53347     -4.3794599      713.15401    
   3747000   293.86343      0.0018564113   1.4426232      729.08326     -4.3201904      724.76307    
   3748000   319.10557      0.0018564113   0.55032642     791.70971     -5.0202448      786.68947    
   3749000   310.5052       0.0018564113   0.62200122     770.37195     -4.2003148      766.17164    
   3750000   295.29902      0.0018564113   0.68630854     732.64502     -5.6672914      726.97772    
   3751000   289.48968      0.0018564113   1.2022521      718.23188     -3.8244029      714.40748    
   3752000   299.4468       0.0018564113   1.4957082      742.93575     -2.0574162      740.87834    
   3753000   313.76133      0.0018564113   0.90980953     778.4505      -3.6932161      774.75728    
   3754000   291.28508      0.0018564113   0.87182337     722.68631     -3.2352267      719.45108    
   3755000   298.50855      0.0018564113   1.53971        740.60793     -3.7768996      736.83103    
   3756000   305.58157      0.0018564113   0.93529512     758.15629     -5.1550471      753.00124    
   3757000   304.38151      0.0018564113   0.29391863     755.17892     -3.9314277      751.2475     
   3758000   302.19366      0.0018564113   1.0803373      749.7508      -5.0548199      744.69598    
   3759000   294.29842      0.0018564113   1.767871       730.1625      -4.7570595      725.40544    
   3760000   300.78501      0.0018564113   0.60185742     746.2559      -3.5580985      742.6978     
   3761000   298.58061      0.0018564113   0.31347829     740.78673     -2.2933791      738.49335    
   3762000   303.91727      0.0018564113   0.14937922     754.02714     -4.0091153      750.01802    
   3763000   304.01959      0.0018564113   1.8238567      754.28099     -3.3174049      750.96359    
   3764000   298.10634      0.0018564113   1.0501068      739.61004     -3.0136332      736.5964     
   3765000   291.45075      0.0018564113   0.78453178     723.09733     -2.2894139      720.80792    
   3766000   297.94196      0.0018564113   1.629019       739.20223     -2.7671374      736.43509    
   3767000   301.40901      0.0018564113   2.6117256      747.80406     -2.3970333      745.40703    
   3768000   297.21707      0.0018564113   1.5843211      737.40375     -1.282737       736.12101    
   3769000   309.5229       0.0018564113   0.91538942     767.93485     -1.1207916      766.81406    
   3770000   294.58512      0.0018564113   0.53454386     730.8738      -2.3916435      728.48215    
   3771000   290.12504      0.0018564113   1.1015224      719.80823     -3.8180738      715.99015    
   3772000   316.61315      0.0018564113   1.4674882      785.52595     -2.2580814      783.26787    
   3773000   304.95088      0.0018564113   0.36722443     756.59153     -2.6163256      753.9752     
   3774000   291.3513       0.0018564113   0.37124729     722.85062     -2.6017016      720.24892    
   3775000   293.998        0.0018564113   1.9020312      729.41715     -2.367983       727.04917    
   3776000   312.92288      0.0018564113   1.6177848      776.37028     -1.6027796      774.7675     
   3777000   297.39541      0.0018564113   0.15267415     737.84621     -3.2031759      734.64303    
   3778000   296.17671      0.0018564113   0.64046397     734.82258     -3.7043501      731.11823    
   3779000   308.98456      0.0018564113   1.1064255      766.59921     -2.868777       763.73043    
   3780000   297.01059      0.0018564113   1.5641523      736.89147     -3.5565901      733.33488    
   3781000   308.39141      0.0018564113   1.7835018      765.1276      -3.3527653      761.77483    
   3782000   304.56769      0.0018564113   0.88632798     755.64084     -5.46105        750.17979    
   3783000   303.15698      0.0018564113   0.82797841     752.14082     -5.0636766      747.07715    
   3784000   285.81895      0.0018564113   0.77765289     709.12468     -3.945285       705.1794     
   3785000   302.93594      0.0018564113   1.2167182      751.59241     -5.3537957      746.23862    
   3786000   313.69991      0.0018564113   0.95012642     778.29813     -5.4866566      772.81148    
   3787000   291.19312      0.0018564113   0.99412826     722.45815     -2.3342081      720.12395    
   3788000   291.59757      0.0018564113   0.99893113     723.4616      -1.9688328      721.49277    
   3789000   316.36309      0.0018564113   1.0839424      784.90556     -2.193147       782.71241    
   3790000   297.23396      0.0018564113   1.7736301      737.44564     -4.4070475      733.0386     
   3791000   286.0502       0.0018564113   1.230811       709.69844     -3.4335969      706.26484    
   3792000   289.42889      0.0018564113   0.42686834     718.08106     -5.6137484      712.46731    
   3793000   307.19372      0.0018564113   0.84110959     762.15608     -5.2904186      756.86566    
   3794000   314.10137      0.0018564113   1.7159034      779.29415     -4.1371175      775.15703    
   3795000   296.08085      0.0018564113   1.0975878      734.58476     -2.9595025      731.62526    
   3796000   293.23796      0.0018564113   1.0219291      727.53147     -1.8842162      725.64725    
   3797000   304.9139       0.0018564113   1.0791871      756.4998      -1.9737269      754.52607    
   3798000   308.04404      0.0018564113   1.1161592      764.26575     -1.9448175      762.32093    
   3799000   292.93053      0.0018564113   0.84576274     726.76873     -4.0201476      722.74858    
   3800000   300.91331      0.0018564113   0.99800263     746.57421     -4.5874301      741.98678    
   3801000   313.58497      0.0018564113   1.2028317      778.01295     -3.698727       774.31422    
   3802000   300.53083      0.0018564113   0.76864742     745.62526     -3.7402146      741.88505    
   3803000   291.16612      0.0018564113   0.6748897      722.39117     -4.141402       718.24977    
   3804000   295.88705      0.0018564113   0.97540306     734.10393     -3.1901727      730.91376    
   3805000   307.85101      0.0018564113   1.4245375      763.78684     -5.7579391      758.02891    
   3806000   288.33021      0.0018564113   0.12297354     715.35521     -4.6188426      710.73636    
   3807000   286.32339      0.0018564113   1.0474698      710.37623     -3.093211       707.28302    
   3808000   303.67456      0.0018564113   1.8792222      753.42494     -2.2616004      751.16334    
   3809000   311.67542      0.0018564113   1.0755121      773.2753      -2.8228488      770.45245    
   3810000   302.4631       0.0018564113   0.496649       750.41929     -2.6973879      747.72191    
   3811000   293.6136       0.0018564113   0.55489249     728.46345     -3.9581169      724.50533    
   3812000   298.74528      0.0018564113   1.3222082      741.19527     -3.0218448      738.17342    
   3813000   310.64501      0.0018564113   2.0210777      770.71884     -2.5794215      768.13942    
   3814000   309.80302      0.0018564113  -0.096682342    768.62984     -2.380404       766.24944    
   3815000   293.34589      0.0018564113  -0.15980219     727.79923     -3.0048666      724.79436    
   3816000   299.92808      0.0018564113   1.2271418      744.12983     -2.208351       741.92148    
   3817000   308.588        0.0018564113   1.6318245      765.61533     -2.9715949      762.64374    
   3818000   299.18316      0.0018564113   1.3192788      742.28167     -3.1651925      739.11648    
   3819000   293.20439      0.0018564113   1.0303205      727.44816     -2.3634325      725.08473    
   3820000   311.09243      0.0018564113   1.0710937      771.8289      -1.5769963      770.2519     
   3821000   306.98893      0.0018564113   1.1400322      761.648       -3.3128374      758.33517    
   3822000   302.42247      0.0018564113   1.1325039      750.31848     -1.4854093      748.83307    
   3823000   301.90511      0.0018564113   1.058478       749.03489     -4.1671335      744.86776    
   3824000   299.62323      0.0018564113   0.93212501     743.3735      -4.7776348      738.59587    
   3825000   297.61483      0.0018564113   1.1648909      738.39059     -3.3790851      735.0115     
   3826000   301.27567      0.0018564113   1.0014036      747.47323     -4.5949686      742.87826    
   3827000   306.15867      0.0018564113   0.77719541     759.58811     -3.8640829      755.72402    
   3828000   295.47347      0.0018564113   2.216552       733.07782     -4.8805928      728.19722    
   3829000   305.21073      0.0018564113   1.2113764      757.23623     -4.5403701      752.69586    
   3830000   290.87223      0.0018564113   0.15483999     721.66202     -3.5505384      718.11148    
   3831000   295.59236      0.0018564113   0.95610258     733.37279     -2.003836       731.36895    
   3832000   303.22339      0.0018564113   1.3986421      752.3056      -1.4248489      750.88075    
   3833000   308.44201      0.0018564113   1.0581016      765.25312     -1.510876       763.74225    
   3834000   300.8286       0.0018564113   1.0424841      746.36404     -1.2498822      745.11416    
   3835000   298.01579      0.0018564113   1.1429518      739.38539     -2.1493879      737.236      
   3836000   285.42063      0.0018564113   2.292552       708.13644     -1.2021686      706.93427    
   3837000   306.01813      0.0018564113   1.2195887      759.23941     -1.9008293      757.33858    
   3838000   316.8892       0.0018564113   0.94924729     786.21084     -1.3342298      784.87661    
   3839000   294.95677      0.0018564113   0.98817729     731.79589     -3.7991871      727.9967     
   3840000   290.88554      0.0018564113   1.254993       721.69503     -3.4118355      718.2832     
   3841000   305.12533      0.0018564113   1.2049315      757.02435     -3.8364262      753.18792    
   3842000   321.16585      0.0018564113   1.2303898      796.82132     -3.5252317      793.29609    
   3843000   303.52538      0.0018564113   0.9181247      753.05483     -2.8178387      750.23699    
   3844000   294.32973      0.0018564113   1.0354435      730.24017     -3.4490683      726.7911     
   3845000   286.49359      0.0018564113   1.4686355      710.79848     -1.5501107      709.24837    
   3846000   304.5586       0.0018564113   2.3113752      755.61828     -2.4539625      753.16432    
   3847000   310.12788      0.0018564113   0.55050412     769.43581     -0.056397953    769.37941    
   3848000   286.47761      0.0018564113   0.38086703     710.75884     -1.8474242      708.91142    
   3849000   297.35671      0.0018564113   1.5084747      737.75019     -3.3243404      734.42585    
   3850000   314.74346      0.0018564113   1.309437       780.88721     -3.2687762      777.61844    
   3851000   304.54836      0.0018564113   0.022292911    755.59289     -2.4438979      753.14899    
   3852000   281.8031       0.0018564113   0.55214573     699.16125     -3.7321471      695.4291     
   3853000   303.77338      0.0018564113   1.5855209      753.67014     -3.2285562      750.44158    
   3854000   307.41684      0.0018564113   1.0116403      762.70965     -3.2183213      759.49133    
   3855000   291.29089      0.0018564113  -0.18558585     722.70073     -1.6431502      721.05758    
   3856000   283.81581      0.0018564113   0.63445024     704.15486     -2.9639713      701.19089    
   3857000   297.74223      0.0018564113   3.5531087      738.70669     -3.6267284      735.07996    
   3858000   305.31342      0.0018564113   0.90629074     757.49102     -2.9035521      754.58746    
   3859000   296.43453      0.0018564113   0.22436253     735.46225     -2.7513955      732.71085    
   3860000   306.20368      0.0018564113   0.92272057     759.69976     -2.6870828      757.01268    
   3861000   299.35539      0.0018564113   0.9412441      742.70897     -4.8827062      737.82627    
   3862000   304.19926      0.0018564113   1.626647       754.72674     -2.5552073      752.17153    
   3863000   307.25861      0.0018564113  -0.75996853     762.31708     -2.7628961      759.55418    
   3864000   298.91543      0.0018564113   0.75101958     741.61742     -3.4265629      738.19085    
   3865000   301.70673      0.0018564113   1.3245386      748.54272     -2.8247157      745.718      
   3866000   319.13346      0.0018564113   1.3206143      791.77892     -3.5346753      788.24425    
   3867000   300.54376      0.0018564113   1.0637398      745.65734     -1.7876127      743.86973    
   3868000   297.37075      0.0018564113   0.79462493     737.78503     -2.3565221      735.42851    
   3869000   306.81828      0.0018564113   1.068844       761.22462     -1.4104154      759.8142     
   3870000   301.51166      0.0018564113   1.1493708      748.05874     -0.79129535     747.26744    
   3871000   295.9852       0.0018564113   1.0072708      734.34743     -0.94655214     733.40088    
   3872000   303.46358      0.0018564113   0.98644976     752.9015      -0.13216224     752.76934    
   3873000   305.11244      0.0018564113   0.99894544     756.99238      0.1266624      757.11904    
   3874000   278.83386      0.0018564113   0.61513528     691.79448     -3.1018712      688.69261    
   3875000   291.09586      0.0018564113   1.1037801      722.21684     -2.6070844      719.60976    
   3876000   298.59222      0.0018564113   1.2740044      740.81552     -2.8857009      737.92982    
   3877000   308.09553      0.0018564113   0.20666735     764.3935      -1.8257158      762.56779    
   3878000   298.08611      0.0018564113   0.82656489     739.55987     -1.2839988      738.27587    
   3879000   295.22456      0.0018564113   1.3756526      732.46027     -2.7101256      729.75015    
   3880000   299.6593       0.0018564113   1.5678195      743.46299     -2.1138815      741.34911    
   3881000   307.42064      0.0018564113   0.90173937     762.71907     -1.4726557      761.24642    
   3882000   301.17577      0.0018564113   0.55903791     747.22538     -2.4549944      744.77038    
   3883000   291.16275      0.0018564113   1.0743503      722.38281     -4.1938847      718.18893    
   3884000   293.40454      0.0018564113   1.3963942      727.94476     -3.5903772      724.35439    
   3885000   310.64067      0.0018564113   0.86997946     770.70807     -1.7519062      768.95617    
   3886000   302.77728      0.0018564113   0.56355471     751.19877     -3.2161017      747.98267    
   3887000   291.99725      0.0018564113   0.99419028     724.45324     -3.0778252      721.37541    
   3888000   297.07408      0.0018564113   1.769083       737.04897     -3.5162488      733.53273    
   3889000   298.98574      0.0018564113   1.3693298      741.79187     -3.0400344      738.75183    
   3890000   299.74017      0.0018564113  -1.0080989      743.66363     -3.0525666      740.61106    
   3891000   302.34522      0.0018564113  -0.27255184     750.12682     -2.7824032      747.34442    
   3892000   297.50415      0.0018564113   1.4717716      738.11601     -2.1897302      735.92628    
   3893000   300.94014      0.0018564113   1.6742129      746.64078     -3.4768043      743.16397    
   3894000   318.54478      0.0018564113   0.52400446     790.31838     -2.9619203      787.35646    
   3895000   312.49368      0.0018564113   0.20848578     775.30542     -2.6910758      772.61435    
   3896000   301.29011      0.0018564113   0.99137698     747.50907     -2.8844895      744.62458    
   3897000   295.97577      0.0018564113   1.7478937      734.32405     -2.3838225      731.94023    
   3898000   301.36229      0.0018564113   3.0493586      747.68816     -3.4619676      744.22619    
   3899000   326.88462      0.0018564113   0.94320585     811.00976     -3.3385105      807.67125    
   3900000   303.93588      0.0018564113   0.63494975     754.07329     -1.9937582      752.07953    
   3901000   295.04899      0.0018564113   0.62848105     732.02467     -1.1464684      730.8782     
   3902000   292.09199      0.0018564113   1.9236024      724.68828     -3.199884       721.4884     
   3903000   311.22602      0.0018564113   1.7668608      772.16034     -1.6435879      770.51676    
   3904000   306.81958      0.0018564113   0.0643388      761.22784     -1.5389114      759.68893    
   3905000   290.82348      0.0018564113   1.6553848      721.54107     -3.1086914      718.43238    
   3906000   299.28924      0.0018564113   1.2250057      742.54486     -2.1547615      740.3901     
   3907000   306.18737      0.0018564113   0.40254596     759.6593      -2.1988737      757.46042    
   3908000   304.4354       0.0018564113   0.85621781     755.31261     -1.6233448      753.68927    
   3909000   305.98319      0.0018564113   1.0286893      759.15274     -3.272017       755.88072    
   3910000   298.24353      0.0018564113   1.1724975      739.95041     -1.8658463      738.08456    
   3911000   297.50293      0.0018564113   1.6898451      738.11296     -3.0460933      735.06686    
   3912000   296.84321      0.0018564113   0.22408469     736.47618     -0.13447285     736.3417     
   3913000   297.4296       0.0018564113   0.68778014     737.93104     -1.9849789      735.94606    
   3914000   311.11782      0.0018564113   1.6778956      771.8919      -1.5282913      770.36361    
   3915000   296.52029      0.0018564113   1.1897488      735.67501     -1.5526109      734.12239    
   3916000   294.98488      0.0018564113   0.49812626     731.86562     -2.5390833      729.32653    
   3917000   302.38843      0.0018564113   0.98337905     750.23403     -2.1724499      748.06158    
   3918000   296.32995      0.0018564113   1.5619833      735.20277     -1.2877709      733.915      
   3919000   303.4631       0.0018564113   1.1282288      752.90033     -1.4470747      751.45325    
   3920000   300.80323      0.0018564113   1.0113746      746.30111     -0.63293103     745.66818    
   3921000   300.98079      0.0018564113   0.95052203     746.74164     -1.4762393      745.2654     
   3922000   301.53774      0.0018564113   1.112753       748.12344     -3.0771536      745.04629    
   3923000   306.61016      0.0018564113   0.96503889     760.70825     -3.2187847      757.48947    
   3924000   294.05785      0.0018564113   0.94153281     729.56563     -2.0818988      727.48373    
   3925000   292.45214      0.0018564113   0.89495861     725.58181     -2.8381532      722.74366    
   3926000   294.49372      0.0018564113   0.79020301     730.64703     -3.8792448      726.76778    
   3927000   308.46985      0.0018564113   1.173038       765.3222      -2.0792931      763.24291    
   3928000   292.09911      0.0018564113   1.2802619      724.70595     -3.9190805      720.78687    
   3929000   289.52038      0.0018564113   0.38527775     718.30803     -4.9795685      713.32847    
   3930000   291.77706      0.0018564113   0.63840675     723.90693     -3.6045922      720.30234    
   3931000   303.60252      0.0018564113   1.0514201      753.24621     -4.9655495      748.28066    
   3932000   305.95334      0.0018564113   2.0326082      759.07866     -3.7361531      755.3425     
   3933000   289.60012      0.0018564113   1.9054778      718.50589     -5.0223139      713.48358    
   3934000   292.92497      0.0018564113  -0.087914838    726.75492     -2.2856698      724.46925    
   3935000   309.56614      0.0018564113   0.030712574    768.04212     -2.2368243      765.80529    
   3936000   305.16285      0.0018564113   1.471347       757.11745     -2.8490321      754.26841    
   3937000   293.85143      0.0018564113   1.3617105      729.05349     -3.4277403      725.62575    
   3938000   288.40019      0.0018564113  -0.40269967     715.52882     -4.4671167      711.0617     
   3939000   313.13319      0.0018564113   0.6417004      776.89208     -5.0054058      771.88667    
   3940000   299.69596      0.0018564113   2.1946628      743.55394     -1.2919728      742.26197    
   3941000   291.75641      0.0018564113   2.0643663      723.85569     -3.1346221      720.72106    
   3942000   299.27785      0.0018564113   0.35975669     742.51661     -4.6884803      737.82813    
   3943000   297.93086      0.0018564113   0.64072415     739.17468     -3.8407175      735.33396    
   3944000   312.43712      0.0018564113   0.26864746     775.16511     -5.0378718      770.12724    
   3945000   313.29029      0.0018564113   1.2582286      777.28185     -4.3641111      772.91774    
   3946000   289.41879      0.0018564113   1.1421974      718.056       -3.8406153      714.21539    
   3947000   302.94875      0.0018564113  -1.7101553      751.62421     -3.6633138      747.96089    
   3948000   323.51573      0.0018564113  -0.13551869     802.65145     -1.0932062      801.55824    
   3949000   300.23123      0.0018564113   1.0995051      744.88195     -3.4978397      741.38411    
   3950000   291.2207       0.0018564113   2.5744983      722.52659     -4.1053348      718.42126    
   3951000   291.60759      0.0018564113   0.95730728     723.48647     -3.9171503      719.56932    
   3952000   298.99797      0.0018564113  -1.018032       741.8222      -2.8234321      738.99877    
   3953000   314.32262      0.0018564113   1.1481758      779.84308     -2.2900469      777.55303    
   3954000   310.3113       0.0018564113   2.7408599      769.89088     -3.5138596      766.37702    
   3955000   290.01722      0.0018564113   0.78433351     719.54072     -3.1561695      716.38455    
   3956000   289.90112      0.0018564113   0.50612658     719.25267     -4.1617971      715.09087    
   3957000   298.35391      0.0018564113   0.25197589     740.22427     -3.0128628      737.21141    
   3958000   311.93522      0.0018564113   1.0893395      773.91987     -1.4117511      772.50812    
   3959000   305.92221      0.0018564113   1.2653974      759.00144     -3.8921585      755.10928    
   3960000   289.96511      0.0018564113   1.1720921      719.41142     -3.1462927      716.26513    
   3961000   296.39198      0.0018564113   0.89629566     735.35666     -1.8673594      733.48931    
   3962000   309.82397      0.0018564113   0.77997742     768.68181     -3.6864881      764.99532    
   3963000   302.26429      0.0018564113   1.0438761      749.92602     -2.4330523      747.49297    
   3964000   292.99999      0.0018564113   1.5731228      726.94106     -5.2033573      721.73771    
   3965000   287.01875      0.0018564113   0.58862317     712.10142     -3.6028778      708.49854    
   3966000   320.34844      0.0018564113   0.88074716     794.79331     -3.8633041      790.93       
   3967000   309.07047      0.0018564113   2.3525106      766.81236     -3.7199181      763.09244    
   3968000   283.25799      0.0018564113   1.5655025      702.77088     -5.3255204      697.44536    
   3969000   296.3363       0.0018564113   0.51538843     735.21853     -3.6994091      731.51912    
   3970000   314.41799      0.0018564113   1.4814187      780.07971     -3.8366386      776.24307    
   3971000   297.92204      0.0018564113   1.5904904      739.1528      -2.8161088      736.33669    
   3972000   279.93611      0.0018564113   0.14477707     694.5292      -4.8091323      689.72007    
   3973000   298.36655      0.0018564113   0.29515878     740.25564     -5.5452638      734.71037    
   3974000   305.7748       0.0018564113   1.1975332      758.63571     -3.572453       755.06326    
   3975000   304.46506      0.0018564113   1.0966421      755.38621     -2.1882646      753.19795    
   3976000   290.81091      0.0018564113   0.25835681     721.50989     -2.0649305      719.44496    
   3977000   295.59645      0.0018564113   0.97325265     733.38293     -4.2551781      729.12775    
   3978000   301.92842      0.0018564113   1.0475412      749.09272     -3.7742871      745.31844    
   3979000   295.94652      0.0018564113   1.4067961      734.25147     -3.1809164      731.07056    
   3980000   296.63746      0.0018564113   0.77877764     735.96571     -2.6398794      733.32583    
   3981000   296.58937      0.0018564113   0.44965102     735.84639     -2.8519311      732.99446    
   3982000   303.27803      0.0018564113   1.9720864      752.44114     -1.6211451      750.82       
   3983000   302.84723      0.0018564113   1.0596806      751.37231     -2.3449449      749.02737    
   3984000   297.6186       0.0018564113   0.27799846     738.39996     -2.1605971      736.23936    
   3985000   302.68144      0.0018564113   0.76218255     750.961       -2.2459375      748.71506    
   3986000   321.07156      0.0018564113   1.5086564      796.58738     -2.9451702      793.64221    
   3987000   295.28815      0.0018564113   1.1236657      732.61804     -1.3843824      731.23365    
   3988000   287.86718      0.0018564113   1.1863018      714.20641     -2.7394987      711.46691    
   3989000   296.39202      0.0018564113   0.76079918     735.35677     -1.3557625      734.001      
   3990000   311.33629      0.0018564113   0.42410007     772.43391     -2.8355567      769.59835    
   3991000   317.88962      0.0018564113   1.8404775      788.6929      -2.4587364      786.23416    
   3992000   280.41521      0.0018564113   1.3380651      695.71788     -1.3570273      694.36085    
   3993000   292.42925      0.0018564113   0.76880181     725.52503     -2.0138839      723.51115    
   3994000   313.40788      0.0018564113   0.44030356     777.57359     -2.4165208      775.15707    
   3995000   305.57094      0.0018564113   2.1322144      758.12992     -1.6850136      756.44491    
   3996000   292.49473      0.0018564113   1.0403223      725.6875      -3.7392208      721.94828    
   3997000   299.15017      0.0018564113   0.33217412     742.19981     -1.1883284      741.01148    
   3998000   293.54577      0.0018564113   0.33094226     728.29515     -2.6216416      725.67351    
   3999000   305.38468      0.0018564113   0.47551804     757.66781     -3.269707       754.3981     
   4000000   315.30026      0.0018564113   1.277863       782.26864     -2.835163       779.43348    
Loop time of 30834.3 on 1 procs for 4000000 steps with 1500 atoms

Performance: 2.802 ns/day, 8.565 hours/ns, 129.726 timesteps/s, 194.588 katom-step/s
99.3% CPU use with 1 MPI tasks x 1 OpenMP threads

MPI task timing breakdown:
Section |  min time  |  avg time  |  max time  |%varavg| %total
---------------------------------------------------------------
Pair    | 1302.1     | 1302.1     | 1302.1     |   0.0 |  4.22
Bond    | 210.01     | 210.01     | 210.01     |   0.0 |  0.68
Kspace  | 28194      | 28194      | 28194      |   0.0 | 91.44
Neigh   | 0.049768   | 0.049768   | 0.049768   |   0.0 |  0.00
Comm    | 53.577     | 53.577     | 53.577     |   0.0 |  0.17
Output  | 0.16446    | 0.16446    | 0.16446    |   0.0 |  0.00
Modify  | 1037.2     | 1037.2     | 1037.2     |   0.0 |  3.36
Other   |            | 37.11      |            |       |  0.12

Nlocal:           1500 ave        1500 max        1500 min
Histogram: 1 0 0 0 0 0 0 0 0 0
Nghost:            528 ave         528 max         528 min
Histogram: 1 0 0 0 0 0 0 0 0 0
Neighs:              0 ave           0 max           0 min
Histogram: 1 0 0 0 0 0 0 0 0 0

Total # of neighbors = 0
Ave neighs/atom = 0
Ave special neighs/atom = 2
Neighbor list builds = 13812
Dangerous builds = 0
write_data	last_conf.data pair ij
System init for write_data ...
PPPM initialization ...
  using 12-bit tables for long-range coulomb (src/kspace.cpp:342)
  G vector (1/distance) = 0.13680404
  grid = 40 40 40
  stencil order = 5
  estimated absolute RMS force accuracy = 0.039167481
  estimated relative force accuracy = 0.00011795171
  using double precision FFTW3
  3d grid and FFT values/proc = 91125 64000
Generated 1 of 1 mixed pair_coeff terms from arithmetic mixing rule
Total wall time: 8:33:54
