LAMMPS (29 Aug 2024 - Update 1)
  using 1 OpenMP thread(s) per MPI task
package gpu 1 gpuID 0
# GCMC for CO2 molecular fluid, rigid/small/nvt dynamics
# Rigid CO2 TraPPE model
# [Potoff and J.I. Siepmann, Vapor-liquid equilibria of
# mixtures containing alkanes, carbon dioxide and
# nitrogen AIChE J., 47,1676-1682 (2001)].

# global model settings

units           real
atom_style      full
boundary        p p p
pair_style      lj/cut/coul/long  12
pair_modify     mix arithmetic shift yes
kspace_style    pppm 1.0e-4
bond_style      harmonic
angle_style     harmonic
neigh_modify    one 4000

# box, start molecules on simple cubic lattice
region          mbox block 0 ${lbox} 0 ${lbox} 0 ${lbox} units box
region          mbox block 0 216.5 0 ${lbox} 0 ${lbox} units box
region          mbox block 0 216.5 0 216.5 0 ${lbox} units box
region          mbox block 0 216.5 0 216.5 0 216.5 units box
create_box      2 mbox                                       bond/types 1                                angle/types 1                               extra/bond/per/atom 2                       extra/angle/per/atom 1                      extra/special/per/atom 2
Created orthogonal box = (0 0 0) to (216.5 216.5 216.5)
  1 by 1 by 1 MPI processor grid
molecule        co2mol ../CO2.txt
Read molecule template co2mol:
# CO2 molecule file. TraPPE model.
  1 molecules
  0 fragments
  3 atoms with max type 2
  2 bonds with max type 1
  1 angles with max type 1
  0 dihedrals with max type 0
  0 impropers with max type 0
create_atoms   	0 random ${nmols} 34578 mbox mol co2mol 464563 overlap 1.2
create_atoms   	0 random 500 34578 mbox mol co2mol 464563 overlap 1.2
Created 1500 atoms
  using lattice units in orthogonal box = (0 0 0) to (216.5 216.5 216.5)
  create_atoms CPU = 0.007 seconds

# rigid CO2 TraPPE model

pair_coeff      1   1  0.053649   2.800
pair_coeff      2   2  0.156973   3.050
bond_coeff      1       0       1.16
angle_coeff     1       0       180

# masses

mass 1 12.0107
mass 2 15.9994

write_data init_conf.data  pair ij
System init for write_data ...
PPPM initialization ...
  using 12-bit tables for long-range coulomb (src/kspace.cpp:342)
  G vector (1/distance) = 0.14605409
  grid = 36 36 36
  stencil order = 5
  estimated absolute RMS force accuracy = 0.037423921
  estimated relative force accuracy = 0.00011270103
  using double precision FFTW3
  3d grid and FFT values/proc = 68921 46656
Generated 1 of 1 mixed pair_coeff terms from arithmetic mixing rule

# MD settings

group           co2 type 1 2
1500 atoms in group co2
velocity       	all create 300 54654
timestep        0.25

# rigid constraints with thermostat
fix             myrigidnvt co2 rigid/nvt molecule temp 300 300 $(100*dt)
fix             myrigidnvt co2 rigid/nvt molecule temp 300 300 25
  500 rigid bodies with 1500 atoms

thermo 1000
thermo_style custom step temp density press ke pe etotal


variable    mvol equal vol
variable    mden equal density
variable	mtmp equal temp
variable    mpre equal press

fix mydat all ave/time 1 4000 4000 v_mtmp v_mden v_mpre file statistics.dat ## every 1ps

run 4000000 ## 1ns

CITE-CITE-CITE-CITE-CITE-CITE-CITE-CITE-CITE-CITE-CITE-CITE-CITE

Your simulation uses code contributions which should be cited:

- GPU package (short-range, long-range and three-body potentials): doi:10.1016/j.cpc.2010.12.021, doi:10.1016/j.cpc.2011.10.012, doi:10.1016/j.cpc.2013.08.002, doi:10.1016/j.commatsci.2014.10.068, doi:10.1016/j.cpc.2016.10.020, doi:10.3233/APC200086

@Article{Brown11,
 author = {W. M. Brown and P. Wang and S. J. Plimpton and A. N. Tharrington},
 title = {Implementing Molecular Dynamics on Hybrid High Performance Computers---Short Range Forces},
 journal = {Comput.\ Phys.\ Commun.},
 year =    2011,
 volume =  182,
 pages =   {898--911},
 doi =     {10.1016/j.cpc.2010.12.021}
}

@Article{Brown12,
 author = {W. M. Brown and A. Kohlmeyer and S. J. Plimpton and A. N. Tharrington},
 title = {Implementing Molecular Dynamics on Hybrid High Performance Computers - Particle-Particle Particle-Mesh},
 journal = {Comput.\ Phys.\ Commun.},
 year =    2012,
 volume =  183,
 doi =     {10.1016/j.cpc.2011.10.012},
 pages =   {449--459}
}

@Article{Brown13,
 author = {W. M. Brown and Y. Masako},
 title = {Implementing Molecular Dynamics on Hybrid High Performance Computers---Three-Body Potentials},
 journal = {Comput.\ Phys.\ Commun.},
 year =    2013,
 volume =  184,
 pages =   {2785--2793},
 doi =     {10.1016/j.cpc.2013.08.002},
}

@Article{Trung15,
 author = {T. D. Nguyen and S. J. Plimpton},
 title = {Accelerating Dissipative Particle Dynamics Simulations for Soft Matter Systems},
 journal = {Comput.\ Mater.\ Sci.},
 year =    2015,
 doi =     {10.1016/j.commatsci.2014.10.068},
 volume =  100,
 pages =   {173--180}
}

@Article{Trung17,
 author = {T. D. Nguyen},
 title = {{GPU}-Accelerated {T}ersoff Potentials for Massively Parallel
    Molecular Dynamics Simulations},
 journal = {Comput.\ Phys.\ Commun.},
 year =    2017,
 doi =     {10.1016/j.cpc.2016.10.020},
 volume =  212,
 pages =   {113--122}
}

@inproceedings{Nikolskiy19,
 author = {V. Nikolskiy and V. Stegailov},
 title = {{GPU} Acceleration of Four-Site Water Models in {LAMMPS}},
 booktitle = {Proceedings of the International Conference on Parallel
    Computing (ParCo 2019), Prague, Czech Republic},
 doi =     {10.3233/APC200086},
 year =    2019
}

CITE-CITE-CITE-CITE-CITE-CITE-CITE-CITE-CITE-CITE-CITE-CITE-CITE

PPPM initialization ...
  using 12-bit tables for long-range coulomb (src/kspace.cpp:342)
  G vector (1/distance) = 0.14605409
  grid = 36 36 36
  stencil order = 5
  estimated absolute RMS force accuracy = 0.037423921
  estimated relative force accuracy = 0.00011270103
  using double precision FFTW3
  3d grid and FFT values/proc = 68921 46656
Generated 1 of 1 mixed pair_coeff terms from arithmetic mixing rule
Per MPI rank memory allocation (min/avg/max) = 14 | 14 | 14 Mbytes
   Step          Temp         Density         Press          KinEng         PotEng         TotEng    
         0   306.91746      0.0036007403   22.168682      761.47069      1110.2215      1871.6922    
      1000   293.28044      0.0036007403   0.4098284      727.63686     -2.7653263      724.87154    
      2000   296.66397      0.0036007403   2.4015457      736.03149     -3.560434       732.47105    
      3000   309.65256      0.0036007403   3.1104401      768.25654     -2.8214672      765.43507    
      4000   300.21932      0.0036007403  -3.053895       744.85241     -3.507323       741.34509    
      5000   289.21761      0.0036007403   4.1850873      717.55686     -3.8778062      713.67906    
      6000   314.87305      0.0036007403   1.2689275      781.20872     -5.1065621      776.10216    
      7000   297.61727      0.0036007403   0.15493277     738.39666     -5.488594       732.90806    
      8000   296.40923      0.0036007403   0.58942687     735.39947     -8.09621        727.30326    
      9000   292.23788      0.0036007403   1.6981509      725.05025     -7.7180101      717.33224    
     10000   287.04595      0.0036007403   2.1742086      712.16892     -6.4087173      705.7602     
     11000   312.91609      0.0036007403   0.91538858     776.35343     -8.5922324      767.7612     
     12000   294.98006      0.0036007403  -0.18825391     731.85365     -8.0962464      723.7574     
     13000   301.44801      0.0036007403   2.7808311      747.90082     -7.8946997      740.00612    
     14000   302.20361      0.0036007403   3.5899333      749.77548     -7.7761208      741.99936    
     15000   304.23268      0.0036007403   1.8906888      754.80968     -8.5238168      746.28586    
     16000   300.99845      0.0036007403   0.81142219     746.78546     -8.6768991      738.10856    
     17000   298.27473      0.0036007403  -0.43325211     740.02782     -8.2372993      731.79052    
     18000   298.58264      0.0036007403   2.2211934      740.79177     -8.5025404      732.28923    
     19000   307.41681      0.0036007403   2.0542434      762.70957     -8.0973671      754.61221    
     20000   291.50371      0.0036007403   1.7674382      723.22873     -7.7267004      715.50203    
     21000   294.40374      0.0036007403   2.5888658      730.4238      -8.6105124      721.81329    
     22000   314.77372      0.0036007403   2.1013562      780.96227     -9.0666081      771.89567    
     23000   299.39741      0.0036007403   1.7008217      742.81323     -12.816536      729.99669    
     24000   288.23465      0.0036007403   1.1888616      715.11812     -12.605163      702.51295    
     25000   298.26396      0.0036007403   1.7135369      740.00111     -11.762807      728.2383     
     26000   296.86525      0.0036007403   2.0929914      736.53086     -11.198624      725.33224    
     27000   306.33535      0.0036007403   4.1564006      760.02646     -11.012063      749.0144     
     28000   299.99466      0.0036007403   2.224801       744.29503     -6.676153       737.61888    
     29000   301.47813      0.0036007403   0.41647823     747.97556     -8.4301746      739.54538    
     30000   305.23801      0.0036007403   3.7268531      757.30391     -8.5219017      748.78201    
     31000   300.87639      0.0036007403   2.3390293      746.48262     -6.2694739      740.21314    
     32000   290.80043      0.0036007403   1.9228833      721.48388     -8.60006        712.88382    
     33000   301.6061       0.0036007403   2.0293555      748.29304     -10.749949      737.5431     
     34000   307.19995      0.0036007403   1.5932967      762.17155     -7.6391961      754.53235    
     35000   291.08726      0.0036007403   2.1540909      722.1955      -8.9087587      713.28675    
     36000   299.31609      0.0036007403   3.79935        742.61146     -10.196214      732.41524    
     37000   280.01424      0.0036007403   2.7623652      694.72306     -10.853348      683.86971    
     38000   304.23114      0.0036007403   1.3872148      754.80585     -8.6814998      746.12435    
     39000   309.24071      0.0036007403   1.9927628      767.23473     -10.767442      756.46729    
     40000   296.65917      0.0036007403   2.0698496      736.01957     -6.2772861      729.74228    
     41000   296.86754      0.0036007403   1.8437276      736.53655     -4.9072826      731.62927    
     42000   318.43371      0.0036007403   2.3803312      790.04282     -6.0897845      783.95303    
     43000   301.62341      0.0036007403   1.991341       748.33599     -6.46416        741.87183    
     44000   300.0381       0.0036007403   2.5568878      744.40281     -9.9831257      734.41968    
     45000   296.53672      0.0036007403   2.1482727      735.71577     -9.5796514      726.13612    
     46000   301.1243       0.0036007403   0.8870916      747.09768     -10.73684       736.36084    
     47000   316.91658      0.0036007403   2.3917366      786.27878     -11.904102      774.37468    
     48000   301.96528      0.0036007403   1.9500792      749.18419     -11.188446      737.99575    
     49000   294.7813       0.0036007403   2.0112223      731.36053     -11.274895      720.08564    
     50000   308.34087      0.0036007403   1.9646345      765.00219     -10.33372       754.66847    
     51000   300.07325      0.0036007403   1.4626221      744.49        -9.4801665      735.00984    
     52000   293.27472      0.0036007403   2.6090643      727.62268     -8.4730618      719.14961    
     53000   310.75524      0.0036007403   2.0993391      770.99231     -9.2886913      761.70362    
     54000   302.44825      0.0036007403   1.3238139      750.38243     -9.3103948      741.07204    
     55000   283.59253      0.0036007403   1.0918394      703.60089     -10.539321      693.06157    
     56000   286.46074      0.0036007403   4.1926881      710.717       -9.7039004      701.0131     
     57000   305.86956      0.0036007403   2.047566       758.87081     -13.247046      745.62377    
     58000   301.9628       0.0036007403  -0.096283885    749.17804     -13.572795      735.60525    
     59000   288.94866      0.0036007403   0.36099455     716.88958     -10.905501      705.98408    
     60000   310.50605      0.0036007403   3.3972875      770.37406     -11.291246      759.08281    
     61000   307.9742       0.0036007403   1.8449243      764.09247     -10.709603      753.38287    
     62000   296.80969      0.0036007403   2.3096361      736.39302     -8.6984308      727.69459    
     63000   295.95586      0.0036007403   1.9061029      734.27464     -8.5445651      725.73008    
     64000   303.3678       0.0036007403   1.8655184      752.66388     -10.119408      742.54447    
     65000   297.71762      0.0036007403   1.8742871      738.64563     -11.712461      726.93316    
     66000   299.46816      0.0036007403   2.4904738      742.98876     -12.295943      730.69282    
     67000   292.78065      0.0036007403   3.3519225      726.39685     -12.25876       714.13809    
     68000   298.38402      0.0036007403   1.4572693      740.29899     -12.484106      727.81488    
     69000   302.23575      0.0036007403   1.8245581      749.85524     -10.397233      739.45801    
     70000   303.72781      0.0036007403   3.3077017      753.55708     -11.020372      742.53671    
     71000   290.91034      0.0036007403   2.059073       721.75657     -9.4952942      712.26128    
     72000   306.67013      0.0036007403   0.94147166     760.85704     -9.8083828      751.04866    
     73000   306.00849      0.0036007403   1.7228611      759.21549     -11.043803      748.17169    
     74000   295.8214       0.0036007403   1.9886511      733.94104     -11.012088      722.92895    
     75000   288.83657      0.0036007403   1.7292201      716.6115      -13.196624      703.41487    
     76000   310.70049      0.0036007403   3.0487951      770.85649     -13.92887       756.92762    
     77000   309.73766      0.0036007403   1.6736406      768.46767     -10.945208      757.52246    
     78000   286.03413      0.0036007403   1.6806545      709.65857     -9.6585707      700          
     79000   294.76538      0.0036007403   1.9176267      731.32104     -11.841928      719.47912    
     80000   307.62206      0.0036007403   2.0393845      763.2188      -12.364526      750.85427    
     81000   293.56297      0.0036007403   2.3782177      728.33782     -10.567849      717.76997    
     82000   292.84414      0.0036007403   2.1262437      726.55439     -9.2935006      717.26089    
     83000   302.11756      0.0036007403   2.5477041      749.56199     -9.5921375      739.96985    
     84000   305.19436      0.0036007403   2.0831687      757.19563     -8.8402671      748.35536    
     85000   280.52416      0.0036007403   1.7579467      695.98818     -9.5013711      686.48681    
     86000   303.04913      0.0036007403   2.4647901      751.87325     -13.25873       738.61452    
     87000   313.96857      0.0036007403   2.8597209      778.96467     -14.212784      764.75188    
     88000   301.13737      0.0036007403   0.73483215     747.13012     -16.563285      730.56683    
     89000   293.97859      0.0036007403   1.275078       729.36898     -16.836293      712.53269    
     90000   311.40733      0.0036007403   1.9088139      772.61017     -13.91144       758.69873    
     91000   307.33647      0.0036007403   2.8049904      762.51026     -14.65232       747.85794    
     92000   316.73925      0.0036007403   2.8931238      785.83881     -13.307956      772.53085    
     93000   294.88084      0.0036007403   3.7805668      731.6075      -12.274085      719.33341    
     94000   293.78878      0.0036007403  -0.15894977     728.89807     -13.77717       715.1209     
     95000   294.32793      0.0036007403  -1.4590398      730.2357      -14.749119      715.48658    
     96000   308.30021      0.0036007403   4.395941       764.90131     -13.325287      751.57603    
     97000   306.46858      0.0036007403   4.6945724      760.35699     -13.590961      746.76603    
     98000   279.17884      0.0036007403  -0.052966827    692.6504      -12.477383      680.17302    
     99000   301.57233      0.0036007403  -1.2504486      748.20926     -11.614738      736.59452    
    100000   301.43631      0.0036007403   1.2130809      747.8718      -13.012287      734.85951    
    101000   304.39627      0.0036007403   5.9910937      755.21553     -13.444051      741.77148    
    102000   299.34586      0.0036007403   3.6237888      742.68533     -12.115443      730.56989    
    103000   300.57232      0.0036007403   1.4267562      745.72822     -12.620352      733.10787    
    104000   291.95808      0.0036007403  -1.6481206      724.35606     -14.804571      709.55148    
    105000   299.52895      0.0036007403   1.9581197      743.13958     -16.404407      726.73517    
    106000   303.38709      0.0036007403   2.4385073      752.71173     -14.521509      738.19022    
    107000   304.38072      0.0036007403   2.0053039      755.17696     -16.111798      739.06516    
    108000   297.70131      0.0036007403   1.0398735      738.60516     -14.402779      724.20238    
    109000   303.87741      0.0036007403   1.9441384      753.92823     -12.974259      740.95397    
    110000   302.30624      0.0036007403   1.4502921      750.03011     -12.604291      737.42581    
    111000   321.44691      0.0036007403   1.9856031      797.51865     -13.368591      784.15006    
    112000   305.63648      0.0036007403   2.3441056      758.29252     -14.378973      743.91355    
    113000   292.24379      0.0036007403   1.866074       725.06489     -10.791428      714.27346    
    114000   306.22769      0.0036007403  -3.264818       759.75935     -10.115289      749.64406    
    115000   303.91745      0.0036007403   4.0972952      754.02757     -12.643564      741.384      
    116000   291.52314      0.0036007403   0.19193188     723.27694     -12.889531      710.38741    
    117000   294.46272      0.0036007403   0.91175758     730.57013     -14.232938      716.3372     
    118000   300.27598      0.0036007403   5.6808369      744.99299     -14.271576      730.72142    
    119000   298.41183      0.0036007403   2.3284348      740.36798     -15.138885      725.2291     
    120000   307.43088      0.0036007403  -2.7004924      762.74448     -17.905953      744.83853    
    121000   296.10587      0.0036007403   3.733128       734.64683     -13.331254      721.31558    
    122000   285.88163      0.0036007403   3.099463       709.2802      -13.263649      696.01655    
    123000   303.53667      0.0036007403   0.75268299     753.08284     -13.415568      739.66727    
    124000   303.66442      0.0036007403   1.7930626      753.3998      -12.842904      740.55689    
    125000   287.92346      0.0036007403   5.9519501      714.34604     -14.538886      699.80716    
    126000   286.93687      0.0036007403   3.941216       711.89829     -14.022293      697.876      
    127000   298.17789      0.0036007403   1.2790879      739.78757     -14.837099      724.95047    
    128000   308.84777      0.0036007403   1.6285134      766.25983     -12.696832      753.563      
    129000   304.78184      0.0036007403   0.85306259     756.17214     -15.31284       740.8593     
    130000   299.3986       0.0036007403   5.3318114      742.81618     -15.699868      727.11632    
    131000   292.89674      0.0036007403   1.2907337      726.6849      -12.160933      714.52396    
    132000   320.4478       0.0036007403   2.6373954      795.03983     -13.443114      781.59672    
    133000   299.95826      0.0036007403   2.9688083      744.2047      -13.107272      731.09743    
    134000   285.09455      0.0036007403   2.2619248      707.32743     -14.598518      692.72892    
    135000   297.93099      0.0036007403   1.6923045      739.175       -14.68392       724.49108    
    136000   308.19774      0.0036007403   1.7894324      764.64709     -14.810048      749.83704    
    137000   310.13094      0.0036007403   2.7250558      769.4434      -11.448998      757.99441    
    138000   293.60867      0.0036007403   2.3922199      728.4512      -12.384523      716.06667    
    139000   298.51932      0.0036007403   1.8745724      740.63466     -12.05909       728.57557    
    140000   324.02595      0.0036007403   2.0395072      803.9173      -10.83701       793.08029    
    141000   303.23014      0.0036007403   3.0288246      752.32234     -10.684643      741.6377     
    142000   291.8708       0.0036007403   3.8958099      724.1395      -12.683319      711.45618    
    143000   296.07605      0.0036007403   2.0497862      734.57285     -11.616334      722.95652    
    144000   305.07031      0.0036007403   1.6978653      756.88785     -12.196579      744.69128    
    145000   292.72809      0.0036007403   3.7480054      726.26647     -11.530478      714.73599    
    146000   295.30689      0.0036007403   1.543336       732.66453     -13.984189      718.68034    
    147000   302.46224      0.0036007403  -0.059845966    750.41716     -10.035118      740.38204    
    148000   304.26762      0.0036007403   0.69016811     754.89635     -9.230814       745.66553    
    149000   308.14135      0.0036007403   2.7529029      764.50718     -8.6895573      755.81762    
    150000   297.9603       0.0036007403   4.5772506      739.24772     -9.5835447      729.66418    
    151000   300.97504      0.0036007403   2.3088536      746.72738     -11.280933      735.44645    
    152000   274.06878      0.0036007403   4.913741       679.97221     -12.205427      667.76678    
    153000   297.78352      0.0036007403  -0.2094924      738.80913     -10.025266      728.78386    
    154000   308.63039      0.0036007403   2.7498276      765.72051     -10.951513      754.769      
    155000   301.14876      0.0036007403   5.8232358      747.15838     -11.862847      735.29554    
    156000   291.10514      0.0036007403   2.3660993      722.23988     -10.052736      712.18714    
    157000   301.96492      0.0036007403  -0.0040735699   749.18329     -11.420656      737.76263    
    158000   313.56234      0.0036007403   4.4123364      777.95681     -13.775383      764.18143    
    159000   295.02783      0.0036007403   2.2380742      731.97217     -12.59064       719.38153    
    160000   291.67019      0.0036007403  -1.401801       723.64179     -16.094822      707.54697    
    161000   294.2941       0.0036007403   2.2544906      730.15177     -16.815046      713.33672    
    162000   309.26095      0.0036007403   2.5363761      767.28495     -16.843899      750.44105    
    163000   291.73326      0.0036007403   0.82375649     723.79827     -15.862269      707.936      
    164000   287.01395      0.0036007403   0.19482687     712.08953     -14.329821      697.75971    
    165000   311.08365      0.0036007403   2.1652891      771.80712     -12.333811      759.47331    
    166000   302.3676       0.0036007403   5.8426017      750.18234     -14.040993      736.14135    
    167000   289.02535      0.0036007403   2.8282425      717.07986     -13.159581      703.92028    
    168000   292.13847      0.0036007403  -0.83356788     724.8036      -11.344942      713.45866    
    169000   309.39915      0.0036007403   0.56730872     767.62781     -15.033969      752.59384    
    170000   318.0085       0.0036007403   8.1706827      788.98785     -13.114557      775.87329    
    171000   305.86296      0.0036007403   3.2577165      758.85445     -14.81185       744.0426     
    172000   298.95074      0.0036007403   2.6096686      741.70502     -14.763958      726.94106    
    173000   287.63988      0.0036007403   1.6185602      713.64247     -13.522972      700.1195     
    174000   303.66328      0.0036007403   1.1742853      753.39698     -13.520175      739.8768     
    175000   312.60545      0.0036007403   2.3783887      775.58274     -15.848183      759.73456    
    176000   299.30293      0.0036007403   5.2337702      742.57882     -14.271075      728.30775    
    177000   301.09776      0.0036007403   0.16549052     747.03185     -14.048795      732.98306    
    178000   301.83382      0.0036007403   4.6525293      748.85803     -14.134426      734.72361    
    179000   286.25932      0.0036007403   4.4837233      710.21725     -13.556024      696.66123    
    180000   302.55405      0.0036007403   0.8874296      750.64495     -12.830218      737.81473    
    181000   295.44187      0.0036007403   1.5774986      732.99943     -15.455773      717.54366    
    182000   304.11235      0.0036007403   3.3623065      754.51112     -10.120522      744.3906     
    183000   290.23063      0.0036007403   2.9669594      720.07018     -14.909198      705.16099    
    184000   309.49584      0.0036007403   1.5306685      767.8677      -18.632262      749.23544    
    185000   315.33516      0.0036007403  -0.9517034      782.35522     -16.375139      765.98008    
    186000   296.62714      0.0036007403   2.436686       735.94011     -16.501147      719.43896    
    187000   288.12262      0.0036007403   0.54153262     714.84017     -16.890989      697.94918    
    188000   303.58216      0.0036007403   1.8873762      753.19572     -13.560843      739.63487    
    189000   315.65939      0.0036007403   2.6054719      783.15965     -13.505759      769.65389    
    190000   313.10656      0.0036007403   2.1764862      776.826       -13.769982      763.05602    
    191000   293.1678       0.0036007403   1.9630484      727.3574      -14.22055       713.13685    
    192000   297.74418      0.0036007403   1.9941574      738.71151     -13.770355      724.94116    
    193000   306.39418      0.0036007403   2.4272897      760.1724      -12.514398      747.65801    
    194000   308.67491      0.0036007403   2.0430751      765.83097     -13.186678      752.64429    
    195000   299.18697      0.0036007403   3.1920619      742.29113     -13.340447      728.95068    
    196000   295.4552       0.0036007403   0.89696545     733.03249     -13.361592      719.67089    
    197000   301.51273      0.0036007403   1.647905       748.06138     -13.097374      734.96401    
    198000   298.59851      0.0036007403   3.6960695      740.83114     -11.459022      729.37211    
    199000   307.78213      0.0036007403   1.7427678      763.61595     -12.538138      751.07781    
    200000   306.89821      0.0036007403   1.9691715      761.42291     -11.917224      749.50569    
    201000   309.17622      0.0036007403   2.8875404      767.07473     -11.635203      755.43953    
    202000   293.29578      0.0036007403   2.3440968      727.67491     -12.028951      715.64596    
    203000   298.47816      0.0036007403   1.8080058      740.53254     -14.436834      726.09571    
    204000   306.98875      0.0036007403   0.78406877     761.64754     -13.295847      748.35169    
    205000   305.59457      0.0036007403   3.4479544      758.18855     -11.740202      746.44835    
    206000   284.05417      0.0036007403   4.2510558      704.74623     -15.521528      689.2247     
    207000   297.67053      0.0036007403   1.4794915      738.52879     -15.524806      723.00399    
    208000   308.15301      0.0036007403   1.9414764      764.53611     -16.022704      748.51341    
    209000   296.1611       0.0036007403   1.9791317      734.78385     -15.538541      719.24531    
    210000   287.56822      0.0036007403   1.8063825      713.46469     -16.106872      697.35781    
    211000   301.20439      0.0036007403   1.6477172      747.29639     -14.865149      732.43124    
    212000   298.20259      0.0036007403   1.9304906      739.84886     -14.784252      725.0646     
    213000   303.69665      0.0036007403   2.0493056      753.47976     -14.860262      738.6195     
    214000   292.97305      0.0036007403   1.6156478      726.87422     -13.968317      712.9059     
    215000   298.054        0.0036007403   1.8154301      739.48018     -13.382492      726.09769    
    216000   300.3374       0.0036007403   2.1988607      745.14536     -17.212003      727.93335    
    217000   304.39422      0.0036007403   3.6704906      755.21046     -16.924626      738.28583    
    218000   299.12333      0.0036007403   1.5094461      742.13324     -16.205207      725.92803    
    219000   305.43612      0.0036007403   0.62768655     757.79543     -16.50625       741.28918    
    220000   298.45721      0.0036007403   1.9332758      740.48056     -15.336265      725.1443     
    221000   294.67614      0.0036007403   3.3796412      731.09963     -14.732676      716.36695    
    222000   295.70508      0.0036007403   1.371989       733.65245     -14.259813      719.39264    
    223000   288.73415      0.0036007403   1.259777       716.35739     -13.573923      702.78347    
    224000   293.37639      0.0036007403   1.3706773      727.87491     -13.519302      714.35561    
    225000   302.20805      0.0036007403   2.3495777      749.7865      -15.967484      733.81902    
    226000   302.27901      0.0036007403   2.7623528      749.96257     -14.736078      735.22649    
    227000   296.40442      0.0036007403   1.7512258      735.38755     -14.603656      720.78389    
    228000   286.26729      0.0036007403   0.25958954     710.23704     -5.7014663      704.53557    
    229000   299.00855      0.0036007403  -0.30527632     741.84844     -15.167872      726.68057    
    230000   307.19328      0.0036007403   5.0030551      762.155       -14.435321      747.71967    
    231000   290.37934      0.0036007403   0.78940305     720.43916     -13.196054      707.2431     
    232000   293.8445       0.0036007403   1.1297664      729.0363      -14.958556      714.07774    
    233000   309.73249      0.0036007403   2.0078921      768.45485     -13.27768       755.17717    
    234000   304.72378      0.0036007403   2.5631981      756.02811     -12.674455      743.35365    
    235000   296.24363      0.0036007403   2.2843777      734.98862     -12.391897      722.59672    
    236000   292.48514      0.0036007403   1.8611796      725.66369     -12.592062      713.07163    
    237000   299.70691      0.0036007403   1.112427       743.5811      -11.161133      732.41997    
    238000   308.93604      0.0036007403   3.3443633      766.47884     -11.996996      754.48185    
    239000   298.70802      0.0036007403   2.5039937      741.10283     -13.280675      727.82215    
    240000   287.74463      0.0036007403   1.4091042      713.90236     -12.687374      701.21498    
    241000   307.24762      0.0036007403   2.007028       762.28983     -11.436044      750.85378    
    242000   316.78429      0.0036007403   1.8308081      785.95056     -13.308746      772.64181    
    243000   293.19095      0.0036007403   2.0488442      727.41483     -9.1979761      718.21685    
    244000   288.67532      0.0036007403   2.6564082      716.21141     -13.425761      702.78565    
    245000   315.56264      0.0036007403   0.0047951105   782.91962     -11.287092      771.63253    
    246000   292.59485      0.0036007403   2.1325404      725.9359      -12.330811      713.60509    
    247000   298.85525      0.0036007403   2.3501411      741.46812     -13.581177      727.88694    
    248000   309.26886      0.0036007403   2.0774332      767.30457     -10.722876      756.58169    
    249000   295.55063      0.0036007403   0.48398579     733.26926     -11.792532      721.47673    
    250000   291.97562      0.0036007403   2.0342846      724.39957     -15.246897      709.15267    
    251000   292.76995      0.0036007403   1.6192358      726.37032     -13.867366      712.50296    
    252000   307.59558      0.0036007403   2.0265346      763.15312     -14.161826      748.9913     
    253000   308.59261      0.0036007403   2.1815908      765.62678     -15.212248      750.41453    
    254000   295.15551      0.0036007403   2.1411464      732.28895     -12.739914      719.54904    
    255000   291.98998      0.0036007403   1.6335558      724.4352      -13.258289      711.17691    
    256000   298.27671      0.0036007403   2.2996049      740.03275     -13.208591      726.82416    
    257000   303.52884      0.0036007403   1.7892423      753.06343     -12.241858      740.82157    
    258000   295.3597       0.0036007403   1.9035421      732.79556     -14.337101      718.45846    
    259000   296.92791      0.0036007403   1.7950107      736.68634     -17.13216       719.55418    
    260000   295.59824      0.0036007403   1.5535103      733.38737     -14.37933       719.00804    
    261000   306.04497      0.0036007403   2.1444104      759.30601     -13.428636      745.87737    
    262000   293.39275      0.0036007403   2.6222641      727.9155      -12.802064      715.11343    
    263000   293.70457      0.0036007403   1.8125241      728.68912     -13.38841       715.30071    
    264000   308.85127      0.0036007403   1.5548658      766.26852     -14.413323      751.85519    
    265000   299.49547      0.0036007403   2.9773817      743.05653     -11.839796      731.21673    
    266000   291.4492       0.0036007403   0.82354701     723.09349     -8.4845655      714.60892    
    267000   295.82029      0.0036007403   1.95096        733.93829     -11.485991      722.4523     
    268000   307.75138      0.0036007403   2.071239       763.53966     -11.448386      752.09128    
    269000   290.99186      0.0036007403   2.2634071      721.95882     -8.259859       713.69896    
    270000   296.21055      0.0036007403   1.925227       734.90653     -10.978261      723.92827    
    271000   299.02499      0.0036007403   2.103024       741.88924     -10.651203      731.23804    
    272000   305.33664      0.0036007403   2.0822745      757.54861     -9.4200533      748.12856    
    273000   298.29236      0.0036007403   2.5597237      740.07157     -8.6977864      731.37379    
    274000   300.47774      0.0036007403   1.7999071      745.49355     -8.9427582      736.55079    
    275000   297.91249      0.0036007403   1.193362       739.12911     -11.451095      727.67801    
    276000   301.57568      0.0036007403   2.4700886      748.21757     -12.821347      735.39623    
    277000   297.19302      0.0036007403   0.30229548     737.34408     -11.337036      726.00705    
    278000   301.85853      0.0036007403   2.2920109      748.91933     -11.938658      736.98067    
    279000   299.50969      0.0036007403   2.7865487      743.0918      -10.733012      732.35878    
    280000   303.55418      0.0036007403   4.4272703      753.12629     -10.495986      742.6303     
    281000   299.52039      0.0036007403   2.060873       743.11834     -12.873779      730.24456    
    282000   294.83156      0.0036007403   0.34796574     731.48523     -15.312671      716.17255    
    283000   299.1582       0.0036007403   1.3127666      742.21973     -15.412788      726.80694    
    284000   308.6461       0.0036007403   4.7955846      765.75949     -15.463882      750.29561    
    285000   301.28389      0.0036007403  -0.46478353     747.49364     -16.820867      730.67277    
    286000   303.44046      0.0036007403   2.8675366      752.84416     -14.690267      738.15389    
    287000   294.45971      0.0036007403   2.1867163      730.56265     -12.957307      717.60534    
    288000   285.97351      0.0036007403   1.081627       709.50817     -13.719166      695.789      
    289000   293.44978      0.0036007403   0.47024707     728.05699     -12.717478      715.33951    
    290000   314.90849      0.0036007403   2.1845177      781.29664     -14.630481      766.66616    
    291000   309.52787      0.0036007403   2.4634905      767.94717     -15.453727      752.49345    
    292000   294.54276      0.0036007403   2.0011105      730.7687      -14.918248      715.85045    
    293000   295.48685      0.0036007403   2.5439731      733.11101     -16.048652      717.06236    
    294000   308.34835      0.0036007403   2.0764509      765.02076     -14.336376      750.68438    
    295000   305.63682      0.0036007403   1.1017037      758.29337     -15.488126      742.80525    
    296000   286.96857      0.0036007403   1.6893189      711.97692     -15.297711      696.67921    
    297000   296.98155      0.0036007403   3.1261742      736.81941     -16.570124      720.24928    
    298000   308.19581      0.0036007403   3.1753271      764.6423      -4.5110482      760.13125    
    299000   299.30312      0.0036007403   0.01669508     742.5793      -12.588052      729.99125    
    300000   286.41152      0.0036007403   0.96942916     710.59488     -13.227639      697.36724    
    301000   308.70525      0.0036007403   7.4720672      765.90624     -16.703774      749.20246    
    302000   304.98951      0.0036007403   0.85762975     756.68739     -16.678595      740.0088     
    303000   303.3086       0.0036007403   1.9297236      752.517       -16.385594      736.13141    
    304000   300.7652       0.0036007403   1.8299241      746.20676     -13.635705      732.57105    
    305000   307.28649      0.0036007403   2.1161179      762.38626     -15.72223       746.66403    
    306000   294.12465      0.0036007403   1.544436       729.73137     -14.723794      715.00758    
    307000   286.98408      0.0036007403   2.1361205      712.01542     -16.688546      695.32687    
    308000   300.25658      0.0036007403   2.0898844      744.94485     -17.244365      727.70048    
    309000   303.20367      0.0036007403   0.13382732     752.25666     -18.212761      734.04389    
    310000   300.91552      0.0036007403   2.7901584      746.57971     -18.48501       728.0947     
    311000   312.40253      0.0036007403   4.0826571      775.07929     -21.130319      753.94897    
    312000   294.2474       0.0036007403   0.63675588     730.03591     -16.12335       713.91256    
    313000   311.15882      0.0036007403   1.8063195      771.99362     -17.207102      754.78652    
    314000   298.99182      0.0036007403   2.0983947      741.80696     -15.830895      725.97606    
    315000   300.45007      0.0036007403   1.2411795      745.4249      -16.939679      728.48522    
    316000   311.80045      0.0036007403   2.1576327      773.58551     -16.681562      756.90394    
    317000   310.34523      0.0036007403   1.9536146      769.97507     -15.088188      754.88688    
    318000   291.55247      0.0036007403   2.9144044      723.34971     -15.97118       707.37853    
    319000   290.68151      0.0036007403   1.6563594      721.18885     -16.057195      705.13165    
    320000   308.65909      0.0036007403   2.0290773      765.79171     -17.297238      748.49447    
    321000   295.20879      0.0036007403   1.4433648      732.42115     -16.31324       716.1079     
    322000   285.87894      0.0036007403   1.8322405      709.27353     -17.759878      691.51365    
    323000   299.41115      0.0036007403   2.4347086      742.84731     -17.706522      725.14079    
    324000   305.80622      0.0036007403   2.3808226      758.71366     -17.011472      741.70219    
    325000   296.68434      0.0036007403   1.2354373      736.08202     -16.653129      719.42889    
    326000   287.85504      0.0036007403   2.0043887      714.17628     -15.430377      698.74591    
    327000   302.94146      0.0036007403   2.0251271      751.60611     -14.922466      736.68364    
    328000   306.68738      0.0036007403   1.5346452      760.89985     -14.700608      746.19924    
    329000   289.07203      0.0036007403   1.9578446      717.19568     -13.887575      703.30811    
    330000   297.97601      0.0036007403   1.3525979      739.28668     -17.410453      721.87623    
    331000   318.39379      0.0036007403   2.270117       789.94377     -18.418633      771.52514    
    332000   283.85697      0.0036007403   1.9552826      704.25697     -16.345485      687.91149    
    333000   299.06106      0.0036007403   1.0701415      741.97873     -12.758566      729.22016    
    334000   298.97522      0.0036007403   2.1339913      741.76575     -14.237183      727.52857    
    335000   291.20422      0.0036007403   1.667757       722.48569     -11.576745      710.90894    
    336000   305.50756      0.0036007403   1.5126765      757.97267     -16.027869      741.9448     
    337000   298.92628      0.0036007403   2.7753258      741.64433     -15.346155      726.29818    
    338000   288.72203      0.0036007403   1.4768187      716.32733     -15.710145      700.61718    
    339000   311.39498      0.0036007403   1.7884989      772.57952     -15.560067      757.01946    
    340000   305.22209      0.0036007403   1.8514222      757.26442     -13.233603      744.03082    
    341000   318.00731      0.0036007403   1.9802947      788.9849      -16.768729      772.21617    
    342000   291.67926      0.0036007403   3.6246317      723.66428     -13.091846      710.57243    
    343000   291.87311      0.0036007403   2.5381565      724.14523     -13.471864      710.67337    
    344000   307.12941      0.0036007403   1.0757486      761.99654     -14.749543      747.247      
    345000   313.42224      0.0036007403   1.1665873      777.60922     -12.535378      765.07384    
    346000   294.49474      0.0036007403   2.5585492      730.64958     -11.847475      718.8021     
    347000   289.02665      0.0036007403   1.6167231      717.0831      -14.390676      702.69242    
    348000   305.14101      0.0036007403  -0.60498936     757.06325     -15.399585      741.66367    
    349000   298.49747      0.0036007403   2.4873673      740.58045     -18.041229      722.53922    
    350000   304.52601      0.0036007403   1.9634588      755.53741     -15.321304      740.21611    
    351000   293.87682      0.0036007403   1.6793325      729.1165      -15.649953      713.46655    
    352000   302.45765      0.0036007403   1.338627       750.40576     -17.027814      733.37795    
    353000   294.77452      0.0036007403   2.0018441      731.34371     -16.321339      715.02237    
    354000   307.70922      0.0036007403   3.5752347      763.43506     -15.785435      747.64963    
    355000   304.7133       0.0036007403   3.7103209      756.00209     -15.189743      740.81235    
    356000   292.10887      0.0036007403  -0.32579108     724.73017     -14.371619      710.35855    
    357000   297.55027      0.0036007403   1.7596092      738.23043     -14.198053      724.03237    
    358000   309.80428      0.0036007403   2.4380452      768.63295     -11.101602      757.53135    
    359000   293.65306      0.0036007403   3.202309       728.56132     -11.920021      716.6413     
    360000   294.79942      0.0036007403   0.9327251      731.40549     -11.539353      719.86613    
    361000   300.48209      0.0036007403   1.6889997      745.50434     -10.941872      734.56247    
    362000   305.49101      0.0036007403   3.1943367      757.93163     -12.069711      745.86192    
    363000   299.3479       0.0036007403   5.3057389      742.69039     -12.284508      730.40588    
    364000   290.39492      0.0036007403   1.5548084      720.4778      -13.030663      707.44713    
    365000   304.3565       0.0036007403  -0.16218137     755.11686     -14.314598      740.80226    
    366000   316.14396      0.0036007403   2.041438       784.36188     -14.287458      770.07442    
    367000   288.40561      0.0036007403   2.5382246      715.54226     -12.914548      702.62771    
    368000   287.02987      0.0036007403   1.6957088      712.12901     -12.23088       699.89813    
    369000   296.2691       0.0036007403   1.080727       735.05179     -11.064794      723.987      
    370000   304.32435      0.0036007403   2.2926945      755.0371      -13.06482       741.97228    
    371000   295.30927      0.0036007403   1.8817982      732.67043     -13.741052      718.92938    
    372000   297.50073      0.0036007403   2.2829037      738.10752     -12.325379      725.78214    
    373000   299.73395      0.0036007403   1.9552064      743.64819     -9.8774437      733.77074    
    374000   296.68949      0.0036007403   1.5565111      736.09481     -12.128225      723.96659    
    375000   303.19239      0.0036007403   2.1382787      752.22867     -12.661761      739.56691    
    376000   318.85331      0.0036007403   1.9802622      791.08385     -11.235843      779.84801    
    377000   294.18566      0.0036007403   1.4070735      729.88274     -12.935076      716.94767    
    378000   296.44191      0.0036007403   1.4078469      735.48054     -12.028264      723.45227    
    379000   305.37591      0.0036007403   2.1366227      757.64604     -12.520658      745.12538    
    380000   291.16131      0.0036007403   5.075339       722.37923     -14.399409      707.97982    
    381000   283.71031      0.0036007403   1.5070053      703.8931      -13.269516      690.62359    
    382000   308.41217      0.0036007403   0.031654732    765.17909     -12.233303      752.94579    
    383000   308.4784       0.0036007403   0.99296478     765.34343     -11.991081      753.35234    
    384000   297.00578      0.0036007403   3.2910407      736.87952     -13.383635      723.49589    
    385000   289.09692      0.0036007403  -1.6223873      717.25742     -13.153935      704.10349    
    386000   304.17623      0.0036007403   1.2657475      754.6696      -12.033575      742.63603    
    387000   309.76979      0.0036007403   2.5118257      768.54738     -11.738138      756.80924    
    388000   312.59392      0.0036007403   4.2067819      775.55414     -11.486975      764.06716    
    389000   288.27734      0.0036007403   1.9856762      715.22403     -14.380082      700.84395    
    390000   299.08212      0.0036007403  -0.97992928     742.03099     -11.51217       730.51882    
    391000   297.25295      0.0036007403  -0.25794793     737.49276     -11.882444      725.61031    
    392000   306.96418      0.0036007403   4.2384788      761.58659     -15.182114      746.40447    
    393000   299.64222      0.0036007403   1.4406462      743.42061     -14.397708      729.0229     
    394000   307.73608      0.0036007403   1.9315122      763.50169     -13.025353      750.47634    
    395000   299.01675      0.0036007403   2.195947       741.8688      -12.168626      729.70017    
    396000   301.018        0.0036007403   2.0939378      746.83395     -12.681599      734.15235    
    397000   278.83691      0.0036007403   1.8327671      691.80207     -14.286804      677.51526    
    398000   298.89454      0.0036007403   1.8439774      741.5656      -15.046666      726.51893    
    399000   312.3544       0.0036007403   1.6425708      774.95988     -14.118006      760.84187    
    400000   294.60008      0.0036007403   2.8859802      730.91093     -15.001071      715.90985    
    401000   289.04309      0.0036007403   1.348601       717.12386     -16.797015      700.32685    
    402000   298.54653      0.0036007403   1.3661137      740.70217     -14.328215      726.37395    
    403000   310.20648      0.0036007403   2.3868062      769.63083     -15.807594      753.82324    
    404000   290.16195      0.0036007403   3.4866643      719.8998      -16.79561       703.10419    
    405000   301.40346      0.0036007403   0.60923489     747.79029     -14.908178      732.88211    
    406000   301.31362      0.0036007403   1.66717        747.56739     -15.214202      732.35319    
    407000   296.14195      0.0036007403   2.824646       734.73634     -17.176528      717.55981    
    408000   300.37462      0.0036007403   3.1363837      745.23771     -17.035107      728.20261    
    409000   294.22882      0.0036007403  -3.0380007      729.98982     -17.392421      712.5974     
    410000   301.64969      0.0036007403  -1.206062       748.40119     -16.242439      732.15875    
    411000   304.64359      0.0036007403   3.2945931      755.82914     -15.495682      740.33346    
    412000   298.77416      0.0036007403   2.8569125      741.26693     -15.42802       725.83891    
    413000   279.91573      0.0036007403   0.29552786     694.47864     -15.898933      678.57971    
    414000   302.94599      0.0036007403   2.7213294      751.61735     -18.022493      733.59486    
    415000   301.03175      0.0036007403   3.7517809      746.86807     -20.02587       726.8422     
    416000   297.25669      0.0036007403   1.8412848      737.50203     -17.056032      720.446      
    417000   296.328        0.0036007403  -0.10500604     735.19795     -15.412536      719.78541    
    418000   305.87407      0.0036007403   2.85669        758.882       -14.690292      744.19171    
    419000   308.80807      0.0036007403   3.4650786      766.16133     -13.5441        752.61723    
    420000   293.08553      0.0036007403   1.9562978      727.15329     -14.890985      712.2623     
    421000   289.32159      0.0036007403   1.9651728      717.81485     -16.91856       700.89629    
    422000   311.86062      0.0036007403   1.6601441      773.73479     -17.550043      756.18475    
    423000   316.22626      0.0036007403   1.9064544      784.56607     -16.172179      768.39389    
    424000   296.33913      0.0036007403   1.8369908      735.22555     -13.282147      721.9434     
    425000   294.99184      0.0036007403   2.3842624      731.88288     -13.363208      718.51967    
    426000   305.35406      0.0036007403   2.3166245      757.59183     -14.605528      742.98631    
    427000   311.2696       0.0036007403   2.2128389      772.26846     -13.857307      758.41115    
    428000   290.21913      0.0036007403  -1.5433731      720.04167     -14.674548      705.36712    
    429000   283.86352      0.0036007403   2.9844176      704.27323     -15.82259       688.45064    
    430000   301.55192      0.0036007403   2.1812789      748.15863     -16.979635      731.179      
    431000   312.64435      0.0036007403   1.753899       775.67926     -14.25905       761.42021    
    432000   288.53783      0.0036007403   0.65386233     715.87031     -15.902371      699.96794    
    433000   295.91553      0.0036007403   3.8721905      734.1746      -13.04765       721.12695    
    434000   305.23315      0.0036007403   0.4481748      757.29186     -13.127264      744.1646     
    435000   300.83911      0.0036007403   0.61655974     746.39013     -14.388395      732.00173    
    436000   295.76888      0.0036007403   2.6422064      733.81075     -13.40261       720.40814    
    437000   294.60364      0.0036007403   3.1227996      730.91975     -12.21684       718.70291    
    438000   306.17485      0.0036007403   3.608236       759.62824     -13.705243      745.92299    
    439000   307.3705       0.0036007403  -1.8973368      762.59467     -11.890744      750.70393    
    440000   298.61389      0.0036007403   1.8296899      740.86928     -12.662686      728.20659    
    441000   288.66773      0.0036007403   2.0491716      716.19259     -11.473028      704.71957    
    442000   296.61321      0.0036007403   2.0887745      735.90556     -12.122113      723.78344    
    443000   308.90902      0.0036007403   2.4002903      766.41179     -11.220627      755.19116    
    444000   298.81143      0.0036007403   1.7149862      741.35939     -11.306663      730.05273    
    445000   280.95985      0.0036007403   1.3509651      697.06914     -11.706952      685.36219    
    446000   308.86729      0.0036007403   3.0712818      766.30826     -13.023429      753.28483    
    447000   314.63145      0.0036007403   1.0671229      780.60929     -13.143299      767.46599    
    448000   297.89329      0.0036007403   1.0676949      739.08147     -12.061765      727.0197     
    449000   306.16593      0.0036007403   1.4543904      759.60611     -11.209367      748.39674    
    450000   286.81489      0.0036007403   2.2111391      711.59565     -11.614764      699.98089    
    451000   307.64888      0.0036007403   2.1944894      763.28535     -11.866276      751.41907    
    452000   294.65746      0.0036007403   1.1408532      731.05328     -12.097276      718.956      
    453000   289.228        0.0036007403   1.7306176      717.58264     -11.689566      705.89307    
    454000   292.94028      0.0036007403   2.3644426      726.79291     -12.355272      714.43764    
    455000   306.41202      0.0036007403   0.65661047     760.21667     -12.32563       747.89104    
    456000   307.55743      0.0036007403   4.0656405      763.05846     -15.77145       747.28701    
    457000   293.25533      0.0036007403   2.2502331      727.57455     -15.053987      712.52056    
    458000   293.83108      0.0036007403   1.6659759      729.00302     -13.78296       715.22006    
    459000   308.57661      0.0036007403   1.6465403      765.58707     -16.0879        749.49917    
    460000   316.02716      0.0036007403   2.7086         784.07209     -13.721757      770.35033    
    461000   300.78879      0.0036007403   1.5567686      746.26528     -11.862217      734.40306    
    462000   289.45441      0.0036007403   1.75634        718.14436     -13.801879      704.34248    
    463000   291.79171      0.0036007403   2.2827864      723.94329     -14.518335      709.42495    
    464000   311.60182      0.0036007403   2.4556709      773.09269     -12.013992      761.0787     
    465000   302.65513      0.0036007403   1.714102       750.89571     -11.061102      739.83461    
    466000   298.35136      0.0036007403   1.4185789      740.21795     -12.3905        727.82745    
    467000   298.07369      0.0036007403   2.8614697      739.52903     -12.123132      727.4059     
    468000   294.88974      0.0036007403   1.9845984      731.62957     -14.266828      717.36275    
    469000   300.09616      0.0036007403   1.6265155      744.54685     -14.847576      729.69927    
    470000   301.28586      0.0036007403   1.8684668      747.49853     -14.755071      732.74346    
    471000   289.16903      0.0036007403   1.0124524      717.43633     -10.978908      706.45742    
    472000   295.40318      0.0036007403   1.7708948      732.90343     -13.732058      719.17137    
    473000   308.81679      0.0036007403   2.3973864      766.18298     -14.526369      751.65661    
    474000   297.49211      0.0036007403   1.8497686      738.08612     -12.603216      725.48291    
    475000   306.04367      0.0036007403   2.5981961      759.30278     -13.138128      746.16465    
    476000   303.80684      0.0036007403   1.4896764      753.75314     -15.242248      738.51089    
    477000   296.55527      0.0036007403   2.5602298      735.7618      -16.442868      719.31893    
    478000   299.96827      0.0036007403   2.4246089      744.22955     -16.388839      727.84071    
    479000   300.57105      0.0036007403   0.59478252     745.72505     -15.269987      730.45506    
    480000   293.88284      0.0036007403   2.8593933      729.13143     -16.917551      712.21387    
    481000   296.9941       0.0036007403   0.89667427     736.85054     -18.972718      717.87782    
    482000   320.1403       0.0036007403   2.2388974      794.2769      -17.350318      776.92659    
    483000   303.05094      0.0036007403   1.9410871      751.87773     -17.164839      734.7129     
    484000   287.86167      0.0036007403   2.0412648      714.19275     -19.85741       694.33534    
    485000   299.82935      0.0036007403   2.7963616      743.88487     -17.116201      726.76867    
    486000   308.77856      0.0036007403   1.5540945      766.08813     -17.238702      748.84942    
    487000   301.35358      0.0036007403   0.44022443     747.66654     -17.473059      730.19348    
    488000   290.29835      0.0036007403   1.1460507      720.23821     -18.254733      701.98348    
    489000   299.50744      0.0036007403   1.6517282      743.08621     -18.269382      724.81683    
    490000   297.63222      0.0036007403   3.1539386      738.43374     -19.082673      719.35107    
    491000   305.27554      0.0036007403   4.2281721      757.39703     -15.680579      741.71645    
    492000   296.79208      0.0036007403   2.2273721      736.34932     -16.046796      720.30252    
    493000   300.65137      0.0036007403   0.92948625     745.92433     -17.952219      727.97211    
    494000   289.95489      0.0036007403   1.4303507      719.38608     -17.326127      702.05996    
    495000   292.9127       0.0036007403   3.906178       726.72447     -16.788013      709.93646    
    496000   298.92802      0.0036007403  -0.16424273     741.64865     -15.128524      726.52013    
    497000   295.11075      0.0036007403   0.67264219     732.1779      -16.181434      715.99647    
    498000   301.68987      0.0036007403   2.8909791      748.50089     -14.309957      734.19093    
    499000   304.63679      0.0036007403   3.764423       755.81229     -17.301067      738.51122    
    500000   307.83291      0.0036007403   0.86761479     763.74193     -17.113296      746.62863    
    501000   290.81549      0.0036007403   2.8891684      721.52126     -15.470972      706.05028    
    502000   307.72575      0.0036007403   2.4865107      763.47606     -16.545508      746.93055    
    503000   282.59715      0.0036007403   1.9953634      701.13132     -16.135686      684.99563    
    504000   293.33358      0.0036007403   1.7432605      727.76871     -15.099661      712.66905    
    505000   306.61339      0.0036007403   2.3804562      760.71627     -14.112818      746.60345    
    506000   296.214        0.0036007403   3.1154039      734.9151      -15.696371      719.21873    
    507000   289.30319      0.0036007403   1.0299604      717.7692      -15.259581      702.50962    
    508000   300.32567      0.0036007403   1.4686109      745.11626     -14.793053      730.3232     
    509000   306.35616      0.0036007403   2.3744808      760.07809     -12.925937      747.15215    
    510000   298.90353      0.0036007403   1.9795124      741.58791     -12.367273      729.22063    
    511000   293.14445      0.0036007403   1.3992623      727.29947     -14.041124      713.25835    
    512000   295.88268      0.0036007403   2.0181682      734.09309     -15.118292      718.9748     
    513000   297.91505      0.0036007403   2.0975362      739.13544     -14.949883      724.18556    
    514000   296.46809      0.0036007403   2.2777642      735.54551     -12.927811      722.6177     
    515000   292.9247       0.0036007403   2.1302923      726.75425     -13.683424      713.07082    
    516000   296.09373      0.0036007403   1.615732       734.6167      -11.870941      722.74576    
    517000   302.54694      0.0036007403   2.0061037      750.62729     -11.680782      738.94651    
    518000   298.61808      0.0036007403   1.9761647      740.87969     -13.87686       727.00283    
    519000   294.88886      0.0036007403   0.64017896     731.6274      -16.578965      715.04844    
    520000   308.07988      0.0036007403   2.6212747      764.35467     -15.024386      749.33028    
    521000   298.92457      0.0036007403   1.6096757      741.64009     -16.803514      724.83657    
    522000   291.71305      0.0036007403   1.8823177      723.74811     -12.983367      710.76474    
    523000   301.29489      0.0036007403   1.9775871      747.52092     -13.03408       734.48684    
    524000   308.1893       0.0036007403   2.9592774      764.62616     -13.183754      751.4424     
    525000   290.05244      0.0036007403   2.5236245      719.6281      -12.657825      706.97027    
    526000   308.38035      0.0036007403   1.3442677      765.10015     -12.11262       752.98753    
    527000   306.24001      0.0036007403   1.7262474      759.78991     -12.455364      747.33455    
    528000   293.67169      0.0036007403   2.6959323      728.60756     -13.074831      715.53273    
    529000   302.32396      0.0036007403   2.8449412      750.07408     -14.322294      735.75179    
    530000   302.41886      0.0036007403   1.9515055      750.30953     -12.018084      738.29145    
    531000   301.40229      0.0036007403   1.2047467      747.7874      -14.825376      732.96202    
    532000   290.87473      0.0036007403   1.8445206      721.66822     -14.257744      707.41048    
    533000   297.80521      0.0036007403   1.9799858      738.86295     -12.538809      726.32414    
    534000   316.00716      0.0036007403   1.9206573      784.02248     -15.717125      768.30536    
    535000   299.28076      0.0036007403   2.8133985      742.52381     -13.694534      728.82927    
    536000   289.97642      0.0036007403   2.0185544      719.43948     -11.502673      707.93681    
    537000   300.02662      0.0036007403  -1.1214321      744.37432     -12.783904      731.59042    
    538000   306.68297      0.0036007403   1.0972794      760.88891     -14.599151      746.28976    
    539000   310.79457      0.0036007403   5.8052723      771.0899      -10.546668      760.54323    
    540000   302.94148      0.0036007403   2.4286757      751.60616     -13.669007      737.93715    
    541000   288.66497      0.0036007403   0.24372153     716.18576     -12.633305      703.55245    
    542000   299.79707      0.0036007403  -0.098582288    743.80479     -10.975178      732.82962    
    543000   316.56704      0.0036007403   1.4519881      785.41155     -10.934919      774.47663    
    544000   297.98899      0.0036007403   3.036936       739.31889     -11.262637      728.05625    
    545000   292.25238      0.0036007403   1.7447328      725.08622     -10.937188      714.14903    
    546000   315.14971      0.0036007403   2.0883961      781.89512     -12.719101      769.17602    
    547000   305.90708      0.0036007403   1.9539706      758.96389     -14.618763      744.34513    
    548000   302.47878      0.0036007403   1.6243187      750.4582      -12.024728      738.43347    
    549000   293.75783      0.0036007403   2.1448549      728.82128     -11.906018      716.91526    
    550000   302.40321      0.0036007403   2.15287        750.27069     -12.437487      737.83321    
    551000   304.3815       0.0036007403   1.9673733      755.17889     -11.801667      743.37722    
    552000   291.69598      0.0036007403   1.8076582      723.70577     -13.289745      710.41602    
    553000   301.49379      0.0036007403   2.0199254      748.01439     -12.454235      735.56016    
    554000   300.34009      0.0036007403   1.9323565      745.15204     -13.845145      731.30689    
    555000   296.21756      0.0036007403   1.5488686      734.92392     -10.860004      724.06392    
    556000   284.6196       0.0036007403   1.5969678      706.14908     -12.386761      693.76232    
    557000   291.7215       0.0036007403   2.0887452      723.76909     -10.173369      713.59572    
    558000   291.76393      0.0036007403   2.0429555      723.87436     -11.073614      712.80074    
    559000   312.91059      0.0036007403   1.7378899      776.3398      -11.646362      764.69344    
    560000   317.01416      0.0036007403   0.49118791     786.52088     -12.51157       774.00931    
    561000   293.10542      0.0036007403   0.65207036     727.20262     -9.9638072      717.23881    
    562000   291.96675      0.0036007403   3.9834845      724.37756     -9.2623821      715.11518    
    563000   301.66574      0.0036007403   4.625189       748.44101     -9.2335192      739.20749    
    564000   318.55298      0.0036007403   1.9069306      790.33872     -9.5163835      780.82233    
    565000   292.47253      0.0036007403   0.21101308     725.63241     -9.1853863      716.44702    
    566000   288.14221      0.0036007403   2.4574534      714.88876     -13.085709      701.80305    
    567000   294.96715      0.0036007403   3.7318877      731.82164     -10.449547      721.37209    
    568000   317.22635      0.0036007403   2.2281123      787.04731     -10.115528      776.93178    
    569000   309.23259      0.0036007403   2.1805172      767.21457     -11.832442      755.38213    
    570000   282.50998      0.0036007403   2.4624468      700.91505     -11.165876      689.74918    
    571000   298.60693      0.0036007403   1.8669617      740.85202     -11.625105      729.22692    
    572000   298.47561      0.0036007403   2.2669506      740.52621     -11.949473      728.57673    
    573000   302.86545      0.0036007403   1.8124393      751.41753     -12.179338      739.2382     
    574000   292.95359      0.0036007403   1.8531848      726.82593     -11.471781      715.35415    
    575000   300.49384      0.0036007403   1.737993       745.53351     -12.597344      732.93617    
    576000   311.86056      0.0036007403   2.2354784      773.73464     -9.4610047      764.27364    
    577000   309.29969      0.0036007403   1.6192693      767.38106     -14.537417      752.84364    
    578000   292.51889      0.0036007403   1.6695098      725.74742     -13.532687      712.21473    
    579000   289.64951      0.0036007403   2.1827386      718.62841     -13.872772      704.75564    
    580000   304.66532      0.0036007403   2.3545982      755.88306     -9.999061       745.884      
    581000   300.92717      0.0036007403   2.9185732      746.60861     -12.260739      734.34787    
    582000   302.54804      0.0036007403   2.0433436      750.63002     -12.568476      738.06155    
    583000   304.9603       0.0036007403   1.2030144      756.6149      -15.108378      741.50652    
    584000   288.39051      0.0036007403   2.586203       715.50482     -14.022346      701.48247    
    585000   300.41251      0.0036007403   2.3575284      745.33171     -17.213053      728.11866    
    586000   306.6747       0.0036007403   0.4760522      760.86839     -13.097893      747.7705     
    587000   300.65171      0.0036007403   1.8761461      745.92517     -13.713086      732.21209    
    588000   296.66633      0.0036007403   2.2698847      736.03735     -15.272896      720.76445    
    589000   300.095        0.0036007403   1.5421129      744.54396     -11.530975      733.01298    
    590000   298.57068      0.0036007403   1.8958983      740.76209     -11.617567      729.14453    
    591000   300.80019      0.0036007403   2.093137       746.29357     -12.642364      733.6512     
    592000   295.97405      0.0036007403   2.143586       734.31978     -11.223427      723.09636    
    593000   305.52031      0.0036007403   1.6483726      758.00431     -13.545154      744.45916    
    594000   296.28635      0.0036007403   1.9491498      735.0946      -12.701666      722.39294    
    595000   294.89243      0.0036007403   2.1158592      731.63624     -14.178299      717.45794    
    596000   295.5426       0.0036007403   0.87032577     733.24934     -18.109633      715.1397     
    597000   296.57082      0.0036007403  -0.52290926     735.80037     -16.108693      719.69168    
    598000   300.10282      0.0036007403   2.0752696      744.56336     -11.466994      733.09637    
    599000   298.26092      0.0036007403   3.3117965      739.99355     -12.475736      727.51782    
    600000   297.82711      0.0036007403   1.8964958      738.91728     -11.393046      727.52423    
    601000   297.21492      0.0036007403   0.89288194     737.3984      -10.829052      726.56935    
    602000   312.89533      0.0036007403   3.3642858      776.30193     -11.512865      764.78907    
    603000   304.42276      0.0036007403   1.4236996      755.28127     -11.773118      743.50815    
    604000   289.53487      0.0036007403  -1.0113782      718.34398     -12.68529       705.65869    
    605000   303.62477      0.0036007403   3.763122       753.30143     -11.247849      742.05358    
    606000   302.26181      0.0036007403   3.7853413      749.91988     -11.868502      738.05138    
    607000   307.71001      0.0036007403  -1.9724706      763.43701     -12.325408      751.1116     
    608000   290.86689      0.0036007403   2.2585948      721.64877     -11.73236       709.91641    
    609000   305.09332      0.0036007403   4.5997076      756.94494     -7.9994133      748.94553    
    610000   306.11658      0.0036007403   2.2557672      759.48366     -9.7318954      749.75177    
    611000   297.43677      0.0036007403  -0.91366556     737.94882     -7.6170752      730.33174    
    612000   295.14163      0.0036007403   7.291675       732.25451     -10.239528      722.01498    
    613000   318.24543      0.0036007403   2.5382902      789.57568     -10.493814      779.08186    
    614000   298.37135      0.0036007403  -0.77548699     740.26756     -11.101264      729.16629    
    615000   283.70859      0.0036007403   5.6448168      703.88884     -10.010016      693.87883    
    616000   309.29676      0.0036007403   1.74558        767.37378     -10.352544      757.02124    
    617000   302.04827      0.0036007403  -1.5297007      749.39008     -10.583913      738.80617    
    618000   293.787        0.0036007403   3.0003296      728.89365     -11.339309      717.55434    
    619000   302.28882      0.0036007403   6.5992031      749.98689     -11.662912      738.32398    
    620000   314.6117       0.0036007403   2.6655384      780.5603      -11.936684      768.62361    
    621000   296.38741      0.0036007403  -2.2288036      735.34535     -10.007021      725.33832    
    622000   295.04267      0.0036007403   2.7020085      732.00901     -10.323586      721.68542    
    623000   305.56376      0.0036007403   3.3736374      758.11212     -10.066247      748.04588    
    624000   313.16663      0.0036007403   1.2176648      776.97505     -9.8661746      767.10888    
    625000   289.21911      0.0036007403  -0.35442424     717.56058     -8.888725       708.67186    
    626000   298.58579      0.0036007403   3.7831271      740.79958     -7.2032903      733.59628    
    627000   306.08317      0.0036007403   2.5202834      759.40077     -12.614491      746.78628    
    628000   298.83357      0.0036007403  -1.6205997      741.41433     -13.491734      727.9226     
    629000   296.49484      0.0036007403   2.8111533      735.61188     -10.302956      725.30892    
    630000   299.46788      0.0036007403   2.4485113      742.98806     -11.681485      731.30657    
    631000   303.31013      0.0036007403   1.3253304      752.5208      -10.776518      741.74428    
    632000   303.62618      0.0036007403   0.46619731     753.30493     -9.6236342      743.6813     
    633000   287.51564      0.0036007403   3.3289661      713.33423     -9.4441146      703.89012    
    634000   306.24352      0.0036007403   2.6607883      759.79861     -9.7173756      750.08124    
    635000   308.51459      0.0036007403   1.7755628      765.4332      -8.3113189      757.12188    
    636000   297.26444      0.0036007403   1.6922162      737.52127     -10.818584      726.70268    
    637000   282.57634      0.0036007403   1.7370242      701.07969     -10.959267      690.12042    
    638000   299.55618      0.0036007403   2.07998        743.20714     -9.7218226      733.48532    
    639000   319.06592      0.0036007403   2.015035       791.61133     -10.745928      780.8654     
    640000   299.11291      0.0036007403   1.9248009      742.10738     -13.512227      728.59515    
    641000   284.41516      0.0036007403   2.0831679      705.64185     -12.66517       692.97668    
    642000   308.70017      0.0036007403   2.1358614      765.89362     -13.566639      752.32698    
    643000   300.39843      0.0036007403   1.4427252      745.29678     -10.819196      734.47758    
    644000   289.91718      0.0036007403   1.5751055      719.29251     -10.598423      708.69408    
    645000   298.44738      0.0036007403   1.973051       740.45619     -14.382654      726.07353    
    646000   321.27968      0.0036007403   2.7567325      797.10375     -11.764624      785.33913    
    647000   301.82176      0.0036007403   1.1674064      748.82812     -12.773412      736.05471    
    648000   298.29165      0.0036007403   0.84047267     740.06981     -12.374983      727.69482    
    649000   276.43077      0.0036007403   1.7108635      685.83237     -11.881118      673.95125    
    650000   300.65155      0.0036007403   2.6262797      745.92477     -13.362592      732.56218    
    651000   311.53371      0.0036007403   3.0425687      772.92372     -11.77505       761.14867    
    652000   299.46359      0.0036007403   0.7929759      742.97742     -11.822469      731.15495    
    653000   288.92808      0.0036007403   1.1732731      716.83852     -9.0735579      707.76496    
    654000   288.05482      0.0036007403   2.4202218      714.67195     -10.596787      704.07516    
    655000   314.23784      0.0036007403   2.5083256      779.63275     -11.375218      768.25753    
    656000   303.0913       0.0036007403  -0.62753571     751.97786     -12.1801        739.79776    
    657000   293.54084      0.0036007403   1.4819358      728.28293     -11.381492      716.90143    
    658000   296.70144      0.0036007403   3.2612853      736.12445     -15.167597      720.95686    
    659000   312.55136      0.0036007403   2.5328732      775.44855     -16.161151      759.2874     
    660000   318.1227       0.0036007403   1.1233257      789.27118     -13.478765      775.79242    
    661000   282.64471      0.0036007403   1.6280635      701.24931     -10.91368       690.33563    
    662000   303.71701      0.0036007403   2.9749824      753.53027     -12.293985      741.23629    
    663000   312.64941      0.0036007403   1.8081758      775.6918      -11.816971      763.87483    
    664000   310.64053      0.0036007403   1.987724       770.70772     -10.69897       760.00875    
    665000   294.82735      0.0036007403   2.2106658      731.47479     -11.029498      720.44529    
    666000   292.02519      0.0036007403   0.63465945     724.52256     -11.392534      713.13002    
    667000   313.65384      0.0036007403   1.5417997      778.18383     -12.562567      765.62126    
    668000   303.39977      0.0036007403   1.9728012      752.74319     -12.613059      740.13013    
    669000   288.7833       0.0036007403   2.0016253      716.47933     -12.054577      704.42475    
    670000   305.8986       0.0036007403   2.5650859      758.94286     -12.21006       746.7328     
    671000   302.54832      0.0036007403   2.0006535      750.63072     -12.319246      738.31148    
    672000   296.07677      0.0036007403   2.0225175      734.57462     -12.07197       722.50265    
    673000   308.96208      0.0036007403   2.1943806      766.54343     -13.454513      753.08891    
    674000   296.91435      0.0036007403   2.0994286      736.6527      -13.003115      723.64958    
    675000   292.91645      0.0036007403   1.8607116      726.73379     -14.817557      711.91623    
    676000   308.58486      0.0036007403   2.6008204      765.60755     -16.583354      749.0242     
    677000   308.24123      0.0036007403   0.60732106     764.755       -12.932063      751.82294    
    678000   302.14855      0.0036007403   2.0259129      749.63888     -15.21527       734.42361    
    679000   293.16225      0.0036007403   2.0876393      727.34363     -15.796037      711.54759    
    680000   307.01157      0.0036007403   2.1256478      761.70417     -14.366057      747.33811    
    681000   310.04001      0.0036007403   1.6915818      769.21781     -13.789462      755.42835    
    682000   290.07308      0.0036007403   2.0665286      719.67931     -11.875139      707.80417    
    683000   288.90346      0.0036007403   2.5400852      716.77744     -13.185377      703.59206    
    684000   307.83911      0.0036007403   1.7163779      763.75731     -15.645261      748.11205    
    685000   297.54123      0.0036007403  -2.5026739      738.20799     -14.370372      723.83762    
    686000   293.05862      0.0036007403   3.6918323      727.0865      -14.222703      712.8638     
    687000   310.20537      0.0036007403  -0.45666576     769.62807     -12.492866      757.1352     
    688000   304.24864      0.0036007403   0.052446878    754.84927     -13.662298      741.18697    
    689000   291.8326       0.0036007403   0.99586025     724.04473     -13.334864      710.70987    
    690000   306.77002      0.0036007403   2.4025145      761.10487     -10.610008      750.49486    
    691000   310.84648      0.0036007403   1.9151171      771.21869     -11.81114       759.40755    
    692000   299.76479      0.0036007403   0.096045952    743.72472     -11.028022      732.6967     
    693000   293.98483      0.0036007403   2.1185576      729.38448     -11.376491      718.00799    
    694000   305.14758      0.0036007403   1.7465904      757.07956     -12.26139       744.81817    
    695000   302.92709      0.0036007403   2.1951597      751.57045     -13.561661      738.00879    
    696000   296.72516      0.0036007403   2.5785651      736.18329     -14.011983      722.17131    
    697000   290.59511      0.0036007403   2.6728894      720.97449     -10.731116      710.24337    
    698000   282.97793      0.0036007403   1.5945681      702.07604     -12.660207      689.41584    
    699000   309.54546      0.0036007403   1.858034       767.99081     -12.515639      755.47517    
    700000   294.28213      0.0036007403   2.2188013      730.12207     -12.517868      717.60421    
    701000   289.68128      0.0036007403   1.8715527      718.70723     -9.1360416      709.57119    
    702000   312.25506      0.0036007403   1.0179948      774.71341     -10.193172      764.52023    
    703000   297.14093      0.0036007403   1.655499       737.21485     -10.841691      726.37316    
    704000   304.44158      0.0036007403   1.6465313      755.32795     -9.9210425      745.40691    
    705000   329.16124      0.0036007403   3.449746       816.65811     -10.218966      806.43914    
    706000   301.00568      0.0036007403   1.9322814      746.80339     -11.701225      735.10217    
    707000   302.6783       0.0036007403   1.9337278      750.95321     -10.427041      740.52617    
    708000   301.37418      0.0036007403   1.8396468      747.71765     -12.168189      735.54946    
    709000   300.36019      0.0036007403   2.0361977      745.2019      -12.926821      732.27508    
    710000   304.7443       0.0036007403   2.5062422      756.07901     -9.813239       746.26577    
    711000   301.21405      0.0036007403   1.9481055      747.32036     -10.491596      736.82876    
    712000   304.95994      0.0036007403   1.6592804      756.61401     -9.5215071      747.0925     
    713000   297.82296      0.0036007403   1.1411639      738.90698     -12.566848      726.34013    
    714000   288.33509      0.0036007403   2.397189       715.3673      -10.657316      704.70999    
    715000   310.43883      0.0036007403   3.9399185      770.2073      -10.995226      759.21207    
    716000   309.88653      0.0036007403   1.1969907      768.83702     -9.0396205      759.7974     
    717000   294.20593      0.0036007403   2.1527379      729.93302     -9.8678205      720.0652     
    718000   301.91164      0.0036007403   3.3628525      749.05109     -13.84301       735.20808    
    719000   317.68846      0.0036007403   1.9963294      788.19383     -13.686336      774.5075     
    720000   293.59763      0.0036007403   0.43177169     728.42382     -14.867589      713.55623    
    721000   291.27083      0.0036007403   2.3888579      722.65097     -11.098817      711.55215    
    722000   309.86172      0.0036007403   2.1652463      768.77548     -12.081326      756.69415    
    723000   302.09357      0.0036007403   2.0225737      749.50247     -12.624642      736.87782    
    724000   301.31409      0.0036007403   1.9999605      747.56856     -13.742112      733.82645    
    725000   307.96821      0.0036007403   2.8125937      764.07763     -16.040024      748.0376     
    726000   302.60655      0.0036007403   2.1479376      750.77519     -14.678561      736.09663    
    727000   301.50394      0.0036007403   2.5693077      748.03958     -14.923482      733.1161     
    728000   299.53041      0.0036007403   1.2947944      743.14321     -11.928299      731.21491    
    729000   300.18424      0.0036007403   1.7064994      744.76536     -9.547955       735.21741    
    730000   303.77378      0.0036007403   2.5166109      753.67113     -12.063921      741.60721    
    731000   290.18097      0.0036007403   3.7579937      719.94698     -8.6663614      711.28062    
    732000   298.12182      0.0036007403   1.0076067      739.64845     -9.2430129      730.40544    
    733000   310.42719      0.0036007403   2.1532035      770.17843     -12.655311      757.52311    
    734000   294.68188      0.0036007403   2.4148537      731.11386     -11.378773      719.73508    
    735000   308.22553      0.0036007403   1.832118       764.71604     -14.293338      750.4227     
    736000   312.19924      0.0036007403   2.1381118      774.57491     -11.727698      762.84722    
    737000   293.74368      0.0036007403   2.1403614      728.78617     -9.544221       719.24195    
    738000   290.07115      0.0036007403   1.9022088      719.67453     -9.0935238      710.581      
    739000   306.29961      0.0036007403   1.7986561      759.93778     -7.62268        752.3151     
    740000   311.73316      0.0036007403   3.4537676      773.41857     -4.4086207      769.00995    
    741000   302.9145       0.0036007403   3.4582321      751.53924     -7.7241915      743.81504    
    742000   293.53225      0.0036007403   1.7360919      728.26161     -9.698118       718.56349    
    743000   292.914        0.0036007403   1.7680494      726.72771     -10.079231      716.64848    
    744000   313.4699       0.0036007403   2.31695        777.72746     -11.302954      766.42451    
    745000   304.4191       0.0036007403   2.2867781      755.27219     -9.3938172      745.87837    
    746000   283.022        0.0036007403   2.3360141      702.18538     -7.3040975      694.88128    
    747000   286.79166      0.0036007403   1.6490706      711.53802     -8.2105287      703.32749    
    748000   313.71483      0.0036007403   1.7218872      778.33514     -8.8441478      769.49099    
    749000   303.44764      0.0036007403   2.0299639      752.86197     -8.7256386      744.13633    
    750000   287.38292      0.0036007403   2.7872505      713.00494     -11.330029      701.67492    
    751000   283.71095      0.0036007403   2.1974857      703.89468     -11.820069      692.07461    
    752000   294.06468      0.0036007403   1.8509607      729.58257     -9.1835342      720.39904    
    753000   297.51972      0.0036007403   1.2484959      738.15464     -11.46646       726.68818    
    754000   299.05288      0.0036007403   0.97952781     741.95844     -13.23375       728.72469    
    755000   299.02937      0.0036007403   2.0616048      741.90011     -10.439047      731.46106    
    756000   313.39454      0.0036007403   4.4893398      777.5405      -9.6949912      767.84551    
    757000   290.72994      0.0036007403   3.0299368      721.309       -9.9539602      711.35504    
    758000   303.29822      0.0036007403   0.997578       752.49126     -11.802774      740.68848    
    759000   302.12667      0.0036007403   3.3589719      749.5846      -10.215573      739.36902    
    760000   289.07592      0.0036007403   2.8827938      717.20532     -11.880362      705.32495    
    761000   297.99422      0.0036007403   2.0120506      739.33188     -11.903187      727.42869    
    762000   309.57038      0.0036007403  -0.57255892     768.05264     -13.757242      754.2954     
    763000   303.57942      0.0036007403   2.5261611      753.1889      -12.694509      740.49439    
    764000   289.77822      0.0036007403   3.2780201      718.94774     -11.798038      707.14971    
    765000   290.0142       0.0036007403   1.2512767      719.53322     -10.504906      709.02831    
    766000   309.66725      0.0036007403   1.7720425      768.29297     -9.5919498      758.70102    
    767000   293.46132      0.0036007403   1.9040712      728.08562     -9.0926036      718.99301    
    768000   290.87171      0.0036007403   1.5327914      721.66072     -9.2128556      712.44787    
    769000   294.78429      0.0036007403   2.5064099      731.36796     -11.047687      720.32027    
    770000   298.70935      0.0036007403   2.8501473      741.10613     -11.283633      729.8225     
    771000   302.60565      0.0036007403   1.9056684      750.77296     -9.37636        741.3966     
    772000   301.00336      0.0036007403   1.6528504      746.79763     -12.463533      734.3341     
    773000   300.83642      0.0036007403   1.7407935      746.38345     -12.766555      733.61689    
    774000   292.91407      0.0036007403   2.0172644      726.72788     -13.071744      713.65614    
    775000   299.42216      0.0036007403   2.3863466      742.87462     -12.379308      730.49531    
    776000   302.91349      0.0036007403   0.3551948      751.53672     -14.326238      737.21048    
    777000   301.51738      0.0036007403   2.0505541      748.07292     -14.882941      733.18998    
    778000   296.99326      0.0036007403   0.99047709     736.84847     -12.623275      724.2252     
    779000   297.07445      0.0036007403   0.56182334     737.04991     -12.508269      724.54164    
    780000   302.87646      0.0036007403   2.1826337      751.44485     -13.289071      738.15577    
    781000   304.17924      0.0036007403   1.7571044      754.67708     -10.422922      744.25416    
    782000   285.22219      0.0036007403   1.9546393      707.64412     -8.9304416      698.71367    
    783000   295.88576      0.0036007403   2.2183867      734.10074     -10.780165      723.32057    
    784000   313.02749      0.0036007403   2.0990745      776.62983     -11.696288      764.93354    
    785000   284.14458      0.0036007403   1.6828364      704.97055     -11.002364      693.96818    
    786000   291.03732      0.0036007403   1.8729021      722.07162     -9.6599961      712.41162    
    787000   296.57595      0.0036007403   2.2009659      735.81311     -9.8721604      725.94095    
    788000   308.33668      0.0036007403   2.0894353      764.9918      -11.021964      753.96984    
    789000   302.54645      0.0036007403   1.6901948      750.62607     -11.038824      739.58725    
    790000   296.93262      0.0036007403   1.9530371      736.69802     -12.57303       724.12499    
    791000   302.0682       0.0036007403   2.0806888      749.43954     -11.543611      737.89593    
    792000   304.75636      0.0036007403   2.0572782      756.10894     -11.262967      744.84597    
    793000   312.28577      0.0036007403   2.0948197      774.78959     -11.664572      763.12502    
    794000   287.2065       0.0036007403   1.8531546      712.56724     -11.016441      701.5508     
    795000   299.45547      0.0036007403   2.5463669      742.95728     -10.697861      732.25942    
    796000   309.45524      0.0036007403   2.041222       767.76698     -10.788123      756.97885    
    797000   295.88353      0.0036007403   1.038606       734.09518     -10.403781      723.6914     
    798000   294.87883      0.0036007403   1.9786517      731.6025      -9.5541298      722.04837    
    799000   292.55137      0.0036007403   2.1665704      725.82801     -11.060995      714.76702    
    800000   305.5963       0.0036007403   1.8880564      758.19284     -12.225497      745.96734    
    801000   296.89388      0.0036007403   2.1036306      736.6019      -12.522159      724.07974    
    802000   303.3977       0.0036007403   2.0563284      752.73806     -12.076931      740.66113    
    803000   293.17931      0.0036007403   1.6353862      727.38596     -10.180027      717.20593    
    804000   311.41199      0.0036007403   2.1513933      772.62173     -9.2892123      763.33252    
    805000   302.81097      0.0036007403   1.601933       751.28236     -8.5141627      742.7682     
    806000   296.33297      0.0036007403   1.8675277      735.21026     -10.516318      724.69394    
    807000   309.46819      0.0036007403   1.8953046      767.79911     -10.408398      757.39071    
    808000   313.7259       0.0036007403   1.9461654      778.36261     -9.8714553      768.49115    
    809000   299.19673      0.0036007403   2.4800507      742.31534     -10.346516      731.96882    
    810000   294.00616      0.0036007403   2.0706199      729.4374      -13.243143      716.19425    
    811000   293.33742      0.0036007403   1.2511582      727.77821     -12.843872      714.93434    
    812000   309.13449      0.0036007403   2.1694345      766.97119     -11.837764      755.13343    
    813000   298.43867      0.0036007403   2.2850078      740.43456     -13.179259      727.2553     
    814000   290.95037      0.0036007403   0.39162889     721.85588     -12.312867      709.54301    
    815000   320.9527       0.0036007403   1.1036476      796.29249     -11.315637      784.97685    
    816000   294.97402      0.0036007403   3.286656       731.83868     -11.982028      719.85665    
    817000   286.73831      0.0036007403   0.2553221      711.40564     -11.044058      700.36158    
    818000   296.12188      0.0036007403   1.9846346      734.68654     -10.927963      723.75858    
    819000   305.50445      0.0036007403  -1.731937       757.96496     -12.483102      745.48185    
    820000   294.63361      0.0036007403   4.1964208      730.9941      -12.393899      718.6002     
    821000   289.58227      0.0036007403   2.4105783      718.4616      -13.156759      705.30484    
    822000   306.37912      0.0036007403   0.55970997     760.13504     -12.003487      748.13156    
    823000   309.02314      0.0036007403   3.7824704      766.69492     -13.095585      753.59933    
    824000   290.94117      0.0036007403   4.6314318      721.83305     -13.832688      708.00037    
    825000   289.41611      0.0036007403   4.342772       718.04936     -14.395917      703.65344    
    826000   305.23469      0.0036007403   0.71757414     757.29569     -13.380272      743.91542    
    827000   314.94763      0.0036007403  -4.8952074      781.39376     -13.193317      768.20044    
    828000   293.30631      0.0036007403   4.5128494      727.70103     -12.277903      715.42313    
    829000   302.14012      0.0036007403   5.7651627      749.61797     -11.774718      737.84326    
    830000   303.47568      0.0036007403   1.6301005      752.93152     -14.672184      738.25934    
    831000   298.50692      0.0036007403   0.063175583    740.6039      -13.553742      727.05016    
    832000   303.51179      0.0036007403  -0.1620079      753.02112     -12.995573      740.02555    
    833000   308.18323      0.0036007403   4.6357322      764.61108     -14.132473      750.47861    
    834000   311.17611      0.0036007403   3.0718428      772.03651     -15.604627      756.43189    
    835000   291.33442      0.0036007403   2.8765373      722.80873     -14.236191      708.57254    
    836000   285.57445      0.0036007403  -1.9175226      708.51808     -13.84261       694.67547    
    837000   305.33733      0.0036007403   0.48215765     757.55032     -15.688343      741.86198    
    838000   315.3508       0.0036007403   7.1738002      782.39403     -15.101797      767.29224    
    839000   291.65352      0.0036007403   2.1723736      723.60043     -15.302613      708.29781    
    840000   299.33448      0.0036007403   1.3404426      742.65711     -15.959638      726.69747    
    841000   312.82069      0.0036007403  -5.0747316      776.11676     -14.440317      761.67645    
    842000   313.31337      0.0036007403   4.1047487      777.3391      -15.695324      761.64378    
    843000   313.75376      0.0036007403   8.8588649      778.43174     -14.809332      763.62241    
    844000   306.48326      0.0036007403   3.5095607      760.39342     -14.800035      745.59338    
    845000   292.83196      0.0036007403   2.3751407      726.52416     -16.160207      710.36396    
    846000   297.41666      0.0036007403  -0.082657012    737.89892     -15.362981      722.53594    
    847000   309.44126      0.0036007403   0.6913467      767.73231     -16.456554      751.27575    
    848000   293.74473      0.0036007403   5.6953744      728.78876     -16.310146      712.47862    
    849000   291.69198      0.0036007403   1.2162087      723.69584     -14.768364      708.92748    
    850000   299.67782      0.0036007403   1.5398242      743.50893     -13.800706      729.70823    
    851000   308.71863      0.0036007403   3.6398543      765.93943     -14.244526      751.69491    
    852000   293.31793      0.0036007403   0.60034091     727.72987     -13.416067      714.3138     
    853000   281.77959      0.0036007403  -0.71031921     699.10292     -13.35594       685.74698    
    854000   297.95602      0.0036007403   0.46022178     739.23711     -13.49376       725.74335    
    855000   301.14578      0.0036007403   2.3287929      747.15097     -13.4307        733.72027    
    856000   309.87555      0.0036007403   2.281721       768.80978     -13.60498       755.2048     
    857000   296.99805      0.0036007403   1.9994284      736.86036     -16.065279      720.79508    
    858000   301.47266      0.0036007403  -0.52111283     747.96198     -15.005952      732.95602    
    859000   315.70176      0.0036007403   0.97708435     783.26477     -17.981367      765.2834     
    860000   305.51279      0.0036007403   2.3150587      757.98565     -16.723237      741.26241    
    861000   280.07769      0.0036007403   1.7080751      694.88047     -15.758883      679.12159    
    862000   300.09782      0.0036007403   0.073055134    744.55097     -15.44759       729.10338    
    863000   300.93421      0.0036007403   1.1624848      746.62607     -14.196352      732.42972    
    864000   294.95822      0.0036007403   4.4186959      731.79946     -12.636479      719.16298    
    865000   296.8644       0.0036007403   1.8045928      736.52875     -11.741824      724.78692    
    866000   305.90296      0.0036007403   1.6039965      758.95367     -13.69868       745.25499    
    867000   305.7727       0.0036007403   2.0241499      758.63049     -14.088075      744.54241    
    868000   284.59382      0.0036007403   1.7693247      706.08511     -13.232063      692.85305    
    869000   305.35669      0.0036007403   1.2076136      757.59836     -13.065826      744.53253    
    870000   295.49257      0.0036007403   1.9102521      733.12521     -10.242933      722.88228    
    871000   315.90548      0.0036007403   3.0012089      783.7702      -9.8453817      773.92482    
    872000   304.38147      0.0036007403   1.7138979      755.17882     -9.906483       745.27233    
    873000   297.26341      0.0036007403   1.1994889      737.51873     -10.35892       727.15981    
    874000   298.30851      0.0036007403   1.9956297      740.11163     -9.7015978      730.41003    
    875000   311.35045      0.0036007403   2.6808922      772.46906     -10.530547      761.93851    
    876000   306.1794       0.0036007403   2.5928921      759.63953     -9.5320686      750.10746    
    877000   299.49665      0.0036007403   0.85997362     743.05945     -7.2815299      735.77792    
    878000   287.89928      0.0036007403   0.23077809     714.28605     -10.701794      703.58426    
    879000   292.1505       0.0036007403   2.7145036      724.83345     -9.8753854      714.95807    
    880000   308.31674      0.0036007403   4.2468199      764.94234     -11.489383      753.45296    
    881000   305.52675      0.0036007403   0.39888915     758.02028     -10.515112      747.50517    
    882000   289.30877      0.0036007403   0.41884508     717.78302     -10.672457      707.11057    
    883000   289.79304      0.0036007403   2.9476681      718.98453     -11.655         707.32953    
    884000   315.945        0.0036007403   2.9139868      783.86825     -11.082034      772.78622    
    885000   304.05129      0.0036007403   0.15037953     754.35963     -13.371991      740.98764    
    886000   295.14539      0.0036007403   0.8250227      732.26385     -13.819773      718.44408    
    887000   292.06878      0.0036007403   3.7116596      724.63068     -10.596085      714.0346     
    888000   306.33056      0.0036007403   3.5733762      760.01457     -10.126665      749.8879     
    889000   311.84619      0.0036007403   0.28516998     773.69899     -9.1080877      764.5909     
    890000   306.35612      0.0036007403  -1.1430222      760.07797     -10.610485      749.46749    
    891000   286.25068      0.0036007403   2.4976904      710.19582     -9.4565513      700.73926    
    892000   313.31656      0.0036007403   5.455564       777.34703     -7.4753982      769.87163    
    893000   307.75678      0.0036007403   1.2327256      763.55304     -9.6768484      753.87619    
    894000   288.98119      0.0036007403  -1.8008982      716.97031     -9.1752305      707.79508    
    895000   288.09774      0.0036007403   1.9366028      714.77844     -7.49106        707.28738    
    896000   288.07297      0.0036007403   3.4673438      714.71699     -9.5630644      705.15392    
    897000   307.19084      0.0036007403   3.967865       762.14894     -11.150008      750.99893    
    898000   292.17481      0.0036007403   2.1751005      724.89375     -9.2066515      715.6871     
    899000   301.58194      0.0036007403   0.55592426     748.2331      -12.033109      736.19999    
    900000   286.16366      0.0036007403   2.2463543      709.97993     -13.987391      695.99254    
    901000   297.15272      0.0036007403   0.59348253     737.24408     -11.245251      725.99883    
    902000   287.86604      0.0036007403   4.6089365      714.20357     -12.323254      701.88032    
    903000   291.74161      0.0036007403   2.0607381      723.81897     -11.240519      712.57845    
    904000   297.86334      0.0036007403  -0.85221746     739.00717     -9.4579025      729.54926    
    905000   298.56317      0.0036007403   0.22907236     740.74345     -8.7796078      731.96384    
    906000   299.04331      0.0036007403   4.1263027      741.9347      -9.8600611      732.07464    
    907000   300.38718      0.0036007403   2.8863499      745.26887     -8.6162316      736.65264    
    908000   297.76724      0.0036007403  -0.44980099     738.76874     -9.5165368      729.2522     
    909000   299.70272      0.0036007403   2.2782983      743.5707      -9.8507045      733.72       
    910000   306.35532      0.0036007403   5.1379181      760.07599     -12.18646       747.88953    
    911000   300.3972       0.0036007403  -0.15463165     745.29374     -11.748893      733.54485    
    912000   294.134        0.0036007403   1.0436745      729.75457     -13.135274      716.61929    
    913000   304.3303       0.0036007403   3.2138701      755.05187     -11.49565       743.55622    
    914000   293.22134      0.0036007403   1.7990411      727.49022     -11.92352       715.5667     
    915000   292.82088      0.0036007403   1.8980999      726.49668     -11.334298      715.16238    
    916000   299.81193      0.0036007403   2.2327961      743.84166     -8.8741132      734.96754    
    917000   293.92879      0.0036007403   2.1412693      729.24544     -8.1468366      721.0986     
    918000   311.70434      0.0036007403   1.8660551      773.34706     -11.180238      762.16682    
    919000   302.2037       0.0036007403   1.9566034      749.77571     -11.037227      738.73848    
    920000   296.49087      0.0036007403   3.053041       735.60202     -8.4313686      727.17065    
    921000   301.67668      0.0036007403   1.8761773      748.46815     -8.518311       739.94984    
    922000   295.68409      0.0036007403   1.6868972      733.60037     -8.0753742      725.525      
    923000   288.80704      0.0036007403   1.9513295      716.53822     -8.7685532      707.76966    
    924000   303.94847      0.0036007403   1.4868305      754.10453     -9.5690172      744.53551    
    925000   310.3608       0.0036007403   2.0142973      770.01369     -8.2424189      761.77127    
    926000   298.51363      0.0036007403   1.5685421      740.62056     -6.4851924      734.13536    
    927000   305.75367      0.0036007403   2.0125879      758.58329     -7.0986431      751.48465    
    928000   301.17055      0.0036007403   1.753113       747.21244     -9.8379626      737.37447    
    929000   298.67635      0.0036007403   1.8786915      741.02427     -12.975073      728.04919    
    930000   307.279        0.0036007403   1.9068723      762.36767     -12.693797      749.67387    
    931000   309.69016      0.0036007403   2.0820014      768.34982     -10.516058      757.83376    
    932000   301.81762      0.0036007403   2.0618463      748.81783     -11.919224      736.8986     
    933000   304.36459      0.0036007403   1.2731215      755.13693     -10.647673      744.48926    
    934000   295.86317      0.0036007403   2.2678598      734.04469     -9.050667       724.99402    
    935000   298.72789      0.0036007403   1.8684038      741.15214     -9.8356715      731.31647    
    936000   312.50285      0.0036007403   0.42468337     775.32818     -11.088909      764.23927    
    937000   305.30718      0.0036007403   1.4211843      757.47552     -8.4818957      748.99363    
    938000   297.45462      0.0036007403   4.1471789      737.99311     -10.899212      727.0939     
    939000   310.83153      0.0036007403   0.0069210659   771.18159     -9.8148543      761.36674    
    940000   297.2344       0.0036007403  -0.72795354     737.44675     -9.1326947      728.31405    
    941000   301.76494      0.0036007403   3.6978921      748.68713     -13.104695      735.58243    
    942000   309.78446      0.0036007403   4.201662       768.58379     -13.515338      755.06845    
    943000   302.99357      0.0036007403   0.89550913     751.73539     -13.86865       737.86674    
    944000   283.37905      0.0036007403   1.5730929      703.07123     -15.218723      687.85251    
    945000   293.15368      0.0036007403   4.1497018      727.32237     -11.738952      715.58341    
    946000   303.88025      0.0036007403   5.4817074      753.93527     -12.392792      741.54248    
    947000   306.99963      0.0036007403  -0.80113781     761.67454     -11.026866      750.64768    
    948000   298.26437      0.0036007403   1.7340999      740.00211     -12.288869      727.71324    
    949000   303.41645      0.0036007403   4.827791       752.78458     -11.536583      741.24799    
    950000   300.40091      0.0036007403   3.4922634      745.30294     -10.150285      735.15265    
    951000   316.36708      0.0036007403   0.19772339     784.91543     -10.371766      774.54367    
    952000   306.00068      0.0036007403   0.30769489     759.19612     -9.8575003      749.33862    
    953000   289.4274       0.0036007403   2.9375449      718.07736     -9.8182368      708.25913    
    954000   295.51544      0.0036007403   3.13456        733.18196     -12.232467      720.9495     
    955000   314.98104      0.0036007403   1.7418153      781.47664     -12.961639      768.515      
    956000   304.79764      0.0036007403   0.84090551     756.21134     -8.4807093      747.73063    
    957000   296.5791       0.0036007403   0.78053713     735.82093     -9.7107628      726.11016    
    958000   288.68094      0.0036007403   1.6122709      716.22537     -12.162098      704.06327    
    959000   309.57855      0.0036007403   2.5445008      768.07293     -9.3731909      758.69973    
    960000   304.12118      0.0036007403   2.5312858      754.53303     -9.0501332      745.4829     
    961000   312.93517      0.0036007403   1.4336848      776.40077     -11.034565      765.36621    
    962000   297.69205      0.0036007403   1.5536714      738.58218     -11.496558      727.08562    
    963000   298.09549      0.0036007403   2.002317       739.58313     -12.32103       727.2621     
    964000   296.58319      0.0036007403   1.8872222      735.83106     -12.240469      723.59059    
    965000   307.90357      0.0036007403   1.5869596      763.91725     -12.80129       751.11596    
    966000   315.13618      0.0036007403   2.3283863      781.86155     -14.036889      767.82466    
    967000   302.25517      0.0036007403   2.0001488      749.9034      -9.8044974      740.0989     
    968000   291.67883      0.0036007403   1.9824866      723.66322     -12.655733      711.00749    
    969000   306.1602       0.0036007403   2.1390553      759.5919      -12.979215      746.61269    
    970000   313.08966      0.0036007403   1.3268671      776.78408     -10.089958      766.69412    
    971000   295.31956      0.0036007403   2.4164647      732.69596     -11.469738      721.22622    
    972000   282.4354       0.0036007403   1.3413833      700.73001     -11.391778      689.33823    
    973000   294.87439      0.0036007403   2.3301566      731.59149     -14.039206      717.55228    
    974000   301.34234      0.0036007403   1.8610645      747.63865     -11.727976      735.91067    
    975000   304.62452      0.0036007403  -3.0181365      755.78183     -14.400903      741.38093    
    976000   299.09082      0.0036007403   0.21532066     742.05256     -13.564922      728.48764    
    977000   287.67179      0.0036007403   1.87046        713.72165     -11.62475       702.0969     
    978000   295.29874      0.0036007403   2.9372286      732.64431     -11.833325      720.81098    
    979000   301.74493      0.0036007403   3.0875793      748.63748     -12.004938      736.63254    
    980000   296.84261      0.0036007403   0.41528948     736.4747      -14.583793      721.89091    
    981000   299.32518      0.0036007403   2.581849       742.63402     -15.921336      726.71269    
    982000   322.05212      0.0036007403   2.4575032      799.02018     -13.772668      785.24751    
    983000   293.84206      0.0036007403   1.7986613      729.03024     -11.690044      717.3402     
    984000   295.88715      0.0036007403   1.7932876      734.10419     -16.036695      718.06749    
    985000   309.0217       0.0036007403   1.8917433      766.69136     -13.460775      753.23059    
    986000   299.04896      0.0036007403   2.5529131      741.94871     -15.717062      726.23165    
    987000   293.10721      0.0036007403   1.8572789      727.20707     -11.056169      716.1509     
    988000   305.77667      0.0036007403   1.463335       758.64034     -11.554902      747.08543    
    989000   306.48375      0.0036007403   2.2416028      760.39464     -11.171719      749.22292    
    990000   302.33427      0.0036007403   1.6624675      750.09967     -9.0272332      741.07243    
    991000   288.35009      0.0036007403   1.9381976      715.40451     -8.8511913      706.55332    
    992000   300.29915      0.0036007403   2.0136374      745.05048     -9.7194955      735.33098    
    993000   318.53739      0.0036007403   1.7979231      790.30005     -9.4640336      780.83602    
    994000   298.12056      0.0036007403   2.9996548      739.64532     -10.130415      729.51491    
    995000   295.48099      0.0036007403   1.9973336      733.09647     -9.4712855      723.62518    
    996000   322.58976      0.0036007403   1.3945524      800.35408     -10.605862      789.74822    
    997000   309.55142      0.0036007403   2.6788795      768.0056      -11.263454      756.74214    
    998000   287.81004      0.0036007403   1.990356       714.06465     -12.208416      701.85624    
    999000   293.8995       0.0036007403   1.2980474      729.17277     -11.51153       717.66124    
   1000000   311.07254      0.0036007403   2.1848693      771.77955     -8.6281735      763.15137    
   1001000   310.1651       0.0036007403   2.0757154      769.52816     -9.5844865      759.94367    
   1002000   283.44837      0.0036007403   1.7054763      703.24323     -9.0828585      694.16037    
   1003000   291.93043      0.0036007403   2.1428851      724.28744     -9.5205209      714.76691    
   1004000   305.70775      0.0036007403   1.8379936      758.46934     -9.483675       748.98567    
   1005000   312.39487      0.0036007403   2.0820365      775.06027     -9.9418586      765.11841    
   1006000   293.63387      0.0036007403   2.3194754      728.51372     -10.207821      718.3059     
   1007000   283.13682      0.0036007403   1.7050174      702.47024     -10.861378      691.60886    
   1008000   305.67603      0.0036007403   1.730305       758.39065     -9.6993886      748.69126    
   1009000   309.31736      0.0036007403   2.0283793      767.4249      -12.342433      755.08247    
   1010000   301.05326      0.0036007403   2.2695746      746.92143     -14.42128       732.50015    
   1011000   296.56323      0.0036007403   3.8863339      735.78154     -11.406825      724.37471    
   1012000   292.68928      0.0036007403   1.0100255      726.17018     -11.7358        714.43438    
   1013000   308.62473      0.0036007403  -0.5442163      765.70647     -13.88877       751.8177     
   1014000   306.41204      0.0036007403   4.20761        760.21673     -11.977362      748.23937    
   1015000   293.02971      0.0036007403   3.070085       727.0148      -11.497936      715.51686    
   1016000   298.19272      0.0036007403   0.89413524     739.82436     -8.47448        731.34988    
   1017000   310.75191      0.0036007403   1.2828451      770.98406     -9.141067       761.843      
   1018000   311.59747      0.0036007403   3.0154042      773.08192     -12.17157       760.91035    
   1019000   288.00649      0.0036007403   2.0276851      714.55203     -12.166641      702.38539    
   1020000   290.72129      0.0036007403   1.9976099      721.28755     -13.114319      708.17323    
   1021000   313.48903      0.0036007403   2.5673637      777.77494     -12.595197      765.17974    
   1022000   301.49687      0.0036007403   1.8396621      748.02205     -12.38133       735.64072    
   1023000   279.30039      0.0036007403   1.7661609      692.95197     -11.517811      681.43416    
   1024000   306.47994      0.0036007403   2.0186399      760.38519     -12.012715      748.37247    
   1025000   310.91403      0.0036007403   1.5493415      771.38628     -11.83375       759.55253    
   1026000   289.56347      0.0036007403   1.7945341      718.41495     -13.01992       705.39503    
   1027000   309.22618      0.0036007403   3.4432464      767.19867     -12.007641      755.19103    
   1028000   301.16545      0.0036007403   2.5400862      747.19977     -12.158121      735.04165    
   1029000   292.43387      0.0036007403  -0.11671132     725.53649     -10.925438      714.61105    
   1030000   291.00571      0.0036007403   1.8415308      721.99319     -10.146054      711.84714    
   1031000   300.35666      0.0036007403   5.0444493      745.19314     -8.4525237      736.74062    
   1032000   310.55036      0.0036007403   3.0957107      770.48401     -9.055857       761.42815    
   1033000   306.58734      0.0036007403   3.336484       760.65165     -9.5771728      751.07448    
   1034000   295.6526       0.0036007403   0.33016825     733.52226     -8.94988        724.57238    
   1035000   305.65595      0.0036007403   3.0624384      758.34084     -10.161292      748.17955    
   1036000   303.49728      0.0036007403   4.7907376      752.98512     -9.8997233      743.0854     
   1037000   300.08621      0.0036007403  -0.29533263     744.52216     -12.446696      732.07546    
   1038000   299.33111      0.0036007403   1.7156929      742.64874     -10.606254      732.04249    
   1039000   303.66605      0.0036007403   4.1466024      753.40383     -9.5050805      743.89875    
   1040000   303.33593      0.0036007403  -2.9405706      752.5848      -11.169463      741.41534    
   1041000   295.46709      0.0036007403  -2.6968775      733.06199     -12.2794        720.78259    
   1042000   298.0971       0.0036007403   3.0472762      739.58713     -13.902834      725.68429    
   1043000   321.55914      0.0036007403   0.48119529     797.79709     -11.918416      785.87867    
   1044000   293.05712      0.0036007403  -1.3231774      727.0828      -10.671724      716.41108    
   1045000   279.78616      0.0036007403   0.81665543     694.15716     -11.00561       683.15155    
   1046000   304.16559      0.0036007403   5.8532005      754.64321     -11.907051      742.73616    
   1047000   316.5831       0.0036007403   0.060339159    785.4514      -10.470639      774.98076    
   1048000   293.05836      0.0036007403   0.94696765     727.08587     -12.526198      714.55968    
   1049000   286.94485      0.0036007403   0.072376281    711.91808     -13.791549      698.12653    
   1050000   306.23564      0.0036007403   3.9245086      759.77907     -9.8126724      749.9664     
   1051000   311.38271      0.0036007403   0.056475901    772.5491      -9.9249577      762.62414    
   1052000   290.36061      0.0036007403   0.86406899     720.39267     -12.617018      707.77565    
   1053000   289.81876      0.0036007403   4.2583298      719.04834     -9.3935294      709.65481    
   1054000   309.18258      0.0036007403   2.8335526      767.0905      -8.5159716      758.57453    
   1055000   314.60347      0.0036007403   0.98402539     780.53988     -10.473139      770.06674    
   1056000   299.1674       0.0036007403   1.6154372      742.24257     -9.8400329      732.40254    
   1057000   311.76479      0.0036007403   6.2691098      773.49704     -9.9713186      763.52572    
   1058000   311.22779      0.0036007403   1.9689783      772.16474     -12.077978      760.08676    
   1059000   297.36555      0.0036007403   1.5095372      737.77212     -8.6272912      729.14483    
   1060000   294.40312      0.0036007403   1.9856401      730.42225     -10.589865      719.83238    
   1061000   304.51372      0.0036007403   2.5798578      755.50692     -12.030364      743.47656    
   1062000   307.76851      0.0036007403   1.8440856      763.58217     -16.369771      747.2124     
   1063000   302.91032      0.0036007403   0.34920215     751.52885     -11.778909      739.74994    
   1064000   295.02544      0.0036007403   1.7785986      731.96626     -11.871721      720.09454    
   1065000   304.40581      0.0036007403   1.9275414      755.23921     -11.755846      743.48336    
   1066000   303.98869      0.0036007403   1.589219       754.20433     -10.272013      743.93231    
   1067000   306.43878      0.0036007403   2.0188604      760.28305     -8.109747       752.1733     
   1068000   294.68278      0.0036007403   2.6238699      731.11609     -8.6906829      722.42541    
   1069000   295.0307       0.0036007403   1.7230943      731.97929     -12.24768       719.73161    
   1070000   305.85234      0.0036007403   0.70649631     758.82809     -10.992195      747.8359     
   1071000   310.18837      0.0036007403   3.6500789      769.58589     -10.77405       758.81184    
   1072000   284.84645      0.0036007403   1.7076741      706.7119      -10.846875      695.86502    
   1073000   305.67317      0.0036007403   2.0725334      758.38356     -9.2250573      749.1585     
   1074000   296.5206       0.0036007403   2.9372137      735.67579     -9.3727602      726.30303    
   1075000   296.07071      0.0036007403   1.8943507      734.5596      -10.511808      724.04779    
   1076000   301.43406      0.0036007403   2.4803726      747.8662      -11.472971      736.39323    
   1077000   309.07315      0.0036007403   2.1517997      766.819       -9.5117671      757.30723    
   1078000   301.08212      0.0036007403   1.987303       746.99305     -8.9327329      738.06031    
   1079000   288.55878      0.0036007403   2.160349       715.92228     -11.281341      704.64094    
   1080000   305.43391      0.0036007403   2.2161327      757.78996     -10.833693      746.95627    
   1081000   299.35897      0.0036007403   0.28103832     742.71785     -13.230473      729.48738    
   1082000   296.10528      0.0036007403   1.950066       734.64536     -11.989837      722.65553    
   1083000   302.86968      0.0036007403   2.5739208      751.42802     -9.2405673      742.18745    
   1084000   298.32981      0.0036007403   2.3634124      740.16449     -11.606072      728.55842    
   1085000   302.37386      0.0036007403   1.848912       750.19789     -9.9216829      740.2762     
   1086000   311.31825      0.0036007403   1.4513634      772.38916     -12.36775       760.02141    
   1087000   296.17063      0.0036007403   2.10516        734.80749     -12.335958      722.47154    
   1088000   293.33555      0.0036007403   0.86370694     727.77357     -12.372975      715.4006     
   1089000   295.51368      0.0036007403   1.9327846      733.17759     -13.195073      719.98252    
   1090000   308.78811      0.0036007403   5.7842536      766.11181     -14.694868      751.41694    
   1091000   312.45671      0.0036007403   2.7943147      775.21371     -9.0702826      766.14343    
   1092000   298.69576      0.0036007403   1.6700443      741.07242     -9.7191715      731.35325    
   1093000   302.01447      0.0036007403   1.6706179      749.30622     -11.005333      738.30088    
   1094000   288.19804      0.0036007403   2.6316915      715.02729     -9.4282003      705.59909    
   1095000   299.31488      0.0036007403   2.3787501      742.60847     -10.276978      732.33149    
   1096000   299.21264      0.0036007403   1.149563       742.35481     -11.835342      730.51947    
   1097000   309.05073      0.0036007403   2.0217683      766.76337     -13.033691      753.72968    
   1098000   311.97781      0.0036007403   2.5731645      774.02553     -9.8332407      764.19229    
   1099000   297.68114      0.0036007403   5.9755859      738.55512     -10.435361      728.11976    
   1100000   286.35707      0.0036007403   2.1753575      710.45979     -11.791625      698.66816    
   1101000   304.34162      0.0036007403   0.21781116     755.07995     -8.9060006      746.17395    
   1102000   308.94776      0.0036007403   1.1926848      766.50791     -9.5616822      756.94623    
   1103000   302.75436      0.0036007403   1.7377252      751.14192     -8.4492933      742.69263    
   1104000   299.21764      0.0036007403   2.1542097      742.36721     -9.9846712      732.38254    
   1105000   301.76206      0.0036007403   2.0734914      748.68        -9.2957977      739.3842     
   1106000   304.90041      0.0036007403   1.6487073      756.46633     -10.703115      745.76321    
   1107000   288.92079      0.0036007403   2.0507233      716.82044     -10.630242      706.19019    
   1108000   302.65257      0.0036007403   2.3039542      750.88938     -9.1440935      741.74529    
   1109000   301.08941      0.0036007403   3.1010319      747.01112     -9.5640646      737.44706    
   1110000   295.95474      0.0036007403   0.53341535     734.27187     -8.9598896      725.31198    
   1111000   304.92979      0.0036007403   2.0370357      756.53921     -10.226733      746.31248    
   1112000   282.5101       0.0036007403   1.7600466      700.91534     -8.7954132      692.11993    
   1113000   292.19711      0.0036007403   1.8856647      724.94909     -9.4856854      715.46341    
   1114000   310.67319      0.0036007403   1.7532672      770.78874     -9.6884928      761.10025    
   1115000   303.603        0.0036007403   1.2105952      753.2474      -11.276924      741.97048    
   1116000   292.98985      0.0036007403   2.4827986      726.91588     -12.1625        714.75338    
   1117000   303.62815      0.0036007403   1.9840416      753.30981     -12.568549      740.74126    
   1118000   297.63995      0.0036007403   2.0097111      738.45293     -12.478088      725.97484    
   1119000   305.63342      0.0036007403   2.4625977      758.28494     -10.584782      747.70016    
   1120000   301.20457      0.0036007403   1.9522921      747.29685     -9.627362       737.66949    
   1121000   299.74261      0.0036007403   1.5910164      743.66968     -8.3058203      735.36386    
   1122000   289.27849      0.0036007403   2.3417619      717.70792     -8.1786551      709.52926    
   1123000   303.697        0.0036007403   2.0195748      753.48062     -8.7427637      744.73786    
   1124000   299.77692      0.0036007403   1.8799764      743.75481     -9.7467162      734.00809    
   1125000   294.69798      0.0036007403   1.9960112      731.15382     -9.3824329      721.77138    
   1126000   303.37621      0.0036007403   2.4024261      752.68474     -9.7465735      742.93817    
   1127000   309.61779      0.0036007403   1.8250721      768.17028     -6.139675       762.03061    
   1128000   299.73161      0.0036007403   1.7281878      743.64239     -8.1693129      735.47308    
   1129000   288.224        0.0036007403   2.8271766      715.09168     -7.7713672      707.32031    
   1130000   313.14784      0.0036007403   2.0268252      776.92841     -8.3568788      768.57153    
   1131000   308.0853       0.0036007403   2.1123583      764.36812     -9.6191967      754.74892    
   1132000   280.34867      0.0036007403   1.9945905      695.55279     -8.6059954      686.94679    
   1133000   305.06162      0.0036007403   1.9427442      756.86629     -11.087323      745.77896    
   1134000   306.51446      0.0036007403   3.15133        760.47082     -8.4686888      752.00213    
   1135000   307.45144      0.0036007403   1.5556222      762.7955      -13.302411      749.49308    
   1136000   298.44471      0.0036007403   2.1255832      740.44956     -15.124943      725.32462    
   1137000   303.63995      0.0036007403   1.8711738      753.33909     -15.348177      737.99091    
   1138000   301.7944       0.0036007403   1.9779772      748.76022     -15.715834      733.04438    
   1139000   289.88598      0.0036007403   2.3219862      719.21511     -14.965024      704.25009    
   1140000   308.02399      0.0036007403   1.0718288      764.21601     -13.270396      750.94562    
   1141000   299.81827      0.0036007403   1.0294234      743.85739     -12.26233       731.59506    
   1142000   307.64365      0.0036007403   0.29651494     763.27239     -13.008583      750.2638     
   1143000   295.27575      0.0036007403   5.1185228      732.58728     -8.700554       723.88672    
   1144000   295.06546      0.0036007403   1.9592038      732.06555     -9.6848874      722.38066    
   1145000   305.44091      0.0036007403   1.5455402      757.80732     -9.1811202      748.6262     
   1146000   304.71691      0.0036007403   1.7843363      756.01105     -8.1332734      747.87778    
   1147000   299.89848      0.0036007403   2.2102513      744.0564      -9.1533547      734.90305    
   1148000   305.38129      0.0036007403   1.9064816      757.6594      -10.924274      746.73513    
   1149000   290.18132      0.0036007403   1.84969        719.94785     -14.042697      705.90515    
   1150000   294.12427      0.0036007403   2.0475348      729.73043     -15.070511      714.65992    
   1151000   307.34673      0.0036007403   2.0027489      762.5357      -15.109534      747.42617    
   1152000   306.12634      0.0036007403   1.962302       759.50788     -12.426506      747.08138    
   1153000   293.5945       0.0036007403   2.1964866      728.41604     -14.203983      714.21205    
   1154000   311.50986      0.0036007403   2.6595658      772.86455     -12.657061      760.20749    
   1155000   292.77674      0.0036007403   1.6716122      726.38717     -13.334892      713.05227    
   1156000   291.90876      0.0036007403   1.6688234      724.23368     -12.313409      711.92027    
   1157000   297.31907      0.0036007403   2.4301576      737.65681     -10.713874      726.94293    
   1158000   298.16314      0.0036007403   2.0942404      739.75097     -11.372715      728.37825    
   1159000   295.1775       0.0036007403   1.7528343      732.34352     -10.086066      722.25745    
   1160000   297.39128      0.0036007403   2.9857614      737.83596     -12.631046      725.20491    
   1161000   320.63572      0.0036007403   1.8885377      795.50606     -9.104914       786.40114    
   1162000   296.91102      0.0036007403   1.5013439      736.64443     -9.8015081      726.84292    
   1163000   301.79309      0.0036007403   2.3819722      748.75697     -11.732109      737.02486    
   1164000   301.80776      0.0036007403   4.0878798      748.79338     -8.8197655      739.97362    
   1165000   303.18433      0.0036007403   1.7615727      752.20869     -10.495879      741.71281    
   1166000   320.66717      0.0036007403   1.3991611      795.58408     -10.586229      784.99785    
   1167000   297.18993      0.0036007403   1.6266714      737.33641     -12.500818      724.8356     
   1168000   288.23707      0.0036007403   3.8537565      715.12412     -11.537948      703.58618    
   1169000   301.64443      0.0036007403   2.104918       748.38814     -12.619847      735.76829    
   1170000   298.94131      0.0036007403   1.3942175      741.68163     -12.401879      729.27975    
   1171000   297.37906      0.0036007403   2.5143816      737.80565     -12.841481      724.96416    
   1172000   301.88765      0.0036007403   2.6141963      748.99159     -12.682301      736.30928    
   1173000   301.67023      0.0036007403   1.633319       748.45217     -9.7300667      738.7221     
   1174000   288.24443      0.0036007403   1.6105075      715.14237     -11.42332       703.71905    
   1175000   310.68956      0.0036007403   1.8121902      770.82937     -13.518707      757.31067    
   1176000   296.79753      0.0036007403   1.7646213      736.36285     -11.727484      724.63537    
   1177000   305.17145      0.0036007403   2.0781029      757.13879     -15.004485      742.1343     
   1178000   288.62606      0.0036007403   1.7041265      716.08921     -11.901524      704.18769    
   1179000   311.36181      0.0036007403   2.0345396      772.49724     -11.978241      760.519      
   1180000   324.75661      0.0036007403   2.5576444      805.73009     -11.818997      793.9111     
   1181000   299.271        0.0036007403   1.594432       742.49959     -13.781375      728.71822    
   1182000   281.52031      0.0036007403   2.3610635      698.45964     -10.214607      688.24503    
   1183000   302.36651      0.0036007403   2.3007093      750.17963     -10.487164      739.69247    
   1184000   307.32793      0.0036007403   2.1495647      762.48906     -11.527382      750.96167    
   1185000   304.04913      0.0036007403   1.9217616      754.35426     -12.563122      741.79114    
   1186000   285.71692      0.0036007403   1.4046177      708.87155     -10.102265      698.76929    
   1187000   297.27725      0.0036007403   2.3746559      737.55306     -9.5227533      728.0303     
   1188000   312.97491      0.0036007403   2.2110678      776.49938     -12.295892      764.20349    
   1189000   306.26636      0.0036007403   1.8818269      759.85528     -13.138802      746.71648    
   1190000   283.81546      0.0036007403   1.845063       704.15399     -14.950106      689.20388    
   1191000   285.70537      0.0036007403   2.7973905      708.84291     -12.531715      696.31119    
   1192000   298.36298      0.0036007403   1.6128586      740.24678     -11.370881      728.8759     
   1193000   324.69993      0.0036007403   2.1127647      805.58948     -11.092306      794.49717    
   1194000   296.22182      0.0036007403   2.2328916      734.93451     -10.7827        724.15181    
   1195000   283.20261      0.0036007403   1.9635792      702.63349     -11.413673      691.21982    
   1196000   303.75585      0.0036007403   2.1233209      753.62664     -10.658207      742.96843    
   1197000   310.27813      0.0036007403   2.0678181      769.80861     -10.553621      759.25498    
   1198000   294.59109      0.0036007403   2.7058573      730.88862     -7.6339917      723.25463    
   1199000   295.1624       0.0036007403   1.5789971      732.30605     -11.99713       720.30892    
   1200000   306.14056      0.0036007403   2.0839966      759.54318     -13.109315      746.43386    
   1201000   302.12554      0.0036007403   2.4917346      749.58179     -11.247923      738.33386    
   1202000   292.61805      0.0036007403   1.8536266      725.99345     -11.595228      714.39822    
   1203000   307.26375      0.0036007403   1.9922825      762.32984     -11.489888      750.83995    
   1204000   305.87378      0.0036007403   2.262591       758.88129     -11.204221      747.67707    
   1205000   296.16969      0.0036007403   1.8518716      734.80517     -11.70225       723.10292    
   1206000   298.83192      0.0036007403   1.5516909      741.41023     -11.028911      730.38132    
   1207000   303.82611      0.0036007403   1.8882001      753.80096     -10.66155       743.13941    
   1208000   289.48605      0.0036007403   2.1903447      718.22287     -12.570177      705.6527     
   1209000   300.81901      0.0036007403   1.5862478      746.34025     -14.073082      732.26717    
   1210000   303.76495      0.0036007403   1.9775671      753.64921     -12.767252      740.88196    
   1211000   305.2981       0.0036007403   1.8236905      757.453       -15.315688      742.13731    
   1212000   293.93552      0.0036007403   2.0957803      729.26213     -13.151059      716.11107    
   1213000   299.95279      0.0036007403   2.0983609      744.19115     -13.280064      730.91109    
   1214000   283.78575      0.0036007403   2.305472       704.08028     -14.52777       689.55251    
   1215000   296.83318      0.0036007403   1.759369       736.45129     -13.783905      722.66739    
   1216000   308.54141      0.0036007403   1.2902781      765.49975     -12.52587       752.97388    
   1217000   303.31542      0.0036007403   2.0633881      752.53392     -12.575622      739.9583     
   1218000   299.16938      0.0036007403   2.040528       742.24748     -13.203196      729.04428    
   1219000   296.6873       0.0036007403   1.938414       736.08937     -11.112486      724.97689    
   1220000   305.09043      0.0036007403   1.9536799      756.93777     -11.832276      745.1055     
   1221000   309.13721      0.0036007403   1.5951223      766.97793     -12.379307      754.59862    
   1222000   299.22347      0.0036007403   3.2173887      742.38169     -12.458276      729.92341    
   1223000   288.22465      0.0036007403   1.9452271      715.0933      -15.193387      699.89992    
   1224000   304.02659      0.0036007403   0.45207382     754.29834     -12.37616       741.92218    
   1225000   309.36703      0.0036007403   3.8948668      767.54812     -10.655555      756.89257    
   1226000   292.79013      0.0036007403   1.9800217      726.42039     -12.814689      713.6057     
   1227000   303.55283      0.0036007403   0.74499506     753.12293     -13.237455      739.88548    
   1228000   312.37822      0.0036007403   2.8994023      775.01897     -10.523346      764.49563    
   1229000   288.16648      0.0036007403   2.1739808      714.94899     -10.703911      704.24507    
   1230000   297.41602      0.0036007403   2.0239636      737.89735     -10.574395      727.32296    
   1231000   310.02143      0.0036007403   1.9000284      769.17172     -10.151121      759.0206     
   1232000   293.19616      0.0036007403   1.9677259      727.42776     -11.785017      715.64275    
   1233000   284.29352      0.0036007403   2.0998273      705.34006     -12.499309      692.84075    
   1234000   299.3115       0.0036007403   2.6600327      742.60008     -14.875545      727.72453    
   1235000   315.87595      0.0036007403   2.3698095      783.69694     -13.903367      769.79358    
   1236000   306.48749      0.0036007403   1.8843038      760.40392     -11.369273      749.03465    
   1237000   292.5519       0.0036007403   1.6613305      725.82934     -9.6562256      716.17311    
   1238000   294.00765      0.0036007403   1.9530325      729.44109     -10.04302       719.39807    
   1239000   298.68989      0.0036007403   2.6427229      741.05785     -12.590242      728.46761    
   1240000   315.22606      0.0036007403   4.2512473      782.08453     -14.337875      767.74666    
   1241000   310.71177      0.0036007403   3.0341002      770.88447     -15.329724      755.55475    
   1242000   290.18413      0.0036007403   1.7867998      719.95483     -17.77562       702.17921    
   1243000   287.14832      0.0036007403   1.9068454      712.42289     -17.105809      695.31708    
   1244000   311.74328      0.0036007403   3.1577231      773.44367     -18.802667      754.64101    
   1245000   310.06073      0.0036007403   0.88650282     769.26921     -18.88295       750.38626    
   1246000   287.98257      0.0036007403   1.3334294      714.4927      -17.536311      696.95639    
   1247000   307.36191      0.0036007403   2.9873134      762.57338     -16.80336       745.77002    
   1248000   313.96291      0.0036007403   1.7816169      778.95062     -15.2536        763.69702    
   1249000   292.53434      0.0036007403  -0.6365788      725.78577     -12.882002      712.90377    
   1250000   291.78792      0.0036007403   2.9592717      723.93387     -10.907824      713.02605    
   1251000   306.01019      0.0036007403   2.7907898      759.21972     -11.751437      747.46829    
   1252000   309.11503      0.0036007403   1.1706442      766.92291     -9.0706358      757.85227    
   1253000   298.15428      0.0036007403   1.3768349      739.72898     -7.4747197      732.25426    
   1254000   287.87389      0.0036007403   2.6229724      714.22306     -8.2062384      706.01682    
   1255000   304.64492      0.0036007403   2.3080969      755.83245     -10.916006      744.91644    
   1256000   294.95515      0.0036007403   0.30153235     731.79185     -8.9956781      722.79617    
   1257000   306.6962       0.0036007403   3.1927834      760.92172     -9.4481758      751.47354    
   1258000   303.63851      0.0036007403   2.0474301      753.33552     -10.481393      742.85412    
   1259000   298.91238      0.0036007403   0.8298347      741.60984     -10.889678      730.72016    
   1260000   278.33794      0.0036007403   2.2477601      690.5641      -11.051383      679.51272    
   1261000   291.19697      0.0036007403  -1.5875184      722.4677      -8.824155       713.64354    
   1262000   307.85802      0.0036007403   3.5323075      763.80424     -13.064058      750.74018    
   1263000   316.73565      0.0036007403   1.4442306      785.82988     -10.65729       775.17259    
   1264000   290.02495      0.0036007403   0.92273243     719.55989     -9.1944609      710.36543    
   1265000   308.71671      0.0036007403   2.8065407      765.93466     -13.443542      752.49111    
   1266000   302.31557      0.0036007403   2.9694483      750.05326     -13.330886      736.72238    
   1267000   300.20131      0.0036007403   0.92932473     744.80771     -9.8767412      734.93097    
   1268000   302.07292      0.0036007403   1.2174455      749.45123     -11.331135      738.1201     
   1269000   289.79538      0.0036007403   2.0701186      718.99033     -10.178595      708.81173    
   1270000   302.2088       0.0036007403   2.2039902      749.78835     -8.0806153      741.70774    
   1271000   301.66349      0.0036007403   1.7754014      748.43543     -8.9474123      739.48802    
   1272000   305.2935       0.0036007403   2.1493125      757.4416      -10.637523      746.80407    
   1273000   299.46326      0.0036007403   1.1421144      742.97661     -10.274266      732.70234    
   1274000   294.75767      0.0036007403   1.9178628      731.30192     -11.577024      719.72489    
   1275000   299.88915      0.0036007403   2.7586424      744.03325     -8.6823941      735.35085    
   1276000   296.87735      0.0036007403   1.5018631      736.5609      -10.496578      726.06432    
   1277000   276.29971      0.0036007403   1.8921567      685.50719     -11.179228      674.32796    
   1278000   303.15621      0.0036007403   1.8893985      752.13891     -13.075223      739.06369    
   1279000   313.37871      0.0036007403   2.6768584      777.50122     -12.611567      764.88965    
   1280000   292.19183      0.0036007403   2.2964483      724.93598     -12.177648      712.75833    
   1281000   301.70205      0.0036007403   0.16967808     748.53109     -10.179474      738.35162    
   1282000   313.29886      0.0036007403   2.7573165      777.3031      -12.395926      764.90717    
   1283000   285.673        0.0036007403   1.3444852      708.76259     -11.202335      697.56025    
   1284000   296.58271      0.0036007403   1.6019235      735.82988     -10.976         724.85388    
   1285000   307.70538      0.0036007403   2.9654629      763.42552     -11.343962      752.08156    
   1286000   302.34679      0.0036007403   4.4666363      750.13072     -10.307245      739.82348    
   1287000   288.70788      0.0036007403   1.907406       716.29221     -9.6129415      706.67927    
   1288000   308.99904      0.0036007403  -0.043102374    766.63514     -12.778566      753.85657    
   1289000   304.33828      0.0036007403   2.4879715      755.07166     -10.777729      744.29394    
   1290000   287.18035      0.0036007403   2.4072096      712.50236     -14.46439       698.03797    
   1291000   289.50481      0.0036007403   1.5697868      718.26942     -12.277634      705.99178    
   1292000   310.22554      0.0036007403   2.4197788      769.67811     -11.381854      758.29625    
   1293000   299.63706      0.0036007403   2.3520112      743.4078      -13.135714      730.27208    
   1294000   290.62007      0.0036007403   1.0724871      721.03639     -16.248844      704.78755    
   1295000   299.56591      0.0036007403   1.3004229      743.23129     -12.723301      730.50799    
   1296000   299.31586      0.0036007403   2.6298165      742.61091     -11.95602       730.65488    
   1297000   299.01553      0.0036007403   3.4157677      741.86577     -12.679337      729.18643    
   1298000   292.55337      0.0036007403   0.80624457     725.83298     -13.163891      712.66909    
   1299000   299.03036      0.0036007403   1.8641504      741.90257     -13.112811      728.78976    
   1300000   312.92755      0.0036007403   2.8617697      776.38187     -11.906145      764.47572    
   1301000   302.46133      0.0036007403   2.1400631      750.41489     -12.272998      738.14189    
   1302000   297.07203      0.0036007403   1.9912847      737.04388     -11.487224      725.55666    
   1303000   294.21829      0.0036007403   1.9624205      729.96369     -12.886482      717.07721    
   1304000   302.70351      0.0036007403   1.7308087      751.01576     -11.501792      739.51396    
   1305000   314.31618      0.0036007403   2.0748402      779.82711     -10.343643      769.48347    
   1306000   301.18476      0.0036007403   2.2687742      747.24769     -12.320797      734.92689    
   1307000   296.06723      0.0036007403   1.9773253      734.55097     -13.923907      720.62706    
   1308000   305.51579      0.0036007403   1.60281        757.9931      -12.78956       745.20354    
   1309000   293.84235      0.0036007403   2.8793778      729.03098     -12.058133      716.97284    
   1310000   301.89456      0.0036007403   3.1263805      749.00872     -11.990998      737.01772    
   1311000   312.22621      0.0036007403   1.6580636      774.64184     -10.994052      763.64779    
   1312000   301.89722      0.0036007403   1.7710546      749.01531     -9.03966        739.97565    
   1313000   298.36731      0.0036007403   2.0469388      740.25753     -12.043746      728.21378    
   1314000   296.63677      0.0036007403   3.154663       735.964       -12.717609      723.24639    
   1315000   301.66882      0.0036007403   1.9965398      748.44867     -10.273465      738.1752     
   1316000   303.05926      0.0036007403   1.6086447      751.89837     -8.1927295      743.70564    
   1317000   295.41483      0.0036007403   2.0552999      732.93234     -9.4215673      723.51078    
   1318000   297.99647      0.0036007403   1.8913011      739.33746     -9.2539503      730.08351    
   1319000   302.17922      0.0036007403   1.877532       749.71499     -9.1508893      740.5641     
   1320000   306.45261      0.0036007403   1.7582829      760.31738     -11.860542      748.45683    
   1321000   300.18919      0.0036007403   4.3965484      744.77766     -11.626169      733.15149    
   1322000   293.59451      0.0036007403   0.91443539     728.41606     -12.561645      715.85441    
   1323000   317.60179      0.0036007403  -1.3305212      787.9788      -10.60535       777.37345    
   1324000   303.5381       0.0036007403   2.2329831      753.08639     -11.897488      741.1889     
   1325000   299.2855       0.0036007403   4.5180787      742.53557     -10.303007      732.23256    
   1326000   292.57886      0.0036007403   0.27915065     725.89623     -11.147131      714.7491     
   1327000   301.73795      0.0036007403  -0.71702698     748.62017     -10.32394       738.29623    
   1328000   297.73751      0.0036007403   3.7527917      738.69497     -10.047352      728.64762    
   1329000   294.33854      0.0036007403   1.5498443      730.26203     -9.687309       720.57472    
   1330000   312.74216      0.0036007403  -0.34972363     775.92191     -10.768323      765.15359    
   1331000   291.26705      0.0036007403   2.9368497      722.64157     -13.049533      709.59204    
   1332000   290.91237      0.0036007403   3.0602735      721.76161     -11.96101       709.8006     
   1333000   303.85878      0.0036007403   1.5898197      753.88201     -9.8947034      743.98731    
   1334000   308.90458      0.0036007403   0.35227159     766.40077     -11.688108      754.71266    
   1335000   296.34194      0.0036007403   2.4395521      735.23252     -10.149059      725.08346    
   1336000   301.59685      0.0036007403   2.5354103      748.2701      -11.588686      736.68141    
   1337000   297.75767      0.0036007403   2.0964114      738.745       -11.929025      726.81597    
   1338000   297.47906      0.0036007403   0.57023314     738.05375     -10.133246      727.9205     
   1339000   299.51351      0.0036007403   1.6332584      743.10127     -14.083664      729.01761    
   1340000   299.25679      0.0036007403   2.2690205      742.46434     -10.495846      731.96849    
   1341000   289.57422      0.0036007403   1.8265088      718.44161     -10.54174       707.89987    
   1342000   300.59989      0.0036007403   2.1612304      745.79662     -12.137985      733.65864    
   1343000   311.4663       0.0036007403   2.0615597      772.75649     -14.042814      758.71367    
   1344000   300.17151      0.0036007403   2.1986189      744.73378     -12.469869      732.26391    
   1345000   295.34972      0.0036007403   1.94641        732.77081     -13.466209      719.3046     
   1346000   306.87948      0.0036007403   1.9120253      761.37644     -13.200083      748.17636    
   1347000   299.48762      0.0036007403   2.1308514      743.03704     -11.195276      731.84176    
   1348000   305.51866      0.0036007403   3.4209452      758.00022     -11.649112      746.35111    
   1349000   297.43371      0.0036007403   2.1289186      737.94124     -10.697698      727.24354    
   1350000   302.33609      0.0036007403   1.7920602      750.10416     -7.856959       742.2472     
   1351000   304.33768      0.0036007403   1.7886804      755.07018     -8.0660302      747.00415    
   1352000   302.23841      0.0036007403   2.092864       749.86182     -9.5321658      740.32965    
   1353000   295.87263      0.0036007403   1.9709442      734.06816     -10.609185      723.45897    
   1354000   290.28446      0.0036007403   1.8864552      720.20376     -9.9235354      710.28022    
   1355000   310.90413      0.0036007403   1.944052       771.36171     -10.487198      760.87451    
   1356000   297.02086      0.0036007403   1.6481669      736.91694     -10.213327      726.70361    
   1357000   289.90917      0.0036007403   2.0927404      719.27263     -9.1485347      710.1241     
   1358000   309.58295      0.0036007403   2.0627411      768.08383     -9.1860375      758.89779    
   1359000   304.73694      0.0036007403   1.6364274      756.06074     -8.8978064      747.16294    
   1360000   298.32687      0.0036007403   2.0313682      740.15718     -9.9830244      730.17416    
   1361000   299.07501      0.0036007403   1.91909        742.01335     -11.768269      730.24508    
   1362000   330.8491       0.0036007403   2.8682503      820.84574     -10.926664      809.91908    
   1363000   303.57726      0.0036007403   2.1590425      753.18356     -10.029062      743.1545     
   1364000   299.58151      0.0036007403   3.2935273      743.26997     -9.3292605      733.94071    
   1365000   308.09839      0.0036007403   2.0252625      764.4006      -9.6361853      754.76441    
   1366000   292.49073      0.0036007403   0.84480244     725.67756     -10.846036      714.83152    
   1367000   299.6524       0.0036007403   2.0748996      743.44586     -8.8537847      734.59207    
   1368000   304.89132      0.0036007403   1.9760307      756.44376     -9.0914039      747.35236    
   1369000   306.20667      0.0036007403   2.0661655      759.70719     -9.5213662      750.18582    
   1370000   293.64348      0.0036007403   1.3534562      728.53756     -10.092782      718.44478    
   1371000   309.37785      0.0036007403   1.6560134      767.57498     -7.9876113      759.58737    
   1372000   321.41216      0.0036007403   3.551693       797.43242     -7.8656346      789.56679    
   1373000   295.59845      0.0036007403   1.5126815      733.38789     -7.5287233      725.85917    
   1374000   292.57129      0.0036007403   0.35961849     725.87744     -9.6992598      716.17818    
   1375000   303.29515      0.0036007403   1.8681845      752.48362     -7.4900124      744.9936     
   1376000   308.37708      0.0036007403   4.6594418      765.09204     -10.868515      754.22353    
   1377000   291.84617      0.0036007403   4.1824566      724.07839     -11.077809      713.00059    
   1378000   296.38866      0.0036007403   0.59026688     735.34844     -9.1689077      726.17953    
   1379000   320.50255      0.0036007403   1.7471457      795.17566     -7.6965478      787.47911    
   1380000   296.46762      0.0036007403   3.8652755      735.54435     -7.5110933      728.03325    
   1381000   293.46343      0.0036007403   3.5687081      728.09085     -8.0957425      719.99511    
   1382000   305.1935       0.0036007403   0.71868845     757.19347     -7.1426613      750.05081    
   1383000   311.08919      0.0036007403   3.6961384      771.82086     -6.4327358      765.38812    
   1384000   301.21267      0.0036007403   2.6242871      747.31694     -8.2296524      739.08729    
   1385000   289.14013      0.0036007403   0.1965699      717.36464     -7.3499246      710.01472    
   1386000   299.22328      0.0036007403   1.8592725      742.38119     -8.2326097      734.14858    
   1387000   296.65078      0.0036007403   3.4614238      735.99876     -7.1465363      728.85222    
   1388000   300.31397      0.0036007403   2.1340201      745.08724     -8.6662227      736.42101    
   1389000   288.20789      0.0036007403  -4.3610263      715.05173     -7.1113725      707.94036    
   1390000   315.09019      0.0036007403  -0.84739284     781.74745     -8.8905169      772.85694    
   1391000   300.9002       0.0036007403   3.3549277      746.54169     -9.4288055      737.11289    
   1392000   293.57438      0.0036007403   4.6731353      728.36612     -6.6389493      721.72717    
   1393000   296.34612      0.0036007403   1.5218391      735.24288     -10.814493      724.42839    
   1394000   300.27558      0.0036007403  -0.25032041     744.99199     -9.3326782      735.65931    
   1395000   306.1907       0.0036007403   1.2312144      759.66756     -9.4562845      750.21127    
   1396000   309.37966      0.0036007403   2.9206109      767.57946     -11.431208      756.14826    
   1397000   294.81809      0.0036007403   2.4232682      731.45182     -7.9734198      723.4784     
   1398000   286.5954       0.0036007403   1.5351173      711.05109     -8.3640924      702.687      
   1399000   319.25246      0.0036007403   2.4710577      792.07416     -8.5675793      783.50658    
   1400000   300.54408      0.0036007403   1.8568979      745.65816     -7.3559679      738.30219    
   1401000   290.67835      0.0036007403   1.8499768      721.18099     -10.849386      710.3316     
   1402000   298.1727       0.0036007403   0.51318328     739.7747      -10.819635      728.95506    
   1403000   300.80789      0.0036007403   2.2084909      746.31266     -9.618632       736.69403    
   1404000   306.42778      0.0036007403   2.3345419      760.25576     -8.868257       751.3875     
   1405000   295.90182      0.0036007403   1.6148832      734.14056     -7.6747498      726.46581    
   1406000   295.64         0.0036007403   2.3393964      733.491       -8.5435782      724.94742    
   1407000   309.61687      0.0036007403   2.8870121      768.16799     -6.7438359      761.42416    
   1408000   309.44015      0.0036007403   2.2011908      767.72955     -6.7110033      761.01855    
   1409000   290.95634      0.0036007403   1.729824       721.87069     -8.0232658      713.84742    
   1410000   293.49764      0.0036007403   1.5702095      728.17574     -7.3242075      720.85154    
   1411000   305.15325      0.0036007403   2.0944504      757.09363     -8.5667043      748.52692    
   1412000   289.25157      0.0036007403   1.51739        717.64111     -8.1004241      709.54069    
   1413000   281.09045      0.0036007403   2.010211       697.39314     -9.0830371      688.31011    
   1414000   298.9291       0.0036007403   2.6546657      741.65135     -9.8882279      731.76312    
   1415000   311.27942      0.0036007403   2.9924782      772.29282     -7.1599632      765.13286    
   1416000   299.08572      0.0036007403   1.5342436      742.0399      -9.6346147      732.40529    
   1417000   289.16859      0.0036007403   1.5023049      717.43523     -9.2650739      708.17016    
   1418000   290.61897      0.0036007403   1.4129547      721.03367     -6.0779041      714.95576    
   1419000   300.19474      0.0036007403   3.8660447      744.79143     -7.947275       736.84415    
   1420000   308.5655       0.0036007403   0.61862139     765.5595      -8.1578711      757.40163    
   1421000   298.02696      0.0036007403   1.5851696      739.41311     -7.1875514      732.22556    
   1422000   301.56001      0.0036007403   2.3892586      748.17871     -6.8771282      741.30158    
   1423000   310.48764      0.0036007403   3.8717166      770.32839     -8.3421706      761.98622    
   1424000   296.44231      0.0036007403   1.7096907      735.48155     -9.0567785      726.42477    
   1425000   286.3012       0.0036007403   1.1806983      710.32116     -8.8733039      701.44785    
   1426000   308.16418      0.0036007403   2.5271769      764.56383     -9.3352005      755.22863    
   1427000   302.75532      0.0036007403   2.1108368      751.14429     -7.2976122      743.84668    
   1428000   296.04416      0.0036007403   1.6051993      734.49373     -12.23101       722.26272    
   1429000   295.88117      0.0036007403   1.9374061      734.08934     -9.0320453      725.0573     
   1430000   308.8713       0.0036007403   2.8618318      766.31821     -8.469989       757.84822    
   1431000   300.87081      0.0036007403   1.8630776      746.46877     -9.8448807      736.62389    
   1432000   287.48804      0.0036007403   1.3313865      713.26575     -9.5786856      703.68707    
   1433000   291.9458       0.0036007403   2.1493487      724.32557     -9.6352288      714.69034    
   1434000   304.02996      0.0036007403   3.4488203      754.30671     -9.9829518      744.32376    
   1435000   316.93137      0.0036007403   2.3664154      786.31546     -9.2091377      777.10632    
   1436000   295.24478      0.0036007403  -1.9742975      732.51044     -9.7318761      722.77856    
   1437000   293.82762      0.0036007403   2.5450285      728.99443     -10.089726      718.9047     
   1438000   310.80025      0.0036007403   2.3413285      771.10399     -11.657327      759.44667    
   1439000   304.67489      0.0036007403   1.8244323      755.9068      -10.592239      745.31456    
   1440000   300.12703      0.0036007403   1.4747521      744.62343     -9.7035374      734.91989    
   1441000   290.6878       0.0036007403   1.1910248      721.20444     -9.7150842      711.48936    
   1442000   301.08786      0.0036007403   2.1235349      747.00728     -8.4177831      738.5895     
   1443000   298.42695      0.0036007403   4.087962       740.40549     -9.029379       731.37611    
   1444000   295.51313      0.0036007403   3.4238522      733.17622     -9.9158804      723.26034    
   1445000   309.56136      0.0036007403  -0.16654946     768.03026     -7.6656326      760.36463    
   1446000   287.46314      0.0036007403  -0.35531931     713.20398     -8.0355965      705.16839    
   1447000   295.90331      0.0036007403   2.5205586      734.14427     -9.5830832      724.56119    
   1448000   298.48635      0.0036007403   1.4932803      740.55285     -11.609136      728.94372    
   1449000   296.45466      0.0036007403   1.7853983      735.51219     -11.407502      724.10469    
   1450000   294.90071      0.0036007403   3.9229782      731.65679     -12.365155      719.29164    
   1451000   302.3513       0.0036007403   2.2986763      750.1419      -7.5422388      742.59966    
   1452000   308.59585      0.0036007403   1.5916095      765.63481     -10.186524      755.44829    
   1453000   305.6142       0.0036007403   0.45647329     758.23726     -7.9093996      750.32786    
   1454000   290.55053      0.0036007403   1.6961997      720.86387     -7.9575244      712.90635    
   1455000   311.92788      0.0036007403   3.223659       773.90166     -6.3417324      767.55993    
   1456000   300.3883       0.0036007403   2.0991997      745.27166     -5.7610917      739.51057    
   1457000   300.91301      0.0036007403   1.829605       746.57348     -6.9923823      739.5811     
   1458000   305.83189      0.0036007403   3.2355737      758.77736     -9.1681367      749.60922    
   1459000   297.31512      0.0036007403   1.6736417      737.647       -8.3359493      729.31105    
   1460000   288.57031      0.0036007403   1.6020186      715.95089     -10.227995      705.72289    
   1461000   307.55399      0.0036007403   2.7467884      763.04994     -8.249413       754.80052    
   1462000   308.38236      0.0036007403   1.9142314      765.10513     -8.0535422      757.05159    
   1463000   289.96676      0.0036007403  -0.5095532      719.41552     -10.74134       708.67418    
   1464000   299.31961      0.0036007403   3.2067858      742.62021     -9.1965034      733.42371    
   1465000   296.73244      0.0036007403   2.8818307      736.20136     -8.3653236      727.83603    
   1466000   298.84737      0.0036007403  -1.2689931      741.44855     -5.9287121      735.51984    
   1467000   307.78921      0.0036007403   1.0420963      763.63352     -8.5533718      755.08015    
   1468000   295.48297      0.0036007403   0.73586267     733.1014      -8.4149057      724.68649    
   1469000   284.6157       0.0036007403   2.4462343      706.13939     -9.6888567      696.45053    
   1470000   281.23788      0.0036007403   1.6688864      697.75893     -9.311989       688.44694    
   1471000   315.59719      0.0036007403   2.9933009      783.00534     -7.6197368      775.3856     
   1472000   309.97558      0.0036007403   1.6038464      769.05796     -11.203725      757.85423    
   1473000   281.23489      0.0036007403   2.6575809      697.7515      -8.9270361      688.82447    
   1474000   302.1859       0.0036007403   2.7947404      749.73154     -8.65699        741.07455    
   1475000   308.95247      0.0036007403   0.13484471     766.51959     -9.0978556      757.42173    
   1476000   295.88816      0.0036007403   1.5995026      734.10669     -10.839304      723.26739    
   1477000   286.97293      0.0036007403   3.7211068      711.98774     -11.280905      700.70684    
   1478000   302.26411      0.0036007403   2.1833316      749.9256      -9.9841191      739.94148    
   1479000   304.16221      0.0036007403   0.26969238     754.63482     -7.0638243      747.571      
   1480000   292.39377      0.0036007403   1.1447812      725.43701     -6.9502151      718.4868     
   1481000   285.38401      0.0036007403   4.170689       708.0456      -8.1775589      699.86804    
   1482000   300.87298      0.0036007403   2.0939209      746.47416     -9.6705111      736.80364    
   1483000   292.09838      0.0036007403   0.95895055     724.70414     -11.13149       713.57265    
   1484000   307.21762      0.0036007403   2.0797321      762.2154      -10.772962      751.44243    
   1485000   300.46395      0.0036007403   2.1750389      745.45934     -8.708353       736.75099    
   1486000   286.56304      0.0036007403   2.0104667      710.9708      -9.2620923      701.7087     
   1487000   303.65923      0.0036007403   1.7338882      753.38692     -8.4503415      744.93658    
   1488000   313.25111      0.0036007403   2.0108243      777.18465     -8.6268287      768.55782    
   1489000   299.99695      0.0036007403   3.1575535      744.30071     -9.5452465      734.75546    
   1490000   306.76456      0.0036007403   2.6385133      761.09132     -12.189075      748.90225    
   1491000   297.49981      0.0036007403   1.82695        738.10522     -9.6461184      728.4591     
   1492000   298.22617      0.0036007403   1.9022698      739.90734     -9.1921052      730.71523    
   1493000   300.29222      0.0036007403   1.7853302      745.03327     -8.5694851      736.46378    
   1494000   305.6612       0.0036007403   2.1888282      758.35387     -8.4274397      749.92643    
   1495000   302.43068      0.0036007403   2.1059089      750.33885     -7.5230356      742.81582    
   1496000   287.97218      0.0036007403   1.8308375      714.46691     -7.6570464      706.80987    
   1497000   304.28404      0.0036007403   1.9460944      754.93709     -7.5335428      747.40354    
   1498000   309.82715      0.0036007403   2.0943053      768.68969     -7.1001709      761.58952    
   1499000   307.74682      0.0036007403   1.3249367      763.52834     -7.1417331      756.38661    
   1500000   288.56326      0.0036007403   1.3477681      715.93341     -5.895416       710.038      
   1501000   297.7954       0.0036007403   2.9464321      738.83859     -4.8628361      733.97575    
   1502000   312.3136       0.0036007403   1.8438175      774.85864     -5.0814401      769.7772     
   1503000   296.8689       0.0036007403   1.6726083      736.53991     -6.0940956      730.44582    
   1504000   303.84669      0.0036007403   1.9666872      753.852       -5.0192276      748.83278    
   1505000   299.11779      0.0036007403   1.9180033      742.11948     -5.4652387      736.65424    
   1506000   297.93578      0.0036007403   2.4852306      739.18689     -4.5766568      734.61023    
   1507000   295.77423      0.0036007403   2.1487048      733.82401     -9.9846496      723.83936    
   1508000   308.26627      0.0036007403  -0.62231804     764.81711     -8.2683387      756.54877    
   1509000   299.74647      0.0036007403  -1.2108838      743.67925     -9.6626313      734.01662    
   1510000   304.54623      0.0036007403   3.0574808      755.5876      -8.8779737      746.70963    
   1511000   304.23648      0.0036007403   4.1861232      754.8191      -9.620506       745.1986     
   1512000   298.50025      0.0036007403   1.8143723      740.58734     -9.0624217      731.52492    
   1513000   306.60407      0.0036007403   0.83814011     760.69315     -8.5116687      752.18148    
   1514000   303.49237      0.0036007403   1.9795336      752.97293     -8.6060085      744.36692    
   1515000   301.47082      0.0036007403   3.2522016      747.95743     -7.8503062      740.10712    
   1516000   296.11443      0.0036007403   2.3964574      734.66806     -7.9642083      726.70385    
   1517000   284.82851      0.0036007403  -1.0454335      706.66738     -10.608009      696.05937    
   1518000   302.05031      0.0036007403   1.5049653      749.39514     -8.7129832      740.68215    
   1519000   298.33038      0.0036007403   3.1932143      740.16589     -9.2375709      730.92832    
   1520000   300.44009      0.0036007403   2.0409136      745.40015     -7.4893568      737.91079    
   1521000   312.20429      0.0036007403   1.004982       774.58744     -7.8918395      766.6956     
   1522000   307.71178      0.0036007403   2.2965436      763.4414      -7.1533435      756.28805    
   1523000   297.67988      0.0036007403   2.0735779      738.55198     -7.3872267      731.16476    
   1524000   296.8711       0.0036007403   1.9456659      736.54539     -8.8648266      727.68056    
   1525000   299.60909      0.0036007403  -0.061047689    743.33841     -10.096473      733.24193    
   1526000   302.41341      0.0036007403   0.54218591     750.29602     -9.9162757      740.37974    
   1527000   298.51075      0.0036007403   2.8732362      740.61341     -8.8516848      731.76172    
   1528000   295.92353      0.0036007403   2.7250585      734.19444     -9.2651193      724.92932    
   1529000   302.64718      0.0036007403   1.3078121      750.87599     -9.6365669      741.23942    
   1530000   301.71086      0.0036007403   1.3245351      748.55296     -9.2362869      739.31667    
   1531000   307.44375      0.0036007403   2.1154747      762.77641     -9.7939566      752.98246    
   1532000   303.86636      0.0036007403   3.2075608      753.9008      -11.960225      741.94058    
   1533000   291.63879      0.0036007403   4.2182752      723.56389     -11.50352       712.06037    
   1534000   286.17949      0.0036007403  -1.0791841      710.01921     -11.365815      698.65339    
   1535000   305.637        0.0036007403   1.8049593      758.29382     -9.176783       749.11704    
   1536000   301.77832      0.0036007403   2.2198391      748.72032     -8.380821       740.3395     
   1537000   294.48483      0.0036007403   2.6167912      730.62498     -9.1187916      721.50619    
   1538000   288.66035      0.0036007403   0.35851589     716.1743      -9.3788921      706.7954     
   1539000   325.99877      0.0036007403   2.1960563      808.81193     -8.5355055      800.27642    
   1540000   287.89145      0.0036007403   3.1019445      714.26663     -8.4687243      705.7979     
   1541000   293.02613      0.0036007403   1.4190454      727.0059      -13.515712      713.49019    
   1542000   305.1157       0.0036007403   2.2824792      757.00046     -9.5552077      747.44525    
   1543000   297.08473      0.0036007403   2.1872029      737.0754      -11.751233      725.32417    
   1544000   303.23235      0.0036007403   1.9779705      752.32782     -7.8362734      744.49155    
   1545000   290.81116      0.0036007403   0.67870258     721.5105      -6.9039922      714.6065     
   1546000   302.18931      0.0036007403  -1.5130597      749.74002     -8.1059183      741.6341     
   1547000   319.82922      0.0036007403   1.9976817      793.50511     -6.9851539      786.51996    
   1548000   294.97091      0.0036007403   4.0127742      731.83096     -8.1615851      723.66937    
   1549000   290.24527      0.0036007403   0.86391557     720.10653     -6.5234082      713.58312    
   1550000   316.03311      0.0036007403   2.696356       784.08686     -7.843645       776.24322    
   1551000   304.38919      0.0036007403   4.6884539      755.19796     -8.0416723      747.15629    
   1552000   293.03987      0.0036007403  -0.65542046     727.03999     -8.2990746      718.74092    
   1553000   292.1998       0.0036007403  -0.43580681     724.95575     -5.9302038      719.02555    
   1554000   302.73124      0.0036007403   2.0293888      751.08456     -6.1346043      744.94996    
   1555000   303.20236      0.0036007403   4.616892       752.2534      -7.1320052      745.1214     
   1556000   282.53611      0.0036007403   1.1128279      700.97987     -7.9136153      693.06626    
   1557000   300.13104      0.0036007403  -0.6749072      744.63338     -6.0712258      738.56216    
   1558000   303.35642      0.0036007403   0.12869598     752.63565     -7.1509446      745.48471    
   1559000   299.89694      0.0036007403   7.5219466      744.05257     -8.5426727      735.50989    
   1560000   296.91183      0.0036007403   7.3418536      736.64644     -8.1458632      728.50058    
   1561000   301.12284      0.0036007403   0.62953947     747.09406     -8.0144962      739.07956    
   1562000   301.52456      0.0036007403   0.73675671     748.09076     -4.9807748      743.10998    
   1563000   293.79018      0.0036007403   6.5614346      728.90153     -5.461391       723.44014    
   1564000   285.00792      0.0036007403   4.8378968      707.1125      -7.9500707      699.16243    
   1565000   297.11006      0.0036007403   0.7146374      737.13825     -9.5056019      727.63265    
   1566000   297.99426      0.0036007403  -0.076550807    739.33198     -8.4807354      730.85124    
   1567000   317.73402      0.0036007403   1.8112958      788.30686     -8.4261172      779.88075    
   1568000   302.50849      0.0036007403   4.3045333      750.53189     -7.4977546      743.03414    
   1569000   297.98358      0.0036007403   3.5918904      739.30548     -4.7358731      734.5696     
   1570000   293.74088      0.0036007403   2.4841895      728.77921     -5.9781922      722.80102    
   1571000   292.794        0.0036007403  -0.74246769     726.43        -4.0141343      722.41586    
   1572000   307.11834      0.0036007403   3.5965061      761.96906     -5.260399       756.70867    
   1573000   300.72177      0.0036007403   6.8800047      746.099       -5.0060557      741.09294    
   1574000   301.4142       0.0036007403   1.6257372      747.81694     -5.3569416      742.46       
   1575000   288.52673      0.0036007403   2.2230279      715.84276     -7.7083696      708.13439    
   1576000   296.9096       0.0036007403   1.133506       736.6409      -7.0245063      729.61639    
   1577000   315.16341      0.0036007403   1.7402964      781.92912     -5.5051569      776.42396    
   1578000   303.88257      0.0036007403   2.1782866      753.94104     -7.1444815      746.79656    
   1579000   293.03335      0.0036007403   2.6629896      727.02382     -7.1578623      719.86596    
   1580000   287.06304      0.0036007403   1.7787055      712.21132     -6.1195154      706.09181    
   1581000   302.58044      0.0036007403   2.1999177      750.71041     -6.7578475      743.95256    
   1582000   311.26056      0.0036007403   2.1245007      772.24603     -7.8321855      764.41385    
   1583000   300.98823      0.0036007403   1.9479895      746.76009     -5.5021889      741.2579     
   1584000   294.40891      0.0036007403   1.7381487      730.43662     -9.0046613      721.43196    
   1585000   301.54158      0.0036007403   1.2541723      748.13297     -8.3855357      739.74743    
   1586000   305.54524      0.0036007403   1.6789201      758.06617     -6.1643259      751.90184    
   1587000   288.33789      0.0036007403   2.2724617      715.37426     -9.6424422      705.73181    
   1588000   295.84203      0.0036007403   2.007527       733.99223     -10.365252      723.62697    
   1589000   311.63673      0.0036007403   1.8791751      773.17932     -9.6730766      763.50624    
   1590000   305.31518      0.0036007403   2.0450881      757.49538     -9.8639715      747.63141    
   1591000   286.84936      0.0036007403   2.2669127      711.68116     -10.700477      700.98068    
   1592000   310.18703      0.0036007403   2.0000738      769.58257     -7.2195378      762.36304    
   1593000   308.00791      0.0036007403   1.954541       764.17612     -7.5844575      756.59166    
   1594000   298.85923      0.0036007403   1.7393113      741.478       -8.3043722      733.17363    
   1595000   302.71736      0.0036007403   1.8258532      751.05011     -11.705074      739.34504    
   1596000   299.10594      0.0036007403   2.686552       742.09009     -11.933266      730.15683    
   1597000   303.65856      0.0036007403   1.8014644      753.38526     -10.458873      742.92639    
   1598000   288.87409      0.0036007403   1.0348873      716.70459     -12.752249      703.95234    
   1599000   298.81668      0.0036007403   1.8956237      741.37242     -12.846908      728.52552    
   1600000   300.8488       0.0036007403   1.6379212      746.41417     -11.743838      734.67034    
   1601000   299.74946      0.0036007403   2.1518016      743.68668     -9.6865539      734.00013    
   1602000   294.656        0.0036007403   1.172477       731.04965     -11.009138      720.04052    
   1603000   298.96643      0.0036007403   1.2027201      741.74396     -12.254058      729.48991    
   1604000   315.87143      0.0036007403   1.3802562      783.68571     -14.638253      769.04746    
   1605000   292.94699      0.0036007403   2.2124534      726.80955     -12.291718      714.51783    
   1606000   296.96418      0.0036007403   2.0080473      736.77632     -8.2058279      728.57049    
   1607000   310.57006      0.0036007403   2.2252301      770.53288     -6.5100504      764.02283    
   1608000   303.32997      0.0036007403   2.0249734      752.57001     -6.3733324      746.19667    
   1609000   283.00359      0.0036007403   1.795967       702.13971     -6.5898579      695.54986    
   1610000   294.74277      0.0036007403   1.7317453      731.26493     -7.6439775      723.62095    
   1611000   315.87199      0.0036007403   1.5590401      783.68711     -6.9631985      776.72392    
   1612000   302.49308      0.0036007403   2.0235778      750.49367     -7.3093963      743.18427    
   1613000   291.02066      0.0036007403   2.1632546      722.03027     -7.4544166      714.57586    
   1614000   295.31656      0.0036007403   2.0208703      732.68853     -8.8957127      723.79281    
   1615000   312.90799      0.0036007403   2.2666781      776.33334     -8.5160272      767.81731    
   1616000   310.01048      0.0036007403   1.5093281      769.14455     -9.6856847      759.45887    
   1617000   289.55637      0.0036007403   1.0125222      718.39733     -8.1134516      710.28388    
   1618000   285.85354      0.0036007403   1.9492087      709.21051     -6.8954196      702.31509    
   1619000   282.27481      0.0036007403   4.1974334      700.33158     -3.7141921      696.61739    
   1620000   303.04724      0.0036007403   0.60366655     751.86856     -6.0786968      745.78986    
   1621000   306.11014      0.0036007403   0.86573307     759.46769     -4.5144644      754.95323    
   1622000   279.51838      0.0036007403   2.1744515      693.4928      -5.2451303      688.24767    
   1623000   302.13923      0.0036007403   1.9977695      749.61576     -5.9964579      743.6193     
   1624000   309.66356      0.0036007403   1.9984958      768.28382     -6.8212519      761.46256    
   1625000   303.41466      0.0036007403   2.0853407      752.78013     -6.4257985      746.35433    
   1626000   285.70313      0.0036007403   1.96214        708.83735     -9.2620648      699.57529    
   1627000   318.44129      0.0036007403   2.7896785      790.06162     -8.0383991      782.02322    
   1628000   305.82088      0.0036007403   1.10077        758.75002     -10.008311      748.74171    
   1629000   288.00754      0.0036007403   1.834478       714.55465     -8.3655252      706.18913    
   1630000   292.19226      0.0036007403   3.1146526      724.93705     -8.2122117      716.72484    
   1631000   306.29836      0.0036007403   2.3381053      759.93467     -7.638632       752.29604    
   1632000   306.12928      0.0036007403  -1.6738582      759.51518     -7.3764596      752.13872    
   1633000   294.93368      0.0036007403  -0.6665421      731.73859     -10.499157      721.23943    
   1634000   284.71186      0.0036007403   3.8899528      706.37798     -9.8068076      696.57117    
   1635000   310.63899      0.0036007403   3.3332033      770.70391     -12.211122      758.49279    
   1636000   307.75433      0.0036007403   2.0039488      763.54698     -8.8962825      754.65069    
   1637000   295.78881      0.0036007403   0.42979172     733.8602      -8.0946348      725.76556    
   1638000   288.02615      0.0036007403   1.9858971      714.60081     -8.5676544      706.03316    
   1639000   293.60339      0.0036007403   3.8875848      728.4381      -8.2392897      720.19881    
   1640000   313.67824      0.0036007403   1.8099915      778.24436     -7.896418       770.34794    
   1641000   292.50303      0.0036007403   1.2005165      725.70807     -8.8513214      716.85675    
   1642000   288.90613      0.0036007403   1.9752165      716.78408     -7.7178857      709.06619    
   1643000   299.95836      0.0036007403   2.1565362      744.20497     -7.3919222      736.81304    
   1644000   313.46063      0.0036007403   2.3144441      777.70446     -5.1112972      772.59316    
   1645000   303.29513      0.0036007403   2.0418336      752.48357     -5.9285291      746.55504    
   1646000   298.81411      0.0036007403   1.8451338      741.36605     -4.6613283      736.70472    
   1647000   302.46287      0.0036007403   2.3514336      750.41872     -4.9827106      745.43601    
   1648000   298.0392       0.0036007403   3.1090861      739.44348     -4.6265363      734.81695    
   1649000   298.49903      0.0036007403   2.2420731      740.58433     -5.0206861      735.56365    
   1650000   294.7751       0.0036007403   1.2710002      731.34514     -5.2448968      726.10024    
   1651000   295.5243       0.0036007403   2.0115964      733.20394     -6.2020941      727.00185    
   1652000   305.15202      0.0036007403   1.79646        757.09058     -5.915106       751.17547    
   1653000   305.68395      0.0036007403   2.0277812      758.41029     -7.8579096      750.55238    
   1654000   290.66974      0.0036007403   2.1377943      721.15963     -7.0451317      714.1145     
   1655000   294.48186      0.0036007403   1.9457784      730.61762     -7.6195124      722.9981     
   1656000   299.52501      0.0036007403   1.9451939      743.1298      -5.7287587      737.40104    
   1657000   311.95205      0.0036007403   2.100756       773.96164     -7.430719       766.53092    
   1658000   292.54829      0.0036007403   1.8123484      725.82037     -7.6137449      718.20662    
   1659000   286.34958      0.0036007403   1.870422       710.4412      -7.9932132      702.44799    
   1660000   304.23413      0.0036007403   1.9952093      754.81326     -6.6664599      748.1468     
   1661000   310.05447      0.0036007403   2.0019677      769.2537      -8.0086638      761.24503    
   1662000   301.43118      0.0036007403   2.4752109      747.85907     -8.8544213      739.00465    
   1663000   284.61359      0.0036007403   1.8197654      706.13417     -7.1343434      698.99982    
   1664000   300.14684      0.0036007403   1.6890366      744.67258     -7.5145379      737.15805    
   1665000   303.89289      0.0036007403   2.0112352      753.96664     -7.1008641      746.86577    
   1666000   295.00925      0.0036007403   2.0761899      731.92607     -7.7130652      724.21301    
   1667000   295.43663      0.0036007403   2.2674837      732.98642     -9.4247754      723.56165    
   1668000   298.2209       0.0036007403   1.9022343      739.89428     -9.1930959      730.70118    
   1669000   302.89328      0.0036007403   1.4298687      751.48658     -8.0389439      743.44764    
   1670000   313.65615      0.0036007403   2.081626       778.18956     -10.678623      767.51094    
   1671000   302.58672      0.0036007403   3.1868687      750.726       -8.157953       742.56804    
   1672000   292.89858      0.0036007403   1.9481648      726.68946     -8.3065006      718.38296    
   1673000   302.80763      0.0036007403   2.4028169      751.27407     -8.9995662      742.2745     
   1674000   302.72418      0.0036007403   1.6792195      751.06704     -8.9897419      742.0773     
   1675000   299.97568      0.0036007403   1.6827145      744.24794     -10.973013      733.27492    
   1676000   291.39468      0.0036007403   2.1028478      722.95823     -7.6601726      715.29805    
   1677000   298.37135      0.0036007403   2.1116531      740.26755     -8.1887012      732.07884    
   1678000   307.93502      0.0036007403   1.9386619      763.99527     -8.9733361      755.02194    
   1679000   296.70038      0.0036007403   1.920229       736.12183     -7.6296683      728.49216    
   1680000   301.64029      0.0036007403   2.0922167      748.37788     -8.2345222      740.14336    
   1681000   309.07827      0.0036007403   2.4449138      766.8317      -7.5357897      759.29591    
   1682000   292.04495      0.0036007403   1.8946651      724.57157     -9.0896452      715.48193    
   1683000   281.27003      0.0036007403   1.7439211      697.8387      -10.981981      686.85671    
   1684000   304.65189      0.0036007403   2.0390271      755.84973     -8.1389246      747.7108     
   1685000   308.85964      0.0036007403   2.2171049      766.28927     -10.074672      756.2146     
   1686000   312.91754      0.0036007403   3.5409029      776.35705     -8.0769116      768.28013    
   1687000   310.7615       0.0036007403   1.3869256      771.00786     -7.9132106      763.09465    
   1688000   295.78817      0.0036007403   1.8161035      733.85861     -9.0144186      724.84419    
   1689000   307.96867      0.0036007403   2.5445466      764.07877     -10.215953      753.86282    
   1690000   307.98761      0.0036007403   4.1221263      764.12576     -7.7742312      756.35153    
   1691000   305.54205      0.0036007403   1.518892       758.05826     -10.299831      747.75843    
   1692000   301.02745      0.0036007403   1.9785343      746.8574      -12.245831      734.61157    
   1693000   298.4568       0.0036007403   2.2854403      740.47956     -9.7591862      730.72037    
   1694000   291.99475      0.0036007403   1.9850765      724.44702     -10.575542      713.87147    
   1695000   305.64872      0.0036007403   2.1861986      758.32289     -6.9547539      751.36813    
   1696000   307.18304      0.0036007403   2.0611639      762.12959     -10.247494      751.88209    
   1697000   300.51035      0.0036007403   1.7058463      745.57447     -9.9554996      735.61897    
   1698000   291.39379      0.0036007403   1.8580822      722.95603     -13.042639      709.91339    
   1699000   301.40519      0.0036007403   1.9785807      747.79457     -10.929111      736.86546    
   1700000   293.04101      0.0036007403   3.1991919      727.04282     -8.5396333      718.50319    
   1701000   302.38147      0.0036007403   1.9955973      750.21676     -9.1624707      741.05429    
   1702000   302.28121      0.0036007403   1.7696292      749.96802     -8.6004175      741.3676     
   1703000   304.56528      0.0036007403   1.7799182      755.63485     -11.286306      744.34854    
   1704000   293.37889      0.0036007403   3.7335066      727.88111     -10.824406      717.05671    
   1705000   299.56949      0.0036007403   4.5544243      743.24016     -8.5513209      734.68884    
   1706000   303.43774      0.0036007403   0.82999242     752.83741     -8.9023017      743.93511    
   1707000   296.13131      0.0036007403   1.9477662      734.70994     -9.7014796      725.00846    
   1708000   298.35794      0.0036007403   3.0875427      740.23428     -6.6107079      733.62357    
   1709000   307.42004      0.0036007403  -1.00153        762.71759     -7.6517509      755.06584    
   1710000   296.80075      0.0036007403   1.3865363      736.37084     -6.8312699      729.53957    
   1711000   294.58596      0.0036007403   3.3673471      730.87588     -8.9318224      721.94406    
   1712000   299.03141      0.0036007403   6.9493076      741.90516     -8.3323052      733.57285    
   1713000   314.88243      0.0036007403   1.6799146      781.23198     -9.1688896      772.06309    
   1714000   290.99278      0.0036007403  -0.77893336     721.96111     -9.9207731      712.04034    
   1715000   295.19704      0.0036007403   1.9657372      732.392       -7.9268102      724.46519    
   1716000   301.70081      0.0036007403   2.1884878      748.52802     -6.4051219      742.1229     
   1717000   303.58364      0.0036007403   3.2600598      753.19939     -7.459025       745.74036    
   1718000   297.18918      0.0036007403   0.66682822     737.33455     -7.4329668      729.90158    
   1719000   306.40215      0.0036007403  -0.30398675     760.19217     -9.3439796      750.84819    
   1720000   298.78031      0.0036007403   1.1909828      741.28218     -7.4179846      733.86419    
   1721000   303.43137      0.0036007403   2.8264383      752.82158     -9.2907884      743.5308     
   1722000   298.83023      0.0036007403   1.2569039      741.40604     -8.0425665      733.36347    
   1723000   303.03606      0.0036007403   1.8868225      751.84082     -7.2800498      744.56077    
   1724000   306.94513      0.0036007403   2.203909       761.53932     -8.2504066      753.28891    
   1725000   294.64335      0.0036007403   1.962088       731.01826     -10.152171      720.86609    
   1726000   280.53216      0.0036007403   1.9430327      696.00801     -7.6401703      688.36784    
   1727000   304.50813      0.0036007403   2.2713125      755.49306     -9.4005237      746.09253    
   1728000   300.35118      0.0036007403   1.9657834      745.17955     -9.2531479      735.9264     
   1729000   300.68147      0.0036007403   1.6261555      745.99901     -6.9129563      739.08605    
   1730000   305.09616      0.0036007403   1.7298984      756.95199     -7.1145721      749.83741    
   1731000   293.05407      0.0036007403   3.2971202      727.07521     -6.0219141      721.0533     
   1732000   298.9525       0.0036007403   2.369006       741.7094      -8.6599674      733.04943    
   1733000   318.2028       0.0036007403   2.3817853      789.46992     -7.0219175      782.44801    
   1734000   300.37108      0.0036007403   1.6817223      745.22893     -7.6620196      737.56691    
   1735000   292.42415      0.0036007403   2.1259714      725.51237     -6.5840449      718.92833    
   1736000   299.73504      0.0036007403   2.418548       743.65089     -6.0425115      737.60838    
   1737000   309.02702      0.0036007403   2.1716595      766.70455     -7.4035324      759.30102    
   1738000   291.04969      0.0036007403   1.5418335      722.10231     -4.7058317      717.39648    
   1739000   297.22701      0.0036007403   2.2977603      737.4284      -4.0222612      733.40614    
   1740000   306.04653      0.0036007403   1.8671285      759.30987     -5.3956962      753.91418    
   1741000   304.96361      0.0036007403   1.9019423      756.62312     -4.0188741      752.60424    
   1742000   297.34298      0.0036007403   0.64778565     737.71614     -5.3248897      732.39125    
   1743000   299.69565      0.0036007403   2.2226406      743.55318     -5.5245453      738.02863    
   1744000   292.69204      0.0036007403   4.350354       726.17703     -4.0577507      722.11928    
   1745000   299.83654      0.0036007403   1.7365176      743.90272     -6.3894487      737.51327    
   1746000   300.8579       0.0036007403   1.5853772      746.43674     -5.5805715      740.85617    
   1747000   300.65858      0.0036007403   2.3965151      745.94222     -6.7800686      739.16215    
   1748000   302.85973      0.0036007403   3.8012017      751.40334     -5.985014       745.41833    
   1749000   299.2442       0.0036007403   2.4813876      742.4331      -7.0294435      735.40366    
   1750000   300.85587      0.0036007403  -1.1742114      746.43171     -5.3909929      741.04071    
   1751000   295.89896      0.0036007403   3.4436685      734.13347     -6.1565628      727.97691    
   1752000   311.2352       0.0036007403   0.73950143     772.1831      -5.2589983      766.9241     
   1753000   303.8897       0.0036007403   1.2371849      753.95872     -7.0273234      746.93139    
   1754000   290.53288      0.0036007403   4.7439107      720.82008     -6.0316252      714.78845    
   1755000   300.9054       0.0036007403   1.9215517      746.5546      -7.1675853      739.38702    
   1756000   310.00111      0.0036007403   1.5807919      769.12131     -5.2516857      763.86962    
   1757000   289.95581      0.0036007403   1.9668071      719.38836     -3.6915929      715.69676    
   1758000   296.24234      0.0036007403   2.3887069      734.9854      -4.6261343      730.35927    
   1759000   312.93135      0.0036007403   1.8566979      776.39131     -4.3688257      772.02248    
   1760000   295.84425      0.0036007403   0.56258942     733.99774     -5.0940655      728.90368    
   1761000   277.72136      0.0036007403   2.1384273      689.03435     -6.7547661      682.27958    
   1762000   312.58574      0.0036007403   2.2931953      775.53383     -6.0589386      769.47489    
   1763000   296.1634       0.0036007403   0.83666548     734.78957     -9.7225894      725.06698    
   1764000   286.69333      0.0036007403   2.0792105      711.29405     -7.6866459      703.60741    
   1765000   298.7287       0.0036007403   2.0767441      741.15414     -8.2887587      732.86538    
   1766000   303.38113      0.0036007403   2.3874204      752.69696     -6.6337366      746.06322    
   1767000   312.08022      0.0036007403   1.2046857      774.27964     -9.5009085      764.77873    
   1768000   294.65775      0.0036007403   1.8690691      731.05399     -8.4609254      722.59307    
   1769000   283.16778      0.0036007403   2.1091327      702.54708     -8.9759157      693.57116    
   1770000   307.62577      0.0036007403   2.1773486      763.22802     -8.7648769      754.46314    
   1771000   316.52298      0.0036007403   1.9601138      785.30223     -9.7749221      775.52731    
   1772000   310.60575      0.0036007403   3.0489196      770.62143     -7.3459559      763.27547    
   1773000   293.10725      0.0036007403   1.9759699      727.20716     -8.2683978      718.93876    
   1774000   311.18489      0.0036007403   1.0763076      772.05828     -6.589089       765.46919    
   1775000   310.02563      0.0036007403   2.7541062      769.18214     -7.9339957      761.24814    
   1776000   283.94228      0.0036007403   1.9193847      704.46861     -7.073428       697.39518    
   1777000   294.53989      0.0036007403   1.1422868      730.7616      -7.6432959      723.1183     
   1778000   310.53404      0.0036007403   1.7679056      770.44351     -8.0981984      762.34531    
   1779000   295.01267      0.0036007403   3.5231152      731.93456     -9.825576       722.10899    
   1780000   281.77369      0.0036007403   2.2302873      699.0883      -10.330197      688.7581     
   1781000   300.72848      0.0036007403   1.8279713      746.11564     -6.7465877      739.36905    
   1782000   310.11929      0.0036007403   1.7757223      769.41451     -6.9271172      762.48739    
   1783000   300.75332      0.0036007403   2.0598225      746.17728     -8.7740366      737.40325    
   1784000   297.09274      0.0036007403   2.0902347      737.09527     -7.2103809      729.88488    
   1785000   300.31037      0.0036007403   1.7614432      745.0783      -7.7287162      737.34959    
   1786000   307.29724      0.0036007403   1.9350876      762.41293     -6.402831       756.0101     
   1787000   295.01037      0.0036007403   2.9758931      731.92886     -9.2026886      722.72617    
   1788000   302.82218      0.0036007403   0.69983716     751.31019     -9.0568606      742.25333    
   1789000   307.46092      0.0036007403   1.7939707      762.81902     -9.8805111      752.9385     
   1790000   292.22574      0.0036007403   3.4278095      725.02012     -9.7719644      715.24816    
   1791000   290.85868      0.0036007403   1.58489        721.62839     -9.6665671      711.96182    
   1792000   313.92985      0.0036007403   1.3863879      778.8686      -9.3933441      769.47526    
   1793000   297.83384      0.0036007403   2.1603911      738.93397     -6.0921549      732.84181    
   1794000   286.75493      0.0036007403   1.8361557      711.44689     -6.9072691      704.53962    
   1795000   306.89581      0.0036007403   1.9356416      761.41697     -6.5768438      754.84013    
   1796000   306.45942      0.0036007403   2.6019131      760.33427     -6.7572615      753.57701    
   1797000   300.43912      0.0036007403   2.2171963      745.39774     -7.3457554      738.05198    
   1798000   291.44885      0.0036007403   1.2134432      723.09264     -8.151296       714.94134    
   1799000   304.81126      0.0036007403   1.5138548      756.24513     -8.4088801      747.83625    
   1800000   297.63364      0.0036007403   1.9362403      738.43728     -7.1855924      731.25168    
   1801000   302.23804      0.0036007403   2.0271744      749.86091     -8.3652823      741.49563    
   1802000   297.76453      0.0036007403   1.8940916      738.76202     -8.980959       729.78106    
   1803000   299.32922      0.0036007403   2.273205       742.64406     -8.1570751      734.48698    
   1804000   302.03596      0.0036007403   1.9811471      749.35953     -8.7707761      740.58876    
   1805000   291.0395       0.0036007403   1.9037875      722.07702     -7.0366981      715.04032    
   1806000   286.36106      0.0036007403   1.8464819      710.46968     -6.315236       704.15445    
   1807000   307.43348      0.0036007403   1.9809937      762.75094     -8.1166472      754.63429    
   1808000   309.55695      0.0036007403   2.0983194      768.01933     -9.7974749      758.22186    
   1809000   298.60786      0.0036007403   1.9783227      740.85433     -7.351635       733.5027     
   1810000   296.1603       0.0036007403   1.9515423      734.78187     -9.2991965      725.48267    
   1811000   293.54581      0.0036007403   1.9574367      728.29525     -7.7213698      720.57389    
   1812000   314.29233      0.0036007403   2.2379622      779.76792     -8.3003165      771.46761    
   1813000   300.18703      0.0036007403   3.3186125      744.77229     -7.8024261      736.96986    
   1814000   298.56584      0.0036007403   1.4322633      740.75008     -6.3713125      734.37877    
   1815000   304.451        0.0036007403   1.9685337      755.35133     -6.0449814      749.30635    
   1816000   311.08448      0.0036007403   2.4606583      771.80917     -8.2844515      763.52472    
   1817000   297.25784      0.0036007403   2.4199905      737.50489     -6.0087451      731.49614    
   1818000   285.69327      0.0036007403   1.9722106      708.81288     -7.0723461      701.74053    
   1819000   294.73647      0.0036007403   1.3337181      731.24931     -7.5615263      723.68779    
   1820000   310.33132      0.0036007403   1.7766354      769.94055     -8.0430441      761.8975     
   1821000   291.58419      0.0036007403   2.1391071      723.4284      -8.1608645      715.26754    
   1822000   295.02089      0.0036007403   2.0183264      731.95496     -7.8480267      724.10694    
   1823000   297.83839      0.0036007403   2.1112832      738.94526     -7.2180337      731.72723    
   1824000   308.16121      0.0036007403   1.6392027      764.55645     -6.4536119      758.10284    
   1825000   290.34967      0.0036007403   1.3695055      720.36553     -7.5695092      712.79602    
   1826000   299.52301      0.0036007403   2.5809237      743.12484     -8.2453459      734.8795     
   1827000   302.27598      0.0036007403   2.4430854      749.95504     -8.9249567      741.03008    
   1828000   302.38578      0.0036007403   1.4494223      750.22746     -8.2432531      741.98421    
   1829000   295.77803      0.0036007403   2.0858605      733.83345     -6.0948891      727.73856    
   1830000   295.23905      0.0036007403   1.5558372      732.49622     -7.7094138      724.78681    
   1831000   300.86514      0.0036007403   2.0579425      746.4547      -10.013893      736.44081    
   1832000   310.6039       0.0036007403   2.0136255      770.61684     -8.7677373      761.8491     
   1833000   302.48944      0.0036007403   1.896731       750.48465     -7.4867455      742.9979     
   1834000   301.55674      0.0036007403   1.9974807      748.17058     -5.7862848      742.3843     
   1835000   282.34257      0.0036007403   2.2594612      700.49971     -5.0937946      695.40591    
   1836000   305.61526      0.0036007403   2.8180521      758.23989     -7.1689033      751.07098    
   1837000   310.05585      0.0036007403   1.5088062      769.2571      -5.8211957      763.43591    
   1838000   305.35292      0.0036007403   1.5632794      757.589       -7.6639465      749.92506    
   1839000   293.42971      0.0036007403   2.0598901      728.00719     -9.2914991      718.71569    
   1840000   293.61711      0.0036007403   1.6265197      728.47214     -7.2171097      721.25503    
   1841000   309.56354      0.0036007403   1.680522       768.03569     -4.16206        763.87363    
   1842000   298.17491      0.0036007403   1.9693683      739.78018     -6.1627013      733.61748    
   1843000   300.93678      0.0036007403   2.0453211      746.63245     -5.7950953      740.83735    
   1844000   292.15458      0.0036007403   2.0521112      724.84357     -5.4617199      719.38185    
   1845000   303.13242      0.0036007403   2.1351146      752.07989     -6.4943614      745.58553    
   1846000   307.64162      0.0036007403   2.6226221      763.26735     -4.3493265      758.91802    
   1847000   297.2788       0.0036007403   1.657882       737.55689     -5.7512384      731.80565    
   1848000   298.57539      0.0036007403   1.9186319      740.77376     -5.9326362      734.84113    
   1849000   292.52696      0.0036007403   1.9691825      725.76746     -6.9437553      718.82371    
   1850000   313.98025      0.0036007403   2.4043804      778.99366     -6.3381917      772.65547    
   1851000   310.29502      0.0036007403  -0.069974902    769.85049     -8.1593186      761.69117    
   1852000   285.06976      0.0036007403   2.0674339      707.26593     -8.5285361      698.73739    
   1853000   307.08345      0.0036007403   2.2242147      761.88251     -7.3646282      754.51789    
   1854000   316.04351      0.0036007403   2.5204925      784.11266     -5.9796398      778.13302    
   1855000   315.05143      0.0036007403   1.86319        781.65128     -7.6677203      773.98356    
   1856000   291.18681      0.0036007403   1.77251        722.44249     -9.7024801      712.74001    
   1857000   292.02962      0.0036007403   1.8136996      724.53354     -9.8490659      714.68447    
   1858000   307.53017      0.0036007403   1.935957       762.99084     -9.2900129      753.70083    
   1859000   307.89914      0.0036007403   2.2034594      763.90626     -10.279018      753.62724    
   1860000   286.16559      0.0036007403   3.2684948      709.98471     -12.098704      697.886      
   1861000   297.26959      0.0036007403   1.4436785      737.53405     -9.9771867      727.55686    
   1862000   312.49681      0.0036007403   2.056158       775.31319     -8.4157932      766.8974     
   1863000   293.13971      0.0036007403   3.4543436      727.28769     -7.7800982      719.50759    
   1864000   292.71704      0.0036007403   2.3134989      726.23905     -8.0810038      718.15804    
   1865000   290.15888      0.0036007403   0.93531286     719.89217     -6.4699438      713.42222    
   1866000   303.07873      0.0036007403   1.4132092      751.94668     -8.0464541      743.90022    
   1867000   301.83662      0.0036007403   5.727892       748.86499     -7.3106099      741.55438    
   1868000   282.71877      0.0036007403   3.0387971      701.43305     -7.0608718      694.37218    
   1869000   292.48023      0.0036007403   1.6019944      725.6515      -7.7654711      717.88603    
   1870000   315.04277      0.0036007403   1.1491298      781.6298      -7.1621855      774.46761    
   1871000   302.00334      0.0036007403   3.0162731      749.27861     -8.3431059      740.9355     
   1872000   289.76179      0.0036007403   2.4966984      718.90698     -7.8100443      711.09693    
   1873000   308.54979      0.0036007403   1.2039742      765.52052     -7.3311908      758.18933    
   1874000   304.0512       0.0036007403   2.0876176      754.35941     -7.8826928      746.47672    
   1875000   287.96896      0.0036007403   2.5179827      714.45893     -7.0177985      707.44113    
   1876000   298.88887      0.0036007403   1.7918729      741.55152     -6.8580253      734.69349    
   1877000   311.96344      0.0036007403   2.449489       773.98989     -5.5305817      768.4593     
   1878000   304.92946      0.0036007403   3.2867624      756.5384      -6.0120168      750.52639    
   1879000   289.93318      0.0036007403   2.3818194      719.33221     -6.624582       712.70763    
   1880000   315.45401      0.0036007403  -0.39173247     782.6501      -6.8675047      775.7826     
   1881000   316.92668      0.0036007403   2.465115       786.30383     -8.8445409      777.45929    
   1882000   288.84144      0.0036007403   4.339049       716.62358     -11.684036      704.93954    
   1883000   303.59876      0.0036007403  -3.1804287      753.23689     -9.4440194      743.79287    
   1884000   307.18486      0.0036007403   2.7139741      762.13411     -8.3619046      753.7722     
   1885000   299.75521      0.0036007403   2.4227336      743.70094     -7.2225034      736.47843    
   1886000   292.53981      0.0036007403   2.4717374      725.79934     -7.3834434      718.4159     
   1887000   289.5464       0.0036007403   2.5024243      718.37261     -7.8382002      710.53441    
   1888000   304.20692      0.0036007403   0.43038479     754.74576     -7.7879924      746.95776    
   1889000   296.49965      0.0036007403   3.9961383      735.6238      -7.5273941      728.09641    
   1890000   289.33086      0.0036007403   1.3192927      717.83783     -8.044757       709.79307    
   1891000   304.39104      0.0036007403   0.75746493     755.20256     -8.9118309      746.29073    
   1892000   301.61748      0.0036007403   1.6406195      748.32127     -9.8530907      738.46818    
   1893000   304.98398      0.0036007403   2.474163       756.67366     -7.7576778      748.91598    
   1894000   291.81904      0.0036007403   2.1131793      724.01109     -6.9524583      717.05863    
   1895000   295.85392      0.0036007403   1.2815016      734.02172     -5.7211921      728.30053    
   1896000   303.88573      0.0036007403   1.5789543      753.94887     -6.6806377      747.26823    
   1897000   302.20245      0.0036007403   4.6254696      749.77261     -6.01437        743.75824    
   1898000   305.48833      0.0036007403   1.9432961      757.92496     -7.2078001      750.71716    
   1899000   294.2934       0.0036007403   1.335875       730.15004     -6.9778583      723.17218    
   1900000   305.85375      0.0036007403   2.2480677      758.83158     -6.7084141      752.12316    
   1901000   303.99754      0.0036007403   1.9646101      754.22628     -7.3549704      746.87131    
   1902000   294.42056      0.0036007403   2.29603        730.46553     -6.2069099      724.25862    
   1903000   297.88893      0.0036007403   0.96197211     739.07065     -6.0105021      733.06015    
   1904000   291.88058      0.0036007403   2.1434527      724.16376     -5.1094315      719.05433    
   1905000   315.20702      0.0036007403   2.2647657      782.0373      -7.3324998      774.7048     
   1906000   303.22005      0.0036007403   2.8731952      752.29731     -10.089195      742.20811    
   1907000   290.68318      0.0036007403   2.1104308      721.19298     -8.159884       713.0331     
   1908000   291.8625       0.0036007403   1.8764081      724.11891     -11.068944      713.04997    
   1909000   303.71252      0.0036007403   2.1991584      753.51914     -9.4366687      744.08248    
   1910000   309.23765      0.0036007403   2.0639643      767.22714     -10.613551      756.61359    
   1911000   290.6724       0.0036007403   2.3428884      721.16623     -9.4106301      711.7556     
   1912000   298.92114      0.0036007403   1.9667091      741.63159     -9.239017       732.39258    
   1913000   300.41096      0.0036007403   1.480149       745.32787     -10.208503      735.11936    
   1914000   303.65565      0.0036007403   2.628416       753.37805     -10.534425      742.84362    
   1915000   284.31072      0.0036007403   2.6680001      705.38272     -8.7254245      696.6573     
   1916000   298.29342      0.0036007403   1.4789409      740.07421     -6.9169649      733.15724    
   1917000   314.83526      0.0036007403   1.9578549      781.11497     -6.8227416      774.29222    
   1918000   303.27257      0.0036007403   1.9772588      752.42759     -6.8613107      745.56628    
   1919000   272.57397      0.0036007403   2.2569966      676.26353     -6.6155633      669.64797    
   1920000   306.44884      0.0036007403   2.601969       760.30802     -5.6989246      754.60909    
   1921000   318.26345      0.0036007403   1.3029032      789.6204      -5.4593304      784.16107    
   1922000   295.07759      0.0036007403   1.7036202      732.09565     -4.1347011      727.96095    
   1923000   294.16368      0.0036007403   3.5810538      729.82819     -6.8202077      723.00798    
   1924000   313.33761      0.0036007403   2.5003456      777.39925     -6.4199846      770.97927    
   1925000   304.68529      0.0036007403  -0.354148       755.93259     -4.3360738      751.59652    
   1926000   296.93548      0.0036007403   1.7666253      736.70512     -4.788378       731.91674    
   1927000   292.22526      0.0036007403   3.4632546      725.01891     -5.4038951      719.61502    
   1928000   321.4082       0.0036007403   3.0840849      797.42261     -6.8659172      790.55669    
   1929000   305.39305      0.0036007403   0.48447394     757.68858     -9.2346878      748.45389    
   1930000   288.19107      0.0036007403   4.505723       715.00998     -8.4466027      706.56338    
   1931000   309.65084      0.0036007403   1.5337147      768.25226     -7.8828954      760.36937    
   1932000   297.23347      0.0036007403   1.3373218      737.44444     -8.0848967      729.35954    
   1933000   296.05722      0.0036007403   3.2600009      734.52614     -8.1066095      726.41953    
   1934000   301.00495      0.0036007403   1.7449624      746.80159     -5.3299697      741.47162    
   1935000   298.01257      0.0036007403   1.390127       739.3774      -4.9108362      734.46657    
   1936000   306.18129      0.0036007403   3.3487865      759.64421     -6.5790941      753.06512    
   1937000   315.44095      0.0036007403   3.1095405      782.61769     -5.9759136      776.64178    
   1938000   287.91747      0.0036007403   1.1653867      714.33119     -5.6154871      708.7157     
   1939000   302.02672      0.0036007403   1.6684216      749.33662     -5.9681825      743.36843    
   1940000   295.656        0.0036007403   3.2196217      733.53069     -7.2892389      726.24145    
   1941000   309.87456      0.0036007403   1.478075       768.80732     -5.1779206      763.6294     
   1942000   294.95004      0.0036007403   1.4133567      731.77918     -4.7671233      727.01206    
   1943000   295.15673      0.0036007403   1.9252186      732.29198     -5.5993951      726.69258    
   1944000   299.41211      0.0036007403   2.2672172      742.8497      -5.0125429      737.83716    
   1945000   304.07578      0.0036007403   2.841693       754.42039     -5.6585152      748.76187    
   1946000   310.98695      0.0036007403   1.544085       771.5672      -6.1461837      765.42102    
   1947000   301.14951      0.0036007403  -1.8456789      747.16023     -4.9090534      742.25118    
   1948000   301.72785      0.0036007403   2.2407303      748.59512     -5.539751       743.05536    
   1949000   305.21578      0.0036007403   2.5907798      757.24875     -2.9539785      754.29478    
   1950000   308.81766      0.0036007403   0.93479182     766.18512     -5.8595581      760.32556    
   1951000   294.16846      0.0036007403   1.2451362      729.84006     -5.5560309      724.28403    
   1952000   307.72088      0.0036007403   3.4657868      763.46399     -7.3964129      756.06758    
   1953000   294.00471      0.0036007403   0.90516838     729.43378     -6.8659393      722.56784    
   1954000   300.55133      0.0036007403  -0.37240309     745.67614     -7.013245       738.6629     
   1955000   286.40165      0.0036007403   2.2825086      710.57038     -6.0784218      704.49196    
   1956000   303.22693      0.0036007403   2.7531957      752.31437     -7.204686       745.10969    
   1957000   313.77619      0.0036007403   2.4314175      778.48738     -6.2195375      772.26784    
   1958000   291.47937      0.0036007403  -1.0952662      723.16836     -7.0497018      716.11866    
   1959000   292.88106      0.0036007403   2.369631       726.64599     -4.3590626      722.28693    
   1960000   303.43012      0.0036007403   4.3319427      752.81849     -3.7459768      749.07252    
   1961000   299.78764      0.0036007403   1.5194435      743.78139     -3.7989407      739.98245    
   1962000   291.35513      0.0036007403   1.6125227      722.8601      -4.2099314      718.65017    
   1963000   287.00442      0.0036007403   1.9268652      712.06588     -4.1212706      707.94461    
   1964000   305.37641      0.0036007403   2.2657631      757.6473      -4.2049023      753.4424     
   1965000   295.3648       0.0036007403   1.5115029      732.80821     -5.1351269      727.67308    
   1966000   282.33846      0.0036007403   0.95893807     700.4895      -4.9351059      695.55439    
   1967000   301.02586      0.0036007403   1.9467755      746.85345     -6.0031643      740.85029    
   1968000   302.46648      0.0036007403   2.165015       750.42767     -7.6213249      742.80634    
   1969000   295.83979      0.0036007403   2.4794682      733.98666     -4.8404555      729.14621    
   1970000   298.01581      0.0036007403  -0.44155035     739.38544     -5.5835934      733.80184    
   1971000   309.31297      0.0036007403   2.7347073      767.41399     -5.7455028      761.66849    
   1972000   306.83902      0.0036007403   3.6183242      761.27606     -6.7854847      754.49057    
   1973000   302.1802       0.0036007403   2.2532359      749.7174      -4.3076487      745.40976    
   1974000   303.51317      0.0036007403   1.2953814      753.02453     -4.9552053      748.06933    
   1975000   293.8104       0.0036007403   1.6905937      728.95171     -5.0393582      723.91235    
   1976000   295.88432      0.0036007403   2.7935673      734.09715     -4.2999235      729.79723    
   1977000   295.54326      0.0036007403   3.1752215      733.25098     -2.9666623      730.28432    
   1978000   301.49061      0.0036007403   1.6794082      748.00652     -3.2890826      744.71744    
   1979000   301.84337      0.0036007403   1.4826202      748.88172     -4.7776092      744.10411    
   1980000   301.44115      0.0036007403   3.3936665      747.8838      -4.711941       743.17186    
   1981000   299.11955      0.0036007403   1.9138265      742.12385     -6.3541384      735.76971    
   1982000   302.56139      0.0036007403   1.7275414      750.66315     -4.4688849      746.19427    
   1983000   303.70877      0.0036007403   1.9976417      753.50982     -7.0721878      746.43763    
   1984000   288.94936      0.0036007403   2.474598       716.89132     -8.1863517      708.70497    
   1985000   308.07918      0.0036007403   3.2503198      764.35295     -7.6297256      756.72322    
   1986000   314.9836       0.0036007403   1.2180922      781.483       -9.2232496      772.25975    
   1987000   290.66622      0.0036007403   1.2085803      721.15091     -10.730555      710.42036    
   1988000   280.2378       0.0036007403   1.7992145      695.2777      -7.3656052      687.91209    
   1989000   305.69886      0.0036007403   2.6191395      758.4473      -7.3496702      751.09763    
   1990000   306.04729      0.0036007403   1.0749414      759.31176     -3.8837297      755.42803    
   1991000   298.57915      0.0036007403   3.3592465      740.78309     -5.8282676      734.95482    
   1992000   301.10171      0.0036007403   2.7951664      747.04164     -5.5912364      741.45041    
   1993000   318.37327      0.0036007403   1.1906735      789.89286     -5.340859       784.552      
   1994000   286.3071       0.0036007403   0.89041228     710.33581     -6.2519622      704.08385    
   1995000   296.50854      0.0036007403   4.794833       735.64586     -3.8260251      731.81983    
   1996000   302.35198      0.0036007403   1.8240376      750.14359     -6.129398       744.01419    
   1997000   292.57698      0.0036007403   1.7240856      725.89155     -4.7673834      721.12416    
   1998000   294.23666      0.0036007403   2.7618766      730.00928     -7.681268       722.32801    
   1999000   315.38612      0.0036007403   2.7320893      782.48165     -4.4784593      778.00319    
   2000000   316.47037      0.0036007403   1.9329289      785.1717      -2.5377678      782.63394    
   2001000   289.59567      0.0036007403   1.1993097      718.49485     -6.9000812      711.59477    
   2002000   289.21302      0.0036007403   2.2288352      717.54548     -6.2725051      711.27297    
   2003000   304.82826      0.0036007403   2.8929685      756.28731     -5.1979881      751.08932    
   2004000   320.43617      0.0036007403   3.7167785      795.01096     -6.4394206      788.57154    
   2005000   300.38945      0.0036007403   1.6300629      745.2745      -5.5774027      739.6971     
   2006000   290.59285      0.0036007403   1.4002931      720.96888     -3.5279116      717.44097    
   2007000   287.24164      0.0036007403   2.0813811      712.65442     -4.6558541      707.99857    
   2008000   303.94926      0.0036007403   2.2008285      754.1065      -5.2474029      748.8591     
   2009000   302.86143      0.0036007403   2.0855959      751.40756     -4.2105655      747.19699    
   2010000   301.59109      0.0036007403   1.4610207      748.2558      -6.6209008      741.6349     
   2011000   292.83951      0.0036007403   2.0415803      726.5429      -6.0462124      720.49668    
   2012000   311.2488       0.0036007403   1.5958872      772.21686     -3.9293294      768.28753    
   2013000   306.33349      0.0036007403   2.0968321      760.02183     -4.9272362      755.0946     
   2014000   289.9967       0.0036007403   2.2537449      719.48982     -3.3035161      716.1863     
   2015000   302.10772      0.0036007403   1.4912929      749.53759     -4.13869        745.3989     
   2016000   313.84337      0.0036007403   2.2087659      778.65406     -1.9254512      776.72861    
   2017000   300.49425      0.0036007403   1.8193828      745.53452     -2.7786575      742.75587    
   2018000   293.35247      0.0036007403   2.2778524      727.81557     -3.7032155      724.11236    
   2019000   305.543        0.0036007403   1.531796       758.0606      -2.2878791      755.77272    
   2020000   314.33013      0.0036007403   1.8876258      779.86172     -3.1778502      776.68387    
   2021000   291.30541      0.0036007403   2.7873685      722.73675     -4.1550636      718.58169    
   2022000   293.11194      0.0036007403   2.1021907      727.21881     -3.47999        723.73882    
   2023000   299.58866      0.0036007403   1.5663754      743.28772     -3.0035307      740.28419    
   2024000   312.09219      0.0036007403   1.5497652      774.30933     -4.8793519      769.42998    
   2025000   317.39757      0.0036007403   2.7573799      787.47213     -6.2058823      781.26625    
   2026000   286.13563      0.0036007403   2.91691        709.91039     -7.9844917      701.9259     
   2027000   299.97527      0.0036007403   1.8511859      744.24691     -6.7248004      737.52211    
   2028000   309.24226      0.0036007403   2.0105365      767.23857     -4.9471617      762.29141    
   2029000   309.52699      0.0036007403   1.9706962      767.945       -7.0618731      760.88313    
   2030000   298.01668      0.0036007403   1.969416       739.3876      -8.1550191      731.23258    
   2031000   278.67909      0.0036007403   2.0017331      691.4105      -7.6870632      683.72344    
   2032000   306.32316      0.0036007403   2.0172126      759.99622     -7.9795176      752.0167     
   2033000   296.61158      0.0036007403   2.083023       735.9015      -7.7893842      728.11212    
   2034000   297.6713       0.0036007403   2.5621728      738.5307      -6.9137095      731.61699    
   2035000   296.57176      0.0036007403   2.1871177      735.8027      -4.6298725      731.17283    
   2036000   305.86117      0.0036007403   1.3399254      758.84999     -5.6519752      753.19801    
   2037000   312.32578      0.0036007403   3.2909957      774.88888     -6.6770931      768.21178    
   2038000   297.64081      0.0036007403   3.2350266      738.45506     -8.2144223      730.24064    
   2039000   291.75807      0.0036007403   1.7605722      723.85982     -4.6298796      719.22994    
   2040000   308.12086      0.0036007403   0.044177718    764.45635     -4.8297665      759.62658    
   2041000   302.55681      0.0036007403   1.7437056      750.65177     -5.5335516      745.11822    
   2042000   311.66983      0.0036007403   3.4665573      773.26143     -3.7032436      769.55818    
   2043000   304.34825      0.0036007403   2.5321798      755.09641     -4.8614688      750.23494    
   2044000   302.3709       0.0036007403   1.2025992      750.19054     -5.3758938      744.81465    
   2045000   299.28403      0.0036007403   1.6792684      742.53194     -5.3499137      737.18203    
   2046000   308.12716      0.0036007403   3.7010826      764.47198     -3.6232987      760.84868    
   2047000   302.47001      0.0036007403   3.8831521      750.43644     -4.826953       745.60949    
   2048000   301.0156       0.0036007403  -1.2367422      746.82799     -4.5741743      742.25382    
   2049000   306.10599      0.0036007403   0.01077349     759.45741     -3.4475753      756.00983    
   2050000   303.19241      0.0036007403   7.2637515      752.22872     -4.27084        747.95788    
   2051000   299.18469      0.0036007403   2.1610838      742.28547     -3.6771962      738.60827    
   2052000   295.95577      0.0036007403  -1.0763453      734.27443     -4.317307       729.95713    
   2053000   296.37764      0.0036007403   2.1462227      735.32111     -3.548686       731.77242    
   2054000   315.1372       0.0036007403   4.7250341      781.86409     -3.9904322      777.87365    
   2055000   292.80221      0.0036007403   3.8331752      726.45035     -3.1783878      723.27196    
   2056000   286.18591      0.0036007403   2.2970712      710.03513     -2.7570405      707.27809    
   2057000   310.45729      0.0036007403   0.91625832     770.2531      -2.7468584      767.50624    
   2058000   310.64133      0.0036007403   2.2210233      770.70971     -2.851195       767.85852    
   2059000   290.30017      0.0036007403   3.3132892      720.24273     -4.0239881      716.21875    
   2060000   286.177        0.0036007403   2.2103013      710.01303     -3.6492829      706.36375    
   2061000   288.88011      0.0036007403   1.5239335      716.71952     -4.5195745      712.19994    
   2062000   313.40837      0.0036007403   1.9061208      777.5748      -6.6895069      770.88529    
   2063000   320.7118       0.0036007403   3.4953239      795.69481     -5.6967201      789.99809    
   2064000   294.87254      0.0036007403   3.0160495      731.58691     -7.5108375      724.07607    
   2065000   298.85596      0.0036007403  -0.56592645     741.46989     -5.8887062      735.58118    
   2066000   314.4558       0.0036007403   1.8647599      780.1735      -6.711004       773.46249    
   2067000   300.60583      0.0036007403   2.7312611      745.81134     -4.5661449      741.2452     
   2068000   290.782        0.0036007403   2.3785066      721.43815     -6.1178933      715.32025    
   2069000   292.13291      0.0036007403   1.9474613      724.7898      -6.2235274      718.56627    
   2070000   302.01995      0.0036007403   1.1314617      749.31982     -5.9984088      743.32141    
   2071000   313.91459      0.0036007403   3.3680691      778.83076     -6.6309229      772.19984    
   2072000   301.2229       0.0036007403   4.7710976      747.34232     -5.5799226      741.76239    
   2073000   288.83034      0.0036007403   1.0351669      716.59603     -7.1000944      709.49594    
   2074000   319.72946      0.0036007403   2.0995417      793.25761     -6.262637       786.99498    
   2075000   311.42187      0.0036007403   2.6996874      772.64625     -4.5682139      768.07803    
   2076000   307.66744      0.0036007403   2.7518328      763.33141     -1.7430741      761.58834    
   2077000   294.77947      0.0036007403  -0.41094392     731.35598     -4.1601288      727.19585    
   2078000   304.74941      0.0036007403   2.3056296      756.09169     -3.30133        752.79036    
   2079000   310.81911      0.0036007403   2.7295274      771.15077     -3.5965278      767.55425    
   2080000   297.91361      0.0036007403   2.1008614      739.13188     -4.3580427      734.77383    
   2081000   280.50524      0.0036007403   1.8044894      695.94123     -2.4966266      693.4446     
   2082000   305.63088      0.0036007403   2.0033499      758.27863     -3.9650522      754.31358    
   2083000   315.76013      0.0036007403   2.2606847      783.40958     -4.6982508      778.71133    
   2084000   295.93471      0.0036007403   2.1116633      734.22218     -4.3374207      729.88476    
   2085000   290.33444      0.0036007403   1.8189311      720.32776     -5.0467907      715.28097    
   2086000   308.49375      0.0036007403   1.680794       765.38149     -4.9663381      760.41515    
   2087000   304.27389      0.0036007403   2.8841489      754.91192     -7.5450757      747.36684    
   2088000   286.39571      0.0036007403   2.7898205      710.55565     -7.8208032      702.73484    
   2089000   292.51902      0.0036007403   1.6783538      725.74775     -8.4877968      717.25995    
   2090000   295.61793      0.0036007403   1.9004161      733.43623     -7.9548618      725.48137    
   2091000   316.24793      0.0036007403   2.0777193      784.61982     -8.429922       776.1899     
   2092000   304.30355      0.0036007403   1.9581532      754.9855      -8.1003027      746.88519    
   2093000   284.07447      0.0036007403   1.6301459      704.79659     -5.6859475      699.11064    
   2094000   309.70214      0.0036007403   0.19986964     768.37954     -6.6644368      761.7151     
   2095000   307.93637      0.0036007403   2.7994027      763.99862     -6.3179147      757.6807     
   2096000   290.2914       0.0036007403   1.4225824      720.22097     -5.3538378      714.86713    
   2097000   281.77826      0.0036007403   0.54778996     699.09964     -4.4007357      694.6989     
   2098000   297.30306      0.0036007403   2.2881311      737.61708     -4.2984732      733.31861    
   2099000   298.36054      0.0036007403   2.6806662      740.24071     -4.3591895      735.88152    
   2100000   295.41192      0.0036007403  -0.80751554     732.92511     -4.818925       728.10619    
   2101000   302.80565      0.0036007403   1.9443054      751.26916     -5.2565219      746.01263    
   2102000   294.88335      0.0036007403   2.681813       731.61372     -4.0722057      727.54152    
   2103000   291.17231      0.0036007403   3.7487887      722.40653     -6.9996145      715.40691    
   2104000   294.31278      0.0036007403   2.0276581      730.19811     -10.118479      720.07963    
   2105000   299.49211      0.0036007403   1.4072616      743.04819     -6.7153145      736.33288    
   2106000   301.92239      0.0036007403   1.9126211      749.07778     -6.8132838      742.2645     
   2107000   301.99208      0.0036007403   2.269194       749.25068     -7.625141       741.62554    
   2108000   295.59611      0.0036007403   2.1925363      733.38209     -7.7564342      725.62566    
   2109000   300.9835       0.0036007403   1.4518227      746.74835     -5.8844507      740.8639     
   2110000   304.42291      0.0036007403   1.8942689      755.28164     -6.9332858      748.34836    
   2111000   300.36938      0.0036007403   2.0102876      745.22472     -7.3001407      737.92458    
   2112000   289.28556      0.0036007403   2.0418769      717.72545     -7.0951466      710.6303     
   2113000   299.26351      0.0036007403   2.3729698      742.48102     -7.0469368      735.43408    
   2114000   305.6584       0.0036007403   1.8978734      758.34692     -5.9248325      752.42209    
   2115000   292.22399      0.0036007403   1.7280682      725.01577     -5.1765897      719.83918    
   2116000   298.52637      0.0036007403   2.2112467      740.65215     -4.740386       735.91176    
   2117000   307.99045      0.0036007403   2.3028098      764.1328      -4.4585828      759.67421    
   2118000   302.29999      0.0036007403   1.899993       750.01461     -5.3741432      744.64047    
   2119000   289.21326      0.0036007403   0.4615256      717.54606     -4.3692203      713.17684    
   2120000   298.94105      0.0036007403   3.243878       741.68098     -4.5928639      737.08812    
   2121000   315.61941      0.0036007403   3.3448609      783.06045     -4.9058649      778.15458    
   2122000   305.45203      0.0036007403   0.52977937     757.83491     -6.4264484      751.40846    
   2123000   286.84875      0.0036007403   2.2824824      711.67967     -6.777599       704.90207    
   2124000   300.5179       0.0036007403   2.6121745      745.59318     -5.2208703      740.37231    
   2125000   310.81914      0.0036007403   3.815804       771.15086     -5.8474077      765.30345    
   2126000   314.58439      0.0036007403   2.039983       780.49254     -6.1048781      774.38766    
   2127000   295.30115      0.0036007403  -1.6322169      732.6503      -6.6001993      726.0501     
   2128000   289.72637      0.0036007403   2.635719       718.81912     -7.620366       711.19875    
   2129000   309.32482      0.0036007403   4.0446395      767.44341     -6.2853914      761.15802    
   2130000   303.11939      0.0036007403   1.7208361      752.04757     -7.2908262      744.75674    
   2131000   291.65443      0.0036007403  -0.13635343     723.60268     -4.6786039      718.92408    
   2132000   288.3441       0.0036007403   0.98574268     715.38967     -5.3834778      710.00619    
   2133000   304.19071      0.0036007403   5.520835       754.70554     -7.095461       747.61008    
   2134000   306.66434      0.0036007403   3.2039838      760.84269     -6.1905774      754.65211    
   2135000   297.03528      0.0036007403  -1.1728396      736.95271     -4.6805132      732.27219    
   2136000   299.91388      0.0036007403   2.5612875      744.0946      -3.7630694      740.33153    
   2137000   306.78775      0.0036007403   2.2553186      761.14888     -4.0625407      757.08633    
   2138000   288.45012      0.0036007403  -5.3228174      715.6527      -4.3846844      711.26801    
   2139000   295.64682      0.0036007403   3.2205182      733.50792     -3.3021073      730.20581    
   2140000   313.82668      0.0036007403   5.5889069      778.61263     -5.6905211      772.92211    
   2141000   304.5442       0.0036007403   1.1936875      755.58255     -5.8421804      749.74037    
   2142000   287.84191      0.0036007403   1.5195191      714.14372     -7.0232384      707.12048    
   2143000   295.84315      0.0036007403   4.1627008      733.995       -7.71392        726.28108    
   2144000   311.12894      0.0036007403   2.9927441      771.91947     -5.6468001      766.27267    
   2145000   298.11304      0.0036007403   1.0099623      739.62666     -8.8001274      730.82654    
   2146000   295.37498      0.0036007403  -1.5533341      732.83347     -5.4695449      727.36392    
   2147000   299.09636      0.0036007403   3.9004256      742.06632     -4.5784055      737.48792    
   2148000   323.39696      0.0036007403   1.9576118      802.35677     -5.5879009      796.76887    
   2149000   306.21298      0.0036007403  -2.5841859      759.72284     -4.6973709      755.02547    
   2150000   284.06373      0.0036007403   3.5921376      704.76995     -2.4106374      702.35931    
   2151000   299.24833      0.0036007403  -0.89968948     742.44336     -5.1198775      737.32349    
   2152000   299.31656      0.0036007403   4.9466935      742.61263     -4.1062419      738.50639    
   2153000   300.66435      0.0036007403  -2.8254904      745.95654     -3.4811091      742.47543    
   2154000   297.30058      0.0036007403  -0.60743813     737.61093     -3.4304646      734.18047    
   2155000   303.62673      0.0036007403   1.7833775      753.30628     -6.4100103      746.89627    
   2156000   299.84477      0.0036007403   2.4168731      743.92313     -7.6303987      736.29273    
   2157000   303.14224      0.0036007403   1.2665187      752.10425     -6.763213       745.34104    
   2158000   295.40195      0.0036007403   0.90340596     732.90038     -6.2980891      726.60229    
   2159000   308.16408      0.0036007403   9.2698874      764.56358     -7.6752617      756.88832    
   2160000   302.42708      0.0036007403  -2.9221075      750.32993     -9.1107279      741.2192     
   2161000   290.10867      0.0036007403   2.6524006      719.7676      -5.2335709      714.53403    
   2162000   306.90365      0.0036007403   3.2295254      761.43641     -4.3065798      757.12983    
   2163000   314.66779      0.0036007403   3.976132       780.69945     -5.3516919      775.34776    
   2164000   309.82228      0.0036007403   1.6019655      768.67762     -6.0692157      762.60841    
   2165000   290.30594      0.0036007403   1.7801693      720.25703     -6.3291988      713.92783    
   2166000   281.6029       0.0036007403   2.4220441      698.66456     -5.0047961      693.65977    
   2167000   301.70471      0.0036007403   3.5148816      748.53771     -3.963232       744.57448    
   2168000   304.81558      0.0036007403   1.5406753      756.25585     -4.9047282      751.35112    
   2169000   300.05841      0.0036007403   1.9450772      744.45319     -3.568155       740.88503    
   2170000   291.35643      0.0036007403   2.7359217      722.86333     -4.6638565      718.19947    
   2171000   305.35208      0.0036007403   1.9303961      757.58694     -4.864498       752.72244    
   2172000   291.45072      0.0036007403   1.6622         723.09727     -6.9925733      716.1047     
   2173000   298.25604      0.0036007403   2.2163286      739.98145     -9.4348605      730.54659    
   2174000   309.34818      0.0036007403   2.0128376      767.50135     -8.5790806      758.92227    
   2175000   289.87267      0.0036007403  -0.027953769    719.18209     -8.9008603      710.28123    
   2176000   283.16419      0.0036007403   2.5076385      702.53816     -7.4086597      695.1295     
   2177000   309.31557      0.0036007403   2.5308347      767.42045     -6.3411821      761.07927    
   2178000   305.42898      0.0036007403   2.0252024      757.77771     -5.9489577      751.82875    
   2179000   289.15864      0.0036007403   1.3054273      717.41055     -6.5471007      710.86345    
   2180000   306.76987      0.0036007403   1.9126682      761.10449     -4.5258942      756.5786     
   2181000   308.31265      0.0036007403   1.0451687      764.93218     -4.5279934      760.40418    
   2182000   290.91109      0.0036007403   2.460475       721.75843     -6.296472       715.46196    
   2183000   303.91861      0.0036007403   2.568173       754.03046     -4.8130067      749.21745    
   2184000   307.0823       0.0036007403   0.78054877     761.87966     -4.6260493      757.25361    
   2185000   300.67913      0.0036007403   2.586352       745.99322     -3.7092573      742.28396    
   2186000   301.74203      0.0036007403   2.3354214      748.63029     -6.2818415      742.34845    
   2187000   305.20434      0.0036007403   0.12137264     757.22038     -8.245469       748.97491    
   2188000   304.4103       0.0036007403   1.9661437      755.25036     -8.8782058      746.37215    
   2189000   309.21778      0.0036007403   1.8770541      767.17783     -8.8394123      758.33842    
   2190000   302.97552      0.0036007403   1.6757238      751.69061     -6.8125836      744.87803    
   2191000   293.55071      0.0036007403   1.8501585      728.30741     -5.8990059      722.4084     
   2192000   289.30379      0.0036007403   2.6187169      717.77068     -5.9379719      711.83271    
   2193000   304.66951      0.0036007403   2.5933786      755.89345     -4.2660044      751.62745    
   2194000   306.90356      0.0036007403   1.8615557      761.4362      -4.2460287      757.19017    
   2195000   295.38403      0.0036007403   1.1363592      732.85592     -4.3066521      728.54927    
   2196000   285.7859       0.0036007403   3.0424491      709.04271     -4.0763644      704.96634    
   2197000   305.16311      0.0036007403   2.749564       757.11808     -5.2524954      751.86559    
   2198000   324.70113      0.0036007403   1.1557964      805.59246     -4.5085779      801.08388    
   2199000   290.15595      0.0036007403  -0.11898334     719.88491     -4.3826876      715.50222    
   2200000   285.34726      0.0036007403   2.1166302      707.95441     -6.7257797      701.22863    
   2201000   298.85191      0.0036007403   2.2315385      741.45983     -8.2066122      733.25322    
   2202000   314.24042      0.0036007403   1.9801171      779.63915     -6.3608694      773.27828    
   2203000   295.4585       0.0036007403   1.730868       733.04069     -4.6682279      728.37246    
   2204000   293.92243      0.0036007403   2.1968702      729.22965     -5.707151       723.5225     
   2205000   307.67147      0.0036007403   2.0105538      763.3414      -5.9831808      757.35822    
   2206000   320.30387      0.0036007403   2.1417009      794.68273     -5.1432741      789.53946    
   2207000   286.02141      0.0036007403   1.8853245      709.62701     -5.545139       704.08187    
   2208000   293.27879      0.0036007403   1.9966337      727.63277     -3.9004653      723.73231    
   2209000   312.11163      0.0036007403   1.7407228      774.35755     -6.8114346      767.54611    
   2210000   303.04558      0.0036007403   1.7667383      751.86445     -6.1226487      745.7418     
   2211000   293.83189      0.0036007403   1.7678138      729.00503     -4.1053033      724.89972    
   2212000   291.02544      0.0036007403   2.1944927      722.04213     -5.570616       716.47151    
   2213000   310.96636      0.0036007403   2.2089166      771.5161      -4.9341526      766.58195    
   2214000   301.25298      0.0036007403   1.4341977      747.41694     -4.6190097      742.79793    
   2215000   284.22628      0.0036007403   1.0614447      705.17324     -6.5455071      698.62774    
   2216000   303.32608      0.0036007403   2.0325798      752.56036     -3.5259541      749.03441    
   2217000   303.9906       0.0036007403   2.0775504      754.20907     -3.8543263      750.35474    
   2218000   298.03298      0.0036007403   1.9854311      739.42803     -4.5764316      734.8516     
   2219000   294.03124      0.0036007403   1.880719       729.49961     -4.5314571      724.96815    
   2220000   315.75488      0.0036007403   1.6225648      783.39656     -4.1951317      779.20142    
   2221000   304.02592      0.0036007403   1.8755766      754.29668     -4.2909135      750.00576    
   2222000   290.58319      0.0036007403   2.2195599      720.94489     -4.4271199      716.51777    
   2223000   298.35165      0.0036007403   1.9336041      740.21866     -5.6352932      734.58337    
   2224000   306.38773      0.0036007403   2.0726023      760.15641     -5.6102355      754.54617    
   2225000   295.27582      0.0036007403   1.9153983      732.58745     -3.6960912      728.89136    
   2226000   306.38255      0.0036007403   1.5214145      760.14355     -2.432693       757.71085    
   2227000   306.80358      0.0036007403   2.2363269      761.18815     -4.7284464      756.4597     
   2228000   312.64548      0.0036007403   2.0545826      775.68206     -4.1351867      771.54687    
   2229000   301.03908      0.0036007403   1.9904319      746.88625     -4.90704        741.97921    
   2230000   293.23412      0.0036007403   2.003104       727.52194     -4.7754012      722.74654    
   2231000   296.12313      0.0036007403   1.9675882      734.68964     -5.481587       729.20805    
   2232000   302.98894      0.0036007403   1.7123775      751.72392     -4.9602538      746.76366    
   2233000   321.9678       0.0036007403   2.1474855      798.81098     -5.1139615      793.69701    
   2234000   289.69214      0.0036007403   2.5013747      718.73418     -3.2119772      715.5222     
   2235000   291.83551      0.0036007403  -0.99935384     724.05195     -7.9614847      716.09047    
   2236000   309.20609      0.0036007403   1.4129628      767.14883     -8.6410234      758.50781    
   2237000   302.19702      0.0036007403   2.3530323      749.75913     -9.6397927      740.11933    
   2238000   290.82992      0.0036007403   2.496498       721.55704     -7.0490023      714.50804    
   2239000   297.78929      0.0036007403   2.7678164      738.82343     -8.7020294      730.1214     
   2240000   292.20992      0.0036007403   1.3822851      724.98088     -5.3987253      719.58215    
   2241000   295.54549      0.0036007403   1.6366981      733.25651     -8.3198637      724.93665    
   2242000   306.12222      0.0036007403   4.458556       759.49766     -7.8956992      751.60196    
   2243000   285.23516      0.0036007403   0.99156904     707.6763      -8.04401        699.63229    
   2244000   296.06347      0.0036007403   1.0549261      734.54162     -6.722239       727.81938    
   2245000   309.39169      0.0036007403   2.971591       767.60932     -7.1607569      760.44857    
   2246000   304.75109      0.0036007403   3.3833497      756.09585     -9.6694871      746.42637    
   2247000   291.71744      0.0036007403   1.9047009      723.759       -6.2810613      717.47794    
   2248000   300.1809       0.0036007403   1.9507685      744.75708     -7.351839       737.40524    
   2249000   307.41524      0.0036007403   1.8865904      762.70569     -6.3218007      756.38389    
   2250000   303.06737      0.0036007403   1.9270727      751.9185      -7.8403052      744.07819    
   2251000   290.7053       0.0036007403   2.6238807      721.24787     -8.4933296      712.75454    
   2252000   300.23368      0.0036007403   2.1366399      744.88804     -7.520696       737.36734    
   2253000   303.04903      0.0036007403   1.5979428      751.873       -8.7254057      743.1476     
   2254000   300.63965      0.0036007403   1.3079035      745.89526     -10.331822      735.56343    
   2255000   312.20696      0.0036007403   2.704904       774.59407     -9.3842202      765.20985    
   2256000   285.7168       0.0036007403   2.0342709      708.87125     -7.6879571      701.18329    
   2257000   307.89302      0.0036007403   1.8917451      763.89108     -8.33868        755.5524     
   2258000   322.56071      0.0036007403   1.9880739      800.28201     -4.966253       795.31576    
   2259000   291.5607       0.0036007403   1.9344269      723.37014     -6.6133801      716.75676    
   2260000   293.3755       0.0036007403   1.9631264      727.8727      -5.8622776      722.01042    
   2261000   311.0608       0.0036007403   1.9914413      771.75041     -5.4825864      766.26782    
   2262000   313.38315      0.0036007403   2.0668104      777.51224     -8.4573024      769.05494    
   2263000   297.27687      0.0036007403   2.0791967      737.5521      -6.2747613      731.27734    
   2264000   281.97815      0.0036007403   1.7635792      699.59555     -8.8492513      690.7463     
   2265000   295.29978      0.0036007403   1.8416314      732.64688     -6.6128323      726.03405    
   2266000   314.38997      0.0036007403   2.1011541      780.01019     -8.9213936      771.0888     
   2267000   290.41206      0.0036007403   3.6999111      720.52032     -7.5357135      712.9846     
   2268000   289.38883      0.0036007403   1.4393822      717.98166     -8.4943716      709.48729    
   2269000   305.8027       0.0036007403   1.3091158      758.70494     -5.9700815      752.73486    
   2270000   304.16263      0.0036007403   4.2897673      754.63587     -5.8110154      748.82485    
   2271000   298.66207      0.0036007403   1.8042859      740.98884     -7.2716419      733.7172     
   2272000   305.41559      0.0036007403   0.28179842     757.74449     -5.6309142      752.11357    
   2273000   300.25994      0.0036007403   2.7978181      744.95319     -5.3196438      739.63354    
   2274000   290.03604      0.0036007403   0.43576074     719.58741     -7.1129559      712.47445    
   2275000   306.26918      0.0036007403   1.66292        759.86228     -7.0596266      752.80265    
   2276000   303.40548      0.0036007403   2.4512858      752.75736     -10.706955      742.05041    
   2277000   297.09798      0.0036007403   2.1897498      737.10827     -9.3599853      727.74828    
   2278000   308.29087      0.0036007403   0.27570167     764.87813     -7.4918906      757.38624    
   2279000   298.20562      0.0036007403   3.2203749      739.85636     -6.9022397      732.95412    
   2280000   292.83991      0.0036007403   1.7646049      726.54388     -7.7970481      718.74684    
   2281000   289.38454      0.0036007403   1.3024198      717.97102     -5.369365       712.60166    
   2282000   307.6625       0.0036007403   0.35443152     763.31914     -6.3578424      756.9613     
   2283000   299.78355      0.0036007403   3.3498891      743.77124     -7.2963536      736.47489    
   2284000   297.47983      0.0036007403   2.7375455      738.05566     -7.6594135      730.39625    
   2285000   299.8146       0.0036007403   1.1683634      743.84828     -8.0740158      735.77426    
   2286000   297.85295      0.0036007403   2.0174784      738.98137     -6.6920089      732.28936    
   2287000   305.32907      0.0036007403   2.3688335      757.52984     -4.5246006      753.00524    
   2288000   299.06003      0.0036007403   2.1731925      741.97617     -5.9092295      736.06694    
   2289000   292.40579      0.0036007403   0.15364373     725.46683     -5.4247536      720.04207    
   2290000   300.95071      0.0036007403   2.1848925      746.667       -3.6145093      743.0525     
   2291000   305.23892      0.0036007403   2.2979123      757.30619     -5.3576672      751.94852    
   2292000   295.59789      0.0036007403   1.9958123      733.38652     -5.2887873      728.09774    
   2293000   306.30156      0.0036007403   2.0663043      759.94262     -10.419494      749.52312    
   2294000   290.22285      0.0036007403   1.1091867      720.05088     -7.3031898      712.74769    
   2295000   297.72618      0.0036007403   1.9693382      738.66686     -7.3958941      731.27096    
   2296000   297.45018      0.0036007403   2.0901427      737.9821      -7.2251528      730.75694    
   2297000   303.23118      0.0036007403   2.4989508      752.32491     -8.4468725      743.87804    
   2298000   301.59852      0.0036007403   2.1739704      748.27425     -6.3367241      741.93752    
   2299000   299.15237      0.0036007403   2.4838195      742.20528     -7.5498844      734.6554     
   2300000   300.49031      0.0036007403   1.9511564      745.52473     -8.1206943      737.40404    
   2301000   315.48502      0.0036007403   2.3160585      782.72702     -11.084375      771.64265    
   2302000   308.1141       0.0036007403   2.3037841      764.43958     -7.1267776      757.3128     
   2303000   299.54623      0.0036007403   1.8172294      743.18245     -5.0233835      738.15907    
   2304000   310.91794      0.0036007403   1.8376156      771.39597     -6.352707       765.04327    
   2305000   301.15151      0.0036007403   2.2152997      747.1652      -6.2781167      740.88708    
   2306000   300.25895      0.0036007403   2.152673       744.95074     -6.4622803      738.48846    
   2307000   308.81723      0.0036007403   2.036117       766.18407     -6.9376719      759.24639    
   2308000   299.65514      0.0036007403   2.2436059      743.45267     -6.1013388      737.35133    
   2309000   300.9343       0.0036007403   1.2266229      746.62628     -7.0324706      739.59381    
   2310000   302.54755      0.0036007403  -0.065432399    750.62882     -10.154837      740.47398    
   2311000   322.47728      0.0036007403   2.6982132      800.07501     -7.4827202      792.59229    
   2312000   300.9833       0.0036007403   4.1771534      746.74787     -7.5292649      739.21861    
   2313000   297.0988       0.0036007403   1.9675827      737.11032     -5.5886249      731.52169    
   2314000   305.49477      0.0036007403   0.53857773     757.94094     -6.1248563      751.81608    
   2315000   310.91147      0.0036007403   2.198778       771.37994     -6.4702689      764.90967    
   2316000   292.7348       0.0036007403   2.7962246      726.2831      -7.4577157      718.82538    
   2317000   285.91707      0.0036007403   0.61962934     709.36813     -7.7704527      701.59768    
   2318000   304.09287      0.0036007403  -0.25243679     754.4628      -6.5306885      747.93211    
   2319000   307.40177      0.0036007403   2.471329       762.67227     -4.7255119      757.94676    
   2320000   293.39519      0.0036007403   1.2992349      727.92156     -4.4878892      723.43367    
   2321000   289.53133      0.0036007403   1.4093486      718.33522     -6.0586972      712.27652    
   2322000   306.46304      0.0036007403   1.0363873      760.34326     -5.696809       754.64645    
   2323000   316.37794      0.0036007403   2.2864961      784.94239     -6.0800082      778.86238    
   2324000   300.43141      0.0036007403   2.3877501      745.37862     -6.6374309      738.74119    
   2325000   287.54348      0.0036007403   1.5664295      713.40331     -6.2209787      707.18233    
   2326000   292.1832       0.0036007403  -0.28051625     724.91457     -6.0976674      718.81691    
   2327000   313.2165       0.0036007403   0.98318645     777.09877     -4.3943349      772.70443    
   2328000   306.68102      0.0036007403   2.4874656      760.88407     -6.7105361      754.17354    
   2329000   294.18749      0.0036007403   2.237105       729.88727     -7.4863935      722.40088    
   2330000   294.14573      0.0036007403   1.0479443      729.78367     -6.9822367      722.80144    
   2331000   308.79307      0.0036007403   2.7335258      766.12412     -5.0265661      761.09755    
   2332000   305.19768      0.0036007403   2.2218838      757.20386     -2.4460381      754.75782    
   2333000   296.45592      0.0036007403   0.90651071     735.51531     -6.4491297      729.06618    
   2334000   310.10419      0.0036007403   1.5968253      769.37705     -5.5918914      763.78516    
   2335000   306.45694      0.0036007403   2.954562       760.32812     -6.9659468      753.36217    
   2336000   291.8988       0.0036007403   1.6117703      724.20898     -3.7877506      720.42123    
   2337000   294.60162      0.0036007403   1.8899829      730.91473     -2.5052719      728.40946    
   2338000   304.30063      0.0036007403   1.8056159      754.97824     -4.8412329      750.13701    
   2339000   308.84973      0.0036007403   2.1639702      766.2647      -3.1719203      763.09278    
   2340000   295.16577      0.0036007403   2.6370036      732.31442     -2.8062448      729.50818    
   2341000   293.30836      0.0036007403   1.8162207      727.70612     -5.4065798      722.29954    
   2342000   298.76031      0.0036007403   1.6944984      741.23257     -4.852449       736.38012    
   2343000   318.63251      0.0036007403   2.5309566      790.53603     -2.2527862      788.28324    
   2344000   309.61919      0.0036007403   2.6202036      768.17374     -3.2517834      764.92195    
   2345000   296.67832      0.0036007403   2.1542626      736.06708     -6.4352081      729.63187    
   2346000   291.03182      0.0036007403   1.4943405      722.05796     -6.3493676      715.70859    
   2347000   304.60793      0.0036007403   2.4284112      755.74067     -4.2884626      751.4522     
   2348000   314.20442      0.0036007403   2.9727151      779.54982     -5.9741533      773.57567    
   2349000   308.61279      0.0036007403   3.2865798      765.67684     -6.2513633      759.42548    
   2350000   298.62184      0.0036007403   2.5069235      740.88901     -6.8225487      734.06647    
   2351000   290.77227      0.0036007403   1.1382897      721.41402     -6.3686341      715.04539    
   2352000   302.94857      0.0036007403   2.1256482      751.62374     -6.4300678      745.19368    
   2353000   307.80749      0.0036007403   2.0570191      763.67888     -6.6676286      757.01125    
   2354000   299.78173      0.0036007403   1.9313758      743.76674     -8.2695312      735.49721    
   2355000   302.01349      0.0036007403   1.5997115      749.3038      -6.6708301      742.63297    
   2356000   314.34823      0.0036007403   2.0978874      779.90664     -6.2900852      773.61655    
   2357000   296.68953      0.0036007403   1.9893351      736.09489     -6.4906977      729.6042     
   2358000   295.61451      0.0036007403   2.3559238      733.42775     -8.2830964      725.14465    
   2359000   310.93586      0.0036007403   2.1768123      771.44044     -6.296503       765.14394    
   2360000   302.40012      0.0036007403   1.3243919      750.26303     -7.4791383      742.78389    
   2361000   289.76452      0.0036007403   0.72803138     718.91377     -5.8050527      713.10872    
   2362000   313.46808      0.0036007403   3.9869866      777.72295     -4.3770792      773.34587    
   2363000   318.60357      0.0036007403   1.1963963      790.46425     -5.9427842      784.52147    
   2364000   287.96239      0.0036007403   1.9042032      714.44262     -5.4588856      708.98373    
   2365000   305.05281      0.0036007403   4.0313382      756.84443     -7.8745476      748.96988    
   2366000   311.877        0.0036007403   2.2343568      773.77544     -8.5388832      765.23655    
   2367000   310.20476      0.0036007403   1.7183524      769.62657     -8.3214882      761.30508    
   2368000   297.82887      0.0036007403   1.8090106      738.92164     -9.8124337      729.10921    
   2369000   291.98196      0.0036007403   1.5173447      724.4153      -8.2950123      716.12029    
   2370000   302.61071      0.0036007403   2.4366583      750.78552     -6.6863411      744.09918    
   2371000   306.75941      0.0036007403   2.1356842      761.07856     -7.9013575      753.1772     
   2372000   307.81925      0.0036007403   1.97255        763.70804     -7.6445796      756.06346    
   2373000   282.83909      0.0036007403   1.8826746      701.73158     -10.604289      691.12729    
   2374000   288.79001      0.0036007403   2.1301693      716.49598     -7.7426595      708.75332    
   2375000   303.59476      0.0036007403   2.2241957      753.22696     -8.8519168      744.37504    
   2376000   310.41946      0.0036007403   1.7986055      770.15924     -10.408184      759.75106    
   2377000   276.41929      0.0036007403   0.66161011     685.80389     -8.2911675      677.51272    
   2378000   295.13347      0.0036007403   2.3727373      732.23427     -5.8577414      726.37653    
   2379000   312.69507      0.0036007403   2.6868032      775.8051      -7.4365616      768.36854    
   2380000   312.0221       0.0036007403   1.9367537      774.13542     -6.2942032      767.84122    
   2381000   286.70004      0.0036007403   1.6878955      711.31071     -7.1661281      704.14459    
   2382000   300.76234      0.0036007403   2.0791262      746.19967     -5.9126316      740.28703    
   2383000   304.44932      0.0036007403   2.0600077      755.34715     -8.811503       746.53565    
   2384000   307.87728      0.0036007403   1.5939195      763.85203     -8.2065128      755.64552    
   2385000   280.10588      0.0036007403   0.31409469     694.9504      -12.116565      682.83384    
   2386000   292.98574      0.0036007403   2.4320454      726.90569     -8.4128508      718.49283    
   2387000   304.67767      0.0036007403   2.8102644      755.9137      -7.1479802      748.76572    
   2388000   316.91788      0.0036007403   1.62961        786.28199     -6.2924398      779.98955    
   2389000   295.1361       0.0036007403   0.70963142     732.2408      -9.2342583      723.00654    
   2390000   293.77483      0.0036007403   3.060764       728.86345     -4.7192232      724.14423    
   2391000   311.96393      0.0036007403   1.9270275      773.9911      -6.3094394      767.68166    
   2392000   306.12385      0.0036007403  -1.2631255      759.50171     -4.213508       755.2882     
   2393000   299.08018      0.0036007403   2.3147409      742.02617     -3.8149863      738.21118    
   2394000   297.34071      0.0036007403   3.8431983      737.7105      -6.4803165      731.23019    
   2395000   312.74026      0.0036007403   4.9417868      775.91721     -5.7622734      770.15494    
   2396000   309.42175      0.0036007403   1.64213        767.6839      -7.0826737      760.60123    
   2397000   301.9576       0.0036007403   0.90421423     749.16512     -5.3596867      743.80543    
   2398000   286.15673      0.0036007403   2.1193147      709.96274     -4.614676       705.34806    
   2399000   310.46969      0.0036007403   4.318917       770.28386     -4.6159298      765.66793    
   2400000   312.69604      0.0036007403   1.8793611      775.80749     -6.0578561      769.74963    
   2401000   298.34978      0.0036007403   1.2900872      740.21404     -5.9969949      734.21704    
   2402000   278.9939       0.0036007403   2.1946862      692.19156     -7.3568476      684.83471    
   2403000   305.74632      0.0036007403   2.3757097      758.56505     -5.955552       752.6095     
   2404000   311.02915      0.0036007403   0.8860958      771.6719      -6.8937696      764.77813    
   2405000   300.97714      0.0036007403   2.0883236      746.73258     -6.0485587      740.68402    
   2406000   308.45022      0.0036007403   2.2782071      765.2735      -4.5213209      760.75218    
   2407000   296.22813      0.0036007403   1.9286865      734.95015     -6.1768085      728.77334    
   2408000   303.74991      0.0036007403   2.0922478      753.61189     -3.4183279      750.19356    
   2409000   296.63309      0.0036007403   2.0832422      735.95488     -4.2837295      731.67115    
   2410000   300.74058      0.0036007403   2.0611832      746.14568     -3.6749377      742.47074    
   2411000   297.18851      0.0036007403   1.9798325      737.33288     -3.5856833      733.74719    
   2412000   289.53151      0.0036007403   2.1127663      718.33565     -2.8840417      715.45161    
   2413000   313.29441      0.0036007403   4.6804956      777.29207     -2.5272368      774.76483    
   2414000   304.53961      0.0036007403   1.4791229      755.57117     -4.3575073      751.21366    
   2415000   301.50495      0.0036007403  -0.76300958     748.0421      -3.6229854      744.41911    
   2416000   289.63356      0.0036007403   0.19723432     718.58885     -3.9322766      714.65657    
   2417000   301.2817       0.0036007403   3.3446398      747.48819     -4.4139399      743.07425    
   2418000   313.6499       0.0036007403   3.9622828      778.17404     -4.1882653      773.98577    
   2419000   291.92789      0.0036007403   0.62337128     724.28114     -3.3041603      720.97698    
   2420000   286.339        0.0036007403   3.1463818      710.41495     -3.988291       706.42665    
   2421000   310.99973      0.0036007403   4.8051585      771.59889     -5.9584966      765.6404     
   2422000   300.87043      0.0036007403   0.568488       746.46783     -3.5498293      742.918      
   2423000   293.79192      0.0036007403   0.061396545    728.90585     -3.7052024      725.20065    
   2424000   291.59135      0.0036007403   2.0773183      723.44618     -5.720918       717.72526    
   2425000   309.85769      0.0036007403   3.591703       768.76546     -4.5644117      764.20105    
   2426000   309.20302      0.0036007403  -1.6205412      767.14121     -3.3498254      763.79138    
   2427000   282.81613      0.0036007403  -2.1228977      701.67462     -2.8985299      698.77609    
   2428000   301.16102      0.0036007403   5.6901303      747.18879     -3.9379559      743.25084    
   2429000   306.55093      0.0036007403   6.7638875      760.5613      -3.6822214      756.87908    
   2430000   301.97857      0.0036007403  -0.96732177     749.21715     -4.1200239      745.09713    
   2431000   292.93283      0.0036007403   1.3467306      726.77441     -6.5967859      720.17763    
   2432000   302.71724      0.0036007403   1.2791585      751.04981     -4.3704725      746.67934    
   2433000   289.91972      0.0036007403   4.1805342      719.29883     -2.1768914      717.12193    
   2434000   303.05001      0.0036007403   4.4307219      751.87544     -2.8991795      748.97626    
   2435000   302.17174      0.0036007403  -0.89514594     749.69641     -3.579167       746.11724    
   2436000   300.33104      0.0036007403   2.6653651      745.12959     -5.1354583      739.99413    
   2437000   322.33394      0.0036007403   3.9998579      799.71938     -5.2356788      794.4837     
   2438000   292.91007      0.0036007403  -1.1429813      726.71795     -4.6121673      722.10578    
   2439000   293.68605      0.0036007403   2.8940558      728.64318     -6.7944512      721.84872    
   2440000   315.6423       0.0036007403   1.2669325      783.11726     -6.3210629      776.79619    
   2441000   299.8857       0.0036007403   0.76412202     744.02468     -3.5127789      740.5119     
   2442000   281.08627      0.0036007403   0.16907882     697.38278     -8.2461977      689.13658    
   2443000   302.6449       0.0036007403   3.9336839      750.87033     -5.0071073      745.86323    
   2444000   318.45336      0.0036007403   4.0803366      790.09156     -6.5346902      783.55687    
   2445000   288.96442      0.0036007403  -2.992067       716.92869     -6.1001326      710.82856    
   2446000   294.91553      0.0036007403   0.22727925     731.69355     -5.3222481      726.3713     
   2447000   304.16497      0.0036007403   7.3220124      754.64168     -5.144702       749.49698    
   2448000   306.13139      0.0036007403   0.3968161      759.52041     -6.1563673      753.36404    
   2449000   287.1232       0.0036007403   0.48381136     712.36059     -4.1090477      708.25154    
   2450000   299.5786       0.0036007403   6.9143427      743.26277     -5.7614035      737.50136    
   2451000   312.10512      0.0036007403   1.2206131      774.3414      -5.2299003      769.1115     
   2452000   300.77441      0.0036007403   0.30102637     746.2296      -5.0760724      741.15353    
   2453000   289.93973      0.0036007403   0.66183392     719.34846     -5.6085568      713.7399     
   2454000   289.05929      0.0036007403   4.8272069      717.16408     -5.3142198      711.84986    
   2455000   300.62217      0.0036007403   2.0868995      745.85189     -5.2659854      740.58591    
   2456000   300.50455      0.0036007403   1.1823598      745.56006     -6.8202079      738.73985    
   2457000   303.12083      0.0036007403   2.8055557      752.05114     -7.9068627      744.14428    
   2458000   297.36152      0.0036007403   3.0582381      737.76212     -5.8758131      731.88631    
   2459000   300.37786      0.0036007403   2.0959206      745.24576     -6.7129865      738.53278    
   2460000   296.0142       0.0036007403   0.61829429     734.41939     -5.9274493      728.49194    
   2461000   303.6991       0.0036007403   3.701664       753.48585     -6.2053372      747.28051    
   2462000   301.01112      0.0036007403   3.2517187      746.81688     -5.2363817      741.5805     
   2463000   295.90619      0.0036007403   1.4851662      734.15142     -4.7929967      729.35843    
   2464000   299.81417      0.0036007403   1.4213519      743.84722     -4.5611934      739.28603    
   2465000   299.50758      0.0036007403   3.9734716      743.08657     -5.0964955      737.99008    
   2466000   307.34277      0.0036007403   3.1221121      762.52588     -5.6891884      756.8367     
   2467000   304.98812      0.0036007403   1.5092358      756.68394     -5.4579605      751.22598    
   2468000   297.14087      0.0036007403   0.12289726     737.2147      -5.1223097      732.09239    
   2469000   299.36937      0.0036007403   2.4638284      742.74367     -4.8727436      737.87092    
   2470000   297.83017      0.0036007403   4.1015433      738.92487     -8.5130834      730.41179    
   2471000   309.94406      0.0036007403   2.903221       768.97976     -5.5137454      763.46602    
   2472000   311.67122      0.0036007403   1.0010562      773.26489     -7.9197266      765.34516    
   2473000   291.09015      0.0036007403   0.15699873     722.20269     -6.0143925      716.1883     
   2474000   296.774        0.0036007403   3.6198973      736.30448     -8.2094667      728.09501    
   2475000   308.55598      0.0036007403   1.8576058      765.5359      -8.0853618      757.45054    
   2476000   299.55082      0.0036007403   1.6329708      743.19385     -7.1205371      736.07332    
   2477000   275.86326      0.0036007403   3.0892292      684.42434     -8.6853763      675.73897    
   2478000   301.30694      0.0036007403   1.5460689      747.55083     -7.5069383      740.04389    
   2479000   303.99629      0.0036007403   1.6557008      754.22317     -8.6353934      745.58777    
   2480000   287.96278      0.0036007403   2.641623       714.4436      -7.5079536      706.93564    
   2481000   296.16855      0.0036007403   2.8685998      734.80233     -6.3631534      728.43917    
   2482000   300.23576      0.0036007403   2.4127358      744.89319     -7.8676889      737.0255     
   2483000   300.72357      0.0036007403   0.76314694     746.10346     -6.0571586      740.0463     
   2484000   297.27812      0.0036007403   2.0603764      737.55521     -4.5403622      733.01484    
   2485000   292.63206      0.0036007403   2.1859399      726.0282      -3.4734515      722.55474    
   2486000   300.36173      0.0036007403   1.8056856      745.20573     -4.671126       740.5346     
   2487000   288.93738      0.0036007403   1.4927448      716.86159     -4.3482444      712.51335    
   2488000   293.47723      0.0036007403   2.0138475      728.1251      -4.5732059      723.5519     
   2489000   296.5285       0.0036007403   2.1369611      735.69537     -3.6512877      732.04409    
   2490000   303.01364      0.0036007403   2.1432326      751.7852      -3.1491714      748.63603    
   2491000   300.74949      0.0036007403   2.0951565      746.16777     -4.0447432      742.12303    
   2492000   293.18147      0.0036007403   2.2881237      727.39131     -5.9154678      721.47584    
   2493000   302.17629      0.0036007403   2.1455658      749.7077      -3.7798172      745.92788    
   2494000   296.81196      0.0036007403   1.9014033      736.39864     -3.3583664      733.04028    
   2495000   314.95873      0.0036007403   1.1415598      781.42129     -3.2962075      778.12508    
   2496000   299.02244      0.0036007403   2.2181932      741.88292     -4.756561       737.12636    
   2497000   284.19624      0.0036007403   2.0431282      705.0987      -4.2333279      700.86538    
   2498000   294.56589      0.0036007403   1.8065577      730.82609     -4.7566929      726.0694     
   2499000   313.02236      0.0036007403   2.0586503      776.61711     -4.9589548      771.65815    
   2500000   302.22255      0.0036007403   2.7643019      749.82248     -2.2225386      747.59994    
   2501000   290.55128      0.0036007403   0.840265       720.86573     -5.50138        715.36435    
   2502000   295.59749      0.0036007403   2.1824071      733.38551     -5.0935844      728.29193    
   2503000   308.07352      0.0036007403   2.5531295      764.3389      -5.5866831      758.75221    
   2504000   286.60207      0.0036007403   3.0886976      711.06764     -4.6240089      706.44363    
   2505000   295.53062      0.0036007403   0.94936734     733.21963     -4.7944814      728.42514    
   2506000   314.01567      0.0036007403   1.2326858      779.08153     -6.002073       773.07946    
   2507000   307.9839       0.0036007403   3.41621        764.11654     -5.056924       759.05962    
   2508000   298.70913      0.0036007403   2.5255281      741.10558     -4.7795201      736.32606    
   2509000   284.63222      0.0036007403   3.0780522      706.18037     -4.5290821      701.65129    
   2510000   309.28367      0.0036007403   1.0093767      767.3413      -4.8470039      762.4943     
   2511000   305.44008      0.0036007403   2.8738408      757.80527     -5.9768026      751.82846    
   2512000   281.31557      0.0036007403   2.3154339      697.95167     -4.8357574      693.11592    
   2513000   303.47535      0.0036007403  -0.54655081     752.9307      -7.2030441      745.72766    
   2514000   312.41896      0.0036007403   2.7559811      775.12004     -7.0407461      768.0793     
   2515000   295.93336      0.0036007403   2.9733671      734.21881     -8.7803655      725.43845    
   2516000   284.41943      0.0036007403   2.432465       705.65245     -5.0105259      700.64193    
   2517000   300.45865      0.0036007403  -0.11306081     745.4462      -2.466924       742.97928    
   2518000   314.42728      0.0036007403   2.6486011      780.10275     -4.4806864      775.62206    
   2519000   298.18295      0.0036007403   2.5700497      739.80011     -5.586998       734.21311    
   2520000   295.86422      0.0036007403   2.623239       734.04728     -6.1253971      727.92188    
   2521000   291.39806      0.0036007403   0.71769793     722.96662     -5.7989226      717.1677     
   2522000   303.07225      0.0036007403   0.60493677     751.93061     -6.499535       745.43107    
   2523000   302.62829      0.0036007403   3.255064       750.82913     -7.1616036      743.66753    
   2524000   282.06706      0.0036007403   1.9800122      699.81616     -7.5907047      692.22546    
   2525000   297.24255      0.0036007403   1.5927899      737.46697     -8.3886297      729.07834    
   2526000   309.83724      0.0036007403  -0.0013187794   768.71472     -9.0195909      759.69513    
   2527000   309.38994      0.0036007403   1.7747048      767.60498     -7.7858061      759.81917    
   2528000   294.13084      0.0036007403   2.6890083      729.74671     -9.3808878      720.36582    
   2529000   288.19915      0.0036007403   0.74165078     715.03004     -9.9940134      705.03603    
   2530000   312.71022      0.0036007403   1.2440887      775.84267     -9.156313       766.68635    
   2531000   300.86873      0.0036007403   2.9168768      746.46361     -9.753008       736.7106     
   2532000   284.80008      0.0036007403   1.9162566      706.59685     -10.692521      695.90433    
   2533000   302.01548      0.0036007403  -0.1011087      749.30873     -8.9248015      740.38393    
   2534000   316.57553      0.0036007403   1.1834699      785.43262     -9.4892855      775.94333    
   2535000   308.73314      0.0036007403   3.379816       765.97543     -11.009856      754.96557    
   2536000   288.2485       0.0036007403   3.7544213      715.15248     -9.3638653      705.78862    
   2537000   305.6842       0.0036007403   0.89220063     758.41093     -8.1567111      750.25422    
   2538000   309.65947      0.0036007403   2.4832004      768.27368     -8.5832346      759.69044    
   2539000   287.21967      0.0036007403   4.6319877      712.59992     -8.8892471      703.71068    
   2540000   290.08385      0.0036007403   0.89649508     719.70602     -9.9293445      709.77668    
   2541000   323.4309       0.0036007403   3.2171018      802.44099     -12.707637      789.73335    
   2542000   305.06751      0.0036007403   4.5643755      756.8809      -11.899132      744.98177    
   2543000   294.10661      0.0036007403   0.66351715     729.68661     -10.899888      718.78673    
   2544000   305.12792      0.0036007403  -1.8712272      757.03079     -9.1929392      747.83785    
   2545000   301.01792      0.0036007403   4.3683413      746.83377     -6.4469057      740.38686    
   2546000   291.58639      0.0036007403   2.4289793      723.43387     -7.8987753      715.53509    
   2547000   289.63104      0.0036007403   3.0910765      718.5826      -8.0199595      710.56264    
   2548000   302.52647      0.0036007403   0.86364171     750.57651     -9.2447033      741.3318     
   2549000   309.86093      0.0036007403   0.48296831     768.77351     -6.8071543      761.96635    
   2550000   294.51461      0.0036007403   2.7278537      730.69887     -5.9334338      724.76543    
   2551000   301.89103      0.0036007403   4.3456881      748.99996     -5.4933031      743.50666    
   2552000   300.01638      0.0036007403   1.0267144      744.34891     -6.9546947      737.39422    
   2553000   310.94362      0.0036007403   4.1254737      771.4597      -7.4241282      764.03557    
   2554000   292.46374      0.0036007403   5.444521       725.61061     -6.9957782      718.61483    
   2555000   300.60808      0.0036007403   2.2038433      745.81692     -7.350006       738.46692    
   2556000   312.24017      0.0036007403  -0.37057211     774.67647     -6.9288123      767.74765    
   2557000   306.17179      0.0036007403  -0.020105731    759.62064     -5.5732464      754.04739    
   2558000   298.83223      0.0036007403   4.9624835      741.411       -6.2469018      735.1641     
   2559000   289.52706      0.0036007403  -1.7736034      718.32462     -5.9800042      712.34461    
   2560000   310.96796      0.0036007403   0.52657341     771.52009     -7.115693       764.4044     
   2561000   305.8429       0.0036007403  -0.21925077     758.80467     -5.6570287      753.14764    
   2562000   298.56647      0.0036007403   5.9374896      740.75165     -6.7701462      733.9815     
   2563000   300.33009      0.0036007403   0.21143636     745.12723     -6.525133       738.6021     
   2564000   304.26548      0.0036007403  -1.5425582      754.89105     -4.5361059      750.35495    
   2565000   302.02251      0.0036007403   2.8826067      749.32616     -4.0058092      745.32035    
   2566000   303.22211      0.0036007403   4.1763984      752.30242     -4.8475526      747.45487    
   2567000   288.5622       0.0036007403  -0.49815243     715.93078     -5.0204781      710.9103     
   2568000   299.23614      0.0036007403   1.2894541      742.41311     -7.2815111      735.1316     
   2569000   297.32266      0.0036007403   2.9943142      737.66572     -6.0304042      731.63532    
   2570000   306.74783      0.0036007403   2.4368242      761.04981     -7.1310391      753.91877    
   2571000   293.01932      0.0036007403   1.3019391      726.98901     -8.5443597      718.44465    
   2572000   300.58934      0.0036007403   1.3885309      745.77044     -8.2975197      737.47292    
   2573000   308.81987      0.0036007403   4.7640496      766.1906      -8.1360324      758.05457    
   2574000   290.95767      0.0036007403  -0.89560126     721.87401     -3.2906652      718.58334    
   2575000   302.40131      0.0036007403  -3.2721334      750.26599     -6.3172651      743.94873    
   2576000   310.18581      0.0036007403   3.3390647      769.57955     -6.5656573      763.01389    
   2577000   320.28998      0.0036007403   12.77582       794.64826     -5.5119686      789.1363     
   2578000   295.84611      0.0036007403   2.3294745      734.00236     -6.4214032      727.58095    
   2579000   291.14835      0.0036007403   1.6656209      722.34708     -5.9387164      716.40836    
   2580000   300.73665      0.0036007403  -2.1354364      746.13592     -7.6750927      738.46082    
   2581000   302.42114      0.0036007403   2.2879453      750.31517     -7.2295631      743.08561    
   2582000   294.84821      0.0036007403   8.9420442      731.52654     -5.7856951      725.74084    
   2583000   295.21115      0.0036007403  -2.0955754      732.42701     -4.4721357      727.95487    
   2584000   324.62828      0.0036007403   6.1285607      805.41172     -4.2224419      801.18928    
   2585000   303.74509      0.0036007403   3.3224964      753.59995     -3.8844166      749.71553    
   2586000   299.22708      0.0036007403  -0.58217628     742.39062     -3.1631934      739.22743    
   2587000   306.01649      0.0036007403   8.051028       759.23535     -2.8862044      756.34914    
   2588000   292.75619      0.0036007403   6.2438381      726.33617     -3.8025414      722.53363    
   2589000   306.0108       0.0036007403  -2.0228644      759.22123     -5.2556524      753.96557    
   2590000   313.07994      0.0036007403   3.8765627      776.75996     -5.5964534      771.1635     
   2591000   306.21337      0.0036007403   10.551134      759.72381     -5.6323807      754.09143    
   2592000   309.78191      0.0036007403   3.0213125      768.57746     -6.3232583      762.2542     
   2593000   295.95606      0.0036007403   3.907793       734.27514     -8.4372083      725.83793    
   2594000   273.52636      0.0036007403  -3.6407931      678.62644     -8.6164603      670.00998    
   2595000   307.29099      0.0036007403   1.9190465      762.39743     -7.6428054      754.75462    
   2596000   306.43244      0.0036007403   4.2895997      760.26733     -8.2209191      752.04642    
   2597000   280.05694      0.0036007403  -0.33753935     694.82899     -6.6759264      688.15306    
   2598000   291.40614      0.0036007403  -0.86132967     722.98666     -6.2566738      716.72999    
   2599000   311.12618      0.0036007403   4.5711532      771.91263     -7.7652438      764.14739    
   2600000   297.5885       0.0036007403   1.5370565      738.32528     -6.0458812      732.2794     
   2601000   301.6949       0.0036007403   0.80964488     748.51335     -4.365545       744.14781    
   2602000   303.90297      0.0036007403   1.6686902      753.99165     -5.8114827      748.18017    
   2603000   288.59297      0.0036007403   7.4762303      716.0071      -3.5047134      712.50239    
   2604000   301.60476      0.0036007403  -3.430023       748.28972     -6.2837002      742.00602    
   2605000   305.36572      0.0036007403  -2.1401191      757.62076     -4.3928005      753.22796    
   2606000   304.81851      0.0036007403   7.0644656      756.26313     -5.2226067      751.04053    
   2607000   294.73275      0.0036007403   5.0178281      731.24009     -6.7367849      724.5033     
   2608000   296.67756      0.0036007403  -1.6551589      736.06519     -7.7238665      728.34133    
   2609000   309.80926      0.0036007403  -0.43777902     768.64531     -6.5184089      762.1269     
   2610000   307.00839      0.0036007403   1.9124188      761.69627     -8.2699         753.42637    
   2611000   290.00006      0.0036007403   3.1208804      719.49814     -9.9536375      709.5445     
   2612000   285.48201      0.0036007403   2.3713452      708.28873     -8.6430201      699.64571    
   2613000   291.74213      0.0036007403  -1.4121384      723.82028     -6.2230935      717.59718    
   2614000   306.50983      0.0036007403   2.1091307      760.45934     -4.3269477      756.13239    
   2615000   301.21969      0.0036007403   4.8470173      747.33435     -4.8440094      742.49034    
   2616000   288.23855      0.0036007403   1.6474476      715.12779     -4.3537321      710.77405    
   2617000   294.54509      0.0036007403  -0.33676635     730.7745      -5.244442       725.53006    
   2618000   318.90856      0.0036007403  -2.1115358      791.22092     -6.0314465      785.18947    
   2619000   306.97423      0.0036007403   2.7274911      761.61153     -6.621989       754.98954    
   2620000   305.38516      0.0036007403   2.5281053      757.669       -4.1785224      753.49048    
   2621000   297.58869      0.0036007403  -1.963351       738.32573     -3.2318533      735.09388    
   2622000   300.35313      0.0036007403   2.8961868      745.1844      -7.689462       737.49494    
   2623000   288.29915      0.0036007403   3.9551932      715.27814     -8.5069689      706.77117    
   2624000   300.0268       0.0036007403   0.69569754     744.37475     -6.5903888      737.78436    
   2625000   318.91932      0.0036007403   3.2576447      791.24761     -6.4132675      784.83435    
   2626000   299.26031      0.0036007403   2.6036498      742.47308     -4.7621503      737.71093    
   2627000   272.52963      0.0036007403   1.0712203      676.15352     -4.6642023      671.48932    
   2628000   298.47593      0.0036007403   1.3270752      740.527       -4.3669813      736.16002    
   2629000   312.31439      0.0036007403   2.8000493      774.86062     -6.5430519      768.31757    
   2630000   303.45906      0.0036007403   2.4860049      752.89028     -8.1460791      744.7442     
   2631000   288.44302      0.0036007403   1.9892285      715.63509     -7.1661424      708.46895    
   2632000   299.21588      0.0036007403   1.8738321      742.36284     -5.7293385      736.6335     
   2633000   309.98587      0.0036007403   2.0194769      769.0835      -7.4592968      761.6242     
   2634000   302.26406      0.0036007403   2.8024729      749.92546     -4.3881967      745.53726    
   2635000   291.76856      0.0036007403   1.8880228      723.88585     -5.8672438      718.01861    
   2636000   299.53847      0.0036007403   2.1223842      743.1632      -6.8641653      736.29903    
   2637000   306.87558      0.0036007403   2.1171009      761.36677     -8.5233659      752.8434     
   2638000   292.57294      0.0036007403   1.6369407      725.88152     -8.0210818      717.86044    
   2639000   302.38213      0.0036007403   2.3346579      750.21839     -6.8813641      743.33703    
   2640000   308.51063      0.0036007403   1.6162149      765.42337     -8.041341       757.38203    
   2641000   298.27926      0.0036007403   1.3408344      740.03907     -8.1975132      731.84155    
   2642000   289.50585      0.0036007403   2.6502304      718.27199     -9.3933114      708.87867    
   2643000   307.2059       0.0036007403   2.4652617      762.1863      -8.0164327      754.16987    
   2644000   316.58752      0.0036007403   2.5588693      785.46236     -5.0019324      780.46043    
   2645000   301.34363      0.0036007403   1.6931282      747.64186     -7.7029957      739.93886    
   2646000   289.27616      0.0036007403   1.8933995      717.70212     -7.0916145      710.61051    
   2647000   304.91639      0.0036007403   2.8999164      756.50597     -7.9937145      748.51226    
   2648000   310.01356      0.0036007403   1.0148862      769.15219     -7.1048371      762.04736    
   2649000   292.92099      0.0036007403   2.6766928      726.74504     -6.2655579      720.47948    
   2650000   300.0164       0.0036007403   2.9062941      744.34897     -7.291791       737.05718    
   2651000   309.17534      0.0036007403   0.96181858     767.07254     -7.1912224      759.88132    
   2652000   305.15963      0.0036007403   1.8655635      757.10946     -6.7877615      750.3217     
   2653000   295.63877      0.0036007403   2.2055956      733.48795     -6.8769375      726.61101    
   2654000   306.63292      0.0036007403   2.841777       760.76472     -9.5849471      751.17977    
   2655000   304.62171      0.0036007403   1.1298746      755.77485     -8.1241788      747.65067    
   2656000   282.01298      0.0036007403   1.6805172      699.68198     -8.3339753      691.34801    
   2657000   307.63864      0.0036007403   2.5964147      763.25995     -6.6122763      756.64768    
   2658000   310.27279      0.0036007403   3.4041738      769.79536     -6.5678113      763.22754    
   2659000   293.29059      0.0036007403   1.0128415      727.66205     -6.832701       720.82935    
   2660000   286.22621      0.0036007403   3.8034373      710.13512     -7.1519353      702.98318    
   2661000   302.10543      0.0036007403   5.2876201      749.53189     -4.9009013      744.63099    
   2662000   309.06221      0.0036007403   1.5651471      766.79187     -5.6688151      761.12305    
   2663000   293.23588      0.0036007403   1.1514543      727.52631     -4.8243758      722.70194    
   2664000   293.99399      0.0036007403   2.8535412      729.4072      -4.1029148      725.30429    
   2665000   313.29674      0.0036007403   7.4199235      777.29784     -4.7099962      772.58785    
   2666000   300.88647      0.0036007403   0.11730199     746.50762     -3.2236839      743.28393    
   2667000   273.38861      0.0036007403   0.79178887     678.28468     -4.9095139      673.37516    
   2668000   289.81582      0.0036007403   2.8160865      719.04105     -4.3626745      714.67838    
   2669000   308.73861      0.0036007403   2.7096962      765.989       -4.3762818      761.61272    
   2670000   302.90774      0.0036007403   2.0874283      751.52245     -6.8520554      744.67039    
   2671000   296.991        0.0036007403  -3.3918571      736.84286     -6.8737731      729.96908    
   2672000   278.72184      0.0036007403  -2.4303065      691.51656     -7.3612185      684.15534    
   2673000   291.19403      0.0036007403   6.8973346      722.46042     -6.6798286      715.78059    
   2674000   302.38826      0.0036007403   11.977943      750.2336      -8.6914421      741.54216    
   2675000   298.11703      0.0036007403   1.763293       739.63658     -7.5161942      732.12038    
   2676000   295.03549      0.0036007403   0.70304702     731.99119     -7.587513       724.40368    
   2677000   299.22752      0.0036007403   1.0771438      742.39171     -6.5990095      735.7927     
   2678000   300.79301      0.0036007403   4.1863819      746.27574     -8.1714585      738.10429    
   2679000   300.17685      0.0036007403   6.9067456      744.74703     -8.28273        736.4643     
   2680000   303.09349      0.0036007403  -0.51484455     751.9833      -4.3095486      747.67375    
   2681000   294.77823      0.0036007403   0.38065888     731.35291     -4.4312572      726.92166    
   2682000   309.12358      0.0036007403   8.2986803      766.94412     -6.0303222      760.9138     
   2683000   304.16584      0.0036007403   0.48525338     754.64383     -6.0548313      748.589      
   2684000   289.95364      0.0036007403  -1.2447913      719.38298     -6.6380189      712.74496    
   2685000   292.89079      0.0036007403   1.4096703      726.67012     -6.4781958      720.19192    
   2686000   298.35818      0.0036007403   5.5543906      740.23488     -5.345988       734.88889    
   2687000   315.43316      0.0036007403   3.6535219      782.59837     -4.1238867      778.47448    
   2688000   307.3936       0.0036007403  -0.92699062     762.652       -2.7544939      759.89751    
   2689000   296.03737      0.0036007403  -0.679698       734.47687     -3.6894808      730.78739    
   2690000   286.0838       0.0036007403  -1.7536203      709.7818      -3.1518555      706.62994    
   2691000   306.6978       0.0036007403   3.3875943      760.9257      -3.1336509      757.79205    
   2692000   305.09125      0.0036007403   2.3148675      756.9398      -2.0559189      754.88389    
   2693000   299.79301      0.0036007403   3.1654156      743.79472     -1.1261212      742.6686     
   2694000   309.20529      0.0036007403   0.27954222     767.14684     -3.1454019      764.00144    
   2695000   309.8267       0.0036007403  -1.9296454      768.68858     -1.6483232      767.04025    
   2696000   294.78343      0.0036007403   0.60753228     731.36582     -5.0154158      726.35041    
   2697000   294.29853      0.0036007403   3.3888275      730.16276     -3.4245441      726.73822    
   2698000   323.16809      0.0036007403   2.5535881      801.78894     -2.7619097      799.02703    
   2699000   308.00017      0.0036007403  -0.31022223     764.15691     -2.3967649      761.76015    
   2700000   289.82944      0.0036007403   2.0520908      719.07484     -2.4924572      716.58238    
   2701000   312.4167       0.0036007403   3.0005598      775.11444     -4.8888814      770.22555    
   2702000   293.14286      0.0036007403   2.1352499      727.29551     -2.9865354      724.30898    
   2703000   301.51897      0.0036007403   3.1118697      748.07688     -3.351045       744.72583    
   2704000   305.63251      0.0036007403   0.27092353     758.28267     -2.5669595      755.71571    
   2705000   299.35141      0.0036007403   0.0068455037   742.69911     -5.4231718      737.27594    
   2706000   304.0119       0.0036007403   4.1491738      754.26191     -5.2441265      749.01778    
   2707000   313.78695      0.0036007403   2.1654539      778.51408     -3.7772125      774.73687    
   2708000   301.38641      0.0036007403   0.25676101     747.74798     -6.764201       740.98378    
   2709000   288.36603      0.0036007403  -0.022033886    715.44407     -8.7176173      706.72645    
   2710000   308.47709      0.0036007403   8.0566604      765.34016     -6.1910828      759.14908    
   2711000   304.01337      0.0036007403  -0.44608868     754.26555     -6.3544621      747.91109    
   2712000   287.66232      0.0036007403  -0.60939006     713.69814     -5.6139031      708.08424    
   2713000   293.20162      0.0036007403   3.0347851      727.44129     -5.486445       721.95485    
   2714000   308.88243      0.0036007403   3.4832593      766.34583     -4.1793106      762.16652    
   2715000   320.38366      0.0036007403  -0.68520339     794.8807      -5.9353834      788.94532    
   2716000   280.70865      0.0036007403  -2.7761018      696.4459      -5.5374936      690.9084     
   2717000   293.34776      0.0036007403   3.3134581      727.80389     -3.9859532      723.81793    
   2718000   298.4603       0.0036007403   3.6866892      740.48822     -3.5526816      736.93554    
   2719000   317.59569      0.0036007403   2.9697418      787.96367     -6.2277716      781.7359     
   2720000   299.11307      0.0036007403   1.2681414      742.10778     -5.8086108      736.29917    
   2721000   296.80258      0.0036007403   1.6690807      736.37539     -5.1856484      731.18974    
   2722000   288.93766      0.0036007403   2.4671008      716.86229     -6.5382448      710.32404    
   2723000   296.53716      0.0036007403   2.4803644      735.71686     -7.9529265      727.76393    
   2724000   310.45166      0.0036007403   2.565144       770.23912     -5.516453       764.72266    
   2725000   287.02048      0.0036007403   0.89390931     712.10571     -7.1342128      704.9715     
   2726000   297.9056       0.0036007403   2.0962762      739.112       -7.6675223      731.44448    
   2727000   316.98588      0.0036007403   2.2730242      786.45071     -8.5558985      777.89481    
   2728000   298.05445      0.0036007403   1.7110826      739.48131     -6.8297489      732.65156    
   2729000   284.34969      0.0036007403   1.9752787      705.47942     -7.6227047      697.85671    
   2730000   306.90239      0.0036007403   2.2805998      761.43328     -6.9574012      754.47588    
   2731000   308.02786      0.0036007403   2.0568272      764.22561     -4.4979013      759.72771    
   2732000   287.94096      0.0036007403   1.8355771      714.38946     -5.7617048      708.62776    
   2733000   303.81946      0.0036007403   1.5374116      753.78445     -5.904601       747.87985    
   2734000   303.50457      0.0036007403   1.958356       753.00319     -6.7820416      746.22115    
   2735000   292.28844      0.0036007403   2.5180886      725.17567     -6.9743995      718.20127    
   2736000   288.907        0.0036007403   1.7192949      716.78624     -9.0533847      707.73285    
   2737000   292.64456      0.0036007403   1.8047306      726.05923     -8.9777082      717.08152    
   2738000   298.28032      0.0036007403   1.930021       740.04169     -5.5744577      734.46723    
   2739000   308.95686      0.0036007403   2.1923808      766.53049     -6.6388716      759.89162    
   2740000   299.40391      0.0036007403   2.2560758      742.82934     -4.5936593      738.23568    
   2741000   282.78761      0.0036007403   0.73009049     701.60386     -3.8818099      697.72205    
   2742000   300.78062      0.0036007403   1.9811567      746.245       -4.409814       741.83519    
   2743000   306.48245      0.0036007403   1.7702439      760.39141     -3.4145781      756.97683    
   2744000   302.6894       0.0036007403   2.0642115      750.98076     -3.6665204      747.31424    
   2745000   308.3939       0.0036007403   2.2935907      765.13378     -5.0497024      760.08407    
   2746000   294.12289      0.0036007403   0.27187831     729.727       -4.8749349      724.85207    
   2747000   297.80892      0.0036007403   2.0819318      738.87215     -6.4444593      732.42769    
   2748000   319.83344      0.0036007403   2.4307275      793.51558     -6.1421365      787.37345    
   2749000   292.10703      0.0036007403   0.89904249     724.7256      -7.9507619      716.77484    
   2750000   291.16053      0.0036007403   1.7349533      722.3773      -6.6775594      715.69974    
   2751000   304.80142      0.0036007403   3.6635206      756.22072     -5.8713337      750.34939    
   2752000   315.94409      0.0036007403   0.17912799     783.866       -4.9968092      778.86919    
   2753000   293.24887      0.0036007403   1.6021687      727.55854     -5.3012337      722.2573     
   2754000   287.79385      0.0036007403   4.3512012      714.02447     -3.8683355      710.15614    
   2755000   316.26612      0.0036007403   1.592029       784.66497     -6.6069364      778.05803    
   2756000   312.62188      0.0036007403   0.34572151     775.62351     -5.8332774      769.79024    
   2757000   286.73316      0.0036007403   0.2916653      711.39286     -7.8243853      703.56848    
   2758000   294.63998      0.0036007403   0.69092013     731.0099      -7.3119414      723.69796    
   2759000   306.48058      0.0036007403   2.6364625      760.38676     -7.9601351      752.42662    
   2760000   310.72114      0.0036007403   2.1673275      770.90771     -7.7400997      763.16761    
   2761000   299.60966      0.0036007403   1.6074225      743.33982     -7.7691281      735.57069    
   2762000   294.46693      0.0036007403   1.9806618      730.58057     -7.2398979      723.34067    
   2763000   295.44038      0.0036007403   1.8738556      732.99573     -7.5612915      725.43444    
   2764000   313.54438      0.0036007403   2.0897674      777.91224     -7.8367598      770.07548    
   2765000   295.69259      0.0036007403   2.2506943      733.62147     -7.9475883      725.67388    
   2766000   300.33432      0.0036007403   1.8237122      745.13773     -8.0185422      737.11919    
   2767000   304.18666      0.0036007403   2.0318457      754.69549     -7.488671       747.20682    
   2768000   301.50134      0.0036007403   2.6129357      748.03313     -6.5435383      741.48959    
   2769000   294.31562      0.0036007403   1.8587631      730.20517     -6.3740215      723.83115    
   2770000   304.05021      0.0036007403   1.6158193      754.35695     -5.175141       749.18181    
   2771000   294.08743      0.0036007403   2.0570331      729.63903     -4.8188947      724.82013    
   2772000   306.15465      0.0036007403   2.9108372      759.57812     -5.2178083      754.36031    
   2773000   307.31949      0.0036007403   2.7534549      762.46812     -6.2580375      756.21009    
   2774000   287.08545      0.0036007403   2.274262       712.26691     -6.3791416      705.88777    
   2775000   295.9161       0.0036007403   1.4795218      734.176       -6.679445       727.49655    
   2776000   313.59248      0.0036007403   3.1587912      778.03159     -3.1740205      774.85757    
   2777000   302.30785      0.0036007403   4.4375475      750.03412     -4.0030874      746.03103    
   2778000   295.14021      0.0036007403   2.9603532      732.25099     -3.5091617      728.74183    
   2779000   286.05698      0.0036007403   3.6762954      709.71524     -5.73331        703.98193    
   2780000   298.42974      0.0036007403   1.0017891      740.41242     -5.2925433      735.11987    
   2781000   312.99483      0.0036007403  -0.22216348     776.5488      -3.960363       772.58844    
   2782000   302.81675      0.0036007403   3.7084882      751.29671     -4.8432436      746.45346    
   2783000   289.26865      0.0036007403   2.7916972      717.68349     -5.0338302      712.64966    
   2784000   298.8263       0.0036007403  -0.55580556     741.3963      -4.8337819      736.56251    
   2785000   313.36068      0.0036007403   1.7947936      777.45649     -5.9419501      771.51454    
   2786000   300.83485      0.0036007403   3.4515661      746.37956     -5.0783486      741.30122    
   2787000   293.56181      0.0036007403   1.5439054      728.33494     -4.5100364      723.82491    
   2788000   294.06123      0.0036007403   0.1449764      729.57402     -6.9849811      722.58904    
   2789000   299.10395      0.0036007403   4.1586151      742.08516     -10.302907      731.78225    
   2790000   301.86316      0.0036007403   1.0485175      748.93081     -11.222951      737.70786    
   2791000   308.33558      0.0036007403   1.1576094      764.98908     -8.8316398      756.15744    
   2792000   304.04624      0.0036007403   2.7959137      754.3471      -7.3504718      746.99663    
   2793000   298.32177      0.0036007403   2.4322917      740.14453     -8.0054182      732.13911    
   2794000   303.45662      0.0036007403  -1.3398595      752.88424     -4.8751565      748.00909    
   2795000   297.32031      0.0036007403   0.85142153     737.65988     -6.1427013      731.51718    
   2796000   294.78643      0.0036007403   3.8199474      731.37327     -6.1477613      725.2255     
   2797000   301.71985      0.0036007403   1.9266722      748.57525     -5.5460016      743.02925    
   2798000   285.31246      0.0036007403   1.2521674      707.86808     -5.039829       702.82825    
   2799000   285.85801      0.0036007403   2.8333601      709.22161     -3.123904       706.0977     
   2800000   309.71194      0.0036007403   1.0800607      768.40385     -4.5460389      763.85781    
   2801000   304.36409      0.0036007403   3.201009       755.13571     -3.898706       751.237      
   2802000   287.83864      0.0036007403   1.6750249      714.13561     -4.5995832      709.53603    
   2803000   290.48001      0.0036007403  -0.012729154    720.68891     -4.5202002      716.16871    
   2804000   309.81438      0.0036007403   2.0529452      768.65801     -5.1008962      763.55711    
   2805000   313.94227      0.0036007403   2.9701995      778.89944     -4.7311495      774.16829    
   2806000   305.40135      0.0036007403   2.8172642      757.70917     -4.2347352      753.47443    
   2807000   295.06019      0.0036007403   2.1197501      732.05248     -3.6972212      728.35525    
   2808000   293.03445      0.0036007403   1.0899553      727.02656     -3.5716687      723.45489    
   2809000   308.77156      0.0036007403   0.55515969     766.07075     -2.2269848      763.84377    
   2810000   316.43841      0.0036007403   3.3186888      785.09241     -3.4919827      781.60043    
   2811000   293.26142      0.0036007403   1.7260008      727.58966     -4.7419754      722.84769    
   2812000   310.68917      0.0036007403  -0.24278464     770.82839     -5.5116288      765.31676    
   2813000   300.83456      0.0036007403   3.3701224      746.37884     -3.4500609      742.92878    
   2814000   287.30869      0.0036007403   3.4060235      712.82078     -6.1143119      706.70646    
   2815000   294.41019      0.0036007403   0.65004428     730.4398      -7.4439033      722.9959     
   2816000   307.95758      0.0036007403   1.0795783      764.05124     -8.4337882      755.61745    
   2817000   305.51533      0.0036007403   3.4306722      757.99195     -6.3837397      751.60821    
   2818000   306.45369      0.0036007403   1.6227593      760.32006     -7.7134803      752.60658    
   2819000   304.98313      0.0036007403  -0.40198142     756.67156     -6.7422502      749.92931    
   2820000   303.629        0.0036007403   3.7401417      753.31192     -5.1825132      748.1294     
   2821000   295.94261      0.0036007403   2.2015694      734.24178     -5.7006154      728.54117    
   2822000   311.38588      0.0036007403   0.4379093      772.55696     -5.5449711      767.01199    
   2823000   297.69401      0.0036007403   3.0013421      738.58704     -4.4450252      734.14201    
   2824000   280.47496      0.0036007403   5.2902165      695.86611     -5.2051899      690.66092    
   2825000   296.28673      0.0036007403   0.63410372     735.09555     -5.301304       729.79424    
   2826000   316.96961      0.0036007403   2.5125031      786.41033     -6.0233684      780.38696    
   2827000   303.36856      0.0036007403   3.1889556      752.66575     -6.4491981      746.21655    
   2828000   282.37621      0.0036007403   1.2734038      700.58315     -5.3831971      695.19995    
   2829000   296.90067      0.0036007403   1.3075281      736.61874     -4.5495295      732.06921    
   2830000   312.89986      0.0036007403   2.8453897      776.31318     -6.1558689      770.15731    
   2831000   296.91517      0.0036007403   1.7673077      736.65472     -5.3118776      731.34284    
   2832000   306.06876      0.0036007403   1.9003894      759.36503     -8.4302522      750.93478    
   2833000   291.14023      0.0036007403   1.9353719      722.32693     -7.0401142      715.28681    
   2834000   301.48264      0.0036007403   1.8319052      747.98673     -5.6098861      742.37685    
   2835000   307.37582      0.0036007403   1.7912413      762.60787     -6.0613947      756.54648    
   2836000   305.18642      0.0036007403   2.0076175      757.17593     -6.8749412      750.30098    
   2837000   294.66396      0.0036007403   2.0790781      731.06941     -9.5567768      721.51263    
   2838000   300.54067      0.0036007403   2.1604382      745.6497      -7.1878563      738.46184    
   2839000   303.43888      0.0036007403   1.9078951      752.84022     -5.903851       746.93637    
   2840000   299.06014      0.0036007403   1.9884971      741.97645     -4.3826807      737.59377    
   2841000   290.84175      0.0036007403   1.9252825      721.58639     -5.0557173      716.53067    
   2842000   297.19997      0.0036007403   1.9088765      737.36132     -7.766002       729.59532    
   2843000   315.90981      0.0036007403   1.7958534      783.78095     -4.3353534      779.4456     
   2844000   316.15129      0.0036007403   1.808476       784.38008     -5.5715415      778.80853    
   2845000   312.74679      0.0036007403   2.1061571      775.9334      -5.0193306      770.91407    
   2846000   298.8035       0.0036007403   2.0139576      741.33972     -4.7519697      736.58775    
   2847000   289.30394      0.0036007403   1.9744913      717.77106     -6.7645708      711.00649    
   2848000   314.46234      0.0036007403   1.891832       780.18973     -9.3387208      770.85101    
   2849000   303.57337      0.0036007403   1.9488508      753.1739      -8.4721341      744.70177    
   2850000   283.95271      0.0036007403   2.5152684      704.49451     -7.8089453      696.68556    
   2851000   302.94638      0.0036007403   2.7236466      751.61831     -7.3876744      744.23064    
   2852000   307.51347      0.0036007403   1.6922462      762.94938     -6.9220882      756.0273     
   2853000   287.76836      0.0036007403   0.61890584     713.96124     -6.847501       707.11374    
   2854000   288.0692       0.0036007403   2.7480462      714.70763     -6.20176        708.50587    
   2855000   308.88302      0.0036007403   2.0595359      766.34729     -7.7560768      758.59121    
   2856000   297.78332      0.0036007403   0.31515778     738.80861     -10.572401      728.23621    
   2857000   297.44728      0.0036007403   3.5161542      737.97491     -9.5298384      728.44507    
   2858000   309.49964      0.0036007403   2.650869       767.87715     -8.4108058      759.46634    
   2859000   307.7971       0.0036007403   1.5062881      763.6531      -11.27565       752.37745    
   2860000   298.17064      0.0036007403   0.92152595     739.76957     -10.590485      729.17908    
   2861000   296.67069      0.0036007403   2.862115       736.04816     -9.3233932      726.72477    
   2862000   305.68828      0.0036007403   3.6822451      758.42106     -9.3722179      749.04884    
   2863000   317.40466      0.0036007403  -1.1502078      787.48972     -6.6341564      780.85556    
   2864000   292.2138       0.0036007403  -3.9332998      724.9905      -6.8759668      718.11453    
   2865000   299.70222      0.0036007403   2.0058163      743.56946     -6.9679415      736.60152    
   2866000   306.41301      0.0036007403   5.3875929      760.21912     -9.060253       751.15887    
   2867000   303.53675      0.0036007403  -0.052291059    753.08304     -5.6374091      747.44563    
   2868000   282.58536      0.0036007403   2.8697492      701.10206     -7.8885609      693.2135     
   2869000   301.92971      0.0036007403   3.2321711      749.09593     -6.6434456      742.45248    
   2870000   306.58524      0.0036007403  -0.86644123     760.64643     -6.7281379      753.9183     
   2871000   291.88202      0.0036007403   2.7749053      724.16734     -5.3417284      718.82561    
   2872000   293.78553      0.0036007403   4.9727001      728.88999     -5.212886       723.6771     
   2873000   307.9167       0.0036007403   2.2049708      763.94982     -4.7170142      759.23281    
   2874000   316.17694      0.0036007403  -0.65042151     784.44371     -4.7536001      779.69011    
   2875000   288.57336      0.0036007403   0.20122528     715.95845     -4.1521758      711.80628    
   2876000   303.41177      0.0036007403   5.9098152      752.77297     -3.5234555      749.24952    
   2877000   316.12956      0.0036007403   1.8101989      784.32616     -3.3609109      780.96525    
   2878000   298.28256      0.0036007403   0.46483072     740.04725     -3.4730407      736.57421    
   2879000   298.74654      0.0036007403   5.0561865      741.19841     -4.3053895      736.89302    
   2880000   295.19704      0.0036007403   1.4350478      732.392       -3.1351013      729.2569     
   2881000   282.58315      0.0036007403  -0.50779367     701.09658     -5.3073225      695.78925    
   2882000   304.39807      0.0036007403   2.4821184      755.22        -4.2867386      750.93326    
   2883000   306.74216      0.0036007403   2.4783312      761.03576     -5.0228271      756.01293    
   2884000   295.51945      0.0036007403   0.41308574     733.19191     -4.0903892      729.10152    
   2885000   285.89721      0.0036007403   2.5507366      709.31886     -6.5471121      702.77175    
   2886000   299.92686      0.0036007403   2.9098268      744.1268      -5.4380822      738.68871    
   2887000   307.6021       0.0036007403   3.1598463      763.16928     -4.1553775      759.0139     
   2888000   295.65304      0.0036007403   2.0664325      733.52334     -5.5144703      728.00887    
   2889000   294.86723      0.0036007403   1.2247909      731.57374     -5.5275043      726.04623    
   2890000   302.98207      0.0036007403   2.8901996      751.70688     -6.8048825      744.90199    
   2891000   306.1365       0.0036007403   1.9745025      759.53309     -5.4421007      754.09099    
   2892000   298.27589      0.0036007403   1.4105291      740.03071     -4.6102645      735.42044    
   2893000   285.90695      0.0036007403   2.0769388      709.34303     -6.5585341      702.78449    
   2894000   310.47         0.0036007403   2.5000874      770.28464     -4.2219538      766.06268    
   2895000   296.36309      0.0036007403   0.19011684     735.285       -6.420666       728.86433    
   2896000   285.97952      0.0036007403   1.9472215      709.52306     -6.2689206      703.25414    
   2897000   296.16604      0.0036007403   3.4692798      734.79612     -7.6326874      727.16343    
   2898000   305.73677      0.0036007403   1.9150355      758.54134     -5.6357365      752.90561    
   2899000   299.52376      0.0036007403   1.8281763      743.12671     -4.3120014      738.81471    
   2900000   290.15691      0.0036007403   2.4939275      719.88729     -4.6306163      715.25667    
   2901000   300.19751      0.0036007403   2.7210008      744.7983      -5.4585797      739.33972    
   2902000   302.33572      0.0036007403   1.6417485      750.10325     -7.6397111      742.46354    
   2903000   298.55653      0.0036007403   1.8373407      740.72699     -9.4476535      731.27933    
   2904000   297.66428      0.0036007403   2.0346612      738.51329     -7.6622079      730.85108    
   2905000   288.88805      0.0036007403   2.2939848      716.73922     -6.680462       710.05876    
   2906000   306.88228      0.0036007403   2.0990971      761.3834      -5.2121577      756.17124    
   2907000   309.2531       0.0036007403   2.3164538      767.26546     -5.7363541      761.52911    
   2908000   293.53643      0.0036007403   2.0039558      728.27196     -6.492898       721.77906    
   2909000   300.31         0.0036007403   1.5655266      745.07738     -7.866877       737.2105     
   2910000   303.60546      0.0036007403   2.2535101      753.25352     -7.6385783      745.61494    
   2911000   298.38141      0.0036007403   2.539165       740.29252     -5.528402       734.76411    
   2912000   303.39801      0.0036007403  -0.59832658     752.73883     -5.0967955      747.64204    
   2913000   303.86962      0.0036007403   2.2789962      753.9089      -4.8565349      749.05236    
   2914000   294.60751      0.0036007403   2.057133       730.92935     -4.672794       726.25655    
   2915000   297.58899      0.0036007403   1.3361933      738.32648     -4.4969333      733.82955    
   2916000   294.23274      0.0036007403   2.9434297      729.99953     -3.5831064      726.41643    
   2917000   302.77818      0.0036007403   2.2266172      751.201       -3.9629111      747.23809    
   2918000   299.62062      0.0036007403   1.2264316      743.36703     -4.5826066      738.78442    
   2919000   301.34551      0.0036007403   1.9131888      747.64652     -3.4858534      744.16067    
   2920000   302.92311      0.0036007403   1.0398967      751.56058     -3.8381359      747.72244    
   2921000   305.86686      0.0036007403   2.2563791      758.86411     -4.3403771      754.52373    
   2922000   299.36038      0.0036007403   2.1881768      742.72135     -3.6748618      739.04649    
   2923000   290.37911      0.0036007403   1.4637983      720.43859     -3.7821072      716.65648    
   2924000   299.1215       0.0036007403   0.73544665     742.12869     -4.8317905      737.2969     
   2925000   294.69437      0.0036007403   0.11946404     731.14485     -4.3962086      726.74864    
   2926000   306.85009      0.0036007403   2.9535799      761.30353     -5.4312665      755.87226    
   2927000   302.78907      0.0036007403   4.3501498      751.22804     -6.1491144      745.07893    
   2928000   289.07231      0.0036007403   1.5961564      717.19636     -6.5490075      710.64736    
   2929000   303.2263       0.0036007403   1.7637753      752.31281     -5.0866495      747.22616    
   2930000   309.75461      0.0036007403   2.0962993      768.50973     -6.4122445      762.09749    
   2931000   300.80474      0.0036007403   2.8526724      746.30484     -5.4161784      740.88866    
   2932000   284.75121      0.0036007403   1.1590977      706.47561     -5.4582833      701.01733    
   2933000   306.13951      0.0036007403   1.3920335      759.54057     -5.1528514      754.38771    
   2934000   306.38389      0.0036007403   4.4815149      760.14689     -5.2226083      754.92428    
   2935000   296.80094      0.0036007403   0.20585646     736.37131     -4.7829446      731.58836    
   2936000   308.06463      0.0036007403   2.7261843      764.31683     -6.3984778      757.91836    
   2937000   318.53718      0.0036007403   4.1748444      790.29953     -6.3833872      783.91614    
   2938000   294.11163      0.0036007403   2.0038819      729.69907     -5.6077464      724.09132    
   2939000   289.59013      0.0036007403   0.7600789      718.48109     -8.0336489      710.44744    
   2940000   309.61564      0.0036007403   1.3256279      768.16494     -8.0792931      760.08564    
   2941000   308.86088      0.0036007403   2.31475        766.29235     -7.8888626      758.40349    
   2942000   294.55011      0.0036007403   2.7200324      730.78694     -9.0447399      721.7422     
   2943000   293.51909      0.0036007403   1.9567984      728.22896     -9.3285791      718.90038    
   2944000   295.95735      0.0036007403   0.67224596     734.27834     -7.4579214      726.82042    
   2945000   309.86015      0.0036007403   2.4042364      768.77156     -10.473209      758.29835    
   2946000   304.63849      0.0036007403   2.4840157      755.8165      -7.6615686      748.15493    
   2947000   292.38609      0.0036007403   2.2761601      725.41794     -8.6473513      716.77059    
   2948000   301.87959      0.0036007403   2.0172613      748.97158     -7.2273427      741.74423    
   2949000   303.01711      0.0036007403   2.0226885      751.79381     -10.885386      740.90843    
   2950000   304.88648      0.0036007403   2.1252273      756.43177     -8.0053648      748.42641    
   2951000   293.85918      0.0036007403   1.8351148      729.07272     -6.5693936      722.50333    
   2952000   299.0469       0.0036007403   1.6373162      741.94361     -7.3112418      734.63237    
   2953000   299.48548      0.0036007403   2.2014827      743.03173     -6.392729       736.63901    
   2954000   300.82693      0.0036007403   1.9693352      746.35991     -6.9823174      739.37759    
   2955000   286.02122      0.0036007403   0.40668765     709.62653     -7.6769921      701.94954    
   2956000   295.0618       0.0036007403   3.0780973      732.05645     -6.1253095      725.93115    
   2957000   316.7255       0.0036007403   2.1270423      785.8047      -9.4396235      776.36507    
   2958000   298.9008       0.0036007403   0.77521229     741.58112     -9.2151009      732.36602    
   2959000   292.3343       0.0036007403   1.3356313      725.28946     -8.1915767      717.09789    
   2960000   301.83468      0.0036007403   3.7086328      748.86017     -7.7991837      741.06099    
   2961000   311.10532      0.0036007403   2.3757705      771.86087     -9.1566286      762.70424    
   2962000   291.90007      0.0036007403   0.97961989     724.21212     -6.4340083      717.77811    
   2963000   296.09915      0.0036007403   2.1686852      734.63016     -6.7546269      727.87554    
   2964000   321.44545      0.0036007403   3.3900653      797.51502     -8.346692       789.16832    
   2965000   301.53551      0.0036007403   0.9662288      748.11791     -4.7157416      743.40217    
   2966000   282.14884      0.0036007403   4.3412567      700.01906     -6.8898533      693.12921    
   2967000   307.53646      0.0036007403   2.3703866      763.00644     -7.3109911      755.69545    
   2968000   303.29672      0.0036007403   0.20642504     752.48752     -5.8742894      746.61323    
   2969000   295.67671      0.0036007403   1.9816298      733.58206     -4.3876719      729.19439    
   2970000   294.19141      0.0036007403   4.587779       729.89699     -4.7033352      725.19366    
   2971000   309.98227      0.0036007403   3.1116765      769.07455     -3.0931374      765.98141    
   2972000   311.67209      0.0036007403  -0.15369253     773.26704     -5.4546646      767.81238    
   2973000   290.00472      0.0036007403   0.81260086     719.50972     -5.1535005      714.35622    
   2974000   282.88328      0.0036007403   2.0885703      701.8412      -5.285299       696.55591    
   2975000   293.22464      0.0036007403   4.6791786      727.49841     -6.7596938      720.73872    
   2976000   316.32027      0.0036007403  -2.6637479      784.79932     -5.2807535      779.51856    
   2977000   296.25967      0.0036007403   0.84236607     735.02842     -7.2458704      727.78255    
   2978000   294.86248      0.0036007403   2.5629541      731.56195     -6.817016       724.74493    
   2979000   292.11409      0.0036007403   3.592477       724.7431      -6.2441552      718.49895    
   2980000   307.91449      0.0036007403   2.5232433      763.94434     -5.4714338      758.47291    
   2981000   310.44611      0.0036007403  -3.708464       770.22536     -2.7897618      767.4356     
   2982000   295.73788      0.0036007403   1.0358344      733.73384     -3.8184297      729.91541    
   2983000   278.23302      0.0036007403   4.9717435      690.30379     -2.4349492      687.86884    
   2984000   301.35334      0.0036007403   2.8495894      747.66595     -2.3420154      745.32394    
   2985000   316.72417      0.0036007403   2.215908       785.80139     -3.3623479      782.43904    
   2986000   309.21775      0.0036007403   1.0873661      767.17776     -2.1692034      765.00855    
   2987000   285.6229       0.0036007403   0.94524208     708.6383      -3.5711597      705.06714    
   2988000   298.42942      0.0036007403   3.250121       740.4116      -4.1318837      736.27972    
   2989000   302.02496      0.0036007403  -0.42427152     749.33226     -3.5283235      745.80394    
   2990000   304.31136      0.0036007403   0.80399446     755.00487     -3.5003355      751.50454    
   2991000   299.82448      0.0036007403   3.7134771      743.87279     -2.6133599      741.25943    
   2992000   291.4113       0.0036007403   3.7633175      722.99946     -2.4167927      720.58266    
   2993000   303.42454      0.0036007403  -1.0785663      752.80464     -3.4090649      749.39557    
   2994000   290.98026      0.0036007403   0.034083962    721.93004     -4.2752655      717.65477    
   2995000   301.28758      0.0036007403   1.9266811      747.50278     -4.4512089      743.05157    
   2996000   294.40827      0.0036007403   3.9522256      730.43504     -4.2076268      726.22742    
   2997000   306.1562       0.0036007403   2.4592211      759.58197     -6.3566161      753.22535    
   2998000   306.48979      0.0036007403  -1.7333332      760.40962     -2.703461       757.70616    
   2999000   300.9659       0.0036007403   1.8705858      746.7047      -4.6082289      742.09647    
   3000000   300.38599      0.0036007403   3.4464944      745.26591     -8.0227797      737.24314    
   3001000   293.74191      0.0036007403   3.1600442      728.78178     -7.7820549      720.99973    
   3002000   309.44355      0.0036007403   2.2320729      767.73797     -10.062272      757.67569    
   3003000   315.25479      0.0036007403   0.53354049     782.15583     -10.679697      771.47613    
   3004000   293.63919      0.0036007403   1.8739475      728.52693     -10.200619      718.32631    
   3005000   294.24837      0.0036007403   2.6455079      730.03833     -10.489283      719.54904    
   3006000   300.44578      0.0036007403   2.2188342      745.41427     -7.9497935      737.46448    
   3007000   316.88539      0.0036007403   1.0262309      786.20139     -7.6740629      778.52732    
   3008000   297.13889      0.0036007403   0.2117754      737.20978     -9.2857771      727.924      
   3009000   293.44203      0.0036007403   1.5202865      728.03777     -9.1018935      718.93588    
   3010000   303.25898      0.0036007403   3.0646943      752.39388     -7.3633882      745.03049    
   3011000   309.39146      0.0036007403   2.3212467      767.60874     -6.8381824      760.77056    
   3012000   304.56032      0.0036007403   2.2013139      755.62254     -7.2073457      748.4152     
   3013000   298.01156      0.0036007403   0.64787448     739.3749      -6.9382194      732.43668    
   3014000   301.65305      0.0036007403   2.6527282      748.40953     -8.8613778      739.54815    
   3015000   300.50588      0.0036007403   4.1739268      745.56337     -7.0595709      738.5038     
   3016000   296.86513      0.0036007403   3.0973798      736.53057     -7.8328944      728.69767    
   3017000   305.44734      0.0036007403   1.0159645      757.82328     -6.225416       751.59786    
   3018000   299.93986      0.0036007403  -3.0308767      744.15906     -5.9306911      738.22836    
   3019000   282.26945      0.0036007403  -1.4924406      700.31829     -6.4328051      693.88548    
   3020000   301.09552      0.0036007403   3.9258911      747.02628     -9.4633813      737.5629     
   3021000   310.42251      0.0036007403   2.7056724      770.1668      -8.5324014      761.6344     
   3022000   304.33468      0.0036007403   1.5737296      755.06274     -8.8415328      746.22121    
   3023000   283.25519      0.0036007403   1.0205451      702.76394     -7.9544808      694.80946    
   3024000   302.86133      0.0036007403   3.2168817      751.40732     -7.2890974      744.11822    
   3025000   308.31209      0.0036007403   2.6416831      764.93079     -8.1502424      756.78055    
   3026000   306.00597      0.0036007403  -3.2947227      759.20925     -7.3391159      751.87014    
   3027000   299.32267      0.0036007403   2.2130114      742.6278      -5.7228292      736.90497    
   3028000   300.52207      0.0036007403   2.7841216      745.60355     -6.3882822      739.21527    
   3029000   298.80893      0.0036007403   2.4406022      741.3532      -5.61443        735.73877    
   3030000   304.48219      0.0036007403   1.7619735      755.4287      -6.6647678      748.76393    
   3031000   303.8998       0.0036007403   1.1594022      753.98378     -4.2613523      749.72243    
   3032000   296.54662      0.0036007403   6.7796391      735.74035     -7.279164       728.46118    
   3033000   297.74427      0.0036007403   1.2872751      738.71174     -10.060066      728.65167    
   3034000   292.82074      0.0036007403   1.6774624      726.49633     -9.3263876      717.16995    
   3035000   304.54927      0.0036007403   1.7016417      755.59512     -8.153847       747.44128    
   3036000   301.68405      0.0036007403   2.7519039      748.48643     -9.4768296      739.0096     
   3037000   292.29657      0.0036007403   2.0187095      725.19586     -7.5894185      717.60644    
   3038000   297.82614      0.0036007403   0.6837792      738.91485     -7.4302416      731.48461    
   3039000   295.94289      0.0036007403   1.6036204      734.24247     -5.5918404      728.65063    
   3040000   307.32647      0.0036007403   2.3275899      762.48545     -3.3481667      759.13728    
   3041000   297.19214      0.0036007403   1.9013683      737.34188     -6.7566501      730.58523    
   3042000   278.50726      0.0036007403   1.6318765      690.9842      -8.9122504      682.07195    
   3043000   302.07621      0.0036007403   2.343144       749.45941     -5.54117        743.91824    
   3044000   314.48013      0.0036007403   1.8240118      780.23388     -6.1877463      774.04613    
   3045000   291.38621      0.0036007403   1.9395811      722.93723     -6.0211222      716.91611    
   3046000   292.73251      0.0036007403   1.2604158      726.27742     -5.6334511      720.64397    
   3047000   293.49533      0.0036007403   5.4062677      728.17001     -6.9091564      721.26086    
   3048000   325.30646      0.0036007403   2.7660835      807.09429     -5.1393643      801.95493    
   3049000   294.71134      0.0036007403   1.1997068      731.18696     -7.0293023      724.15766    
   3050000   291.49661      0.0036007403   3.6196011      723.21113     -6.820684       716.39044    
   3051000   303.38592      0.0036007403   2.5565066      752.70884     -7.311301       745.39754    
   3052000   316.76567      0.0036007403   1.3157986      785.90435     -6.5983674      779.30598    
   3053000   293.86845      0.0036007403   0.81598798     729.09574     -5.4739153      723.62182    
   3054000   279.62048      0.0036007403   0.85255829     693.74611     -8.4105159      685.33559    
   3055000   311.1595       0.0036007403   4.7329071      771.99529     -7.2266067      764.76868    
   3056000   305.06159      0.0036007403   0.71164245     756.8662      -7.3626391      749.50357    
   3057000   283.9816       0.0036007403   1.7005009      704.56618     -4.8696989      699.69648    
   3058000   297.8112       0.0036007403   2.8179936      738.87779     -5.8039995      733.07379    
   3059000   301.92493      0.0036007403   2.4062413      749.08409     -6.9654522      742.11863    
   3060000   313.23246      0.0036007403  -2.2529446      777.13836     -7.61144        769.52692    
   3061000   295.66421      0.0036007403  -0.32570386     733.55105     -5.488018       728.06304    
   3062000   299.88361      0.0036007403   2.9405559      744.01951     -7.6220138      736.3975     
   3063000   308.00893      0.0036007403   2.3683738      764.17865     -6.2666155      757.91204    
   3064000   297.4214       0.0036007403   0.18935358     737.9107      -6.1222718      731.78842    
   3065000   300.82381      0.0036007403   2.7850668      746.35216     -4.8170134      741.53515    
   3066000   311.74236      0.0036007403   4.3016932      773.44139     -5.3068246      768.13457    
   3067000   328.84749      0.0036007403   2.0788219      815.8797      -7.3302462      808.54945    
   3068000   299.77259      0.0036007403   1.8227902      743.74405     -8.9430862      734.80096    
   3069000   286.76974      0.0036007403   1.871065       711.48362     -8.3665553      703.11707    
   3070000   300.89827      0.0036007403   1.6781357      746.53691     -11.027194      735.50972    
   3071000   309.87739      0.0036007403   1.6512451      768.81435     -8.0965807      760.71777    
   3072000   317.48975      0.0036007403   3.5127699      787.70082     -8.3449657      779.35586    
   3073000   292.46269      0.0036007403   2.2549972      725.60801     -10.564149      715.04386    
   3074000   292.17592      0.0036007403   0.75966222     724.89651     -8.3661687      716.53034    
   3075000   310.55807      0.0036007403   2.1619485      770.50314     -9.5579324      760.94521    
   3076000   303.80614      0.0036007403   2.442302       753.7514      -12.608892      741.14251    
   3077000   298.7824       0.0036007403   1.9989581      741.28736     -11.687858      729.5995     
   3078000   294.29349      0.0036007403   1.8472297      730.15026     -11.468057      718.6822     
   3079000   321.41773      0.0036007403  -0.54564798     797.44625     -14.397456      783.04879    
   3080000   307.57762      0.0036007403   3.030752       763.10854     -12.770163      750.33838    
   3081000   297.62513      0.0036007403   3.7705293      738.41615     -10.063226      728.35292    
   3082000   296.47532      0.0036007403   6.4698796      735.56344     -8.4109594      727.15248    
   3083000   299.1477       0.0036007403   0.23779943     742.19369     -8.6907756      733.50292    
   3084000   301.94295      0.0036007403   1.9179565      749.12879     -9.6409019      739.48788    
   3085000   305.45912      0.0036007403   3.5820816      757.85249     -8.4552293      749.39726    
   3086000   290.78851      0.0036007403   4.9611177      721.4543      -7.7397169      713.71458    
   3087000   298.32537      0.0036007403   0.12482886     740.15347     -9.2556425      730.89782    
   3088000   312.48037      0.0036007403   0.18420683     775.27241     -9.8549867      765.41743    
   3089000   294.81862      0.0036007403   4.9540282      731.45312     -9.2522555      722.20086    
   3090000   304.02512      0.0036007403   2.6605632      754.29471     -9.5387675      744.75594    
   3091000   297.63338      0.0036007403  -0.75152257     738.43662     -10.278179      728.15844    
   3092000   300.10115      0.0036007403  -3.1183861      744.55922     -7.6833068      736.87591    
   3093000   296.6992       0.0036007403   3.1416931      736.1189      -8.1499755      727.96892    
   3094000   304.73669      0.0036007403   6.9739388      756.06012     -9.8991238      746.161      
   3095000   292.12623      0.0036007403  -1.9900854      724.77323     -9.531781       715.24145    
   3096000   299.74115      0.0036007403   1.6577797      743.66606     -9.2844375      734.38162    
   3097000   308.41957      0.0036007403   8.3772845      765.19746     -7.5227129      757.67475    
   3098000   294.75048      0.0036007403   2.5094665      731.28407     -6.2410147      725.04306    
   3099000   295.09195      0.0036007403  -0.23584529     732.13126     -5.5240202      726.60724    
   3100000   300.4261       0.0036007403   1.7632149      745.36544     -6.9482565      738.41719    
   3101000   298.0683       0.0036007403   3.7109144      739.51566     -7.1750619      732.3406     
   3102000   299.24937      0.0036007403  -3.389652       742.44593     -5.6931013      736.75282    
   3103000   302.14245      0.0036007403   4.0473664      749.62374     -5.9160972      743.70764    
   3104000   292.54046      0.0036007403   2.2896139      725.80096     -7.2551158      718.54584    
   3105000   301.59206      0.0036007403  -2.4559596      748.25821     -6.7926582      741.46555    
   3106000   308.75593      0.0036007403   4.604693       766.03197     -6.3870683      759.6449     
   3107000   291.38668      0.0036007403   3.4618127      722.93839     -6.6865376      716.25185    
   3108000   294.39672      0.0036007403  -2.471564       730.40637     -5.9131833      724.49319    
   3109000   323.43208      0.0036007403   0.25682506     802.44391     -8.4232749      794.02063    
   3110000   292.62248      0.0036007403   3.3486364      726.00443     -5.6009721      720.40346    
   3111000   297.23257      0.0036007403   0.57573265     737.4422      -3.9888328      733.45336    
   3112000   325.85684      0.0036007403   2.4750389      808.45981     -6.2728004      802.18701    
   3113000   298.02239      0.0036007403   4.3454797      739.40177     -8.1703516      731.23142    
   3114000   289.21477      0.0036007403  -0.68120089     717.54981     -7.0756719      710.47414    
   3115000   312.13225      0.0036007403   1.2406618      774.4087      -7.6492409      766.75946    
   3116000   293.26997      0.0036007403   5.6606517      727.61088     -7.7805399      719.83034    
   3117000   293.66105      0.0036007403   0.39767982     728.58116     -8.0824272      720.49873    
   3118000   303.48667      0.0036007403  -2.3467441      752.95878     -8.3675077      744.59128    
   3119000   318.37261      0.0036007403   3.7857515      789.89123     -7.7263446      782.16489    
   3120000   298.25527      0.0036007403   3.3726497      739.97954     -4.3351017      735.64444    
   3121000   287.15678      0.0036007403  -3.185851       712.44389     -5.1046482      707.33924    
   3122000   313.61499      0.0036007403   0.37514126     778.08744     -7.5033053      770.58413    
   3123000   313.6639       0.0036007403   6.9474922      778.20879     -6.2155775      771.99321    
   3124000   295.27623      0.0036007403   1.2853631      732.58845     -8.7860176      723.80244    
   3125000   287.67591      0.0036007403   1.1920587      713.73186     -7.3372538      706.39461    
   3126000   314.86596      0.0036007403  -2.8311094      781.19113     -6.537734       774.6534     
   3127000   311.42332      0.0036007403   4.0522697      772.64985     -8.15562        764.49423    
   3128000   289.09074      0.0036007403  -1.9460255      717.2421      -6.9754113      710.26668    
   3129000   290.27444      0.0036007403  -1.9260945      720.1789      -6.2199145      713.95898    
   3130000   292.74559      0.0036007403  -3.3306696      726.30988     -5.8903495      720.41953    
   3131000   311.32113      0.0036007403   4.1239588      772.3963      -7.8311402      764.56516    
   3132000   316.08068      0.0036007403   11.838278      784.20488     -7.686867       776.51801    
   3133000   296.38545      0.0036007403   2.0642103      735.34047     -7.9829941      727.35748    
   3134000   286.22833      0.0036007403   2.1058934      710.14038     -8.642477       701.4979     
   3135000   300.8351       0.0036007403  -0.78718624     746.38018     -6.5867589      739.79343    
   3136000   307.93435      0.0036007403   5.8091692      763.9936      -6.1717294      757.82187    
   3137000   301.30236      0.0036007403   3.9545547      747.53947     -8.7529327      738.78654    
   3138000   281.15556      0.0036007403   2.7046984      697.55469     -9.4723938      688.08229    
   3139000   298.27873      0.0036007403  -1.3934754      740.03776     -8.2624214      731.77534    
   3140000   304.17904      0.0036007403   3.8451101      754.67657     -6.6505719      748.026      
   3141000   296.00455      0.0036007403  -0.16563864     734.39546     -6.9607089      727.43475    
   3142000   308.39574      0.0036007403   2.4522986      765.13833     -7.4795777      757.65875    
   3143000   290.36355      0.0036007403   5.758966       720.39998     -6.739319       713.66066    
   3144000   296.40103      0.0036007403   1.1740282      735.37913     -7.3940598      727.98507    
   3145000   298.84127      0.0036007403   0.8056107      741.43344     -6.6313488      734.80209    
   3146000   309.01935      0.0036007403   1.7449463      766.68553     -8.1057348      758.57979    
   3147000   302.39516      0.0036007403   2.0700856      750.25072     -14.177069      736.07365    
   3148000   303.33895      0.0036007403   2.7463208      752.59229     -10.586747      742.00554    
   3149000   290.29946      0.0036007403  -0.35002296     720.24096     -12.365798      707.87516    
   3150000   300.45949      0.0036007403   0.67352482     745.44828     -10.091435      735.35684    
   3151000   312.31072      0.0036007403   3.6806099      774.85149     -9.3748767      765.47662    
   3152000   313.25906      0.0036007403   3.1741671      777.20436     -6.8828486      770.32151    
   3153000   297.20616      0.0036007403   2.0087958      737.37666     -7.6734892      729.70317    
   3154000   297.56082      0.0036007403   2.2872351      738.2566      -6.1955551      732.06105    
   3155000   294.05165      0.0036007403   1.967797       729.55025     -7.4987657      722.05148    
   3156000   299.1544       0.0036007403   2.5437613      742.21032     -7.0025335      735.20779    
   3157000   314.15451      0.0036007403   1.9906576      779.42601     -6.0817262      773.34428    
   3158000   292.01159      0.0036007403   1.8009213      724.48881     -4.8274054      719.66141    
   3159000   303.34561      0.0036007403   1.8847604      752.60881     -5.1428973      747.46592    
   3160000   307.06207      0.0036007403   1.8993931      761.82946     -5.0404268      756.78904    
   3161000   300.34763      0.0036007403   1.197011       745.17075     -4.9468517      740.2239     
   3162000   299.61782      0.0036007403   1.9492025      743.36008     -4.5792689      738.78081    
   3163000   290.6726       0.0036007403   2.4466043      721.16674     -4.3216204      716.84512    
   3164000   305.96404      0.0036007403   2.0589378      759.10522     -5.4679606      753.63726    
   3165000   311.80029      0.0036007403   1.9613359      773.58511     -4.3318313      769.25328    
   3166000   301.59467      0.0036007403   1.6761015      748.26468     -5.5217526      742.74293    
   3167000   295.7654       0.0036007403   1.9869432      733.8021      -4.3529715      729.44913    
   3168000   292.79492      0.0036007403   2.531919       726.43227     -6.6372877      719.79498    
   3169000   310.97851      0.0036007403   1.8214792      771.54625     -6.2531966      765.29305    
   3170000   301.71651      0.0036007403   1.8392508      748.56698     -6.6571383      741.90984    
   3171000   287.94014      0.0036007403   1.6998572      714.38742     -5.5035837      708.88384    
   3172000   296.56355      0.0036007403   2.1151734      735.78233     -5.8060701      729.97626    
   3173000   303.59614      0.0036007403   2.2390045      753.23038     -4.8775719      748.35281    
   3174000   317.88171      0.0036007403   1.6773717      788.67329     -6.737819       781.93547    
   3175000   305.5071       0.0036007403   1.7311716      757.97154     -4.7094099      753.26213    
   3176000   296.28578      0.0036007403   2.1360288      735.09319     -7.2898405      727.80335    
   3177000   296.2153       0.0036007403   2.1425137      734.91832     -6.535018       728.3833     
   3178000   303.63306      0.0036007403   2.0676413      753.322       -6.4953263      746.82667    
   3179000   307.02921      0.0036007403   1.9393243      761.74794     -7.3052417      754.4427     
   3180000   311.98176      0.0036007403   2.4691395      774.03535     -8.5333064      765.50204    
   3181000   290.69205      0.0036007403   1.6513723      721.215       -7.4381478      713.77685    
   3182000   299.64509      0.0036007403   1.9756269      743.42772     -6.8540398      736.57368    
   3183000   302.92183      0.0036007403   2.2528374      751.5574      -7.6026109      743.95479    
   3184000   314.54689      0.0036007403   1.6996273      780.39951     -7.2320761      773.16743    
   3185000   298.75474      0.0036007403   0.82122539     741.21875     -6.2099668      735.00878    
   3186000   283.24583      0.0036007403   1.8116554      702.74071     -6.538036       696.20268    
   3187000   304.0137       0.0036007403   2.6956496      754.26637     -8.5561468      745.71022    
   3188000   309.34735      0.0036007403   2.2880096      767.4993      -5.456183       762.04312    
   3189000   292.40488      0.0036007403   1.4756304      725.46458     -8.1855955      717.27898    
   3190000   290.43905      0.0036007403   1.7458438      720.58728     -7.4629691      713.12431    
   3191000   307.90302      0.0036007403   1.850592       763.91588     -8.609545       755.30634    
   3192000   299.22539      0.0036007403   3.3098135      742.38643     -8.5170193      733.86941    
   3193000   300.07783      0.0036007403   1.8246437      744.50138     -7.5048982      736.99648    
   3194000   300.40098      0.0036007403   2.3912412      745.30312     -7.5684084      737.73471    
   3195000   301.69717      0.0036007403   2.1409992      748.51899     -8.91318        739.60581    
   3196000   311.61846      0.0036007403   1.8734806      773.13398     -9.1874945      763.94649    
   3197000   291.00563      0.0036007403   1.8932584      721.99299     -6.4170262      715.57596    
   3198000   302.38663      0.0036007403   1.5338762      750.22955     -6.0733706      744.15618    
   3199000   307.26134      0.0036007403   2.0084378      762.32385     -7.2604785      755.06337    
   3200000   312.26598      0.0036007403   1.7975355      774.74049     -8.1162662      766.62423    
   3201000   283.22255      0.0036007403   2.1693052      702.68294     -8.5185375      694.16441    
   3202000   301.10226      0.0036007403   1.9403859      747.04301     -9.8689271      737.17408    
   3203000   314.90119      0.0036007403   2.0567034      781.27854     -6.9847477      774.29379    
   3204000   304.70139      0.0036007403   2.3564428      755.97254     -5.2060454      750.76649    
   3205000   289.42636      0.0036007403   1.8446378      718.07479     -6.235385       711.8394     
   3206000   307.04871      0.0036007403   2.4845745      761.79631     -5.657559       756.13875    
   3207000   309.83907      0.0036007403   2.136134       768.71928     -6.4646385      762.25464    
   3208000   300.32388      0.0036007403   1.8661891      745.11182     -6.9849485      738.12687    
   3209000   277.03702      0.0036007403   2.636983       687.33649     -6.1718489      681.16464    
   3210000   302.38155      0.0036007403   3.8808981      750.21696     -6.7570867      743.45988    
   3211000   312.12465      0.0036007403   1.3210376      774.38985     -5.9825971      768.40726    
   3212000   290.29287      0.0036007403   1.8354102      720.2246      -5.9934889      714.23111    
   3213000   290.9408       0.0036007403   3.1546123      721.83214     -6.4843708      715.34777    
   3214000   312.39756      0.0036007403   2.2774447      775.06696     -8.9256819      766.14128    
   3215000   303.44894      0.0036007403   0.302856       752.86519     -6.5909857      746.2742     
   3216000   294.12675      0.0036007403   1.1688457      729.73658     -5.0889217      724.64766    
   3217000   295.40892      0.0036007403   2.2329221      732.91767     -6.8423573      726.07532    
   3218000   300.01666      0.0036007403   4.1395236      744.34961     -7.2018692      737.14774    
   3219000   310.10261      0.0036007403   3.3427273      769.37312     -4.2130984      765.16002    
   3220000   328.41028      0.0036007403  -0.25254944     814.79496     -5.8323458      808.96261    
   3221000   305.73979      0.0036007403  -2.6076513      758.54885     -6.1998629      752.34898    
   3222000   293.04164      0.0036007403   0.97456976     727.0444      -7.2270789      719.81732    
   3223000   292.1813       0.0036007403   3.9438369      724.90987     -8.1816384      716.72823    
   3224000   315.07714      0.0036007403   2.0679935      781.71506     -7.3518744      774.36318    
   3225000   302.45355      0.0036007403   2.0468587      750.39559     -9.4040135      740.99158    
   3226000   293.32883      0.0036007403   2.0418567      727.75692     -6.7647094      720.99221    
   3227000   292.06567      0.0036007403   1.8215098      724.62297     -8.6438153      715.97915    
   3228000   302.90548      0.0036007403   2.1989588      751.51684     -10.994713      740.52213    
   3229000   298.80577      0.0036007403   2.0660149      741.34536     -13.499254      727.84611    
   3230000   305.63302      0.0036007403   2.6544588      758.28394     -8.6752838      749.60866    
   3231000   292.56717      0.0036007403   2.3834867      725.8672      -9.0798402      716.78736    
   3232000   301.68997      0.0036007403   1.6659792      748.50113     -5.9488389      742.55229    
   3233000   305.79194      0.0036007403   1.6653926      758.67822     -5.430159       753.24806    
   3234000   296.96966      0.0036007403   2.524595       736.78991     -7.2665228      729.52338    
   3235000   300.81076      0.0036007403   1.8721678      746.3198      -3.85114        742.46866    
   3236000   300.64654      0.0036007403   1.8695961      745.91235     -6.788792       739.12356    
   3237000   307.79651      0.0036007403   2.1609989      763.65162     -5.4005155      758.25111    
   3238000   299.88068      0.0036007403   1.8552326      744.01222     -6.6689286      737.3433     
   3239000   296.37137      0.0036007403   2.531488       735.30554     -8.1867122      727.11883    
   3240000   298.74054      0.0036007403   2.0453338      741.18352     -8.4961783      732.68734    
   3241000   294.084        0.0036007403   1.8560863      729.63051     -7.3092394      722.32127    
   3242000   302.33397      0.0036007403   1.9525518      750.09891     -7.2136573      742.88526    
   3243000   291.90347      0.0036007403   1.886234       724.22057     -8.1359526      716.08461    
   3244000   289.27739      0.0036007403   2.7158953      717.70519     -9.0490032      708.65619    
   3245000   308.39842      0.0036007403   2.1233584      765.14497     -8.1983         756.94667    
   3246000   304.56154      0.0036007403   0.51919776     755.62558     -5.6624192      749.96316    
   3247000   291.13321      0.0036007403   2.3784727      722.30952     -6.1223583      716.18716    
   3248000   288.81539      0.0036007403   4.3520567      716.55895     -4.503466       712.05548    
   3249000   310.31022      0.0036007403   4.8841938      769.88822     -5.7513163      764.13691    
   3250000   311.15501      0.0036007403   1.9552877      771.98415     -7.230935       764.75322    
   3251000   301.15117      0.0036007403   0.33171716     747.16436     -5.3951567      741.7692     
   3252000   291.36708      0.0036007403  -0.34518449     722.88976     -5.7886894      717.10107    
   3253000   294.57613      0.0036007403   1.1674611      730.85151     -7.9580693      722.89344    
   3254000   302.19862      0.0036007403   4.810967       749.76311     -5.7577934      744.00532    
   3255000   301.64951      0.0036007403  -0.30299993     748.40074     -4.4477254      743.95302    
   3256000   291.26956      0.0036007403   1.0237365      722.6478      -6.34039        716.30741    
   3257000   310.74049      0.0036007403   8.8678606      770.95572     -6.0464273      764.9093     
   3258000   302.65628      0.0036007403  -0.89289442     750.89857     -5.5300566      745.36852    
   3259000   296.95403      0.0036007403  -0.91261843     736.75113     -4.93288        731.81825    
   3260000   306.57259      0.0036007403   3.0796284      760.61504     -7.3873743      753.22767    
   3261000   307.88733      0.0036007403   2.6950184      763.87694     -7.5771481      756.2998     
   3262000   299.3493       0.0036007403  -0.55357674     742.69386     -7.6132768      735.08059    
   3263000   304.46912      0.0036007403   0.05405096     755.39628     -6.8624647      748.53381    
   3264000   298.28641      0.0036007403  -0.093251054    740.0568      -9.9795412      730.07725    
   3265000   289.39034      0.0036007403   9.0629995      717.98542     -7.5794546      710.40596    
   3266000   306.61573      0.0036007403   1.42102        760.72209     -10.237831      750.48426    
   3267000   305.13945      0.0036007403  -1.720494       757.05938     -9.0069726      748.05241    
   3268000   296.74569      0.0036007403   2.8488015      736.23424     -7.3772714      728.85697    
   3269000   304.04783      0.0036007403   7.110823       754.35105     -8.837563       745.51349    
   3270000   302.19934      0.0036007403  -0.51197023     749.76488     -8.1694138      741.59547    
   3271000   298.02074      0.0036007403  -1.1071476      739.39768     -9.9830008      729.41468    
   3272000   298.6031       0.0036007403   5.5392751      740.84251     -7.0538089      733.7887     
   3273000   321.0542       0.0036007403   3.582365       796.54432     -7.9786451      788.56568    
   3274000   291.23691      0.0036007403  -2.4079475      722.56681     -7.9205108      714.6463     
   3275000   304.03469      0.0036007403   0.18251438     754.31846     -5.6119153      748.70654    
   3276000   303.18735      0.0036007403   5.2551172      752.21618     -6.0491148      746.16706    
   3277000   300.43608      0.0036007403   7.4414703      745.3902      -8.5143717      736.87583    
   3278000   295.83081      0.0036007403  -1.3587296      733.96438     -9.301298       724.66309    
   3279000   292.06421      0.0036007403   3.6051128      724.61935     -7.6077914      717.01156    
   3280000   302.72058      0.0036007403   3.060792       751.0581      -9.342388       741.71571    
   3281000   309.25235      0.0036007403   2.3438531      767.26362     -8.2932369      758.97038    
   3282000   302.95198      0.0036007403   0.54544674     751.6322      -10.161583      741.47062    
   3283000   285.65725      0.0036007403   2.221235       708.7235      -7.8818746      700.84163    
   3284000   305.28354      0.0036007403   5.1919158      757.41688     -7.1102441      750.30664    
   3285000   307.47653      0.0036007403   2.6989921      762.85775     -4.875921       757.98183    
   3286000   302.52876      0.0036007403  -2.8098775      750.5822      -7.5377978      743.0444     
   3287000   291.17564      0.0036007403   1.7468796      722.41479     -7.5828321      714.83196    
   3288000   307.98802      0.0036007403   3.2393473      764.12676     -7.268848       756.85792    
   3289000   311.0894       0.0036007403   0.49418106     771.82138     -7.0551029      764.76627    
   3290000   296.44386      0.0036007403   1.3252007      735.48539     -6.7334766      728.75191    
   3291000   288.95506      0.0036007403   3.3779471      716.90546     -11.397781      705.50768    
   3292000   298.04314      0.0036007403   1.7500331      739.45324     -10.499584      728.95365    
   3293000   300.61403      0.0036007403   2.7878907      745.83171     -8.5012066      737.3305     
   3294000   302.39852      0.0036007403   0.49503506     750.25906     -9.0295978      741.22946    
   3295000   290.37843      0.0036007403   1.6162288      720.43689     -9.3084803      711.12841    
   3296000   303.36132      0.0036007403   2.352805       752.64779     -7.3701478      745.27764    
   3297000   310.4139       0.0036007403   1.2321847      770.14545     -10.711299      759.43415    
   3298000   285.16352      0.0036007403   1.552535       707.49855     -9.530433       697.96812    
   3299000   305.13939      0.0036007403   3.7263645      757.05924     -9.6035452      747.4557     
   3300000   304.59701      0.0036007403   1.8692691      755.71358     -10.060965      745.65261    
   3301000   283.62499      0.0036007403   0.88417566     703.68143     -10.050818      693.63061    
   3302000   283.9889       0.0036007403   0.47949775     704.58429     -9.2396024      695.34469    
   3303000   297.08937      0.0036007403   2.7660375      737.08692     -8.7723385      728.31458    
   3304000   307.16836      0.0036007403   2.7101978      762.09316     -6.830923       755.26224    
   3305000   296.5941       0.0036007403   1.0252701      735.85813     -6.3912389      729.46689    
   3306000   295.19328      0.0036007403   1.9623026      732.38266     -5.0560919      727.32656    
   3307000   304.47887      0.0036007403   2.3404808      755.42046     -5.2991252      750.12134    
   3308000   308.27364      0.0036007403   3.7988555      764.8354      -4.0572338      760.77817    
   3309000   301.92518      0.0036007403   1.8991785      749.08469     -4.1862762      744.89842    
   3310000   291.39628      0.0036007403   0.96248557     722.9622      -6.093123       716.86907    
   3311000   305.27323      0.0036007403   3.1499266      757.3913      -7.0461053      750.34519    
   3312000   312.8283       0.0036007403   1.8676452      776.13562     -6.2731855      769.86244    
   3313000   293.23394      0.0036007403   0.97797624     727.5215      -5.6628042      721.8587     
   3314000   298.31421      0.0036007403   3.5380424      740.12579     -4.5317832      735.594      
   3315000   299.06824      0.0036007403   3.8596144      741.99654     -4.046821       737.94972    
   3316000   295.51078      0.0036007403   2.2287635      733.17038     -2.491696       730.67868    
   3317000   295.97028      0.0036007403   1.083643       734.31042     -3.3303106      730.98011    
   3318000   295.82965      0.0036007403   2.1174163      733.96151     -4.0772189      729.88429    
   3319000   312.27638      0.0036007403   2.9497298      774.7663      -5.4105474      769.35575    
   3320000   303.21017      0.0036007403   1.983925       752.2728      -4.1812516      748.09155    
   3321000   291.73547      0.0036007403   1.7912246      723.80374     -4.8869356      718.91681    
   3322000   295.87163      0.0036007403   1.7345657      734.06566     -3.4343625      730.6313     
   3323000   310.63032      0.0036007403   2.2070484      770.68238     -6.9186808      763.7637     
   3324000   286.37179      0.0036007403   2.311527       710.4963      -7.9166133      702.57969    
   3325000   299.82282      0.0036007403   1.6639231      743.86869     -6.1414767      737.72721    
   3326000   293.4687       0.0036007403   1.8489112      728.10393     -6.4311898      721.67274    
   3327000   300.04222      0.0036007403   1.986953       744.41302     -9.3547798      735.05824    
   3328000   307.05655      0.0036007403   2.2680371      761.81576     -9.7481831      752.06758    
   3329000   299.08206      0.0036007403   1.7191558      742.03083     -9.4776744      732.55316    
   3330000   282.63666      0.0036007403   1.8758736      701.22935     -7.4527836      693.77656    
   3331000   300.46094      0.0036007403   2.3027505      745.45187     -7.6180469      737.83382    
   3332000   312.37036      0.0036007403   1.6857018      774.99947     -8.4065892      766.59288    
   3333000   288.30606      0.0036007403   2.0041069      715.29528     -8.2289818      707.0663     
   3334000   294.99901      0.0036007403   3.5352558      731.90068     -10.063498      721.83718    
   3335000   300.48621      0.0036007403   1.8892513      745.51456     -10.464659      735.0499     
   3336000   290.43861      0.0036007403   1.2371747      720.58619     -8.7081788      711.87801    
   3337000   303.60531      0.0036007403   2.2056452      753.25313     -7.5250014      745.72813    
   3338000   303.25064      0.0036007403   2.5163949      752.37319     -6.6426225      745.73056    
   3339000   301.55057      0.0036007403   0.99565889     748.15528     -5.0871194      743.06816    
   3340000   292.30536      0.0036007403   1.8811697      725.21765     -6.815858       718.4018     
   3341000   298.79633      0.0036007403   1.4690241      741.32193     -6.0904944      735.23143    
   3342000   310.95384      0.0036007403   2.0109397      771.48506     -5.884287       765.60077    
   3343000   297.60273      0.0036007403   2.330955       738.36058     -5.837564       732.52301    
   3344000   292.26678      0.0036007403   2.1772865      725.12194     -5.309436       719.8125     
   3345000   284.8759       0.0036007403   1.9717529      706.78496     -4.9729706      701.81199    
   3346000   304.72677      0.0036007403   1.0790222      756.03553     -5.8850035      750.15052    
   3347000   315.96495      0.0036007403   2.2498525      783.91775     -5.2620973      778.65565    
   3348000   289.2089       0.0036007403   2.8958255      717.53525     -7.0345518      710.5007     
   3349000   289.19827      0.0036007403   1.7188514      717.50888     -7.099524       710.40936    
   3350000   302.10912      0.0036007403   1.8592004      749.54106     -6.2036283      743.33743    
   3351000   309.02212      0.0036007403   1.8373053      766.6924      -5.8750908      760.81731    
   3352000   296.11025      0.0036007403   2.9804324      734.65769     -3.6744318      730.98326    
   3353000   292.381        0.0036007403   2.2703582      725.40532     -8.3460143      717.05931    
   3354000   279.57481      0.0036007403   2.0110092      693.6328      -8.0220055      685.6108     
   3355000   305.5884       0.0036007403   1.8153044      758.17326     -7.5216259      750.65163    
   3356000   307.8191       0.0036007403   2.1329922      763.70767     -5.5014905      758.20618    
   3357000   297.84032      0.0036007403   3.0108109      738.95004     -5.5758267      733.37421    
   3358000   289.04641      0.0036007403   1.375064       717.13212     -5.5882941      711.54383    
   3359000   318.84323      0.0036007403   1.9088537      791.05884     -5.4416684      785.61717    
   3360000   309.1384       0.0036007403   2.4054738      766.98089     -6.8516863      760.12921    
   3361000   290.27678      0.0036007403   1.7826183      720.1847      -6.0669014      714.1178     
   3362000   294.66065      0.0036007403   0.45739199     731.06119     -6.0362089      725.02498    
   3363000   310.42999      0.0036007403   2.1069073      770.18536     -4.9347389      765.25062    
   3364000   300.40036      0.0036007403   2.1826203      745.30156     -5.3638532      739.93771    
   3365000   284.55948      0.0036007403   1.716555       705.99991     -5.3424405      700.65746    
   3366000   300.6787       0.0036007403   0.38659564     745.99215     -5.5101683      740.48198    
   3367000   310.92313      0.0036007403   1.9602073      771.40886     -6.1690792      765.23978    
   3368000   291.40712      0.0036007403   2.9608061      722.98909     -8.315417       714.67368    
   3369000   281.96407      0.0036007403   1.433151       699.56064     -8.4730413      691.0876     
   3370000   297.01648      0.0036007403  -0.31356656     736.90608     -8.2897609      728.61632    
   3371000   318.01621      0.0036007403   3.3187609      789.00699     -6.3708668      782.63612    
   3372000   287.1981       0.0036007403   1.4665173      712.5464      -6.5190272      706.02737    
   3373000   299.00613      0.0036007403  -0.5254936      741.84245     -4.1430758      737.69937    
   3374000   306.38567      0.0036007403   1.7337048      760.15129     -5.2770779      754.87421    
   3375000   302.57621      0.0036007403   2.7954688      750.69991     -5.1648921      745.53502    
   3376000   288.47689      0.0036007403   1.8942933      715.71912     -6.7540848      708.96504    
   3377000   299.36529      0.0036007403   1.4229995      742.73354     -6.1229779      736.61056    
   3378000   298.9248       0.0036007403   2.2070052      741.64067     -6.8817746      734.7589     
   3379000   307.26892      0.0036007403   4.6430824      762.34266     -5.9038411      756.43882    
   3380000   298.63526      0.0036007403   1.1527906      740.92231     -4.0784138      736.8439     
   3381000   308.35198      0.0036007403   0.69834708     765.02976     -6.8403572      758.18941    
   3382000   301.89172      0.0036007403   3.1778215      749.00169     -7.1813116      741.82038    
   3383000   293.2294       0.0036007403  -0.79297966     727.51023     -6.6663318      720.8439     
   3384000   289.66243      0.0036007403  -1.3400454      718.66048     -6.5726317      712.08785    
   3385000   304.55568      0.0036007403   2.3098987      755.61103     -5.0396307      750.57139    
   3386000   294.59974      0.0036007403   3.6415442      730.91007     -6.7930676      724.117      
   3387000   300.13284      0.0036007403   1.3898735      744.63786     -5.6898698      738.94799    
   3388000   311.9294       0.0036007403   2.0203022      773.90543     -6.8232288      767.0822     
   3389000   300.37172      0.0036007403   3.4812621      745.23052     -5.3836422      739.84688    
   3390000   297.812        0.0036007403   2.6510227      738.87977     -4.3656027      734.51417    
   3391000   299.93041      0.0036007403   1.9959503      744.13562     -4.8809717      739.25465    
   3392000   298.55502      0.0036007403   1.8830851      740.72324     -7.6197449      733.10349    
   3393000   302.58335      0.0036007403   1.3462162      750.71763     -5.6451745      745.07246    
   3394000   313.86204      0.0036007403   2.1052473      778.70036     -5.8483731      772.85199    
   3395000   296.07861      0.0036007403   2.40903        734.57918     -4.6815191      729.89766    
   3396000   298.7607       0.0036007403   2.3419898      741.23353     -6.4282103      734.80532    
   3397000   304.04106      0.0036007403   1.9695204      754.33425     -5.2092789      749.12497    
   3398000   313.82976      0.0036007403   0.3886726      778.62029     -5.1516351      773.46865    
   3399000   315.21349      0.0036007403   1.4034035      782.05336     -5.2092235      776.84413    
   3400000   296.68204      0.0036007403   2.6850204      736.07631     -4.3691165      731.7072     
   3401000   295.7025       0.0036007403   0.51462132     733.64605     -5.6694126      727.97663    
   3402000   315.66925      0.0036007403   0.24516366     783.18411     -4.5466382      778.63747    
   3403000   297.63044      0.0036007403   2.6099131      738.42933     -4.4510662      733.97826    
   3404000   301.70822      0.0036007403   2.4670869      748.5464      -4.6261224      743.92028    
   3405000   292.26494      0.0036007403   2.2457542      725.11737     -4.8480023      720.26937    
   3406000   294.26021      0.0036007403   1.4127192      730.0677      -7.3577135      722.70998    
   3407000   303.77495      0.0036007403   1.8451028      753.67402     -8.7705482      744.90347    
   3408000   310.96133      0.0036007403   2.3205372      771.50363     -9.3302531      762.17338    
   3409000   297.86398      0.0036007403   4.5698979      739.00874     -11.108913      727.89982    
   3410000   287.06355      0.0036007403   0.7293183      712.21257     -11.566125      700.64645    
   3411000   307.68428      0.0036007403   3.2553581      763.37317     -9.926748       753.44642    
   3412000   318.89757      0.0036007403   2.4271388      791.19366     -9.2681566      781.92551    
   3413000   298.82851      0.0036007403   3.0247314      741.40176     -11.138387      730.26338    
   3414000   290.20275      0.0036007403   1.8685476      720.00102     -8.766951       711.23407    
   3415000   304.8076       0.0036007403  -0.036901076    756.23605     -9.7477951      746.48825    
   3416000   306.77073      0.0036007403   1.4887731      761.10663     -7.1329812      753.97365    
   3417000   303.46263      0.0036007403   4.3232368      752.89916     -8.3103386      744.58882    
   3418000   289.73929      0.0036007403   3.0586803      718.85117     -6.9286016      711.92257    
   3419000   315.41955      0.0036007403  -1.4270133      782.5646      -4.8986648      777.66593    
   3420000   309.69263      0.0036007403   4.3711547      768.35596     -5.5791273      762.77683    
   3421000   290.98865      0.0036007403   2.4096423      721.95086     -6.8604779      715.09039    
   3422000   296.12487      0.0036007403   0.82272204     734.69396     -6.3755526      728.3184     
   3423000   314.92172      0.0036007403   2.2556954      781.32946     -7.9467506      773.38271    
   3424000   296.82859      0.0036007403   4.1693573      736.43992     -6.0723298      730.36759    
   3425000   283.8831       0.0036007403   1.8393715      704.32179     -5.4640227      698.85777    
   3426000   303.70121      0.0036007403   1.7803247      753.49108     -6.5858415      746.90524    
   3427000   313.90377      0.0036007403   2.1933088      778.8039      -6.7849267      772.01897    
   3428000   301.78469      0.0036007403   2.0049212      748.73614     -4.0042265      744.73191    
   3429000   301.36689      0.0036007403   1.8500144      747.69957     -4.5081862      743.19139    
   3430000   294.69695      0.0036007403   2.0153506      731.15126     -5.1405387      726.01072    
   3431000   308.22132      0.0036007403   2.0968671      764.70558     -7.6312401      757.07434    
   3432000   283.83075      0.0036007403   1.40785        704.19191     -5.4448272      698.74709    
   3433000   300.92395      0.0036007403   2.1216131      746.60062     -4.998646       741.60198    
   3434000   309.02728      0.0036007403   2.9772106      766.7052      -5.2708088      761.43439    
   3435000   302.54525      0.0036007403   1.9085645      750.6231      -4.5481616      746.07493    
   3436000   297.21602      0.0036007403   1.86477        737.40113     -6.1987118      731.20242    
   3437000   289.84999      0.0036007403   3.54162        719.12582     -6.3808303      712.74499    
   3438000   297.68561      0.0036007403   2.9579254      738.5662      -3.503756       735.06244    
   3439000   310.44271      0.0036007403   1.4030166      770.21693     -2.3721172      767.84481    
   3440000   314.44074      0.0036007403   0.52882127     780.13614     -5.4160775      774.72007    
   3441000   280.94591      0.0036007403   1.5898362      697.03455     -6.3674145      690.66714    
   3442000   305.71173      0.0036007403   2.408597       758.47922     -7.0078365      751.47138    
   3443000   312.12288      0.0036007403   1.5349009      774.38546     -5.5203225      768.86514    
   3444000   299.63888      0.0036007403   1.3197785      743.41232     -4.8544919      738.55782    
   3445000   286.92494      0.0036007403   3.167259       711.86868     -4.3472553      707.52142    
   3446000   305.73306      0.0036007403   2.2764379      758.53215     -4.5575644      753.97458    
   3447000   312.13145      0.0036007403   2.3297406      774.40673     -4.3425554      770.06417    
   3448000   303.70937      0.0036007403   0.79745806     753.51131     -1.4839896      752.02732    
   3449000   296.73019      0.0036007403   1.2986717      736.19577     -5.854091       730.34168    
   3450000   286.58967      0.0036007403   3.3825301      711.03688     -5.7914736      705.24541    
   3451000   299.64158      0.0036007403   5.0110158      743.41902     -7.8352563      735.58377    
   3452000   311.66915      0.0036007403   1.3343231      773.25974     -5.3801436      767.8796     
   3453000   294.19676      0.0036007403  -0.7876765      729.91027     -5.5265438      724.38373    
   3454000   295.73166      0.0036007403   2.258919       733.7184      -4.7203528      728.99805    
   3455000   301.65914      0.0036007403   2.2604153      748.42464     -5.9008175      742.52382    
   3456000   311.51516      0.0036007403   1.7434537      772.87771     -5.796218       767.08149    
   3457000   297.20176      0.0036007403   1.346827       737.36577     -7.0930438      730.27273    
   3458000   296.05305      0.0036007403   1.8740193      734.51578     -5.0645014      729.45128    
   3459000   326.75084      0.0036007403   2.1683583      810.67785     -7.6685465      803.0093     
   3460000   302.4544       0.0036007403   2.2051207      750.39769     -8.5445629      741.85313    
   3461000   289.67425      0.0036007403   2.0411742      718.68979     -8.0631256      710.62667    
   3462000   300.13879      0.0036007403   2.038234       744.65262     -10.735825      733.91679    
   3463000   306.48238      0.0036007403   2.0492552      760.39122     -11.343029      749.0482     
   3464000   297.75524      0.0036007403   1.6502029      738.73896     -10.07442       728.66454    
   3465000   300.04679      0.0036007403   1.9252678      744.42434     -9.4538918      734.97045    
   3466000   296.03503      0.0036007403   2.1055892      734.47108     -7.120885       727.35019    
   3467000   297.18864      0.0036007403   3.6507813      737.33321     -10.032866      727.30035    
   3468000   298.24497      0.0036007403   2.6099039      739.95398     -10.755614      729.19837    
   3469000   322.32833      0.0036007403   0.19234594     799.70546     -9.4408583      790.26461    
   3470000   300.69067      0.0036007403   1.7020535      746.02185     -9.2591108      736.76274    
   3471000   281.95393      0.0036007403   1.155479       699.53546     -6.2448245      693.29064    
   3472000   291.65686      0.0036007403   2.7375982      723.60872     -6.1388219      717.4699     
   3473000   317.41636      0.0036007403   0.78113313     787.51874     -5.2809717      782.23777    
   3474000   292.81604      0.0036007403   1.5783217      726.48468     -4.3024539      722.18222    
   3475000   293.21444      0.0036007403   2.1223009      727.4731      -6.3678085      721.10529    
   3476000   305.22744      0.0036007403   2.4192011      757.27769     -4.9706889      752.307      
   3477000   318.20696      0.0036007403   0.74708852     789.48023     -5.3634729      784.11676    
   3478000   286.21434      0.0036007403   1.8904255      710.10566     -6.5818714      703.52378    
   3479000   295.10194      0.0036007403   3.3928976      732.15606     -6.9061793      725.24988    
   3480000   301.44055      0.0036007403   4.3396572      747.88233     -3.4107256      744.4716     
   3481000   314.51119      0.0036007403   1.9623697      780.31093     -6.9262739      773.38465    
   3482000   292.44154      0.0036007403   0.048922958    725.55552     -6.9996063      718.55592    
   3483000   290.36884      0.0036007403   5.6202056      720.41309     -4.7155557      715.69753    
   3484000   311.43721      0.0036007403   2.6951494      772.6843      -5.9689611      766.71534    
   3485000   299.77498      0.0036007403   0.10754979     743.74998     -7.045206       736.70478    
   3486000   286.61615      0.0036007403   3.387654       711.10258     -7.3643055      703.73827    
   3487000   300.79319      0.0036007403   2.2724784      746.2762      -6.2698734      740.00632    
   3488000   309.06327      0.0036007403   1.358904       766.79449     -6.527371       760.26712    
   3489000   297.00581      0.0036007403   0.8390324      736.87961     -5.4093311      731.47028    
   3490000   294.85972      0.0036007403   2.6013256      731.5551      -6.970634       724.58446    
   3491000   303.09482      0.0036007403   1.8305488      751.98661     -9.6465882      742.34002    
   3492000   311.94982      0.0036007403   1.6277351      773.95611     -7.3715214      766.58459    
   3493000   300.73566      0.0036007403   1.3733162      746.13347     -4.657086       741.47639    
   3494000   284.0701       0.0036007403   3.1756148      704.78576     -5.2213791      699.56438    
   3495000   288.43916      0.0036007403   2.1760721      715.6255      -4.8190214      710.80648    
   3496000   303.11175      0.0036007403   4.0115376      752.02861     -5.454861       746.57375    
   3497000   308.70735      0.0036007403   0.59124131     765.91143     -7.4777335      758.4337     
   3498000   307.13015      0.0036007403   1.4006396      761.99836     -5.6805189      756.31784    
   3499000   287.72586      0.0036007403   3.2574448      713.85578     -5.0107446      708.84504    
   3500000   299.98325      0.0036007403   2.9153686      744.26672     -7.2679437      736.99878    
   3501000   304.95392      0.0036007403   1.7086773      756.59909     -6.4382303      750.16086    
   3502000   290.44564      0.0036007403   1.5570994      720.60365     -6.4917474      714.1119     
   3503000   285.85459      0.0036007403   2.0560382      709.21311     -6.12349        703.08962    
   3504000   304.90095      0.0036007403   2.5691268      756.46767     -7.8980909      748.56958    
   3505000   307.50253      0.0036007403   1.4346483      762.92225     -6.6257332      756.29652    
   3506000   302.22408      0.0036007403   0.88941397     749.82628     -5.067484       744.7588     
   3507000   299.07906      0.0036007403   1.9870315      742.0234      -7.2430506      734.78035    
   3508000   297.57793      0.0036007403   2.93486        738.29904     -8.9926338      729.30641    
   3509000   299.46511      0.0036007403   1.9026684      742.9812      -7.7373326      735.24387    
   3510000   303.71223      0.0036007403   2.1480822      753.51842     -5.7786883      747.73973    
   3511000   297.24155      0.0036007403   2.3058699      737.46448     -5.3513325      732.11315    
   3512000   299.88901      0.0036007403   1.2634078      744.03291     -6.3666703      737.66624    
   3513000   307.31957      0.0036007403   2.5527115      762.46832     -6.0851025      756.38322    
   3514000   301.84296      0.0036007403   2.1841501      748.8807      -5.8274558      743.05324    
   3515000   297.63809      0.0036007403   0.86030097     738.44829     -6.4576071      731.99069    
   3516000   299.69648      0.0036007403   1.8865751      743.55523     -4.9414081      738.61382    
   3517000   308.18539      0.0036007403   2.2036282      764.61644     -6.3008867      758.31555    
   3518000   308.82583      0.0036007403   1.9891614      766.2054      -6.7483782      759.45702    
   3519000   289.77311      0.0036007403   2.1535575      718.93507     -4.2260704      714.709      
   3520000   313.42088      0.0036007403   2.6795986      777.60583     -8.3042353      769.3016     
   3521000   311.73945      0.0036007403   1.7287994      773.43416     -7.7732039      765.66096    
   3522000   291.76335      0.0036007403   1.9226311      723.87291     -7.6349258      716.23799    
   3523000   299.09917      0.0036007403   2.905397       742.07328     -5.5934547      736.47983    
   3524000   313.53193      0.0036007403   1.0492324      777.88136     -6.5849275      771.29644    
   3525000   288.31834      0.0036007403   1.7089551      715.32575     -6.9350238      708.39073    
   3526000   290.71893      0.0036007403   2.8247571      721.28167     -8.6882464      712.59342    
   3527000   311.50574      0.0036007403   2.0731244      772.85432     -8.7501204      764.1042     
   3528000   306.13303      0.0036007403   2.0281811      759.52448     -8.8109221      750.71356    
   3529000   297.09965      0.0036007403   2.0451151      737.11243     -10.204556      726.90787    
   3530000   292.95037      0.0036007403   2.0027095      726.81795     -9.6336976      717.18425    
   3531000   317.05879      0.0036007403   1.7429692      786.63159     -8.0214719      778.61012    
   3532000   307.18371      0.0036007403   2.5268649      762.13124     -6.4452035      755.68604    
   3533000   296.98306      0.0036007403   2.5718575      736.82317     -7.6911315      729.13204    
   3534000   307.88217      0.0036007403   1.8229709      763.86415     -5.8684966      757.99566    
   3535000   320.40828      0.0036007403   2.7317871      794.94176     -6.794813       788.14695    
   3536000   290.81388      0.0036007403   4.0919686      721.51724     -6.8102109      714.70703    
   3537000   293.08531      0.0036007403   1.9539854      727.15273     -6.902774       720.24995    
   3538000   300.46029      0.0036007403   1.5353945      745.45026     -7.802656       737.64761    
   3539000   302.3651       0.0036007403   2.7385203      750.17614     -8.1928333      741.98331    
   3540000   297.49764      0.0036007403   3.2386892      738.09984     -7.5823576      730.51748    
   3541000   285.72442      0.0036007403   1.3415667      708.89017     -6.651784       702.23839    
   3542000   311.26428      0.0036007403   1.4622676      772.25525     -8.3687502      763.8865     
   3543000   306.97697      0.0036007403   4.41622        761.61832     -4.7428325      756.87549    
   3544000   285.69544      0.0036007403   2.7943045      708.81827     -4.495612       704.32265    
   3545000   299.05103      0.0036007403   0.72881475     741.95385     -5.1750061      736.77884    
   3546000   306.50518      0.0036007403   2.4846732      760.4478      -5.8145392      754.63326    
   3547000   288.13755      0.0036007403   3.1429885      714.87721     -4.4096066      710.4676     
   3548000   287.34759      0.0036007403   1.1568575      712.91729     -6.0085625      706.90873    
   3549000   300.48431      0.0036007403   0.060504327    745.50987     -5.6171305      739.89273    
   3550000   324.63546      0.0036007403   0.59390975     805.42953     -6.1852702      799.24426    
   3551000   305.72982      0.0036007403   2.8768513      758.52411     -5.6252201      752.89889    
   3552000   289.33898      0.0036007403   2.8540061      717.85799     -3.2730544      714.58494    
   3553000   290.49342      0.0036007403  -2.7290093      720.72218     -6.4394267      714.28275    
   3554000   305.4501       0.0036007403   2.242635       757.83011     -5.0359574      752.79416    
   3555000   298.318        0.0036007403   3.8103801      740.13518     -4.6850314      735.45015    
   3556000   284.43661      0.0036007403   2.4725006      705.69506     -4.6676442      701.02742    
   3557000   290.66575      0.0036007403   1.0049308      721.14973     -3.065533       718.0842     
   3558000   308.32675      0.0036007403   1.5457917      764.96716     -2.4660847      762.50108    
   3559000   298.99906      0.0036007403   3.7910895      741.8249      -4.6199912      737.20491    
   3560000   300.20613      0.0036007403   3.5876554      744.81969     -5.051111       739.76858    
   3561000   291.24118      0.0036007403   2.7577931      722.57739     -5.3057317      717.27166    
   3562000   303.66488      0.0036007403   1.2542454      753.40093     -4.1580598      749.24287    
   3563000   306.42058      0.0036007403   0.95418707     760.23791     -3.106909       757.131      
   3564000   301.43182      0.0036007403   5.3640278      747.86065     -4.1069971      743.75365    
   3565000   304.83313      0.0036007403  -0.19571362     756.29941     -2.2670037      754.03241    
   3566000   302.46975      0.0036007403   0.67006869     750.4358      -4.0501424      746.38565    
   3567000   297.64955      0.0036007403   3.3127517      738.47674     -2.2696679      736.20707    
   3568000   300.18919      0.0036007403   2.1416382      744.77766     -3.8803292      740.89733    
   3569000   300.79308      0.0036007403   1.1868833      746.27594     -3.5212803      742.75465    
   3570000   303.94927      0.0036007403   2.9897176      754.10651     -2.6863788      751.42013    
   3571000   296.54586      0.0036007403   6.5993911      735.73846     -4.0640004      731.67445    
   3572000   295.67112      0.0036007403   0.71734964     733.56821     -4.1720442      729.39616    
   3573000   294.05308      0.0036007403   1.3161532      729.55379     -5.8946778      723.65912    
   3574000   293.70394      0.0036007403   1.9316946      728.68758     -5.9469154      722.74066    
   3575000   302.05582      0.0036007403   4.0942167      749.40881     -6.7822891      742.62652    
   3576000   314.21761      0.0036007403   6.0950228      779.58256     -6.769867       772.8127     
   3577000   295.65957      0.0036007403   1.3865534      733.53954     -7.8085875      725.73095    
   3578000   291.19803      0.0036007403   0.16225718     722.47033     -3.5190185      718.95131    
   3579000   303.68302      0.0036007403   0.578405       753.44595     -4.6921197      748.75383    
   3580000   317.01705      0.0036007403   1.8848208      786.52804     -4.907116       781.62092    
   3581000   302.62919      0.0036007403   2.4696127      750.83137     -4.331029       746.50034    
   3582000   289.03857      0.0036007403   1.8303913      717.11265     -3.2085393      713.90411    
   3583000   309.35557      0.0036007403   0.35283597     767.51969     -6.0839843      761.43571    
   3584000   315.22949      0.0036007403   2.7848845      782.09304     -2.7314526      779.36159    
   3585000   294.65908      0.0036007403   5.3943795      731.0573      -4.5768626      726.48043    
   3586000   289.85446      0.0036007403   1.5495066      719.1369      -4.6132609      714.52364    
   3587000   305.06154      0.0036007403   0.73324835     756.86608     -5.6789626      751.18712    
   3588000   307.96752      0.0036007403   7.2224812      764.07591     -7.1055794      756.97033    
   3589000   295.32149      0.0036007403   2.5056637      732.70075     -6.4353692      726.26538    
   3590000   302.92264      0.0036007403   0.44914427     751.55941     -6.4696908      745.08972    
   3591000   302.58361      0.0036007403   4.189472       750.71828     -7.4029819      743.3153     
   3592000   294.72459      0.0036007403   3.0604912      731.21982     -6.8698346      724.34999    
   3593000   301.26434      0.0036007403  -2.1623353      747.44514     -7.7492293      739.69591    
   3594000   308.93241      0.0036007403  -3.1547007      766.46982     -9.5579261      756.9119     
   3595000   309.57599      0.0036007403   1.5602082      768.06657     -6.6925772      761.37399    
   3596000   304.47202      0.0036007403   8.051796       755.40346     -7.2685682      748.1349     
   3597000   297.1575       0.0036007403   0.032859042    737.25595     -7.5309644      729.72499    
   3598000   302.54815      0.0036007403   2.1016736      750.63029     -6.0650058      744.56529    
   3599000   293.56228      0.0036007403   4.5804184      728.33611     -6.0175823      722.31853    
   3600000   299.04154      0.0036007403   2.0307775      741.93031     -4.2996243      737.63069    
   3601000   298.90361      0.0036007403   0.78281166     741.58809     -5.3472243      736.24086    
   3602000   300.62139      0.0036007403   1.6081517      745.84995     -3.4925531      742.35739    
   3603000   313.73492      0.0036007403   1.4802271      778.38498     -5.4833081      772.90168    
   3604000   305.40029      0.0036007403   3.2997717      757.70653     -4.2494656      753.45707    
   3605000   294.8963       0.0036007403   2.8073258      731.64584     -4.4446163      727.20123    
   3606000   295.7374       0.0036007403   1.8499557      733.73265     -4.2497302      729.48292    
   3607000   304.75909      0.0036007403   1.7986595      756.11571     -5.0830148      751.03269    
   3608000   301.87497      0.0036007403   1.7004823      748.96013     -5.6805318      743.27959    
   3609000   299.15873      0.0036007403   2.2268227      742.22105     -5.0734104      737.14764    
   3610000   295.62577      0.0036007403   2.3157835      733.45568     -3.4618883      729.99379    
   3611000   303.61455      0.0036007403   1.7863164      753.27607     -4.6382355      748.63783    
   3612000   311.99799      0.0036007403   1.1177989      774.07561     -3.1678716      770.90774    
   3613000   302.49663      0.0036007403   2.7461913      750.50249     -4.8918062      745.61068    
   3614000   300.40038      0.0036007403   3.5742265      745.30162     -7.7884851      737.51313    
   3615000   292.49657      0.0036007403   0.80786641     725.69205     -5.7066217      719.98543    
   3616000   312.19637      0.0036007403  -2.3341526      774.5678      -4.5287586      770.03904    
   3617000   302.79796      0.0036007403   2.8094216      751.25009     -4.9859024      746.26419    
   3618000   294.51115      0.0036007403   2.1181706      730.69028     -5.3881744      725.3021     
   3619000   299.98814      0.0036007403   0.69877502     744.27885     -6.8119278      737.46693    
   3620000   316.05275      0.0036007403   1.9347907      784.13559     -6.8687256      777.26687    
   3621000   297.90319      0.0036007403   3.0021619      739.10603     -8.2710691      730.83496    
   3622000   290.46241      0.0036007403   1.0964093      720.64526     -7.6227371      713.02252    
   3623000   298.13327      0.0036007403   1.0022152      739.67687     -6.9002039      732.77667    
   3624000   306.69874      0.0036007403   1.8802979      760.92804     -4.3317731      756.59626    
   3625000   305.21228      0.0036007403   2.3315489      757.24008     -8.7942833      748.44579    
   3626000   294.63936      0.0036007403   2.0289175      731.00838     -5.0087313      725.99965    
   3627000   307.09987      0.0036007403   0.85587475     761.92325     -4.8106575      757.11259    
   3628000   305.03261      0.0036007403   2.5241553      756.79433     -4.1714256      752.6229     
   3629000   279.45299      0.0036007403   2.4695792      693.33056     -3.923813       689.40675    
   3630000   302.41862      0.0036007403   1.390077       750.30893     -7.0540162      743.25492    
   3631000   310.73074      0.0036007403   2.3607237      770.93152     -5.4226403      765.50888    
   3632000   289.59512      0.0036007403   4.71409        718.49347     -5.4665964      713.02687    
   3633000   292.92771      0.0036007403   2.3946246      726.76172     -6.1814347      720.58028    
   3634000   300.8473       0.0036007403   0.42473113     746.41044     -4.1327268      742.27771    
   3635000   318.43409      0.0036007403   2.3885597      790.04375     -5.2765765      784.76718    
   3636000   293.83651      0.0036007403   2.434301       729.01647     -6.4240002      722.59247    
   3637000   293.54852      0.0036007403   1.9108008      728.30198     -6.1613618      722.14062    
   3638000   321.6262       0.0036007403   1.8363974      797.96346     -5.7912615      792.1722     
   3639000   304.73996      0.0036007403   3.0853713      756.06823     -6.6241294      749.4441     
   3640000   292.25857      0.0036007403   1.8897189      725.10156     -6.0548153      719.04674    
   3641000   293.14023      0.0036007403   1.9174633      727.28899     -6.0354984      721.25349    
   3642000   309.25111      0.0036007403   2.0616206      767.26053     -6.5866883      760.67384    
   3643000   304.45102      0.0036007403   3.2030389      755.35137     -6.0595313      749.29184    
   3644000   292.93522      0.0036007403   1.8306772      726.78036     -6.9505297      719.82983    
   3645000   300.46917      0.0036007403   2.4230813      745.4723      -5.755066       739.71723    
   3646000   301.33645      0.0036007403   1.6003286      747.62404     -6.1716514      741.45239    
   3647000   299.38291      0.0036007403   1.220729       742.77724     -8.3262284      734.45101    
   3648000   295.43477      0.0036007403   2.0027516      732.9818      -8.9139425      724.06786    
   3649000   295.08948      0.0036007403   2.3010643      732.12515     -8.534171       723.59098    
   3650000   303.05512      0.0036007403   3.8942407      751.88812     -7.9291074      743.95901    
   3651000   301.62333      0.0036007403   0.76712659     748.33579     -6.9052546      741.43053    
   3652000   299.92371      0.0036007403   1.0676937      744.11899     -6.59226        737.52673    
   3653000   284.5217       0.0036007403   3.2164937      705.90617     -7.0211555      698.88502    
   3654000   299.91087      0.0036007403   1.9326623      744.08713     -5.5113398      738.57579    
   3655000   301.49096      0.0036007403   1.2325357      748.00738     -3.7711549      744.23623    
   3656000   304.51546      0.0036007403   1.0514747      755.51125     -5.3073132      750.20393    
   3657000   288.14887      0.0036007403   2.6302975      714.90529     -4.9131908      709.9921     
   3658000   305.96785      0.0036007403   2.320179       759.11467     -5.7197016      753.39497    
   3659000   320.6276       0.0036007403   2.2012889      795.48592     -6.1095527      789.37637    
   3660000   294.34688      0.0036007403   1.541676       730.28272     -3.6606194      726.6221     
   3661000   288.13086      0.0036007403   1.7693935      714.8606      -4.5248063      710.3358     
   3662000   289.7594       0.0036007403   2.0413446      718.90106     -4.5391398      714.36192    
   3663000   303.2067       0.0036007403   2.0064628      752.26419     -5.6406536      746.62353    
   3664000   305.90853      0.0036007403   1.2226825      758.9675      -4.2152533      754.75225    
   3665000   291.40207      0.0036007403   1.8803736      722.97657     -5.7603747      717.2162     
   3666000   302.6343       0.0036007403   2.0354989      750.84404     -6.2489464      744.5951     
   3667000   318.2487       0.0036007403   2.1940839      789.58379     -4.5022208      785.08157    
   3668000   303.7297       0.0036007403   2.248054       753.56175     -4.1791057      749.38264    
   3669000   287.39554      0.0036007403   1.4275211      713.03626     -4.873808       708.16245    
   3670000   307.16695      0.0036007403   1.5218962      762.08967     -4.2919891      757.79768    
   3671000   309.46214      0.0036007403   2.6384174      767.7841      -6.3594532      761.42465    
   3672000   295.59603      0.0036007403   1.8795125      733.38189     -8.253783       725.12811    
   3673000   306.61391      0.0036007403   0.17078081     760.71756     -6.1116354      754.60592    
   3674000   303.90282      0.0036007403   1.9370862      753.99126     -5.1788106      748.81245    
   3675000   305.56303      0.0036007403   2.5458918      758.11029     -4.380664       753.72963    
   3676000   289.73059      0.0036007403   1.980597       718.82959     -5.2338907      713.5957     
   3677000   292.66433      0.0036007403   1.958071       726.10826     -4.3288317      721.77943    
   3678000   312.44752      0.0036007403   3.1299832      775.19092     -3.0251213      772.1658     
   3679000   307.59296      0.0036007403   1.6689108      763.14662     -3.0446313      760.10199    
   3680000   307.50191      0.0036007403   2.1067234      762.92072     -3.9058818      759.01484    
   3681000   304.66933      0.0036007403   1.8150351      755.89301     -3.1984749      752.69453    
   3682000   300.26629      0.0036007403   2.0489511      744.96893     -2.8391274      742.12981    
   3683000   287.2172       0.0036007403   1.9019389      712.59379     -4.8584388      707.73535    
   3684000   305.29787      0.0036007403   2.1557319      757.45243     -5.287182       752.16524    
   3685000   301.01473      0.0036007403   1.9980438      746.82584     -5.176294       741.64954    
   3686000   299.24478      0.0036007403   1.9902938      742.43455     -4.3055464      738.12901    
   3687000   303.07755      0.0036007403   1.8876247      751.94376     -5.6581468      746.28561    
   3688000   299.15116      0.0036007403   2.1810186      742.20227     -5.7050405      736.49723    
   3689000   292.90438      0.0036007403   2.3866437      726.70384     -4.9076416      721.7962     
   3690000   298.41074      0.0036007403   1.3545419      740.36528     -5.0142247      735.35106    
   3691000   299.45302      0.0036007403   1.523096       742.95119     -6.0835752      736.86761    
   3692000   312.98138      0.0036007403   2.4472795      776.51542     -5.7405706      770.77485    
   3693000   293.5707       0.0036007403   2.1587281      728.35701     -5.7653287      722.59168    
   3694000   293.81584      0.0036007403   1.794116       728.96519     -2.1116647      726.85353    
   3695000   316.57431      0.0036007403   1.8093872      785.4296      -5.8180291      779.61157    
   3696000   302.40407      0.0036007403   1.8651175      750.27283     -6.1106333      744.1622     
   3697000   286.65368      0.0036007403   1.6571594      711.19569     -7.9506789      703.24501    
   3698000   297.54937      0.0036007403   1.2164009      738.22819     -6.2628509      731.96534    
   3699000   309.25556      0.0036007403   2.6169266      767.27158     -5.566385       761.7052     
   3700000   301.75347      0.0036007403   3.6578466      748.65868     -4.9272442      743.73144    
   3701000   292.36095      0.0036007403   2.1001014      725.35557     -4.8268406      720.52873    
   3702000   293.89655      0.0036007403   1.5031841      729.16543     -4.2577887      724.90765    
   3703000   310.80674      0.0036007403   1.979817       771.12008     -3.7875879      767.33249    
   3704000   308.03277      0.0036007403   2.1877928      764.23778     -4.4694888      759.76829    
   3705000   293.61184      0.0036007403   1.9716914      728.45908     -3.9846106      724.47447    
   3706000   315.9605       0.0036007403   2.7363664      783.90671     -3.8884133      780.01829    
   3707000   307.85431      0.0036007403   1.8514389      763.79503     -5.3432389      758.45179    
   3708000   298.20384      0.0036007403   2.0180027      739.85194     -6.1687594      733.68318    
   3709000   299.08939      0.0036007403   2.1877516      742.04903     -4.4253187      737.62371    
   3710000   302.60764      0.0036007403   1.8668296      750.77789     -3.258635       747.51926    
   3711000   293.88025      0.0036007403   2.0644079      729.125       -3.7872832      725.33772    
   3712000   300.36543      0.0036007403   1.9585687      745.21491     -4.01441        741.2005     
   3713000   301.19092      0.0036007403   2.5370849      747.26296     -4.6471345      742.61583    
   3714000   297.76183      0.0036007403   2.0453802      738.7553      -5.0143317      733.74097    
   3715000   292.56793      0.0036007403   1.9194508      725.8691      -5.1288789      720.74022    
   3716000   288.29768      0.0036007403   1.9723426      715.27448     -4.8009856      710.47349    
   3717000   300.08447      0.0036007403   2.1697187      744.51785     -8.2930714      736.22478    
   3718000   308.4561       0.0036007403   1.3893653      765.28809     -4.7400339      760.54806    
   3719000   286.73562      0.0036007403   2.5975964      711.39899     -6.2010987      705.19789    
   3720000   301.21717      0.0036007403   2.1500035      747.32811     -4.7295845      742.59852    
   3721000   303.99933      0.0036007403   2.0968303      754.23072     -5.6703115      748.56041    
   3722000   309.30938      0.0036007403   1.5510002      767.40509     -5.0429916      762.3621     
   3723000   286.27397      0.0036007403   1.5645319      710.2536      -4.7869307      705.46667    
   3724000   299.46969      0.0036007403   2.7897203      742.99256     -5.1265119      737.86605    
   3725000   313.72869      0.0036007403   2.7124599      778.36953     -5.6618274      772.70771    
   3726000   302.13496      0.0036007403   1.5664719      749.60516     -5.931338       743.67382    
   3727000   268.46836      0.0036007403   1.7128065      666.0774      -4.5538847      661.52351    
   3728000   294.77243      0.0036007403   2.0875138      731.33852     -5.0445243      726.294      
   3729000   302.62695      0.0036007403   2.187681       750.82581     -3.3163744      747.50944    
   3730000   323.341        0.0036007403   2.208589       802.21792     -5.3840163      796.83391    
   3731000   295.54041      0.0036007403   2.1448879      733.2439      -5.0472785      728.19662    
   3732000   296.42022      0.0036007403   1.2194685      735.42674     -3.3749586      732.05178    
   3733000   308.75961      0.0036007403   2.4517989      766.0411      -5.3953807      760.64572    
   3734000   305.45724      0.0036007403   2.3253677      757.84784     -4.9297871      752.91805    
   3735000   301.81805      0.0036007403   2.0720413      748.8189      -7.1101338      741.70876    
   3736000   291.43593      0.0036007403   1.5962374      723.06059     -5.1798852      717.8807     
   3737000   313.4051       0.0036007403   2.1024759      777.5667      -7.2724801      770.29422    
   3738000   301.03927      0.0036007403   1.9297685      746.88672     -7.3492407      739.53748    
   3739000   286.04379      0.0036007403   2.1177547      709.68253     -7.8101473      701.87238    
   3740000   291.48714      0.0036007403   2.6307945      723.18764     -7.7834352      715.4042     
   3741000   306.22428      0.0036007403   2.1716022      759.75087     -8.6951554      751.05571    
   3742000   299.34348      0.0036007403   0.075615443    742.67942     -7.6870883      734.99233    
   3743000   287.1185       0.0036007403   2.2365367      712.34891     -6.5586154      705.79029    
   3744000   305.02792      0.0036007403   2.6940234      756.78268     -8.3487688      748.43392    
   3745000   322.4857       0.0036007403   2.0482771      800.09592     -8.7515001      791.34442    
   3746000   298.79473      0.0036007403   1.2693756      741.31795     -6.1079063      735.21005    
   3747000   297.39301      0.0036007403   3.6554942      737.84027     -5.2456709      732.59459    
   3748000   317.59643      0.0036007403   1.7044953      787.96549     -5.393744       782.57175    
   3749000   283.57122      0.0036007403   1.5119998      703.54802     -4.3093928      699.23863    
   3750000   285.04213      0.0036007403   1.8621096      707.19739     -3.7322315      703.46516    
   3751000   299.54256      0.0036007403   1.8442161      743.17334     -4.5439194      738.62942    
   3752000   312.57823      0.0036007403   2.1606195      775.51521     -4.297791       771.21742    
   3753000   291.29522      0.0036007403   1.7732814      722.71148     -2.8622218      719.84926    
   3754000   290.64312      0.0036007403   2.4744448      721.0936      -4.3497649      716.74383    
   3755000   302.34806      0.0036007403   2.723747       750.13388     -3.2994501      746.83443    
   3756000   313.97059      0.0036007403   0.83234216     778.96969     -3.6720687      775.29762    
   3757000   284.05626      0.0036007403   1.5184553      704.7514      -5.2363511      699.51505    
   3758000   288.18032      0.0036007403   2.4213185      714.98332     -7.1462318      707.83709    
   3759000   309.48196      0.0036007403   2.1185139      767.83328     -7.4425678      760.39071    
   3760000   307.45234      0.0036007403   2.0244978      762.79773     -5.49127        757.30646    
   3761000   302.75667      0.0036007403   1.1523072      751.14764     -6.2053893      744.94225    
   3762000   299.09709      0.0036007403   2.2319243      742.06812     -9.5942985      732.47382    
   3763000   308.01628      0.0036007403   2.528354       764.19688     -6.4569714      757.73991    
   3764000   301.67754      0.0036007403   0.92652467     748.47029     -6.489303       741.98099    
   3765000   303.65823      0.0036007403   1.718111       753.38443     -7.5570082      745.82742    
   3766000   306.10797      0.0036007403   2.7892161      759.46231     -7.0072504      752.45506    
   3767000   297.57069      0.0036007403   0.94257901     738.28108     -7.8224991      730.45858    
   3768000   300.38564      0.0036007403  -1.4219486      745.26506     -8.0486721      737.21639    
   3769000   302.44053      0.0036007403   1.9302747      750.36328     -4.9497101      745.41357    
   3770000   299.40046      0.0036007403   3.1525359      742.82079     -3.9441328      738.87665    
   3771000   294.54073      0.0036007403   2.2554815      730.76366     -3.6040456      727.15962    
   3772000   296.97421      0.0036007403   0.44914383     736.80119     -4.5381006      732.26309    
   3773000   299.46276      0.0036007403   3.1878476      742.97536     -4.3059726      738.66939    
   3774000   309.55246      0.0036007403   3.830692       768.00819     -6.1651178      761.84308    
   3775000   314.46692      0.0036007403   0.60144247     780.20109     -4.0641219      776.13697    
   3776000   289.29747      0.0036007403   1.9108567      717.755       -4.5050716      713.24993    
   3777000   302.56772      0.0036007403   2.2767086      750.67885     -3.8049694      746.87388    
   3778000   310.33257      0.0036007403   2.0174452      769.94367     -7.5893731      762.3543     
   3779000   300.2986       0.0036007403   2.1379876      745.04911     -4.1721634      740.87695    
   3780000   290.48618      0.0036007403   1.9112116      720.70422     -4.8878969      715.81632    
   3781000   286.24774      0.0036007403   1.9781891      710.18853     -3.6937382      706.49479    
   3782000   306.56207      0.0036007403   2.2307333      760.58894     -5.4256698      755.16327    
   3783000   312.02506      0.0036007403   2.1268476      774.14278     -5.2195692      768.92321    
   3784000   298.76058      0.0036007403   1.5767416      741.23325     -5.9252917      735.30795    
   3785000   287.25608      0.0036007403   2.3230651      712.69024     -5.4989564      707.19129    
   3786000   301.11493      0.0036007403   2.1119971      747.07445     -4.7553613      742.31909    
   3787000   316.09222      0.0036007403   1.5092644      784.2335      -4.7471439      779.48635    
   3788000   294.89203      0.0036007403   1.4609249      731.63526     -6.7026573      724.9326     
   3789000   292.50588      0.0036007403   2.3114831      725.71515     -5.0130754      720.70207    
   3790000   300.20897      0.0036007403   3.2816964      744.82673     -5.1908085      739.63593    
   3791000   306.10026      0.0036007403   1.9949915      759.44318     -3.8341458      755.60904    
   3792000   295.50579      0.0036007403   1.573224       733.158       -3.9382376      729.21976    
   3793000   288.87285      0.0036007403   1.7954824      716.70151     -6.5639899      710.13752    
   3794000   291.05735      0.0036007403   2.1957297      722.1213      -4.8278982      717.2934     
   3795000   321.41009      0.0036007403   1.8510148      797.42728     -6.0561258      791.37116    
   3796000   301.18079      0.0036007403   1.7274781      747.23785     -3.8139065      743.42394    
   3797000   294.43868      0.0036007403   1.8215722      730.51047     -5.9029563      724.60751    
   3798000   296.65636      0.0036007403   2.4079101      736.01261     -3.8858267      732.12678    
   3799000   318.21162      0.0036007403   1.9593703      789.4918      -4.4785686      785.01323    
   3800000   304.64053      0.0036007403   1.7014894      755.82155     -5.7260618      750.09548    
   3801000   295.03131      0.0036007403   1.170349       731.98082     -5.1731067      726.80771    
   3802000   292.64948      0.0036007403   1.7501203      726.07144     -3.7492593      722.32218    
   3803000   320.62223      0.0036007403   4.0424049      795.47259     -3.8187772      791.65381    
   3804000   308.78332      0.0036007403   1.1763603      766.09993     -4.8890711      761.21086    
   3805000   304.47244      0.0036007403   1.0184968      755.40451     -2.652771       752.75174    
   3806000   292.5685       0.0036007403   0.97921034     725.8705      -2.8196357      723.05087    
   3807000   316.8704       0.0036007403   3.9292125      786.16419     -2.6798855      783.48431    
   3808000   312.60517      0.0036007403   1.4761105      775.58206     -4.7491048      770.83295    
   3809000   301.74082      0.0036007403   1.2421213      748.62728     -4.7421761      743.88511    
   3810000   289.84646      0.0036007403   2.0396778      719.11705     -4.2266727      714.89038    
   3811000   303.47368      0.0036007403   6.1015141      752.92656     -5.9160362      747.01052    
   3812000   307.21163      0.0036007403   2.5856538      762.20052     -5.3843172      756.81621    
   3813000   301.50666      0.0036007403   1.0184467      748.04634     -5.0030233      743.04332    
   3814000   295.41415      0.0036007403   2.0590666      732.93064     -6.1351926      726.79545    
   3815000   293.23014      0.0036007403   2.5728791      727.51207     -6.9130942      720.59898    
   3816000   306.1695       0.0036007403   1.8749269      759.61497     -9.4486283      750.16634    
   3817000   301.96774      0.0036007403   0.48963214     749.19028     -6.6340461      742.55624    
   3818000   290.59611      0.0036007403   4.6123384      720.97695     -4.4903041      716.48665    
   3819000   305.35711      0.0036007403   2.4309432      757.59941     -5.6307102      751.9687     
   3820000   286.62884      0.0036007403  -0.74810251     711.13406     -4.7739715      706.36009    
   3821000   297.579        0.0036007403   5.1475368      738.30171     -5.3322562      732.96945    
   3822000   331.05471      0.0036007403   1.5304357      821.35586     -3.397231       817.95863    
   3823000   315.39592      0.0036007403   0.74317016     782.50598     -3.0357601      779.47022    
   3824000   293.47074      0.0036007403   2.3448294      728.10899     -5.4889458      722.62005    
   3825000   304.92388      0.0036007403   4.7010167      756.52454     -3.1380379      753.3865     
   3826000   307.54472      0.0036007403  -0.9281102      763.02693     -3.6957425      759.33118    
   3827000   296.01883      0.0036007403   1.6868697      734.43088     -3.7096002      730.72128    
   3828000   294.58795      0.0036007403   2.4607531      730.88084     -3.6204414      727.2604     
   3829000   296.96572      0.0036007403   2.6237365      736.78014     -4.6719668      732.10818    
   3830000   301.03579      0.0036007403   1.8996777      746.87808     -4.4989909      742.37909    
   3831000   299.01037      0.0036007403   1.5381961      741.85296     -5.0766759      736.77629    
   3832000   298.91308      0.0036007403   2.5527614      741.61158     -5.4946647      736.11692    
   3833000   298.52738      0.0036007403   2.6754523      740.65467     -5.5748418      735.07982    
   3834000   306.82158      0.0036007403   2.8158314      761.23279     -5.4625708      755.77022    
   3835000   289.84863      0.0036007403   1.0767249      719.12245     -7.0587971      712.06366    
   3836000   283.72644      0.0036007403   1.8194803      703.93313     -6.651813       697.28132    
   3837000   313.55053      0.0036007403   2.3357938      777.9275      -4.2698516      773.65765    
   3838000   303.41797      0.0036007403   2.0503164      752.78835     -7.2096999      745.57865    
   3839000   283.72753      0.0036007403   1.8843995      703.93583     -7.8781355      696.0577     
   3840000   294.96587      0.0036007403   1.910983       731.81845     -7.4774685      724.34098    
   3841000   310.15308      0.0036007403   1.9239722      769.49835     -5.4794295      764.01892    
   3842000   316.20534      0.0036007403   3.3456193      784.51416     -5.5169073      778.99725    
   3843000   298.70163      0.0036007403   2.2820343      741.08697     -4.3247024      736.76227    
   3844000   282.47834      0.0036007403   3.3026576      700.83655     -4.2468238      696.58972    
   3845000   297.0849       0.0036007403   3.3881797      737.07583     -3.2150801      733.86075    
   3846000   297.23789      0.0036007403   0.93542434     737.4554      -1.0546926      736.40071    
   3847000   290.1119       0.0036007403   0.7970763      719.77561     -2.8005459      716.97506    
   3848000   306.11785      0.0036007403   2.5188743      759.48682     -3.6587883      755.82804    
   3849000   295.85675      0.0036007403   3.3687643      734.02876     -5.6825462      728.34621    
   3850000   305.44364      0.0036007403   0.48344754     757.8141      -3.3735949      754.4405     
   3851000   305.53259      0.0036007403   0.84819777     758.03479     -3.0470895      754.9877     
   3852000   303.56718      0.0036007403   1.8750839      753.15853     -5.1821745      747.97636    
   3853000   293.53864      0.0036007403   2.9726949      728.27746     -4.646024       723.63143    
   3854000   290.30244      0.0036007403   2.0248163      720.24836     -4.4722333      715.77612    
   3855000   315.34244      0.0036007403   1.4026444      782.3733      -3.9906686      778.38263    
   3856000   302.581        0.0036007403   4.536803       750.71179     -4.0057139      746.70608    
   3857000   288.98503      0.0036007403   2.1863201      716.97983     -3.4015193      713.57831    
   3858000   288.86683      0.0036007403   1.3799364      716.68658     -5.9443266      710.74225    
   3859000   304.89332      0.0036007403   1.9149326      756.44874     -4.6952515      751.75349    
   3860000   300.70687      0.0036007403   1.9917436      746.06204     -5.0504962      741.01155    
   3861000   289.62622      0.0036007403   7.221918       718.57063     -5.1417537      713.42888    
   3862000   304.52128      0.0036007403   1.2546248      755.5257      -5.0048461      750.52085    
   3863000   298.29903      0.0036007403   1.4520713      740.08812     -4.5796401      735.50848    
   3864000   305.26442      0.0036007403   2.2991476      757.36944     -6.1904998      751.17894    
   3865000   305.75328      0.0036007403   5.5264478      758.58231     -4.9684936      753.61382    
   3866000   297.7784       0.0036007403   3.9982238      738.79643     -6.0728048      732.72362    
   3867000   306.92366      0.0036007403   2.0937407      761.48605     -5.4472546      756.0388     
   3868000   313.56509      0.0036007403  -5.1122813      777.96363     -5.4193578      772.54427    
   3869000   295.03125      0.0036007403   4.3878344      731.98067     -3.6809466      728.29973    
   3870000   289.62632      0.0036007403   4.122649       718.57089     -5.1871409      713.38375    
   3871000   301.9737       0.0036007403   0.93427532     749.20508     -4.0442526      745.16082    
   3872000   297.81013      0.0036007403  -0.39956706     738.87515     -4.276128       734.59903    
   3873000   302.93561      0.0036007403   4.637263       751.59159     -7.150108       744.44149    
   3874000   308.00957      0.0036007403   2.188658       764.18024     -5.370364       758.80988    
   3875000   295.01627      0.0036007403   0.0051933701   731.94351     -6.1695282      725.77398    
   3876000   297.58718      0.0036007403   1.5921983      738.32199     -4.4866367      733.83535    
   3877000   308.40767      0.0036007403   2.1893618      765.16794     -4.8959873      760.27195    
   3878000   296.58105      0.0036007403   3.7282019      735.82576     -5.4546854      730.37107    
   3879000   276.7229       0.0036007403   2.267664       686.55714     -6.9403531      679.61679    
   3880000   297.5147       0.0036007403   1.5123627      738.14218     -4.5298382      733.61234    
   3881000   308.1514       0.0036007403   3.5269976      764.53212     -4.981667       759.55045    
   3882000   296.49188      0.0036007403   1.9589902      735.60453     -3.0124994      732.59203    
   3883000   297.26595      0.0036007403   1.5164619      737.52501     -5.6594015      731.86561    
   3884000   310.18771      0.0036007403   2.1111306      769.58426     -6.2666147      763.31765    
   3885000   288.83153      0.0036007403   2.0387995      716.59899     -4.9031905      711.6958     
   3886000   289.4776       0.0036007403   2.067047       718.20191     -8.8819531      709.31996    
   3887000   294.81924      0.0036007403   2.864029       731.45465     -9.383141       722.07151    
   3888000   297.11374      0.0036007403   2.7529376      737.14738     -9.6616173      727.48576    
   3889000   301.3879       0.0036007403   2.5366359      747.75168     -8.5503098      739.20137    
   3890000   318.79706      0.0036007403  -0.70313664     790.94428     -7.4075479      783.53674    
   3891000   298.61337      0.0036007403   1.3261025      740.86799     -6.4670409      734.40095    
   3892000   289.50824      0.0036007403   2.1508519      718.27791     -7.3261852      710.95173    
   3893000   303.81766      0.0036007403   3.6020855      753.77998     -7.2257555      746.55422    
   3894000   313.91912      0.0036007403   1.4313716      778.84198     -8.3850039      770.45697    
   3895000   306.49362      0.0036007403  -0.94536613     760.41912     -6.4954419      753.92368    
   3896000   285.32735      0.0036007403   3.4009196      707.90502     -5.8013907      702.10363    
   3897000   308.22575      0.0036007403   4.0300763      764.71657     -3.8329786      760.88359    
   3898000   315.08448      0.0036007403   3.0472467      781.73327     -6.0003803      775.73289    
   3899000   314.20212      0.0036007403   0.82041918     779.54413     -6.1431832      773.40094    
   3900000   285.13371      0.0036007403  -0.36609299     707.42459     -5.4048342      702.01976    
   3901000   305.92661      0.0036007403   4.0016609      759.01236     -1.9265045      757.08586    
   3902000   308.61441      0.0036007403  -1.3546397      765.68086     -4.9587087      760.72215    
   3903000   295.36292      0.0036007403   1.8560025      732.80355     -4.4422352      728.36132    
   3904000   290.38856      0.0036007403   2.726518       720.46203     -5.5919138      714.87012    
   3905000   313.31955      0.0036007403   4.5182153      777.35444     -6.376352       770.97808    
   3906000   312.23865      0.0036007403   1.7108607      774.67269     -3.7649794      770.90771    
   3907000   293.00189      0.0036007403   0.64396184     726.94576     -7.4007549      719.545      
   3908000   295.13114      0.0036007403   0.84934447     732.22849     -7.5131547      724.71534    
   3909000   307.47423      0.0036007403   4.288623       762.85204     -7.640482       755.21155    
   3910000   316.30517      0.0036007403   3.7783143      784.76185     -6.4839554      778.27789    
   3911000   293.40711      0.0036007403   1.0246571      727.95112     -8.9415984      719.00953    
   3912000   283.21834      0.0036007403  -0.42450674     702.6725      -6.7634762      695.90902    
   3913000   301.22633      0.0036007403   2.6352579      747.35082     -5.9494317      741.40139    
   3914000   308.89668      0.0036007403   2.2603853      766.38118     -5.5071238      760.87406    
   3915000   303.01838      0.0036007403   3.5262694      751.79695     -6.2724037      745.52455    
   3916000   311.71731      0.0036007403   0.07176154     773.37925     -5.9310676      767.44818    
   3917000   308.11957      0.0036007403   1.0517701      764.45316     -4.8478749      759.60528    
   3918000   284.61007      0.0036007403   1.8119257      706.12543     -6.028988       700.09644    
   3919000   299.95133      0.0036007403   2.9722684      744.18752     -7.3461886      736.84134    
   3920000   308.58262      0.0036007403   2.563632       765.60199     -5.1662868      760.4357     
   3921000   305.00605      0.0036007403  -1.0497475      756.72842     -7.0313415      749.69708    
   3922000   289.50689      0.0036007403   1.6997164      718.27457     -7.2467857      711.02779    
   3923000   302.80067      0.0036007403   5.3208253      751.25681     -7.140185       744.11662    
   3924000   320.3873       0.0036007403   1.0148468      794.88972     -9.5855782      785.30414    
   3925000   300.47885      0.0036007403  -2.081088       745.49631     -8.8510656      736.64525    
   3926000   288.22066      0.0036007403   3.220022       715.0834      -6.4039664      708.67943    
   3927000   305.53909      0.0036007403   5.3046118      758.05091     -7.0602176      750.9907     
   3928000   309.71142      0.0036007403   5.5902586      768.40257     -9.1306628      759.27191    
   3929000   301.67274      0.0036007403   2.3021399      748.45838     -9.0136383      739.44474    
   3930000   300.17207      0.0036007403  -1.4744057      744.73518     -6.0445983      738.69058    
   3931000   286.68233      0.0036007403   0.57093614     711.26677     -7.0408405      704.22593    
   3932000   301.4526       0.0036007403   4.8744228      747.91222     -6.8685558      741.04367    
   3933000   299.73624      0.0036007403   2.2616584      743.65387     -5.9979596      737.65591    
   3934000   294.03641      0.0036007403  -1.3186279      729.51243     -5.731278       723.78115    
   3935000   302.03903      0.0036007403   2.6645704      749.36715     -6.639051       742.7281     
   3936000   298.76292      0.0036007403   2.2991316      741.23903     -6.8177654      734.42127    
   3937000   298.2139       0.0036007403   0.8326404      739.87691     -6.6796988      733.19721    
   3938000   288.60091      0.0036007403   1.8170668      716.02681     -8.0831055      707.94371    
   3939000   306.98637      0.0036007403   8.0451444      761.64166     -6.563431       755.07822    
   3940000   317.88991      0.0036007403   7.4384853      788.69362     -5.2465916      783.44703    
   3941000   300.59874      0.0036007403  -0.84815764     745.79376     -4.256203       741.53756    
   3942000   277.50352      0.0036007403   5.2286925      688.49389     -4.3152564      684.17863    
   3943000   288.05151      0.0036007403   3.5777045      714.66374     -4.3297386      710.334      
   3944000   307.95512      0.0036007403   4.5140849      764.04515     -4.0828423      759.9623     
   3945000   321.69789      0.0036007403  -0.59380938     798.14133     -2.7857411      795.35559    
   3946000   299.93985      0.0036007403   0.49764917     744.15904     -5.8320334      738.32701    
   3947000   291.96848      0.0036007403   4.2562115      724.38184     -7.2113233      717.17052    
   3948000   305.49958      0.0036007403   6.4400942      757.95288     -6.5188307      751.43404    
   3949000   310.42033      0.0036007403  -0.34969317     770.16141     -6.9019286      763.25948    
   3950000   295.3124       0.0036007403  -1.0120008      732.67819     -3.7015363      728.97666    
   3951000   289.72619      0.0036007403   4.7262489      718.81866     -5.2147607      713.6039     
   3952000   306.89156      0.0036007403   4.4409049      761.40642     -7.1050931      754.30133    
   3953000   308.8292       0.0036007403   0.083240378    766.21376     -6.3326643      759.8811     
   3954000   293.83176      0.0036007403   2.1701869      729.00471     -5.9322642      723.07244    
   3955000   284.34425      0.0036007403   6.9338344      705.46593     -4.8868719      700.57906    
   3956000   311.92124      0.0036007403   6.6436047      773.88519     -6.2681909      767.617      
   3957000   311.10662      0.0036007403   0.0046013408   771.8641      -4.9893667      766.87473    
   3958000   286.07413      0.0036007403   4.5295068      709.75781     -5.3101992      704.44761    
   3959000   292.35124      0.0036007403   2.7709487      725.33149     -5.053392       720.2781     
   3960000   307.44188      0.0036007403   2.6598798      762.77177     -5.0679589      757.70381    
   3961000   303.64279      0.0036007403   0.75902313     753.34612     -6.5092218      746.8369     
   3962000   288.0419       0.0036007403  -0.52071668     714.63989     -5.7974428      708.84245    
   3963000   298.99991      0.0036007403   2.3586304      741.82702     -7.1372962      734.68972    
   3964000   317.8141       0.0036007403   5.1946007      788.50554     -7.2994828      781.20605    
   3965000   311.22243      0.0036007403   3.1622279      772.15143     -7.5974408      764.55399    
   3966000   300.39206      0.0036007403   0.069896441    745.28098     -8.0881104      737.19287    
   3967000   294.50776      0.0036007403   3.6953331      730.68187     -5.4321616      725.24971    
   3968000   307.12847      0.0036007403   2.95638        761.9942      -4.9152421      757.07896    
   3969000   328.08502      0.0036007403   2.1059702      813.98798     -7.8558629      806.13212    
   3970000   305.5882       0.0036007403  -1.2059691      758.17275     -5.2761761      752.89657    
   3971000   296.6381       0.0036007403   0.49424259     735.9673      -5.9792706      729.98803    
   3972000   288.65866      0.0036007403   2.0150728      716.1701      -6.098768       710.07133    
   3973000   303.65691      0.0036007403   6.2695493      753.38116     -6.4884829      746.89267    
   3974000   312.5244       0.0036007403   2.5481328      775.38166     -7.8233293      767.55833    
   3975000   301.11109      0.0036007403   0.15831916     747.06492     -9.5399492      737.52497    
   3976000   287.34662      0.0036007403   1.4362589      712.91488     -11.997233      700.91764    
   3977000   302.74994      0.0036007403   3.2267333      751.13094     -10.383296      740.74764    
   3978000   319.06641      0.0036007403   2.7139261      791.61255     -9.3030598      782.30949    
   3979000   290.52788      0.0036007403   1.79203        720.80769     -9.5220945      711.2856     
   3980000   295.95298      0.0036007403   1.6737517      734.26751     -7.7371195      726.53039    
   3981000   302.03493      0.0036007403   2.0678037      749.35698     -6.7099061      742.64708    
   3982000   300.42156      0.0036007403   1.8994446      745.35416     -7.1275375      738.22662    
   3983000   318.02956      0.0036007403   2.2075823      789.0401      -6.5899638      782.45014    
   3984000   296.08301      0.0036007403   1.7312054      734.59011     -6.4960863      728.09402    
   3985000   290.10223      0.0036007403   1.7989236      719.75164     -5.4329141      714.31872    
   3986000   299.57232      0.0036007403   1.6956853      743.24719     -3.9076027      739.33959    
   3987000   310.21368      0.0036007403   2.7288694      769.64868     -7.9705415      761.67814    
   3988000   301.44504      0.0036007403   1.8885226      747.89346     -6.4364391      741.45702    
   3989000   293.25425      0.0036007403   1.7294024      727.57189     -6.2120361      721.35985    
   3990000   286.66514      0.0036007403   1.476068       711.2241      -5.2603875      705.96372    
   3991000   306.90559      0.0036007403   2.3665833      761.44124     -6.6632414      754.778      
   3992000   312.66568      0.0036007403   2.0379147      775.73218     -5.4433529      770.28883    
   3993000   306.39675      0.0036007403   1.9377754      760.17878     -6.3608991      753.81788    
   3994000   284.47827      0.0036007403   1.7445929      705.79843     -6.7223839      699.07605    
   3995000   298.75516      0.0036007403   2.0827269      741.21978     -6.2148653      735.00491    
   3996000   301.94153      0.0036007403   1.9957596      749.12526     -4.0412189      745.08404    
   3997000   315.65991      0.0036007403   2.1764926      783.16094     -4.3076684      778.85327    
   3998000   288.08816      0.0036007403   1.6491629      714.75467     -5.2049514      709.54972    
   3999000   296.4091       0.0036007403   2.5040756      735.39914     -3.4220645      731.97707    
   4000000   306.71249      0.0036007403   2.1740788      760.96215     -1.2107459      759.75141    
Loop time of 12231.8 on 1 procs for 4000000 steps with 1500 atoms

Performance: 7.064 ns/day, 3.398 hours/ns, 327.017 timesteps/s, 490.525 katom-step/s
100.0% CPU use with 1 MPI tasks x 1 OpenMP threads

MPI task timing breakdown:
Section |  min time  |  avg time  |  max time  |%varavg| %total
---------------------------------------------------------------
Pair    | 1144.4     | 1144.4     | 1144.4     |   0.0 |  9.36
Bond    | 91.35      | 91.35      | 91.35      |   0.0 |  0.75
Kspace  | 10460      | 10460      | 10460      |   0.0 | 85.52
Neigh   | 0.043324   | 0.043324   | 0.043324   |   0.0 |  0.00
Comm    | 19.52      | 19.52      | 19.52      |   0.0 |  0.16
Output  | 0.090925   | 0.090925   | 0.090925   |   0.0 |  0.00
Modify  | 500.63     | 500.63     | 500.63     |   0.0 |  4.09
Other   |            | 15.33      |            |       |  0.13

Nlocal:           1500 ave        1500 max        1500 min
Histogram: 1 0 0 0 0 0 0 0 0 0
Nghost:            643 ave         643 max         643 min
Histogram: 1 0 0 0 0 0 0 0 0 0
Neighs:              0 ave           0 max           0 min
Histogram: 1 0 0 0 0 0 0 0 0 0

Total # of neighbors = 0
Ave neighs/atom = 0
Ave special neighs/atom = 2
Neighbor list builds = 24378
Dangerous builds = 0
write_data	last_conf.data pair ij
System init for write_data ...
PPPM initialization ...
  using 12-bit tables for long-range coulomb (src/kspace.cpp:342)
  G vector (1/distance) = 0.14605409
  grid = 36 36 36
  stencil order = 5
  estimated absolute RMS force accuracy = 0.037423921
  estimated relative force accuracy = 0.00011270103
  using double precision FFTW3
  3d grid and FFT values/proc = 68921 46656
Generated 1 of 1 mixed pair_coeff terms from arithmetic mixing rule
Total wall time: 3:23:51
