LAMMPS (29 Aug 2024 - Update 1)
  using 1 OpenMP thread(s) per MPI task
package gpu 1 gpuID 0
# GCMC for CO2 molecular fluid, rigid/small/nvt dynamics
# Rigid CO2 TraPPE model
# [Potoff and J.I. Siepmann, Vapor-liquid equilibria of
# mixtures containing alkanes, carbon dioxide and
# nitrogen AIChE J., 47,1676-1682 (2001)].

# global model settings

units           real
atom_style      full
boundary        p p p
pair_style      lj/cut/coul/long  12
pair_modify     mix arithmetic shift yes
kspace_style    pppm 1.0e-4
bond_style      harmonic
angle_style     harmonic
neigh_modify    one 4000

# box, start molecules on simple cubic lattice
region          mbox block 0 ${lbox} 0 ${lbox} 0 ${lbox} units box
region          mbox block 0 171 0 ${lbox} 0 ${lbox} units box
region          mbox block 0 171 0 171 0 ${lbox} units box
region          mbox block 0 171 0 171 0 171 units box
create_box      2 mbox                                       bond/types 1                                angle/types 1                               extra/bond/per/atom 2                       extra/angle/per/atom 1                      extra/special/per/atom 2
Created orthogonal box = (0 0 0) to (171 171 171)
  1 by 1 by 1 MPI processor grid
molecule        co2mol ../CO2.txt
Read molecule template co2mol:
# CO2 molecule file. TraPPE model.
  1 molecules
  0 fragments
  3 atoms with max type 2
  2 bonds with max type 1
  1 angles with max type 1
  0 dihedrals with max type 0
  0 impropers with max type 0
create_atoms   	0 random ${nmols} 34578 mbox mol co2mol 464563 overlap 1.2
create_atoms   	0 random 500 34578 mbox mol co2mol 464563 overlap 1.2
Created 1500 atoms
  using lattice units in orthogonal box = (0 0 0) to (171 171 171)
  create_atoms CPU = 0.007 seconds

# rigid CO2 TraPPE model

pair_coeff      1   1  0.053649   2.800
pair_coeff      2   2  0.156973   3.050
bond_coeff      1       0       1.16
angle_coeff     1       0       180

# masses

mass 1 12.0107
mass 2 15.9994

write_data init_conf.data  pair ij
System init for write_data ...
PPPM initialization ...
  using 12-bit tables for long-range coulomb (src/kspace.cpp:342)
  G vector (1/distance) = 0.15557183
  grid = 32 32 32
  stencil order = 5
  estimated absolute RMS force accuracy = 0.035261612
  estimated relative force accuracy = 0.0001061893
  using double precision FFTW3
  3d grid and FFT values/proc = 50653 32768
Generated 1 of 1 mixed pair_coeff terms from arithmetic mixing rule

# MD settings

group           co2 type 1 2
1500 atoms in group co2
velocity       	all create 300 54654
timestep        0.25

# rigid constraints with thermostat
fix             myrigidnvt co2 rigid/nvt molecule temp 300 300 $(100*dt)
fix             myrigidnvt co2 rigid/nvt molecule temp 300 300 25
  500 rigid bodies with 1500 atoms

thermo 1000
thermo_style custom step temp density press ke pe etotal


variable    mvol equal vol
variable    mden equal density
variable	mtmp equal temp
variable    mpre equal press

fix mydat all ave/time 1 4000 4000 v_mtmp v_mden v_mpre file statistics.dat ## every 1ps

run 4000000 ## 1ns

CITE-CITE-CITE-CITE-CITE-CITE-CITE-CITE-CITE-CITE-CITE-CITE-CITE

Your simulation uses code contributions which should be cited:

- GPU package (short-range, long-range and three-body potentials): doi:10.1016/j.cpc.2010.12.021, doi:10.1016/j.cpc.2011.10.012, doi:10.1016/j.cpc.2013.08.002, doi:10.1016/j.commatsci.2014.10.068, doi:10.1016/j.cpc.2016.10.020, doi:10.3233/APC200086

@Article{Brown11,
 author = {W. M. Brown and P. Wang and S. J. Plimpton and A. N. Tharrington},
 title = {Implementing Molecular Dynamics on Hybrid High Performance Computers---Short Range Forces},
 journal = {Comput.\ Phys.\ Commun.},
 year =    2011,
 volume =  182,
 pages =   {898--911},
 doi =     {10.1016/j.cpc.2010.12.021}
}

@Article{Brown12,
 author = {W. M. Brown and A. Kohlmeyer and S. J. Plimpton and A. N. Tharrington},
 title = {Implementing Molecular Dynamics on Hybrid High Performance Computers - Particle-Particle Particle-Mesh},
 journal = {Comput.\ Phys.\ Commun.},
 year =    2012,
 volume =  183,
 doi =     {10.1016/j.cpc.2011.10.012},
 pages =   {449--459}
}

@Article{Brown13,
 author = {W. M. Brown and Y. Masako},
 title = {Implementing Molecular Dynamics on Hybrid High Performance Computers---Three-Body Potentials},
 journal = {Comput.\ Phys.\ Commun.},
 year =    2013,
 volume =  184,
 pages =   {2785--2793},
 doi =     {10.1016/j.cpc.2013.08.002},
}

@Article{Trung15,
 author = {T. D. Nguyen and S. J. Plimpton},
 title = {Accelerating Dissipative Particle Dynamics Simulations for Soft Matter Systems},
 journal = {Comput.\ Mater.\ Sci.},
 year =    2015,
 doi =     {10.1016/j.commatsci.2014.10.068},
 volume =  100,
 pages =   {173--180}
}

@Article{Trung17,
 author = {T. D. Nguyen},
 title = {{GPU}-Accelerated {T}ersoff Potentials for Massively Parallel
    Molecular Dynamics Simulations},
 journal = {Comput.\ Phys.\ Commun.},
 year =    2017,
 doi =     {10.1016/j.cpc.2016.10.020},
 volume =  212,
 pages =   {113--122}
}

@inproceedings{Nikolskiy19,
 author = {V. Nikolskiy and V. Stegailov},
 title = {{GPU} Acceleration of Four-Site Water Models in {LAMMPS}},
 booktitle = {Proceedings of the International Conference on Parallel
    Computing (ParCo 2019), Prague, Czech Republic},
 doi =     {10.3233/APC200086},
 year =    2019
}

CITE-CITE-CITE-CITE-CITE-CITE-CITE-CITE-CITE-CITE-CITE-CITE-CITE

PPPM initialization ...
  using 12-bit tables for long-range coulomb (src/kspace.cpp:342)
  G vector (1/distance) = 0.15557183
  grid = 32 32 32
  stencil order = 5
  estimated absolute RMS force accuracy = 0.035261612
  estimated relative force accuracy = 0.0001061893
  using double precision FFTW3
  3d grid and FFT values/proc = 50653 32768
Generated 1 of 1 mixed pair_coeff terms from arithmetic mixing rule
Per MPI rank memory allocation (min/avg/max) = 12.15 | 12.15 | 12.15 Mbytes
   Step          Temp         Density         Press          KinEng         PotEng         TotEng    
         0   307.69091      0.0073076404   53.173145      763.38962      12600.904      13364.294    
      1000   326.51047      0.0073076404   8.3942942      810.08148     -9.1578489      800.92363    
      2000   305.10789      0.0073076404   3.7493475      756.98108     -12.246839      744.73424    
      3000   294.90341      0.0073076404   3.8226539      731.6635      -13.385633      718.27786    
      4000   299.23839      0.0073076404   3.8043695      742.4187      -15.167946      727.25075    
      5000   299.6993       0.0073076404   3.7691703      743.56223     -18.495891      725.06634    
      6000   302.37993      0.0073076404   3.7955795      750.21294     -19.471425      730.74151    
      7000   300.41754      0.0073076404   3.9063635      745.34421     -21.271449      724.07276    
      8000   298.36721      0.0073076404   3.8769454      740.25728     -25.364529      714.89275    
      9000   302.67668      0.0073076404   4.4125042      750.9492      -23.909414      727.03978    
     10000   308.97591      0.0073076404   4.3958422      766.57775     -30.379671      736.19808    
     11000   291.52756      0.0073076404   3.9584962      723.2879      -30.032612      693.25529    
     12000   287.89868      0.0073076404   3.56024        714.28457     -28.707072      685.5775     
     13000   300.91393      0.0073076404   5.9054658      746.57576     -26.463626      720.11213    
     14000   311.32513      0.0073076404   4.3003423      772.40623     -27.561345      744.84488    
     15000   286.48694      0.0073076404   0.95419783     710.78199     -27.214368      683.56763    
     16000   295.38938      0.0073076404   6.9023344      732.86919     -26.529793      706.3394     
     17000   305.00206      0.0073076404   3.2019302      756.71853     -30.323934      726.39459    
     18000   298.44103      0.0073076404   4.8439483      740.44042     -33.462746      706.97767    
     19000   293.75985      0.0073076404   2.5362249      728.82629     -34.402351      694.42394    
     20000   301.10267      0.0073076404   4.0579479      747.04402     -32.894584      714.14943    
     21000   296.58792      0.0073076404   3.3006851      735.84281     -36.237151      699.60565    
     22000   295.76709      0.0073076404   2.7924694      733.80631     -37.329504      696.47681    
     23000   294.65797      0.0073076404   4.8409635      731.05455     -34.90932       696.14523    
     24000   301.29513      0.0073076404   6.0034727      747.52153     -29.489018      718.03251    
     25000   305.66901      0.0073076404   3.8187855      758.37325     -39.076296      719.29695    
     26000   297.42992      0.0073076404   15.775499      737.93183     -37.722283      700.20955    
     27000   291.72935      0.0073076404   0.77772        723.78857     -40.522402      683.26617    
     28000   324.27109      0.0073076404   5.1425569      804.52551     -43.733533      760.79197    
     29000   291.58279      0.0073076404   6.5940878      723.42495     -46.898488      676.52646    
     30000   284.97851      0.0073076404   5.7586401      707.03954     -44.802489      662.23705    
     31000   313.08871      0.0073076404   3.1328835      776.78172     -42.957699      733.82402    
     32000   312.74121      0.0073076404   3.5938898      775.91956     -47.973691      727.94587    
     33000   305.95622      0.0073076404   3.65211        759.0858      -47.279182      711.80662    
     34000   297.85591      0.0073076404   2.4405497      738.98873     -48.856533      690.1322     
     35000   308.60908      0.0073076404   5.9001949      765.66763     -51.326165      714.34146    
     36000   311.26111      0.0073076404   3.3818325      772.24739     -52.734555      719.51283    
     37000   302.59168      0.0073076404   2.0343895      750.7383      -52.549417      698.18888    
     38000   283.69587      0.0073076404   7.3256551      703.85727     -53.94548       649.91179    
     39000   294.34022      0.0073076404   5.2467284      730.26619     -54.215921      676.05027    
     40000   317.80796      0.0073076404   3.3050447      788.4903      -57.196276      731.29403    
     41000   295.14444      0.0073076404   2.5231233      732.2615      -56.969629      675.29187    
     42000   308.3912       0.0073076404   1.2640989      765.12707     -57.003982      708.12309    
     43000   289.84846      0.0073076404   0.45147434     719.12201     -60.75756       658.36445    
     44000   284.29046      0.0073076404   5.6978966      705.33248     -53.998532      651.33395    
     45000   320.62199      0.0073076404   3.5073716      795.47199     -52.852809      742.61918    
     46000   297.62719      0.0073076404   4.9935751      738.42126     -57.353383      681.06788    
     47000   292.22944      0.0073076404   5.0049792      725.0293      -54.427573      670.60173    
     48000   308.46042      0.0073076404   2.9780907      765.29881     -60.179959      705.11885    
     49000   312.90975      0.0073076404   1.1370725      776.33773     -58.980979      717.35675    
     50000   296.33983      0.0073076404   5.4978437      735.22728     -57.960757      677.26652    
     51000   295.83948      0.0073076404  -1.8242507      733.98589     -57.424544      676.56135    
     52000   310.51625      0.0073076404   3.3118376      770.39937     -58.949591      711.44978    
     53000   309.80075      0.0073076404   11.592574      768.62419     -56.199939      712.42425    
     54000   284.25271      0.0073076404   4.2179799      705.2388      -61.696158      643.54265    
     55000   301.07317      0.0073076404   3.4773432      746.97084     -68.902577      678.06826    
     56000   308.76424      0.0073076404   4.2517557      766.0526      -64.473275      701.57932    
     57000   295.4785       0.0073076404   3.6597306      733.09031     -70.009184      663.08113    
     58000   290.8294       0.0073076404   2.8217478      721.55576     -72.791111      648.76465    
     59000   302.20253      0.0073076404   7.3366971      749.7728      -71.289547      678.48325    
     60000   297.17664      0.0073076404   4.8429688      737.30343     -72.887998      664.41543    
     61000   303.43066      0.0073076404   2.6549755      752.81983     -71.448673      681.37115    
     62000   296.33805      0.0073076404   2.4401238      735.22288     -75.619713      659.60317    
     63000   292.13368      0.0073076404   5.6139973      724.79171     -75.949887      648.84183    
     64000   303.35477      0.0073076404   8.8723371      752.63155     -72.576355      680.0552     
     65000   294.80473      0.0073076404   5.1168784      731.41867     -77.629655      653.78901    
     66000   293.80518      0.0073076404   2.706108       728.93875     -75.381341      653.55741    
     67000   323.06564      0.0073076404   3.7081548      801.53477     -77.3056        724.22917    
     68000   300.502        0.0073076404   3.589969       745.55374     -75.195033      670.35871    
     69000   306.02211      0.0073076404   3.4253447      759.24929     -77.609954      681.63934    
     70000   302.57578      0.0073076404   3.7037578      750.69884     -79.573965      671.12487    
     71000   286.52313      0.0073076404   0.22998225     710.8718      -84.206901      626.66489    
     72000   304.61126      0.0073076404   2.8448371      755.74893     -81.196387      674.55254    
     73000   307.95859      0.0073076404   7.0163241      764.05374     -78.395653      685.65809    
     74000   293.57305      0.0073076404   3.1010481      728.36282     -79.887046      648.47578    
     75000   308.12521      0.0073076404   4.8150765      764.46713     -77.487451      686.97968    
     76000   304.13843      0.0073076404   4.0421058      754.57584     -81.52749       673.04835    
     77000   300.25325      0.0073076404   3.6976257      744.93659     -84.033197      660.90339    
     78000   306.93576      0.0073076404   3.8343245      761.51608     -86.955767      674.56031    
     79000   288.1536       0.0073076404   2.3673562      714.91702     -85.707809      629.20921    
     80000   306.74204      0.0073076404   3.3153323      761.03546     -85.335108      675.70035    
     81000   303.57212      0.0073076404   4.0430181      753.1708      -80.884335      672.28646    
     82000   282.93814      0.0073076404   3.2437043      701.97733     -86.196408      615.78092    
     83000   303.71609      0.0073076404   3.331585       753.528       -87.288539      666.23946    
     84000   300.09076      0.0073076404   3.7351854      744.53344     -81.729809      662.80363    
     85000   298.08482      0.0073076404   3.7292916      739.55665     -83.879595      655.67706    
     86000   305.20052      0.0073076404   3.1268279      757.2109      -86.572054      670.63884    
     87000   281.29396      0.0073076404   2.6639422      697.89806     -88.398595      609.49946    
     88000   294.54168      0.0073076404   11.688658      730.76603     -87.227833      643.5382     
     89000   306.26272      0.0073076404   3.3987366      759.84626     -84.989936      674.85632    
     90000   310.03079      0.0073076404   6.1651749      769.19494     -88.013258      681.18168    
     91000   293.68684      0.0073076404   3.6269924      728.64514     -93.813953      634.83118    
     92000   285.05617      0.0073076404   1.3597472      707.23222     -90.959566      616.27265    
     93000   303.99379      0.0073076404   2.0551155      754.21697     -89.748613      664.46836    
     94000   308.72934      0.0073076404   12.411033      765.96601     -84.452789      681.51323    
     95000   305.98991      0.0073076404   6.2533616      759.16939     -80.140592      679.0288     
     96000   290.76797      0.0073076404   2.1728193      721.40335     -88.075314      633.32804    
     97000   302.11167      0.0073076404   2.0313471      749.54738     -88.22362       661.32376    
     98000   298.43921      0.0073076404   8.4647703      740.4359      -90.815074      649.62083    
     99000   295.76573      0.0073076404   3.8192773      733.80292     -89.923328      643.8796     
    100000   303.44869      0.0073076404   3.2920721      752.86457     -89.534478      663.33009    
    101000   301.17331      0.0073076404   5.6095091      747.21928     -90.302711      656.91657    
    102000   291.48922      0.0073076404   5.7777634      723.1928      -94.007207      629.18559    
    103000   289.78295      0.0073076404  -0.83600649     718.95949     -87.231895      631.72759    
    104000   310.54671      0.0073076404   3.5502513      770.47495     -89.153075      681.32188    
    105000   299.99483      0.0073076404   6.8993714      744.29543     -90.448813      653.84662    
    106000   294.67232      0.0073076404   8.7075002      731.09014     -87.60099       643.48915    
    107000   292.3718       0.0073076404   1.5198827      725.3825      -85.262755      640.11974    
    108000   308.24691      0.0073076404  -7.3077295      764.76907     -89.126781      675.64229    
    109000   312.77231      0.0073076404   1.8400855      775.99672     -86.392427      689.6043     
    110000   296.71486      0.0073076404   8.9530977      736.15775     -84.668811      651.48894    
    111000   291.90096      0.0073076404   2.6005162      724.21432     -87.54227       636.67205    
    112000   308.46508      0.0073076404  -3.4034557      765.31036     -90.78906       674.5213     
    113000   291.22944      0.0073076404   5.8914819      722.54827     -84.181001      638.36727    
    114000   300.65641      0.0073076404   7.1242114      745.93684     -89.185951      656.75089    
    115000   295.44722      0.0073076404   4.0235872      733.0127      -93.497511      639.51519    
    116000   298.36065      0.0073076404   3.4929487      740.241       -86.683701      653.5573     
    117000   292.77453      0.0073076404   4.7530712      726.38167     -90.78452       635.59715    
    118000   317.17115      0.0073076404   4.2264208      786.91037     -87.675598      699.23477    
    119000   297.71926      0.0073076404   5.3861774      738.6497      -91.01109       647.63861    
    120000   286.68968      0.0073076404   2.9196819      711.285       -91.963861      619.32114    
    121000   300.48824      0.0073076404   2.1571065      745.51961     -90.279031      655.24058    
    122000   317.75162      0.0073076404   4.8058358      788.35053     -91.459716      696.89081    
    123000   295.42883      0.0073076404   3.4260659      732.96707     -89.67234       643.29473    
    124000   292.23111      0.0073076404   4.2274611      725.03343     -86.543182      638.49025    
    125000   305.31937      0.0073076404   3.1577497      757.50576     -88.712608      668.79315    
    126000   317.40032      0.0073076404   2.4091365      787.47893     -88.379463      699.09947    
    127000   288.03805      0.0073076404   3.6772726      714.63034     -89.538349      625.09199    
    128000   306.88103      0.0073076404   4.2003755      761.3803      -93.973273      667.40703    
    129000   301.86035      0.0073076404   3.601773       748.92386     -93.441015      655.48284    
    130000   290.25845      0.0073076404   2.5607076      720.1392      -100.35214      619.78706    
    131000   303.09698      0.0073076404   4.1212285      751.99197     -91.94864       660.04333    
    132000   308.40701      0.0073076404   3.5663278      765.16628     -95.245375      669.92091    
    133000   278.42117      0.0073076404   4.1004921      690.7706      -93.366079      597.40452    
    134000   288.34665      0.0073076404   3.8261937      715.39599     -98.017432      617.37856    
    135000   306.53446      0.0073076404   5.1817091      760.52045     -96.673986      663.84647    
    136000   302.37623      0.0073076404   2.4142093      750.20377     -97.082722      653.12105    
    137000   294.08341      0.0073076404   1.1383523      729.62905     -94.237922      635.39113    
    138000   299.58874      0.0073076404   5.2919458      743.28793     -91.830421      651.45751    
    139000   302.44534      0.0073076404   8.2022558      750.37522     -95.595429      654.77979    
    140000   304.59019      0.0073076404   3.8045976      755.69666     -97.304308      658.39235    
    141000   303.80471      0.0073076404   3.0333569      753.74785     -97.911634      655.83622    
    142000   303.44069      0.0073076404   3.0512698      752.84472     -96.620614      656.2241     
    143000   293.84424      0.0073076404   1.9449201      729.03566     -92.694089      636.34157    
    144000   297.59304      0.0073076404   5.6349227      738.33652     -89.163376      649.17315    
    145000   296.05275      0.0073076404  -0.73340961     734.51504     -93.500033      641.01501    
    146000   304.54742      0.0073076404   8.0112679      755.59053     -94.157713      661.43282    
    147000   295.53661      0.0073076404   2.9549858      733.23447     -93.589456      639.64501    
    148000   309.86281      0.0073076404   1.2346745      768.77818     -94.765165      674.01301    
    149000   306.28816      0.0073076404   4.8888445      759.90937     -89.411288      670.49809    
    150000   297.45878      0.0073076404   10.40425       738.00344     -94.108652      643.89478    
    151000   292.89337      0.0073076404   2.8057694      726.67652     -96.201677      630.47485    
    152000   299.57356      0.0073076404   3.0857004      743.25025     -94.104839      649.14541    
    153000   309.61995      0.0073076404   5.54871        768.17564     -91.553224      676.62242    
    154000   301.27018      0.0073076404   3.9073233      747.45962     -92.604243      654.85538    
    155000   285.043        0.0073076404   6.0185927      707.19954     -99.306386      607.89315    
    156000   299.97987      0.0073076404   3.2690525      744.25832     -94.765241      649.49308    
    157000   302.41525      0.0073076404   3.9209177      750.30057     -96.1428        654.15777    
    158000   294.17059      0.0073076404   4.1913372      729.84533     -106.39213      623.45321    
    159000   300.29674      0.0073076404   2.544193       745.04448     -98.303012      646.74147    
    160000   297.9963       0.0073076404   3.0672085      739.33704     -99.410754      639.92629    
    161000   303.1591       0.0073076404   4.9600717      752.14608     -100.902        651.24408    
    162000   300.7422       0.0073076404   3.9482216      746.14968     -99.604037      646.54565    
    163000   302.70949      0.0073076404   2.9164703      751.03059     -96.711583      654.31901    
    164000   296.04184      0.0073076404   3.392695       734.48796     -93.989066      640.4989     
    165000   292.54661      0.0073076404   4.0627973      725.81621     -96.253282      629.56293    
    166000   300.47292      0.0073076404   6.1261318      745.48159     -98.324628      647.15696    
    167000   314.78932      0.0073076404   2.9725401      781.00099     -96.469193      684.5318     
    168000   301.07875      0.0073076404   0.61277506     746.98468     -99.66159       647.32309    
    169000   294.43001      0.0073076404   7.8678397      730.48898     -94.262096      636.22688    
    170000   296.30095      0.0073076404   6.5725613      735.13082     -98.329322      636.8015     
    171000   311.38098      0.0073076404  -2.7564155      772.54481     -95.95038       676.59443    
    172000   291.96503      0.0073076404   6.4697373      724.37329     -94.309631      630.06366    
    173000   290.64708      0.0073076404   6.2392032      721.1034      -92.820401      628.283      
    174000   299.11072      0.0073076404   3.2132916      742.10195     -96.75287       645.34908    
    175000   292.22981      0.0073076404   1.258443       725.0302      -91.808794      633.22141    
    176000   298.71878      0.0073076404   5.1911161      741.12952     -90.006867      651.12265    
    177000   306.35993      0.0073076404   5.2995958      760.08743     -93.208631      666.8788     
    178000   300.05114      0.0073076404   3.3179434      744.43515     -91.883991      652.55116    
    179000   301.19686      0.0073076404   3.8201721      747.27771     -94.045589      653.23212    
    180000   306.34572      0.0073076404   3.6179598      760.05217     -90.684755      669.36742    
    181000   304.26086      0.0073076404   3.6910623      754.87958     -90.291286      664.58829    
    182000   292.48341      0.0073076404   4.1536738      725.65939     -95.462989      630.19641    
    183000   284.56179      0.0073076404   3.3944748      706.00564     -98.626389      607.37925    
    184000   301.40331      0.0073076404   2.6467989      747.78993     -101.05839      646.73154    
    185000   298.20644      0.0073076404   4.6089056      739.8584      -101.35225      638.50615    
    186000   299.8797       0.0073076404   4.4473699      744.00981     -99.881309      644.1285     
    187000   295.43134      0.0073076404   1.5445335      732.97329     -102.15643      630.81686    
    188000   299.55734      0.0073076404   5.1092492      743.21002     -99.347931      643.86209    
    189000   309.60856      0.0073076404   4.0896132      768.14737     -96.750008      671.39736    
    190000   294.24157      0.0073076404   3.1074844      730.02145     -96.314198      633.70725    
    191000   303.55194      0.0073076404   5.2717746      753.12072     -98.193212      654.92751    
    192000   309.73294      0.0073076404   2.326096       768.45596     -100.53465      667.92131    
    193000   308.56077      0.0073076404   4.5429003      765.54777     -99.666421      665.88135    
    194000   301.10788      0.0073076404   8.6640739      747.05695     -100.84367      646.21328    
    195000   290.75416      0.0073076404   5.5316385      721.36908     -96.835555      624.53352    
    196000   310.70754      0.0073076404   5.0355562      770.87396     -91.326945      679.54702    
    197000   308.49817      0.0073076404   3.7231775      765.39247     -97.97146       667.42101    
    198000   289.53232      0.0073076404   1.6335371      718.33767     -99.79434       618.54333    
    199000   300.29239      0.0073076404   3.4467363      745.0337      -96.869299      648.16441    
    200000   315.46819      0.0073076404   3.2437253      782.68528     -94.180051      688.50523    
    201000   298.55136      0.0073076404   3.7898016      740.71415     -92.278347      648.43581    
    202000   300.13968      0.0073076404   4.0653264      744.65483     -96.856277      647.79855    
    203000   291.03478      0.0073076404   3.6303262      722.06531     -90.337872      631.72744    
    204000   285.03175      0.0073076404   3.386989       707.17162     -92.348562      614.82306    
    205000   300.73623      0.0073076404   2.3670612      746.13489     -94.964707      651.17018    
    206000   313.04965      0.0073076404   4.9920297      776.68482     -95.59691       681.08791    
    207000   283.43027      0.0073076404   2.2880788      703.19831     -89.585448      613.61286    
    208000   294.70803      0.0073076404  -0.80581519     731.17876     -91.620728      639.55803    
    209000   305.35466      0.0073076404   7.9335744      757.59333     -88.557122      669.03621    
    210000   291.62761      0.0073076404   9.9330564      723.53613     -92.719452      630.81668    
    211000   292.12873      0.0073076404   3.9192683      724.77944     -94.424971      630.35447    
    212000   297.63684      0.0073076404  -2.5789973      738.44521     -91.859679      646.58553    
    213000   307.01795      0.0073076404   4.2976598      761.72001     -89.860032      671.85997    
    214000   306.42747      0.0073076404   12.268209      760.255       -91.713824      668.54117    
    215000   294.33655      0.0073076404  -4.6402288      730.25711     -90.05706       640.20005    
    216000   309.56369      0.0073076404   6.9747352      768.03604     -93.74123       674.29481    
    217000   312.26358      0.0073076404   8.0374711      774.73454     -96.883532      677.85101    
    218000   282.67758      0.0073076404  -5.5475365      701.33087     -95.165009      606.16586    
    219000   296.61766      0.0073076404   0.44764442     735.91658     -92.10966       643.80692    
    220000   312.65943      0.0073076404   7.0822246      775.71667     -94.030385      681.68629    
    221000   304.31573      0.0073076404   16.825441      755.01572     -88.960803      666.05491    
    222000   288.10951      0.0073076404   4.1380018      714.80765     -88.650476      626.15717    
    223000   301.70971      0.0073076404   2.2249651      748.55011     -86.355275      662.19483    
    224000   320.06443      0.0073076404   2.5092287      794.08867     -92.336711      701.75195    
    225000   292.50519      0.0073076404   7.87905        725.71343     -96.810981      628.90245    
    226000   289.86148      0.0073076404   1.5762325      719.15431     -97.007319      622.14699    
    227000   301.15601      0.0073076404   1.1798204      747.17635     -94.169271      653.00708    
    228000   299.81386      0.0073076404   1.4617298      743.84645     -88.530763      655.31568    
    229000   315.83196      0.0073076404   5.764608       783.58779     -88.051077      695.53672    
    230000   292.40091      0.0073076404   6.8699475      725.45473     -91.049184      634.40554    
    231000   294.40986      0.0073076404   3.0921282      730.43897     -89.145505      641.29346    
    232000   306.72374      0.0073076404   1.0609319      760.99005     -93.839293      667.15076    
    233000   307.97032      0.0073076404   1.8909112      764.08285     -88.844401      675.23845    
    234000   301.19784      0.0073076404   2.4717465      747.28014     -89.574772      657.70537    
    235000   298.023        0.0073076404   6.5219494      739.40327     -91.759617      647.64365    
    236000   300.64271      0.0073076404   0.84482217     745.90284     -91.131286      654.77156    
    237000   304.70619      0.0073076404   6.9786902      755.98445     -89.914831      666.06962    
    238000   290.49871      0.0073076404   3.7042212      720.73532     -90.591895      630.14342    
    239000   307.18547      0.0073076404   2.9752668      762.13561     -89.809668      672.32594    
    240000   304.284        0.0073076404   5.7215685      754.93698     -86.192884      668.7441     
    241000   289.97109      0.0073076404   3.7979547      719.42626     -86.158499      633.26776    
    242000   303.70957      0.0073076404   2.5777807      753.51182     -93.295527      660.21629    
    243000   311.72649      0.0073076404   3.6443744      773.40201     -90.825766      682.57625    
    244000   304.15221      0.0073076404   5.1598488      754.61003     -92.571739      662.03829    
    245000   287.69733      0.0073076404   5.6361824      713.785       -91.400567      622.38443    
    246000   300.46823      0.0073076404   0.19433049     745.46995     -92.136228      653.33372    
    247000   323.11373      0.0073076404   1.9170984      801.65406     -91.451975      710.20209    
    248000   306.42888      0.0073076404   2.496902       760.2585      -91.988787      668.26971    
    249000   294.99965      0.0073076404   9.1584245      731.90227     -87.917733      643.98453    
    250000   294.06952      0.0073076404   3.1563113      729.59458     -84.114155      645.48043    
    251000   300.14212      0.0073076404   1.5814658      744.66087     -84.079779      660.58109    
    252000   297.66382      0.0073076404   1.4465464      738.51214     -88.592012      649.92013    
    253000   306.87808      0.0073076404   3.600283       761.37298     -83.667581      677.7054     
    254000   305.16033      0.0073076404   4.9529101      757.1112      -84.057477      673.05372    
    255000   295.61833      0.0073076404   4.4313202      733.43722     -83.954169      649.48305    
    256000   292.92286      0.0073076404   0.13156324     726.74969     -87.442713      639.30697    
    257000   315.81313      0.0073076404   4.5166465      783.54109     -88.5148        695.02629    
    258000   300.61884      0.0073076404   5.4672039      745.84362     -89.078498      656.76512    
    259000   285.09975      0.0073076404   4.1946534      707.34033     -91.267558      616.07278    
    260000   292.02833      0.0073076404   2.770718       724.53033     -89.14594       635.38439    
    261000   304.17172      0.0073076404   5.4697707      754.65842     -90.297317      664.3611     
    262000   278.02838      0.0073076404   2.0585101      689.79607     -91.834647      597.96143    
    263000   293.37906      0.0073076404   4.21728        727.88154     -90.32016       637.56138    
    264000   303.39396      0.0073076404   3.9392531      752.72877     -81.966351      670.76242    
    265000   298.74953      0.0073076404   5.9232185      741.20582     -80.475747      660.73007    
    266000   290.70127      0.0073076404   3.9018923      721.23785     -82.18937       639.04848    
    267000   304.29647      0.0073076404   1.8643179      754.96794     -81.490918      673.47702    
    268000   303.35456      0.0073076404   4.4424605      752.63102     -84.0653        668.56572    
    269000   292.79612      0.0073076404   3.5871616      726.43525     -88.957484      637.47777    
    270000   305.56078      0.0073076404   0.22058062     758.10473     -92.599285      665.50544    
    271000   312.13396      0.0073076404   4.6484366      774.41297     -96.671776      677.74119    
    272000   289.07229      0.0073076404   4.7129923      717.19633     -97.893377      619.30295    
    273000   301.27038      0.0073076404  -0.18420187     747.46013     -97.230832      650.22929    
    274000   307.6464       0.0073076404   2.869549       763.27919     -96.581677      666.69751    
    275000   308.26009      0.0073076404   8.2608779      764.80177     -94.175604      670.62617    
    276000   294.37901      0.0073076404   2.7953633      730.36244     -91.148494      639.21394    
    277000   301.32861      0.0073076404   1.6620712      747.60459     -88.979887      658.62471    
    278000   311.05567      0.0073076404   4.2060052      771.7377      -84.319474      687.41823    
    279000   290.10149      0.0073076404   3.9521582      719.74979     -89.137532      630.61226    
    280000   305.12163      0.0073076404   3.5995277      757.01517     -84.760552      672.25462    
    281000   296.28817      0.0073076404   5.0426162      735.09912     -84.178469      650.92065    
    282000   300.1148       0.0073076404   3.5526434      744.5931      -84.099915      660.49318    
    283000   312.04121      0.0073076404   4.0747979      774.18284     -80.838217      693.34463    
    284000   305.47491      0.0073076404   3.1325841      757.89167     -85.065157      672.82651    
    285000   299.08078      0.0073076404   6.0891106      742.02767     -83.357224      658.67044    
    286000   293.32561      0.0073076404   3.8031675      727.74893     -86.349453      641.39948    
    287000   309.28188      0.0073076404   3.9656875      767.33686     -86.850387      680.48648    
    288000   298.62639      0.0073076404   3.5672596      740.90031     -87.033284      653.86703    
    289000   304.2275       0.0073076404   3.1523113      754.7968      -88.595281      666.20152    
    290000   312.39715      0.0073076404   2.2321332      775.06594     -87.587963      687.47798    
    291000   298.74049      0.0073076404   4.4871698      741.18338     -88.060524      653.12286    
    292000   303.14299      0.0073076404   11.313313      752.10611     -89.57848       662.52763    
    293000   307.70683      0.0073076404   3.1070917      763.42913     -88.939032      674.4901     
    294000   295.09786      0.0073076404   1.4421248      732.14591     -93.472132      638.67378    
    295000   291.75388      0.0073076404   2.847298       723.84942     -91.86063       631.98879    
    296000   291.21569      0.0073076404   10.444587      722.51414     -90.681204      631.83294    
    297000   318.81925      0.0073076404   7.6388638      790.99934     -88.541088      702.45825    
    298000   311.74041      0.0073076404   2.2568287      773.43655     -89.349397      684.08715    
    299000   295.64234      0.0073076404  -1.6176087      733.4968      -85.802128      647.69467    
    300000   292.21377      0.0073076404   3.9366915      724.99041     -83.915776      641.07463    
    301000   295.63168      0.0073076404   4.3132495      733.47035     -84.074383      649.39597    
    302000   313.71811      0.0073076404   3.8510265      778.34329     -84.583913      693.75937    
    303000   303.54692      0.0073076404   3.3208053      753.10828     -85.195369      667.91291    
    304000   291.79833      0.0073076404   3.2753834      723.9597      -86.431381      637.52832    
    305000   303.15987      0.0073076404   2.6925998      752.14801     -86.201697      665.94631    
    306000   306.06267      0.0073076404   5.1307418      759.34991     -85.099131      674.25078    
    307000   283.5055       0.0073076404   4.2967666      703.38495     -90.263411      613.12154    
    308000   292.52528      0.0073076404   4.0909171      725.76327     -84.682008      641.08127    
    309000   314.09885      0.0073076404   4.0228484      779.28789     -87.14293       692.14496    
    310000   303.08282      0.0073076404   3.6750839      751.95684     -88.781238      663.1756     
    311000   286.95034      0.0073076404   3.8531992      711.93171     -90.898383      621.03332    
    312000   292.42092      0.0073076404   2.8869146      725.50436     -92.620695      632.88366    
    313000   313.68014      0.0073076404   3.3999486      778.24907     -88.196548      690.05252    
    314000   307.02514      0.0073076404   6.0047827      761.73784     -91.493328      670.24452    
    315000   306.59422      0.0073076404   3.9401197      760.6687      -88.184866      672.48384    
    316000   291.78421      0.0073076404   1.353535       723.92468     -89.287914      634.63676    
    317000   316.29161      0.0073076404   3.8609969      784.7282      -82.912906      701.81529    
    318000   305.23504      0.0073076404   4.5232025      757.29654     -86.759472      670.53706    
    319000   297.93083      0.0073076404   0.7271287      739.1746      -92.010571      647.16403    
    320000   306.31192      0.0073076404   4.4776138      759.96833     -87.737658      672.23067    
    321000   306.38313      0.0073076404   8.8972841      760.14498     -88.405496      671.73949    
    322000   292.42201      0.0073076404   2.0196791      725.50708     -91.975351      633.53172    
    323000   302.44057      0.0073076404   2.0533526      750.3634      -93.716405      656.64699    
    324000   311.48532      0.0073076404   4.0366962      772.80367     -88.947543      683.85613    
    325000   306.67149      0.0073076404   8.2031568      760.86042     -90.192016      670.66841    
    326000   290.87245      0.0073076404   4.2360952      721.66257     -85.882955      635.77961    
    327000   304.93995      0.0073076404   2.9057211      756.56443     -85.94597       670.61846    
    328000   316.3191       0.0073076404  -5.993498       784.79642     -82.265862      702.53056    
    329000   297.99486      0.0073076404   6.0659953      739.33345     -81.992039      657.34141    
    330000   296.03279      0.0073076404   3.4531533      734.46551     -79.559774      654.90573    
    331000   301.00772      0.0073076404  -5.699862       746.80846     -82.818908      663.98955    
    332000   313.06432      0.0073076404   5.7813329      776.72121     -78.101643      698.61957    
    333000   299.08986      0.0073076404   9.5999745      742.0502      -78.544094      663.5061     
    334000   292.65252      0.0073076404   2.0946687      726.07898     -77.622023      648.45695    
    335000   307.77644      0.0073076404   2.1537753      763.60183     -76.688822      686.913      
    336000   305.63001      0.0073076404   3.7430933      758.27647     -77.232817      681.04366    
    337000   307.94957      0.0073076404   17.561168      764.03137     -78.205997      685.82538    
    338000   309.04202      0.0073076404   5.2639477      766.74177     -76.401167      690.3406     
    339000   310.00269      0.0073076404   0.85031561     769.12521     -72.994699      696.13052    
    340000   314.26963      0.0073076404   2.4182892      779.71161     -74.97661       704.735      
    341000   292.11742      0.0073076404   8.2820613      724.75137     -75.911433      648.83993    
    342000   309.21087      0.0073076404  -4.051672       767.1607      -71.348509      695.81219    
    343000   306.85513      0.0073076404   4.3141107      761.31603     -78.927348      682.38868    
    344000   292.09262      0.0073076404   2.6767039      724.68983     -72.995745      651.69409    
    345000   318.20381      0.0073076404   6.282346       789.47241     -74.709384      714.76303    
    346000   308.20644      0.0073076404   7.485932       764.66867     -78.082898      686.58578    
    347000   287.21815      0.0073076404   5.808704       712.59615     -76.288733      636.30741    
    348000   291.26034      0.0073076404   4.3784721      722.62493     -78.994377      643.63055    
    349000   308.88579      0.0073076404   1.7264535      766.35416     -81.709198      684.64497    
    350000   310.59626      0.0073076404   4.1870489      770.59788     -83.178339      687.41954    
    351000   299.20677      0.0073076404   4.8763457      742.34024     -83.534045      658.8062     
    352000   297.15843      0.0073076404   4.8415976      737.25825     -79.699031      657.55922    
    353000   300.48877      0.0073076404  -1.1581249      745.52092     -78.796369      666.72456    
    354000   307.82526      0.0073076404   5.04997        763.72295     -72.760896      690.96205    
    355000   290.67363      0.0073076404   3.557916       721.1693      -73.632201      647.5371     
    356000   287.74418      0.0073076404   0.63514356     713.90124     -74.27767       639.62357    
    357000   308.39548      0.0073076404   1.9402091      765.13769     -71.664595      693.4731     
    358000   303.48883      0.0073076404   4.1418258      752.96416     -74.251316      678.71284    
    359000   291.22571      0.0073076404   4.2157849      722.53902     -74.957215      647.5818     
    360000   288.12168      0.0073076404   3.6943951      714.83782     -74.492425      640.3454     
    361000   313.79108      0.0073076404   4.2454577      778.52433     -75.983063      702.54127    
    362000   298.55272      0.0073076404   4.2865892      740.71753     -79.758075      660.95945    
    363000   294.51661      0.0073076404   0.84728886     730.70382     -77.806101      652.89772    
    364000   310.64903      0.0073076404   4.2796417      770.7288      -74.162223      696.56657    
    365000   294.74028      0.0073076404   4.0323263      731.25877     -74.390797      656.86797    
    366000   291.45998      0.0073076404   3.4414054      723.12025     -75.94993       647.17032    
    367000   301.25674      0.0073076404   3.4255475      747.42626     -72.597238      674.82903    
    368000   307.44202      0.0073076404   3.9819712      762.77213     -71.318968      691.45317    
    369000   307.57129      0.0073076404   3.2196916      763.09286     -74.148782      688.94408    
    370000   301.82809      0.0073076404   3.8762915      748.84382     -74.023912      674.8199     
    371000   300.30253      0.0073076404   4.8387214      745.05885     -69.298517      675.76033    
    372000   306.56995      0.0073076404   1.9396056      760.6085      -69.623877      690.98463    
    373000   298.06056      0.0073076404   2.8890774      739.49646     -74.231132      665.26532    
    374000   302.16308      0.0073076404   6.0306999      749.67493     -74.547354      675.12757    
    375000   311.45776      0.0073076404   6.3941895      772.73528     -72.192792      700.54249    
    376000   298.8423       0.0073076404   2.8372315      741.43599     -69.640752      671.79524    
    377000   286.72749      0.0073076404  -1.7018297      711.3788      -65.375784      646.00301    
    378000   298.38656      0.0073076404   5.0085171      740.30527     -66.730472      673.5748     
    379000   314.83138      0.0073076404   6.2485391      781.10533     -68.346685      712.75865    
    380000   300.76491      0.0073076404   0.90370255     746.20602     -70.331145      675.87488    
    381000   281.20766      0.0073076404   3.5721435      697.68396     -69.396643      628.28732    
    382000   287.60638      0.0073076404   5.6671219      713.55935     -63.657082      649.90226    
    383000   293.8165       0.0073076404   5.1169107      728.96684     -67.621448      661.34539    
    384000   303.53637      0.0073076404   3.3671895      753.0821      -68.000526      685.08157    
    385000   301.03358      0.0073076404   0.70590197     746.8726      -67.923576      678.94902    
    386000   297.15791      0.0073076404   2.5924216      737.25696     -70.29519       666.96177    
    387000   298.67843      0.0073076404   4.7402589      741.02942     -68.310064      672.71936    
    388000   301.96036      0.0073076404   3.8863838      749.17198     -66.477509      682.69447    
    389000   296.01967      0.0073076404   3.3466311      734.43296     -71.193203      663.23976    
    390000   293.25413      0.0073076404   4.8305841      727.57157     -71.736666      655.83491    
    391000   309.55472      0.0073076404   3.8685672      768.01379     -69.706903      698.30689    
    392000   302.5517       0.0073076404   2.8315399      750.63911     -65.568894      685.07022    
    393000   292.88269      0.0073076404   3.7195625      726.65002     -65.616396      661.03362    
    394000   296.9145       0.0073076404   3.8460581      736.65307     -63.569039      673.08403    
    395000   323.83096      0.0073076404   4.066983       803.43353     -63.029156      740.40437    
    396000   294.37861      0.0073076404   3.4210743      730.36145     -69.314266      661.04719    
    397000   290.78166      0.0073076404   3.3783908      721.43731     -65.439553      655.99776    
    398000   314.08903      0.0073076404   3.8696379      779.26355     -66.079069      713.18448    
    399000   307.41503      0.0073076404   5.3430698      762.70517     -62.952778      699.75239    
    400000   280.77253      0.0073076404   3.5462442      696.60438     -65.010408      631.59397    
    401000   306.6744       0.0073076404   3.715108       760.86764     -68.613177      692.25447    
    402000   311.45148      0.0073076404   3.9015917      772.71971     -65.860025      706.85969    
    403000   294.72249      0.0073076404   4.7268368      731.21461     -65.199485      666.01513    
    404000   288.42399      0.0073076404   2.3677261      715.58787     -62.807382      652.78049    
    405000   297.57501      0.0073076404   3.98255        738.29181     -59.411753      678.88005    
    406000   310.89837      0.0073076404   4.1792496      771.34743     -61.898153      709.44927    
    407000   295.90126      0.0073076404   3.653521       734.13917     -61.139622      672.99955    
    408000   293.0194       0.0073076404   3.7999675      726.98921     -62.421672      664.56754    
    409000   290.90005      0.0073076404   3.6071976      721.73104     -63.051068      658.67997    
    410000   309.56354      0.0073076404   3.8485308      768.03568     -61.277247      706.75843    
    411000   308.02701      0.0073076404   7.6616701      764.22351     -59.948908      704.2746     
    412000   294.12514      0.0073076404   3.713456       729.73259     -57.994157      671.73843    
    413000   314.71897      0.0073076404   4.1003755      780.82645     -60.296614      720.52984    
    414000   307.69001      0.0073076404   3.7146325      763.38739     -56.760771      706.62661    
    415000   292.02377      0.0073076404   2.8319606      724.51904     -52.879559      671.63948    
    416000   286.83603      0.0073076404   2.805171       711.64809     -54.09563       657.55246    
    417000   312.33068      0.0073076404   4.9404989      774.90102     -60.146819      714.7542     
    418000   307.33865      0.0073076404   0.35739523     762.51566     -59.07269       703.44297    
    419000   284.05829      0.0073076404   6.3623638      704.75645     -61.036154      643.7203     
    420000   310.38605      0.0073076404   12.95192       770.07635     -62.375088      707.70126    
    421000   319.66471      0.0073076404   2.2822382      793.09697     -61.995502      731.10146    
    422000   290.63175      0.0073076404   4.3970865      721.06538     -57.135814      663.92956    
    423000   284.814        0.0073076404  -0.5830866      706.63139     -59.402428      647.22896    
    424000   301.60135      0.0073076404   6.5717955      748.28125     -58.482651      689.7986     
    425000   295.59071      0.0073076404   0.36631433     733.36869     -55.588434      677.78025    
    426000   288.6534       0.0073076404   6.0193229      716.15703     -57.558209      658.59882    
    427000   303.93487      0.0073076404   5.5974171      754.0708      -56.879366      697.19143    
    428000   300.00321      0.0073076404   2.9714084      744.31622     -57.270829      687.04539    
    429000   297.23352      0.0073076404   2.0079542      737.44456     -51.068941      686.37562    
    430000   297.53302      0.0073076404   6.5704186      738.18761     -51.072082      687.11553    
    431000   306.03394      0.0073076404   1.2589742      759.27863     -50.395809      708.88282    
    432000   300.26998      0.0073076404   1.1337608      744.9781      -47.975005      697.0031     
    433000   300.93182      0.0073076404   5.4843861      746.62015     -53.356567      693.26358    
    434000   298.4568       0.0073076404   3.8006732      740.47955     -50.916195      689.56336    
    435000   303.33984      0.0073076404   1.2701988      752.5945      -52.115351      700.47915    
    436000   308.30683      0.0073076404   6.6117052      764.91774     -48.19223       716.72551    
    437000   302.92301      0.0073076404   5.7218971      751.56033     -52.737087      698.82325    
    438000   302.61624      0.0073076404   0.63901416     750.79923     -51.414273      699.38495    
    439000   296.40503      0.0073076404  -3.4847363      735.38905     -50.685964      684.70308    
    440000   300.82117      0.0073076404   3.9682996      746.34562     -52.836851      693.50877    
    441000   304.68339      0.0073076404   5.1422707      755.92788     -47.504887      708.42299    
    442000   296.34143      0.0073076404   3.8840131      735.23125     -52.367476      682.86378    
    443000   299.56543      0.0073076404   3.6066528      743.23008     -51.725615      691.50447    
    444000   293.97432      0.0073076404   3.5754085      729.35839     -48.244883      681.11351    
    445000   300.35415      0.0073076404   4.0816896      745.18692     -49.011089      696.17584    
    446000   288.74317      0.0073076404   1.3972976      716.37976     -49.934547      666.44521    
    447000   306.59912      0.0073076404   4.0385869      760.68087     -47.880537      712.80034    
    448000   314.21117      0.0073076404   3.8905591      779.56657     -50.975524      728.59105    
    449000   295.04346      0.0073076404   6.3260881      732.01095     -46.034935      685.97601    
    450000   288.07976      0.0073076404   4.3299968      714.73382     -49.93801       664.7958     
    451000   293.22791      0.0073076404   3.0199488      727.50653     -49.489885      678.01665    
    452000   297.92193      0.0073076404   4.0389824      739.15253     -51.578752      687.57378    
    453000   310.23645      0.0073076404   4.0610627      769.70519     -55.504371      714.20082    
    454000   299.95371      0.0073076404   2.6844736      744.19341     -54.891907      689.30151    
    455000   300.23386      0.0073076404   3.7149931      744.88848     -57.789749      687.09874    
    456000   292.32225      0.0073076404   3.4824967      725.25956     -53.513299      671.74626    
    457000   301.74352      0.0073076404   5.2697833      748.63399     -48.99931       699.63468    
    458000   301.33582      0.0073076404   3.9909985      747.62248     -48.535298      699.08718    
    459000   301.54043      0.0073076404   4.0109869      748.13011     -49.196427      698.93368    
    460000   293.32055      0.0073076404   3.0649793      727.73636     -48.49953       679.23683    
    461000   303.27541      0.0073076404   1.7219268      752.43464     -47.866343      704.5683     
    462000   301.11628      0.0073076404   4.5347473      747.07778     -48.894537      698.18325    
    463000   289.33054      0.0073076404   4.2067479      717.83703     -47.87223       669.9648     
    464000   297.47611      0.0073076404   3.2867913      738.04642     -51.050011      686.99641    
    465000   289.28343      0.0073076404   2.9387589      717.72016     -51.467377      666.25278    
    466000   293.68841      0.0073076404   3.6133258      728.64904     -50.535048      678.11399    
    467000   306.97071      0.0073076404   2.6360998      761.6028      -48.70444       712.89836    
    468000   307.72443      0.0073076404   4.3685643      763.47279     -49.0081        714.46469    
    469000   282.99024      0.0073076404   6.0286639      702.10659     -50.344783      651.76181    
    470000   300.11775      0.0073076404   2.522883       744.6004      -47.203496      697.39691    
    471000   319.80961      0.0073076404   1.0724729      793.45646     -45.929849      747.52662    
    472000   304.94522      0.0073076404   3.9543744      756.57749     -47.804122      708.77336    
    473000   286.48277      0.0073076404   5.8607494      710.77166     -47.869258      662.9024     
    474000   297.308        0.0073076404   0.095677287    737.62934     -49.218288      688.41105    
    475000   305.64507      0.0073076404   3.1310246      758.31383     -51.595888      706.71795    
    476000   303.16487      0.0073076404   7.0868395      752.16039     -51.637612      700.52278    
    477000   298.70014      0.0073076404   4.9769704      741.08329     -48.201112      692.88218    
    478000   299.51403      0.0073076404   2.4818062      743.10256     -46.782544      696.32001    
    479000   313.84954      0.0073076404   2.5685551      778.66935     -50.302172      728.36718    
    480000   298.74403      0.0073076404   6.2476541      741.19218     -48.992468      692.19971    
    481000   298.72603      0.0073076404   6.2850046      741.1475      -44.466829      696.68067    
    482000   296.44747      0.0073076404   4.0330541      735.49434     -43.12033       692.37401    
    483000   287.74318      0.0073076404   2.2141519      713.89877     -46.672178      667.22659    
    484000   300.49376      0.0073076404   3.4739259      745.5333      -42.89496       702.63835    
    485000   314.79112      0.0073076404   4.4619139      781.00544     -47.221611      733.78383    
    486000   301.37416      0.0073076404   3.9740573      747.71759     -44.417513      703.30008    
    487000   277.69801      0.0073076404   3.4167689      688.97642     -40.945479      648.03095    
    488000   302.82816      0.0073076404   3.9411669      751.32501     -39.336152      711.98885    
    489000   302.88605      0.0073076404   3.430112       751.46865     -39.611611      711.85704    
    490000   296.77828      0.0073076404   4.2164192      736.31508     -34.813755      701.50133    
    491000   297.216        0.0073076404   3.8771757      737.40108     -37.724959      699.67612    
    492000   309.60749      0.0073076404   4.237599       768.14473     -37.468344      730.67638    
    493000   309.51316      0.0073076404   3.991349       767.91068     -37.504203      730.40647    
    494000   305.65235      0.0073076404   3.3428619      758.3319      -37.725744      720.60616    
    495000   298.05412      0.0073076404   5.9996496      739.48048     -36.712922      702.76756    
    496000   304.6651       0.0073076404   4.8207657      755.88251     -39.536838      716.34567    
    497000   307.54956      0.0073076404   2.4650744      763.03893     -39.907781      723.13114    
    498000   291.04758      0.0073076404   4.4745165      722.09707     -40.098772      681.9983     
    499000   303.05332      0.0073076404   6.1769449      751.88364     -40.424339      711.4593     
    500000   306.19278      0.0073076404   2.8988407      759.67273     -39.864868      719.80786    
    501000   302.73428      0.0073076404   3.5176199      751.09209     -38.504115      712.58797    
    502000   301.43164      0.0073076404   6.597267       747.86021     -38.141054      709.71916    
    503000   296.95043      0.0073076404   3.5154023      736.74219     -40.408281      696.33391    
    504000   302.34011      0.0073076404   5.4654321      750.11416     -43.559039      706.55512    
    505000   309.55555      0.0073076404   2.5287704      768.01585     -42.011462      726.00439    
    506000   297.16617      0.0073076404   1.7951451      737.27747     -45.888896      691.38857    
    507000   293.738        0.0073076404   4.4282164      728.77207     -43.769495      685.00257    
    508000   292.88611      0.0073076404   5.7850544      726.65852     -41.248248      685.41028    
    509000   313.78914      0.0073076404   5.4650821      778.51951     -40.155156      738.36435    
    510000   302.05126      0.0073076404  -1.3553446      749.39751     -40.857343      708.54016    
    511000   296.11829      0.0073076404   7.257977       734.67763     -38.001739      696.67589    
    512000   299.64333      0.0073076404   9.8582632      743.42336     -38.875469      704.54789    
    513000   299.73287      0.0073076404   3.6688038      743.64552     -39.464698      704.18082    
    514000   299.28043      0.0073076404   1.9733728      742.52299     -38.792979      703.73001    
    515000   291.99733      0.0073076404   7.5981732      724.45342     -36.993532      687.45989    
    516000   294.37739      0.0073076404   6.1339227      730.35843     -39.663148      690.69528    
    517000   304.53167      0.0073076404   3.1229175      755.55147     -39.218589      716.33288    
    518000   299.15311      0.0073076404  -1.6487078      742.20712     -38.269547      703.93757    
    519000   300.21668      0.0073076404   5.5437418      744.84585     -35.087448      709.7584     
    520000   296.40845      0.0073076404   10.583421      735.39754     -35.686455      699.71109    
    521000   303.82899      0.0073076404   3.3033904      753.80811     -32.290512      721.5176     
    522000   315.90075      0.0073076404   1.505237       783.75847     -33.740287      750.01818    
    523000   297.95189      0.0073076404   1.6794393      739.22685     -34.904384      704.32247    
    524000   279.16221      0.0073076404   7.9871339      692.60913     -34.563374      658.04575    
    525000   306.30455      0.0073076404   5.286241       759.95002     -37.606424      722.3436     
    526000   304.86697      0.0073076404  -1.6471951      756.38335     -40.524573      715.85878    
    527000   298.40567      0.0073076404   4.2798111      740.35271     -43.128468      697.22424    
    528000   293.88142      0.0073076404   6.0992655      729.12791     -36.703057      692.42485    
    529000   307.09914      0.0073076404   5.4361984      761.92143     -36.307596      725.61384    
    530000   315.8803       0.0073076404   4.0321045      783.70774     -34.940264      748.76748    
    531000   284.51504      0.0073076404   3.2863398      705.88966     -38.064909      667.82475    
    532000   296.64689      0.0073076404   5.8794778      735.9891      -39.19156       696.79754    
    533000   303.03283      0.0073076404  -4.4689207      751.8328      -38.087155      713.74565    
    534000   303.71612      0.0073076404   6.1268097      753.52805     -34.510832      719.01722    
    535000   309.54515      0.0073076404   3.2003048      767.99005     -40.778808      727.21124    
    536000   303.13042      0.0073076404   1.569402       752.07492     -38.163954      713.91097    
    537000   309.08773      0.0073076404   3.5249436      766.85518     -39.422195      727.43299    
    538000   308.15622      0.0073076404   7.7428366      764.54408     -34.865803      729.67828    
    539000   302.23157      0.0073076404   4.9266341      749.84486     -38.750865      711.094      
    540000   295.12132      0.0073076404  -0.92989774     732.20412     -36.983749      695.22037    
    541000   291.39045      0.0073076404   2.2880798      722.94774     -35.317243      687.6305     
    542000   311.92063      0.0073076404   9.1132812      773.88367     -34.735777      739.14789    
    543000   306.38572      0.0073076404   1.7984569      760.15141     -38.114298      722.03712    
    544000   291.01341      0.0073076404  -0.5138004      722.01228     -37.93909       684.07319    
    545000   292.58255      0.0073076404   5.0288146      725.90536     -41.734147      684.17122    
    546000   295.68702      0.0073076404   7.3500381      733.60765     -41.790566      691.81709    
    547000   312.86284      0.0073076404   6.8083007      776.22133     -42.964681      733.25665    
    548000   296.29817      0.0073076404   2.2141754      735.12392     -40.783676      694.34025    
    549000   293.52331      0.0073076404   1.9838268      728.23943     -37.305553      690.93388    
    550000   301.51144      0.0073076404   5.2095213      748.0582      -38.318894      709.7393     
    551000   306.44286      0.0073076404   4.5690195      760.29319     -39.0199        721.27329    
    552000   293.00797      0.0073076404   1.223139       726.96086     -33.496949      693.46391    
    553000   295.28437      0.0073076404   4.4816899      732.60865     -35.352425      697.25623    
    554000   325.32771      0.0073076404   5.1406355      807.14702     -36.874694      770.27233    
    555000   314.92676      0.0073076404   4.2563401      781.34198     -40.095543      741.24644    
    556000   289.38231      0.0073076404   2.3297098      717.9655      -40.799257      677.16624    
    557000   295.9535       0.0073076404   2.9757295      734.2688      -39.752593      694.5162     
    558000   299.40873      0.0073076404   6.9877254      742.84132     -43.497412      699.34391    
    559000   300.73288      0.0073076404   5.5016182      746.12656     -42.525493      703.60107    
    560000   311.19717      0.0073076404   2.5314634      772.08875     -42.774689      729.31406    
    561000   302.77805      0.0073076404   2.2047857      751.20068     -43.542454      707.65822    
    562000   289.99316      0.0073076404   4.8002261      719.48103     -43.799791      675.68124    
    563000   297.53556      0.0073076404   3.8602575      738.19393     -45.017581      693.17635    
    564000   290.30376      0.0073076404  -0.84002816     720.25162     -44.720388      675.53123    
    565000   305.85892      0.0073076404   4.5167128      758.84441     -43.314083      715.53032    
    566000   312.21872      0.0073076404   5.7816364      774.62326     -39.909851      734.7134     
    567000   298.48325      0.0073076404   3.1504998      740.54517     -40.040943      700.50422    
    568000   303.45154      0.0073076404   3.3407251      752.87163     -38.053476      714.81815    
    569000   292.15492      0.0073076404   4.4465158      724.84442     -35.756262      689.08816    
    570000   302.44261      0.0073076404   4.751175       750.36845     -38.366209      712.00224    
    571000   301.67791      0.0073076404   3.4676654      748.47122     -38.272658      710.19856    
    572000   301.85531      0.0073076404   3.3398354      748.91135     -39.908279      709.00307    
    573000   303.53615      0.0073076404   4.46265        753.08155     -37.075192      716.00636    
    574000   310.44032      0.0073076404   3.8044625      770.21098     -37.623502      732.58748    
    575000   297.20531      0.0073076404   3.7323117      737.37457     -38.678388      698.69618    
    576000   294.24671      0.0073076404   4.2024711      730.03419     -39.695843      690.33835    
    577000   324.34785      0.0073076404   4.148778       804.71596     -40.207517      764.50844    
    578000   321.67702      0.0073076404   4.0738471      798.08955     -42.039495      756.05005    
    579000   290.7508       0.0073076404   3.8362949      721.36074     -41.368572      679.99217    
    580000   294.97045      0.0073076404   4.9192652      731.82981     -36.425948      695.40386    
    581000   302.92833      0.0073076404   3.949149       751.57353     -38.335513      713.23802    
    582000   303.33414      0.0073076404   4.1178713      752.58037     -38.9621        713.61827    
    583000   300.94957      0.0073076404   4.2967688      746.66419     -39.331956      707.33223    
    584000   289.22767      0.0073076404   2.7553475      717.58182     -35.818992      681.76283    
    585000   300.09193      0.0073076404   3.9491624      744.53636     -35.388944      709.14741    
    586000   287.98582      0.0073076404   4.2243229      714.50075     -33.856497      680.64425    
    587000   303.54882      0.0073076404   4.4330162      753.11298     -34.312337      718.80065    
    588000   298.46672      0.0073076404   3.7845391      740.50416     -34.802318      705.70185    
    589000   293.92756      0.0073076404   3.4314469      729.24237     -35.197653      694.04471    
    590000   300.96591      0.0073076404   3.9967098      746.70472     -35.651567      711.05315    
    591000   316.9172       0.0073076404   4.1620835      786.2803      -35.720999      750.5593     
    592000   298.69812      0.0073076404   3.8114778      741.07826     -34.017252      707.06101    
    593000   295.51314      0.0073076404   3.6954304      733.17626     -34.932317      698.24394    
    594000   302.68343      0.0073076404   4.6954301      750.96594     -35.719548      715.24639    
    595000   303.61217      0.0073076404   4.1386525      753.27016     -34.54959       718.72058    
    596000   301.42468      0.0073076404   4.6762213      747.84293     -37.257266      710.58567    
    597000   295.87266      0.0073076404   4.5957824      734.06823     -35.111073      698.95716    
    598000   297.857        0.0073076404   3.9663002      738.99144     -33.690341      705.3011     
    599000   304.37506      0.0073076404   4.0036721      755.16292     -36.391239      718.77168    
    600000   299.78629      0.0073076404   3.0247044      743.77806     -34.792464      708.98559    
    601000   308.16536      0.0073076404   3.3984875      764.56674     -32.622281      731.94446    
    602000   302.27235      0.0073076404   3.8929889      749.94604     -32.148882      717.79716    
    603000   313.90071      0.0073076404   3.5213755      778.79632     -30.838349      747.95797    
    604000   288.60701      0.0073076404   4.5001042      716.04194     -30.719938      685.322      
    605000   281.97182      0.0073076404   3.906469       699.57985     -30.471895      669.10796    
    606000   306.01436      0.0073076404   5.542437       759.23007     -30.966491      728.26358    
    607000   305.66849      0.0073076404   4.0504097      758.37195     -28.481997      729.88996    
    608000   299.04233      0.0073076404   3.4029843      741.93225     -29.606356      712.3259     
    609000   293.97512      0.0073076404   4.0215982      729.36038     -31.965231      697.39515    
    610000   300.51357      0.0073076404   4.0898753      745.58244     -30.68716       714.89528    
    611000   308.57086      0.0073076404   3.9644538      765.57281     -33.088595      732.48422    
    612000   305.24488      0.0073076404   3.9783065      757.32096     -31.931357      725.3896     
    613000   294.17771      0.0073076404   4.9699448      729.86301     -29.639601      700.22341    
    614000   301.47919      0.0073076404   4.3626028      747.97819     -33.513908      714.46428    
    615000   311.51087      0.0073076404   1.4835785      772.86705     -35.260999      737.60605    
    616000   285.46393      0.0073076404   1.9868767      708.24389     -34.368406      673.87548    
    617000   291.00502      0.0073076404   5.6870673      721.99148     -34.071308      687.92017    
    618000   302.91892      0.0073076404   1.5532191      751.55018     -32.244065      719.30612    
    619000   304.68255      0.0073076404  -0.84705716     755.9258      -31.588224      724.33758    
    620000   301.47374      0.0073076404   4.1871601      747.96465     -30.764549      717.2001     
    621000   298.09983      0.0073076404   5.384906       739.5939      -30.510138      709.08376    
    622000   300.59963      0.0073076404   6.3883882      745.79598     -33.310812      712.48517    
    623000   311.72315      0.0073076404   3.9772616      773.39373     -28.676723      744.71701    
    624000   303.15454      0.0073076404   3.8766937      752.13477     -31.609078      720.52569    
    625000   292.69333      0.0073076404   4.0810942      726.18022     -32.758085      693.42214    
    626000   315.456        0.0073076404   5.3420549      782.65503     -32.484611      750.17042    
    627000   310.12161      0.0073076404   3.7131967      769.42026     -34.028415      735.39185    
    628000   287.60051      0.0073076404   4.3645482      713.5448      -32.891126      680.65368    
    629000   276.9884       0.0073076404   3.8556302      687.21585     -32.984889      654.23096    
    630000   307.76713      0.0073076404   4.8055509      763.57874     -27.628695      735.95005    
    631000   301.18421      0.0073076404   2.9836578      747.24632     -30.903145      716.34317    
    632000   305.57835      0.0073076404   3.9297555      758.14832     -29.995259      728.15306    
    633000   306.16775      0.0073076404   2.7852768      759.61063     -34.350972      725.25965    
    634000   307.39327      0.0073076404   4.2379667      762.65117     -35.043477      727.60769    
    635000   294.67911      0.0073076404   3.9979223      731.10698     -34.108821      696.99816    
    636000   300.44877      0.0073076404   4.0993847      745.42168     -36.10581       709.31587    
    637000   316.07596      0.0073076404   3.8493796      784.19317     -34.916713      749.27646    
    638000   298.79076      0.0073076404   4.236925       741.30811     -36.428027      704.88008    
    639000   294.5066       0.0073076404   5.2052975      730.67899     -35.622991      695.056      
    640000   306.69286      0.0073076404   3.9012032      760.91345     -34.175201      726.73825    
    641000   295.07968      0.0073076404   3.2169326      732.10083     -32.386902      699.71392    
    642000   299.49047      0.0073076404   4.0284213      743.04412     -32.434161      710.60996    
    643000   306.05784      0.0073076404   5.2693574      759.33793     -29.820601      729.51733    
    644000   302.37635      0.0073076404   3.2472558      750.20407     -30.573108      719.63096    
    645000   295.35852      0.0073076404   3.8584085      732.79263     -31.316242      701.47639    
    646000   307.75798      0.0073076404   4.3470128      763.55604     -28.853759      734.70228    
    647000   309.71861      0.0073076404   4.1277194      768.42042     -33.738182      734.68224    
    648000   299.09857      0.0073076404   4.1270493      742.0718      -30.896417      711.17538    
    649000   286.47692      0.0073076404   0.15573692     710.75714     -32.410906      678.34623    
    650000   299.1461       0.0073076404   2.7505023      742.18972     -29.713318      712.4764     
    651000   297.32092      0.0073076404   4.1138487      737.6614      -32.798516      704.86289    
    652000   294.22234      0.0073076404   5.6569092      729.97374     -30.840691      699.13305    
    653000   301.6058       0.0073076404   3.150497       748.29231     -32.638464      715.65385    
    654000   302.55104      0.0073076404   2.0699009      750.63747     -30.334076      720.30339    
    655000   301.18192      0.0073076404   4.6801814      747.24064     -32.010095      715.23055    
    656000   297.89995      0.0073076404   4.5748269      739.09799     -33.602784      705.49521    
    657000   287.52428      0.0073076404   2.4571914      713.35566     -30.87029       682.48537    
    658000   296.67379      0.0073076404   2.7056816      736.05585     -27.619351      708.4365     
    659000   304.63201      0.0073076404   3.517153       755.80041     -25.014579      730.78583    
    660000   298.4528       0.0073076404   3.7892903      740.46963     -27.959236      712.5104     
    661000   297.42336      0.0073076404   2.4538378      737.91554     -27.20544       710.7101     
    662000   301.58763      0.0073076404   4.2458911      748.24722     -27.084216      721.163      
    663000   322.6867       0.0073076404   4.280018       800.5946      -30.405805      770.1888     
    664000   307.32035      0.0073076404   2.97549        762.47025     -29.680043      732.79021    
    665000   286.63354      0.0073076404   3.3866303      711.14571     -32.282603      678.8631     
    666000   300.45991      0.0073076404   3.7387276      745.44931     -30.388874      715.06044    
    667000   311.76457      0.0073076404   4.4432169      773.49648     -29.375195      744.12129    
    668000   299.15907      0.0073076404   2.5881364      742.22191     -30.534892      711.68702    
    669000   301.13225      0.0073076404   4.0680406      747.11741     -34.856983      712.26043    
    670000   302.02582      0.0073076404   4.0425248      749.33437     -35.868319      713.46606    
    671000   294.09109      0.0073076404   4.1488724      729.6481      -34.343168      695.30493    
    672000   290.26727      0.0073076404   1.896028       720.16109     -29.595495      690.56559    
    673000   300.05306      0.0073076404   4.6778367      744.43991     -27.703632      716.73628    
    674000   309.94043      0.0073076404   3.8694281      768.97074     -27.919863      741.05088    
    675000   297.46897      0.0073076404   3.8812575      738.02873     -26.415388      711.61334    
    676000   291.42155      0.0073076404   3.1004843      723.0249      -27.682417      695.34248    
    677000   296.71429      0.0073076404   3.916988       736.15632     -23.505341      712.65098    
    678000   312.21962      0.0073076404   5.0136431      774.62548     -29.619834      745.00564    
    679000   300.69589      0.0073076404   3.8192257      746.03479     -28.371887      717.66291    
    680000   285.71107      0.0073076404   4.0792592      708.85704     -24.213958      684.64308    
    681000   293.73872      0.0073076404   3.8183322      728.77386     -31.221217      697.55265    
    682000   293.00687      0.0073076404   4.3783113      726.95811     -28.4218        698.53631    
    683000   314.1415       0.0073076404   4.349213       779.39372     -27.374902      752.01881    
    684000   303.52026      0.0073076404   4.5733465      753.04213     -30.429897      722.61224    
    685000   301.47936      0.0073076404   4.1243866      747.9786      -27.781159      720.19744    
    686000   296.00694      0.0073076404   2.6201171      734.40138     -26.937063      707.46432    
    687000   303.68499      0.0073076404   4.0693854      753.45083     -26.26873       727.1821     
    688000   297.44994      0.0073076404   4.5494745      737.98149     -24.597935      713.38356    
    689000   293.0409       0.0073076404   3.9299613      727.04256     -24.081464      702.96109    
    690000   307.48598      0.0073076404   3.4798451      762.8812      -26.160111      736.72109    
    691000   305.79589      0.0073076404   4.7270006      758.68803     -21.52944       737.15859    
    692000   297.15666      0.0073076404   4.0109158      737.25385     -22.018248      715.23561    
    693000   298.12535      0.0073076404   4.2207289      739.65721     -20.574415      719.0828     
    694000   304.81447      0.0073076404   4.3876804      756.2531      -19.792652      736.46044    
    695000   298.10401      0.0073076404   4.903713       739.60426     -19.488683      720.11558    
    696000   294.03201      0.0073076404   3.9966001      729.50152     -20.575234      708.92629    
    697000   310.12167      0.0073076404   2.8710179      769.42041     -21.232272      748.18814    
    698000   308.9394       0.0073076404   3.7493099      766.48718     -23.722441      742.76474    
    699000   303.48282      0.0073076404   4.4168969      752.94923     -21.254558      731.69467    
    700000   293.12783      0.0073076404   4.2060548      727.25824     -24.63695       702.62129    
    701000   290.89569      0.0073076404   3.942541       721.72022     -26.43626       695.28396    
    702000   320.84015      0.0073076404   4.0004264      796.01326     -23.590442      772.42282    
    703000   311.46614      0.0073076404   2.1405179      772.75608     -23.809064      748.94702    
    704000   306.311        0.0073076404   3.7244951      759.96604     -24.98395       734.98209    
    705000   295.64067      0.0073076404   5.3076962      733.49266     -22.837807      710.65485    
    706000   302.27854      0.0073076404   4.1978054      749.96139     -27.206681      722.75471    
    707000   301.21799      0.0073076404   3.0905643      747.33014     -26.235844      721.0943     
    708000   306.31098      0.0073076404   3.0240636      759.96599     -28.714039      731.25195    
    709000   299.48895      0.0073076404   4.642862       743.04033     -26.242205      716.79812    
    710000   294.92976      0.0073076404   3.2256401      731.72886     -26.907212      704.82164    
    711000   302.75829      0.0073076404   4.1244247      751.15167     -26.512789      724.63888    
    712000   304.44807      0.0073076404   4.5437735      755.34406     -25.826405      729.51766    
    713000   304.64062      0.0073076404   4.4858786      755.82177     -25.861868      729.9599     
    714000   307.86997      0.0073076404   4.724039       763.83389     -26.774016      737.05987    
    715000   288.00725      0.0073076404   4.2277136      714.55392     -24.781476      689.77244    
    716000   292.14632      0.0073076404   1.7852248      724.82308     -27.523975      697.29911    
    717000   312.69693      0.0073076404   3.4128467      775.8097      -23.443498      752.36621    
    718000   313.0277       0.0073076404   4.5658922      776.63036     -22.035288      754.59507    
    719000   292.69864      0.0073076404   4.5533597      726.19339     -23.260483      702.9329     
    720000   287.64617      0.0073076404   1.423762       713.65807     -24.277998      689.38007    
    721000   310.03977      0.0073076404   4.6530821      769.21721     -26.100494      743.11671    
    722000   297.287        0.0073076404   4.477509       737.57724     -26.473559      711.10368    
    723000   283.6871       0.0073076404   3.3786346      703.83552     -23.677606      680.15791    
    724000   296.65184      0.0073076404   2.5479162      736.00139     -25.594895      710.40649    
    725000   304.25519      0.0073076404   1.7731399      754.86552     -24.106848      730.75867    
    726000   304.03605      0.0073076404   5.2519037      754.32183     -24.164467      730.15736    
    727000   286.31759      0.0073076404   4.571952       710.36184     -23.443412      686.91842    
    728000   304.32563      0.0073076404   2.8079963      755.04027     -24.542748      730.49752    
    729000   308.14382      0.0073076404   4.6041728      764.51331     -25.96838       738.54493    
    730000   289.42884      0.0073076404   3.8233084      718.08093     -26.142046      691.93888    
    731000   296.04194      0.0073076404   4.0628876      734.48821     -23.822299      710.66591    
    732000   309.80301      0.0073076404   2.6069251      768.62981     -23.185811      745.444      
    733000   308.37801      0.0073076404   5.268254       765.09433     -23.539261      741.55507    
    734000   278.4822       0.0073076404   3.6874791      690.92201     -25.521078      665.40093    
    735000   292.66746      0.0073076404   3.8666631      726.11605     -24.796873      701.31917    
    736000   299.95027      0.0073076404   4.0097888      744.18488     -20.737522      723.44736    
    737000   297.06001      0.0073076404   4.1736679      737.01407     -22.106477      714.90759    
    738000   289.88638      0.0073076404   3.5774482      719.21609     -18.843059      700.37304    
    739000   298.39933      0.0073076404   3.9559796      740.33696     -21.269819      719.06714    
    740000   297.68793      0.0073076404   4.2810586      738.57195     -24.288537      714.28341    
    741000   297.5091       0.0073076404   4.0359143      738.12828     -23.738191      714.39009    
    742000   304.21782      0.0073076404   4.6586051      754.77279     -26.023454      728.74934    
    743000   302.10243      0.0073076404   3.9311585      749.52446     -22.603593      726.92087    
    744000   302.21108      0.0073076404   3.4248805      749.79403     -20.792063      729.00196    
    745000   307.23693      0.0073076404   4.6685529      762.2633      -24.050233      738.21307    
    746000   301.93649      0.0073076404   5.0173608      749.11275     -24.53483       724.57792    
    747000   295.81578      0.0073076404   4.6517547      733.92709     -23.117787      710.80931    
    748000   306.74839      0.0073076404   3.9215108      761.05121     -25.636753      735.41446    
    749000   310.15351      0.0073076404   0.97234827     769.49941     -22.200243      747.29917    
    750000   300.04208      0.0073076404   4.4694255      744.41268     -20.95102       723.46166    
    751000   306.64481      0.0073076404   8.4741627      760.79424     -23.144478      737.64976    
    752000   299.06015      0.0073076404   3.8418454      741.97647     -19.579464      722.397      
    753000   304.22268      0.0073076404   3.5140824      754.78485     -21.813313      732.97154    
    754000   297.52563      0.0073076404   6.1534187      738.16928     -18.238609      719.93067    
    755000   284.06668      0.0073076404   3.0318047      704.77726     -22.865522      681.91174    
    756000   305.93833      0.0073076404   1.0310156      759.04143     -21.222862      737.81856    
    757000   301.66313      0.0073076404   4.2555915      748.43454     -19.354805      729.07974    
    758000   295.74792      0.0073076404   5.6973598      733.75873     -21.905054      711.85368    
    759000   301.68769      0.0073076404   1.7982268      748.49548     -25.079184      723.4163     
    760000   310.08744      0.0073076404   4.2157043      769.33549     -22.757363      746.57813    
    761000   292.91231      0.0073076404   6.5443537      726.72351     -27.302433      699.42108    
    762000   288.43691      0.0073076404   3.1871156      715.61992     -23.971332      691.64859    
    763000   312.69397      0.0073076404   3.8867671      775.80236     -23.059741      752.74262    
    764000   303.76665      0.0073076404   3.7310373      753.65344     -23.891697      729.76175    
    765000   288.99524      0.0073076404   3.271482       717.00516     -22.612392      694.39277    
    766000   296.22293      0.0073076404   5.0559384      734.93724     -21.179422      713.75782    
    767000   317.3157       0.0073076404   4.4825173      787.26899     -20.917281      766.35171    
    768000   305.86009      0.0073076404   3.9413346      758.84731     -21.905595      736.94171    
    769000   288.00596      0.0073076404   3.8407687      714.55073     -20.80796       693.74277    
    770000   305.75552      0.0073076404   2.197568       758.58786     -17.189028      741.39884    
    771000   317.39332      0.0073076404   4.1644873      787.46158     -20.554724      766.90685    
    772000   297.11624      0.0073076404   3.9952664      737.15358     -20.742543      716.41104    
    773000   294.62728      0.0073076404   3.1348712      730.97841     -23.157576      707.82084    
    774000   311.11922      0.0073076404   2.6169238      771.89536     -17.024913      754.87045    
    775000   315.19034      0.0073076404   8.2281587      781.99591     -18.817475      763.17844    
    776000   290.69595      0.0073076404   4.3682028      721.22466     -18.918716      702.30595    
    777000   293.98456      0.0073076404   0.54108171     729.38381     -19.324881      710.05893    
    778000   309.63567      0.0073076404   4.1070668      768.21463     -18.672647      749.54199    
    779000   302.65935      0.0073076404   6.2139129      750.90619     -18.6083        732.29789    
    780000   284.52428      0.0073076404   2.2839515      705.91258     -15.287581      690.62499    
    781000   295.628        0.0073076404   0.54379507     733.46122     -18.276925      715.18429    
    782000   317.00532      0.0073076404   4.7958923      786.49893     -19.589163      766.90976    
    783000   291.90672      0.0073076404   8.1936061      724.22861     -21.651593      702.57702    
    784000   302.24554      0.0073076404   4.6691117      749.87952     -24.657545      725.22197    
    785000   298.78177      0.0073076404   3.8224081      741.28581     -24.991539      716.29428    
    786000   303.25118      0.0073076404   1.6295095      752.37453     -22.057002      730.31753    
    787000   309.23799      0.0073076404   3.159787       767.22797     -21.734476      745.49349    
    788000   307.82484      0.0073076404   5.5045467      763.72192     -21.38498       742.33694    
    789000   284.38243      0.0073076404   7.3426033      705.56065     -19.220483      686.34017    
    790000   297.37282      0.0073076404   3.8210596      737.79017     -19.762073      718.0281     
    791000   303.76665      0.0073076404   3.3103139      753.65343     -20.881113      732.77232    
    792000   311.32697      0.0073076404   3.6810052      772.41081     -21.001803      751.409      
    793000   301.10827      0.0073076404   5.6983452      747.05792     -25.120809      721.93711    
    794000   291.93778      0.0073076404   3.9558502      724.30568     -20.365314      703.94037    
    795000   290.91665      0.0073076404   3.7950275      721.77222     -22.890406      698.88181    
    796000   318.24164      0.0073076404   4.1077794      789.56628     -21.565148      768.00113    
    797000   297.55454      0.0073076404   4.3245956      738.24101     -21.693752      716.54725    
    798000   277.73128      0.0073076404   2.8216679      689.05897     -21.28184       667.77713    
    799000   300.72153      0.0073076404   3.3271241      746.0984      -21.333682      724.76472    
    800000   306.26941      0.0073076404   4.3926572      759.86284     -23.595956      736.26688    
    801000   302.1403       0.0073076404   4.2032283      749.61842     -19.031279      730.58714    
    802000   295.73513      0.0073076404   3.9640198      733.727       -20.850007      712.87699    
    803000   293.06617      0.0073076404   3.6765722      727.10525     -18.755696      708.34956    
    804000   314.40098      0.0073076404   2.4712814      780.0375      -17.611644      762.42586    
    805000   311.9795       0.0073076404   5.2114436      774.02975     -18.394193      755.63556    
    806000   300.88835      0.0073076404   4.9998178      746.5123      -18.016319      728.49598    
    807000   270.86554      0.0073076404   3.0988927      672.02488     -21.012758      651.01212    
    808000   306.67405      0.0073076404   4.123109       760.86677     -21.151753      739.71501    
    809000   305.27149      0.0073076404   5.0797986      757.38698     -19.446434      737.94054    
    810000   307.85264      0.0073076404   4.0385883      763.79088     -20.304545      743.48634    
    811000   298.09303      0.0073076404   0.071709049    739.57701     -22.541567      717.03545    
    812000   301.19724      0.0073076404   4.7822324      747.27864     -20.969257      726.30939    
    813000   297.04718      0.0073076404   4.0283136      736.98223     -21.938319      715.04391    
    814000   304.82685      0.0073076404   3.9395026      756.28381     -21.159847      735.12397    
    815000   307.45138      0.0073076404   3.343236       762.79535     -22.013906      740.78144    
    816000   295.03924      0.0073076404   5.5271583      732.00049     -17.987414      714.01308    
    817000   298.70249      0.0073076404   4.0121314      741.08911     -20.772918      720.31619    
    818000   298.89256      0.0073076404   3.0441513      741.56067     -18.745401      722.81527    
    819000   315.16086      0.0073076404   2.9832804      781.92278     -19.00704       762.91574    
    820000   290.3346       0.0073076404   5.5755973      720.32815     -21.224185      699.10397    
    821000   293.78306      0.0073076404   0.011824422    728.88387     -20.553553      708.33032    
    822000   309.85157      0.0073076404   3.4853691      768.75028     -20.214199      748.53608    
    823000   309.10373      0.0073076404   4.8672173      766.89487     -22.893343      744.00153    
    824000   292.84905      0.0073076404   5.1126131      726.56656     -22.206377      704.36019    
    825000   303.67596      0.0073076404   0.41781609     753.42842     -23.123366      730.30506    
    826000   302.37664      0.0073076404   2.7080042      750.20479     -21.224468      728.98032    
    827000   293.14968      0.0073076404   5.4962085      727.31243     -21.567445      705.74499    
    828000   291.66005      0.0073076404   1.5092444      723.61661     -22.229004      701.38761    
    829000   316.47893      0.0073076404   2.4374224      785.19296     -18.904754      766.28821    
    830000   301.80443      0.0073076404   5.8574764      748.78512     -22.951416      725.8337     
    831000   287.16429      0.0073076404   4.0490162      712.46253     -25.710921      686.75161    
    832000   298.37713      0.0073076404   1.4937994      740.28187     -22.888609      717.39327    
    833000   304.45325      0.0073076404   3.487546       755.35691     -19.465682      735.89123    
    834000   311.6627       0.0073076404   4.3699156      773.24376     -22.507624      750.73613    
    835000   289.32379      0.0073076404   3.5147378      717.82029     -20.036553      697.78373    
    836000   295.79643      0.0073076404   3.6048223      733.87909     -20.21551       713.66358    
    837000   303.1734       0.0073076404   5.0293322      752.18156     -22.937687      729.24387    
    838000   297.35995      0.0073076404   4.0999231      737.75822     -16.765999      720.99222    
    839000   299.25946      0.0073076404   3.9351161      742.47097     -15.848177      726.62279    
    840000   305.37952      0.0073076404   3.9885354      757.65502     -13.628009      744.02701    
    841000   298.99758      0.0073076404   4.445931       741.82123     -10.945073      730.87616    
    842000   312.17437      0.0073076404   5.5023181      774.51323     -14.177885      760.33534    
    843000   304.57383      0.0073076404   4.0675643      755.65606     -14.603686      741.05237    
    844000   287.92495      0.0073076404   4.1382693      714.34975     -14.056419      700.29333    
    845000   299.18041      0.0073076404   3.8418998      742.27485     -13.809455      728.4654     
    846000   290.41259      0.0073076404   4.0704221      720.52165     -13.769869      706.75178    
    847000   297.75489      0.0073076404   5.8803694      738.73808     -17.378259      721.35982    
    848000   303.56901      0.0073076404   1.2047492      753.16308     -22.976546      730.18653    
    849000   308.87278      0.0073076404   4.0549627      766.32187     -21.151987      745.16988    
    850000   294.42091      0.0073076404   4.8937098      730.46638     -21.805652      708.66073    
    851000   297.97314      0.0073076404   4.3227809      739.27957     -16.674804      722.60476    
    852000   303.51264      0.0073076404   3.4711516      753.02322     -19.231648      733.79158    
    853000   302.8246       0.0073076404   3.5949768      751.31619     -19.57955       731.73664    
    854000   300.18802      0.0073076404   4.2286252      744.77474     -18.148232      726.62651    
    855000   286.22831      0.0073076404   3.3568264      710.14034     -23.700603      686.43973    
    856000   301.58928      0.0073076404   4.539173       748.25132     -24.079452      724.17187    
    857000   323.25744      0.0073076404   1.9742642      802.01061     -20.977752      781.03286    
    858000   305.22218      0.0073076404   1.4977581      757.26464     -20.299862      736.96477    
    859000   294.00454      0.0073076404   3.6502852      729.43336     -21.384979      708.04839    
    860000   288.94151      0.0073076404   4.6901702      716.87185     -20.378861      696.49299    
    861000   302.62334      0.0073076404   4.5051349      750.81686     -20.233047      730.58381    
    862000   295.04471      0.0073076404   1.6892288      732.01405     -16.683985      715.33007    
    863000   295.14296      0.0073076404   5.6822358      732.25783     -15.349169      716.90866    
    864000   303.7304       0.0073076404   4.5880974      753.5635      -16.065724      737.49778    
    865000   293.11359      0.0073076404   0.27592857     727.22289     -18.819673      708.40322    
    866000   283.10579      0.0073076404   4.163542       702.39328     -15.171015      687.22226    
    867000   299.24142      0.0073076404   4.1015223      742.4262      -17.884085      724.54212    
    868000   308.8406       0.0073076404   4.0091414      766.24204     -18.069806      748.17223    
    869000   303.99412      0.0073076404   2.4809785      754.2178      -19.056688      735.16111    
    870000   288.10703      0.0073076404   3.8676217      714.80148     -19.806015      694.99547    
    871000   302.13606      0.0073076404   4.7462081      749.6079      -20.442         729.1659     
    872000   321.7481       0.0073076404   3.4939671      798.26591     -20.137131      778.12878    
    873000   284.43598      0.0073076404   4.3329515      705.69351     -17.316507      688.377      
    874000   296.21197      0.0073076404   3.9671398      734.91005     -16.467917      718.44214    
    875000   302.71479      0.0073076404   3.8325909      751.04375     -17.801398      733.24235    
    876000   305.94791      0.0073076404   3.7528931      759.06521     -14.95765       744.10756    
    877000   307.10853      0.0073076404   4.3207463      761.94472     -17.476051      744.46867    
    878000   302.55188      0.0073076404   3.6343514      750.63954     -15.835931      734.80361    
    879000   297.26331      0.0073076404   3.9797643      737.51847     -16.361018      721.15745    
    880000   314.75405      0.0073076404   6.5311806      780.91347     -16.952534      763.96093    
    881000   315.47191      0.0073076404   4.4392368      782.69451     -18.816234      763.87827    
    882000   298.77688      0.0073076404  -1.1924235      741.27368     -16.789764      724.48392    
    883000   289.76713      0.0073076404   3.6140517      718.92024     -16.93467       701.98557    
    884000   302.41767      0.0073076404   6.9693391      750.30658     -15.918814      734.38777    
    885000   306.89311      0.0073076404   4.9233051      761.41027     -17.217213      744.19306    
    886000   298.85243      0.0073076404   2.7764233      741.46111     -17.694856      723.76625    
    887000   296.86672      0.0073076404   3.5746971      736.53452     -19.270962      717.26356    
    888000   303.23891      0.0073076404   6.4589086      752.34409     -16.365552      735.97854    
    889000   308.31982      0.0073076404   4.2489059      764.94997     -16.865838      748.08413    
    890000   301.3582       0.0073076404   2.4677523      747.67801     -17.27074       730.40727    
    891000   297.21524      0.0073076404  -0.16675273     737.39921     -20.102399      717.29681    
    892000   305.38467      0.0073076404   5.9736921      757.66778     -16.647514      741.02027    
    893000   309.07         0.0073076404   3.8944958      766.81119     -15.564649      751.24654    
    894000   288.69177      0.0073076404  -7.7321502      716.25224     -19.529111      696.72313    
    895000   291.79662      0.0073076404   6.1921848      723.95547     -20.590323      703.36514    
    896000   313.37207      0.0073076404   6.0391065      777.48475     -19.448447      758.03631    
    897000   316.23209      0.0073076404   3.4573559      784.58054     -18.85235       765.72819    
    898000   290.59094      0.0073076404   3.070566       720.96414     -19.101859      701.86228    
    899000   302.64408      0.0073076404   5.5341314      750.8683      -16.962538      733.90577    
    900000   310.02484      0.0073076404   4.373067       769.18017     -18.979697      750.20047    
    901000   293.95837      0.0073076404   3.0414575      729.31883     -14.93415       714.38468    
    902000   282.1304       0.0073076404   3.6762512      699.9733      -16.462249      683.51105    
    903000   295.30371      0.0073076404   4.1972088      732.65665     -18.897025      713.75962    
    904000   320.30564      0.0073076404   2.0592308      794.68713     -19.248683      775.43845    
    905000   299.87401      0.0073076404   3.5922141      743.99568     -19.78316       724.21252    
    906000   297.43465      0.0073076404   4.3695528      737.94358     -17.712962      720.23061    
    907000   302.74939      0.0073076404   5.8497315      751.12959     -16.928798      734.20079    
    908000   312.53778      0.0073076404   2.819285       775.41484     -16.634247      758.7806     
    909000   296.46493      0.0073076404   3.9316272      735.53765     -15.206245      720.33141    
    910000   297.69215      0.0073076404   4.7864012      738.58243     -16.799497      721.78293    
    911000   315.05856      0.0073076404   4.1374707      781.66897     -17.821364      763.8476     
    912000   295.97264      0.0073076404   3.5388488      734.31628     -17.049638      717.26664    
    913000   294.72577      0.0073076404   4.1275398      731.22275     -18.35195       712.8708     
    914000   303.85382      0.0073076404   4.2884661      753.8697      -15.131692      738.738      
    915000   295.14198      0.0073076404   2.9393043      732.2554      -16.723169      715.53223    
    916000   304.71515      0.0073076404   3.8470867      756.00668     -16.47229       739.53439    
    917000   292.38816      0.0073076404   3.6864416      725.4231      -18.586492      706.8366     
    918000   299.28964      0.0073076404   3.555781       742.54585     -19.845395      722.70046    
    919000   304.66891      0.0073076404   4.202806       755.89197     -19.661425      736.23055    
    920000   288.6848       0.0073076404   4.2579912      716.23494     -17.431179      698.80376    
    921000   297.35978      0.0073076404   3.698494       737.75781     -19.041294      718.71651    
    922000   311.93071      0.0073076404   4.4190047      773.9087      -18.187907      755.72079    
    923000   298.75158      0.0073076404   3.4134668      741.21091     -15.828159      725.38275    
    924000   281.66342      0.0073076404  -0.29727456     698.8147      -15.338901      683.4758     
    925000   295.5053       0.0073076404   2.8222679      733.1568      -16.504079      716.65272    
    926000   309.99422      0.0073076404   4.9527218      769.1042      -19.142992      749.9612     
    927000   302.08065      0.0073076404   6.2543667      749.47041     -18.661108      730.8093     
    928000   300.08103      0.0073076404   2.7617859      744.5093      -20.70415       723.80515    
    929000   306.52796      0.0073076404   3.1239171      760.50431     -20.32924       740.17507    
    930000   298.82039      0.0073076404   4.6013721      741.38162     -20.15447       721.22715    
    931000   300.53647      0.0073076404   5.4892165      745.63926     -21.691537      723.94773    
    932000   303.62994      0.0073076404   3.86371        753.31425     -22.788774      730.52547    
    933000   303.30174      0.0073076404   6.2615492      752.49998     -24.246466      728.25351    
    934000   289.01652      0.0073076404   2.5043225      717.05796     -23.257712      693.80025    
    935000   292.41348      0.0073076404   4.8662031      725.4859      -21.787024      703.69888    
    936000   302.87822      0.0073076404   7.3363309      751.4492      -22.171064      729.27814    
    937000   295.55845      0.0073076404   2.8385612      733.28865     -23.582936      709.70572    
    938000   293.29295      0.0073076404   1.9916558      727.66789     -19.439149      708.22875    
    939000   307.896        0.0073076404   9.8168614      763.89846     -20.491397      743.40707    
    940000   307.94078      0.0073076404   2.4663134      764.00955     -20.394636      743.61492    
    941000   299.13414      0.0073076404   1.0142322      742.16006     -22.064582      720.09548    
    942000   287.53576      0.0073076404   5.0619672      713.38414     -20.373145      693.01099    
    943000   317.15193      0.0073076404   5.0244724      786.86269     -18.721305      768.14139    
    944000   321.32246      0.0073076404   3.5404376      797.20988     -15.912483      781.2974     
    945000   300.03313      0.0073076404   4.2068239      744.39047     -21.073447      723.31703    
    946000   294.99426      0.0073076404   6.5460932      731.88888     -21.160477      710.7284     
    947000   307.99266      0.0073076404   3.670489       764.13828     -21.063561      743.07472    
    948000   307.97725      0.0073076404   2.1172121      764.10006     -18.854412      745.24564    
    949000   284.05377      0.0073076404   3.5599703      704.74524     -18.354985      686.39026    
    950000   291.21378      0.0073076404   9.5830263      722.50941     -20.885361      701.62405    
    951000   314.77408      0.0073076404   8.1244004      780.96316     -14.905905      766.05726    
    952000   310.68946      0.0073076404   5.5466279      770.82911     -21.188515      749.64059    
    953000   298.98431      0.0073076404   1.2722584      741.78831     -21.590975      720.19733    
    954000   286.9608       0.0073076404   2.2640696      711.95765     -19.875309      692.08234    
    955000   293.94146      0.0073076404   4.8352315      729.27687     -20.603635      708.67323    
    956000   307.61318      0.0073076404   4.6881364      763.19677     -23.592192      739.60458    
    957000   308.2347       0.0073076404   1.4592458      764.73878     -23.875668      740.86311    
    958000   288.17143      0.0073076404   4.0605344      714.96127     -21.869038      693.09223    
    959000   301.99735      0.0073076404   5.5892774      749.26374     -18.619948      730.64379    
    960000   322.25367      0.0073076404  -1.5599048      799.52023     -21.785542      777.73469    
    961000   310.27186      0.0073076404   1.8110045      769.79304     -19.591623      750.20141    
    962000   291.2796       0.0073076404   1.8618836      722.67271     -16.919756      705.75296    
    963000   296.82948      0.0073076404   4.2337969      736.44213     -19.550134      716.89199    
    964000   305.23489      0.0073076404   4.1152446      757.29618     -17.566532      739.72965    
    965000   303.01471      0.0073076404   4.0159133      751.78785     -14.97382       736.81403    
    966000   286.8866       0.0073076404   3.7829605      711.77357     -16.635286      695.13829    
    967000   287.98711      0.0073076404   3.7525093      714.50395     -19.559324      694.94462    
    968000   309.89989      0.0073076404   3.9668246      768.87016     -16.405628      752.46453    
    969000   310.91986      0.0073076404   3.8837172      771.40074     -19.012951      752.38779    
    970000   299.10061      0.0073076404   4.0653448      742.07686     -18.709638      723.36722    
    971000   297.89655      0.0073076404   3.2319979      739.08955     -17.742396      721.34715    
    972000   310.22548      0.0073076404   3.9636719      769.67796     -16.707075      752.97088    
    973000   312.53669      0.0073076404   4.2381829      775.41215     -15.951883      759.46026    
    974000   306.57374      0.0073076404   4.7033336      760.61789     -13.577733      747.04016    
    975000   300.5672       0.0073076404   8.5490863      745.71551     -16.136562      729.57895    
    976000   296.45853      0.0073076404   3.0431129      735.52178     -17.02632       718.49546    
    977000   316.35486      0.0073076404   3.8143726      784.88513     -20.06362       764.82151    
    978000   293.3242       0.0073076404   6.3661918      727.74544     -18.058225      709.68721    
    979000   292.50398      0.0073076404   2.9276164      725.71044     -14.142874      711.56757    
    980000   299.76721      0.0073076404   3.3761413      743.73072     -16.732087      726.99863    
    981000   315.01033      0.0073076404   4.1314911      781.5493      -16.193686      765.35562    
    982000   303.066        0.0073076404   5.300305       751.91511     -15.167307      736.7478     
    983000   297.54582      0.0073076404   2.1085779      738.21938     -14.271497      723.94788    
    984000   302.7468       0.0073076404   10.552157      751.12316     -15.603023      735.52014    
    985000   297.06103      0.0073076404   6.8897586      737.01659     -16.874335      720.14226    
    986000   293.26157      0.0073076404   0.23978457     727.59003     -14.706205      712.88383    
    987000   297.92711      0.0073076404   2.7234486      739.16538     -12.821866      726.34351    
    988000   298.86609      0.0073076404   8.0644673      741.49501     -14.438775      727.05624    
    989000   299.77873      0.0073076404   3.6374713      743.75929     -17.336525      726.42277    
    990000   302.4996       0.0073076404  -0.056944656    750.50986     -12.476509      738.03335    
    991000   296.7456       0.0073076404   9.3810104      736.23401     -14.767783      721.46622    
    992000   292.08902      0.0073076404   3.5725278      724.68091     -14.806931      709.87398    
    993000   314.15937      0.0073076404   1.1116503      779.43804     -13.937638      765.50041    
    994000   307.83183      0.0073076404   5.2143634      763.73927     -15.049815      748.68945    
    995000   282.32625      0.0073076404   5.9084946      700.45921     -17.492345      682.96687    
    996000   299.89797      0.0073076404   2.2605227      744.05514     -17.124087      726.93105    
    997000   304.98114      0.0073076404   4.1742526      756.66662     -16.795052      739.87157    
    998000   297.95522      0.0073076404   4.1495451      739.23512     -17.528439      721.70668    
    999000   285.04812      0.0073076404   4.2141521      707.21224     -15.219873      691.99236    
   1000000   308.38411      0.0073076404   3.7699184      765.10947     -15.332763      749.7767     
   1001000   307.95655      0.0073076404   4.0211303      764.0487      -17.913318      746.13538    
   1002000   311.91865      0.0073076404   4.6579188      773.87877     -16.44611       757.43266    
   1003000   298.30926      0.0073076404   3.8296214      740.1135      -18.78226       721.33124    
   1004000   296.97727      0.0073076404   3.5524294      736.8088      -16.809237      719.99956    
   1005000   303.79521      0.0073076404   3.6541473      753.7243      -16.196019      737.52828    
   1006000   305.24757      0.0073076404   4.654672       757.32764     -16.839957      740.48768    
   1007000   301.5102       0.0073076404   7.0763439      748.05513     -19.282553      728.77257    
   1008000   305.88608      0.0073076404   3.8634149      758.9118      -16.594918      742.31688    
   1009000   296.671        0.0073076404   2.5444486      736.04894     -18.79172       717.25722    
   1010000   295.97674      0.0073076404   2.3889051      734.32646     -19.450089      714.87637    
   1011000   311.21679      0.0073076404   4.1378058      772.13744     -19.334066      752.80337    
   1012000   291.43078      0.0073076404   4.158877       723.0478      -11.589953      711.45785    
   1013000   300.61783      0.0073076404   3.7322657      745.84112     -14.358649      731.48247    
   1014000   316.25371      0.0073076404   4.3853257      784.63418     -15.831115      768.80306    
   1015000   292.2279       0.0073076404   5.2090401      725.02548     -15.106675      709.91881    
   1016000   293.90351      0.0073076404   3.8175313      729.18271     -9.3569074      719.82581    
   1017000   302.66242      0.0073076404   2.590405       750.91382     -11.20007       739.71375    
   1018000   302.93964      0.0073076404   3.1528903      751.60159     -10.417016      741.18458    
   1019000   299.67173      0.0073076404   4.4228197      743.49382     -14.327352      729.16646    
   1020000   305.91362      0.0073076404   4.1157257      758.98012     -12.506134      746.47399    
   1021000   293.63257      0.0073076404   4.5626117      728.51051     -15.847289      712.66322    
   1022000   295.43921      0.0073076404   4.0435572      732.99283     -14.66316       718.32967    
   1023000   303.60104      0.0073076404   3.8461824      753.24255     -16.560529      736.68203    
   1024000   308.93124      0.0073076404   2.5859932      766.46693     -15.257827      751.2091     
   1025000   292.50885      0.0073076404   3.4323335      725.72252     -13.224099      712.49842    
   1026000   300.90916      0.0073076404   5.2475674      746.56392     -17.648848      728.91508    
   1027000   300.86711      0.0073076404   3.5628338      746.4596      -15.343112      731.11649    
   1028000   292.75703      0.0073076404   3.437852       726.33825     -15.133847      711.20441    
   1029000   303.92837      0.0073076404   5.1762789      754.05467     -15.510447      738.54423    
   1030000   293.47528      0.0073076404   3.9156164      728.12027     -14.633873      713.48639    
   1031000   301.14645      0.0073076404   3.8696372      747.15264     -12.920484      734.23215    
   1032000   303.62953      0.0073076404   4.476719       753.31322     -12.000206      741.31302    
   1033000   301.13934      0.0073076404   4.1285578      747.135       -16.062978      731.07202    
   1034000   292.76896      0.0073076404   3.6283497      726.36787     -12.823949      713.54392    
   1035000   302.50205      0.0073076404   3.8500415      750.51593     -15.621703      734.89423    
   1036000   300.99594      0.0073076404   3.359399       746.77923     -15.188924      731.59031    
   1037000   292.09095      0.0073076404   3.222473       724.68569     -13.134919      711.55077    
   1038000   297.02605      0.0073076404   3.8936395      736.92981     -15.432711      721.4971     
   1039000   299.03688      0.0073076404   4.0134469      741.91874     -16.858853      725.05989    
   1040000   307.80723      0.0073076404   4.3620316      763.67823     -17.246467      746.43176    
   1041000   306.05601      0.0073076404   4.0245875      759.33339     -18.175521      741.15787    
   1042000   303.28568      0.0073076404   4.5891222      752.46013     -8.7949082      743.66522    
   1043000   300.58365      0.0073076404   4.3485175      745.75633     -13.093283      732.66305    
   1044000   290.47778      0.0073076404   4.1040233      720.68339     -11.912937      708.77045    
   1045000   297.58382      0.0073076404   4.0060696      738.31366     -11.836024      726.47764    
   1046000   316.47137      0.0073076404   5.3461141      785.17418     -10.894643      774.27954    
   1047000   305.27674      0.0073076404   3.142415       757.40002     -14.008723      743.39129    
   1048000   282.5421       0.0073076404   4.7613958      700.99475     -11.936092      689.05866    
   1049000   302.79645      0.0073076404   4.5524475      751.24633     -11.56473       739.6816     
   1050000   309.66885      0.0073076404   3.2296956      768.29696     -10.90786       757.3891     
   1051000   287.79395      0.0073076404   2.9317894      714.02472     -10.924693      703.10003    
   1052000   292.41808      0.0073076404   5.1606334      725.49733     -13.76084       711.73649    
   1053000   301.46955      0.0073076404   3.9594814      747.95426     -14.878765      733.07549    
   1054000   309.91085      0.0073076404   4.3020221      768.89736     -12.739059      756.1583     
   1055000   305.98776      0.0073076404   4.6216112      759.16406     -13.49061       745.67345    
   1056000   287.52839      0.0073076404   3.7211036      713.36586     -12.955552      700.41031    
   1057000   298.7577       0.0073076404   4.3275366      741.2261      -12.093609      729.13249    
   1058000   310.15224      0.0073076404   4.1620363      769.49626     -11.42587       758.07039    
   1059000   300.25678      0.0073076404   4.0963933      744.94535     -10.886107      734.05924    
   1060000   304.63469      0.0073076404   3.7473247      755.80705     -14.061894      741.74516    
   1061000   292.22234      0.0073076404   3.1000936      725.01169     -13.270244      711.74145    
   1062000   297.29777      0.0073076404   5.1215881      737.60397     -12.552562      725.0514     
   1063000   304.5884       0.0073076404   3.9056656      755.69222     -15.738127      739.9541     
   1064000   311.45406      0.0073076404   3.834869       772.72611     -11.533905      761.19221    
   1065000   301.15774      0.0073076404   4.1045661      747.18066     -14.314546      732.86611    
   1066000   303.25128      0.0073076404   5.5054161      752.37479     -14.700119      737.67467    
   1067000   296.45514      0.0073076404   5.3803455      735.51338     -14.373146      721.14024    
   1068000   305.87139      0.0073076404   3.5740062      758.87535     -16.208221      742.66713    
   1069000   302.78907      0.0073076404  -1.1839471      751.22803     -14.844098      736.38393    
   1070000   300.59551      0.0073076404   6.6997118      745.78575     -17.021113      728.76463    
   1071000   286.09683      0.0073076404   1.7121898      709.81411     -14.133526      695.68059    
   1072000   300.01734      0.0073076404   2.9407212      744.35129     -13.779117      730.57218    
   1073000   316.14265      0.0073076404   2.5540323      784.35863     -16.329529      768.02911    
   1074000   291.82379      0.0073076404   5.176887       724.02286     -17.085715      706.93714    
   1075000   288.36147      0.0073076404   1.4622651      715.43275     -15.834203      699.59854    
   1076000   300.8147       0.0073076404   3.8934792      746.32957     -13.714397      732.61517    
   1077000   318.50475      0.0073076404   4.1033067      790.21906     -13.270508      776.94855    
   1078000   297.73788      0.0073076404   4.3474563      738.6959      -13.124127      725.57177    
   1079000   289.93755      0.0073076404   3.0343709      719.34306     -11.182784      708.16028    
   1080000   313.48631      0.0073076404   5.2550159      777.76817     -12.589165      765.179      
   1081000   293.59391      0.0073076404   5.0314359      728.41458     -14.828145      713.58643    
   1082000   305.5975       0.0073076404   2.1249659      758.19583     -14.463499      743.73233    
   1083000   302.03084      0.0073076404   3.8695104      749.34685     -13.553553      735.7933     
   1084000   315.06795      0.0073076404   7.0698469      781.69226     -14.412491      767.27977    
   1085000   290.56558      0.0073076404   8.1333384      720.9012      -12.103755      708.79745    
   1086000   288.16901      0.0073076404   2.7990168      714.95525     -13.503341      701.45191    
   1087000   301.06133      0.0073076404   1.6057816      746.94147     -12.616808      734.32466    
   1088000   307.18165      0.0073076404   4.518748       762.12615     -15.664397      746.46175    
   1089000   288.99113      0.0073076404   5.2272243      716.99497     -17.482776      699.51219    
   1090000   294.75992      0.0073076404   3.8531856      731.30748     -15.720946      715.58654    
   1091000   307.25199      0.0073076404   3.2752983      762.30066     -13.152476      749.14818    
   1092000   305.30724      0.0073076404   3.9118631      757.47568     -12.876057      744.59962    
   1093000   303.117        0.0073076404   3.3448922      752.04163     -14.375386      737.66625    
   1094000   295.83094      0.0073076404   5.8650811      733.9647      -12.746173      721.21853    
   1095000   304.66025      0.0073076404   2.9193008      755.87047     -15.162193      740.70827    
   1096000   307.70149      0.0073076404   4.3986712      763.41588     -17.322881      746.093      
   1097000   299.1091       0.0073076404   6.1049323      742.09793     -18.366526      723.7314     
   1098000   299.79222      0.0073076404   4.6579843      743.79275     -15.408881      728.38387    
   1099000   293.11623      0.0073076404   2.4323662      727.22945     -18.831163      708.39828    
   1100000   301.0572       0.0073076404   3.8685058      746.93122     -15.576838      731.35438    
   1101000   307.42664      0.0073076404   4.5063844      762.73396     -14.983265      747.75069    
   1102000   300.96113      0.0073076404   3.9785876      746.69287     -14.998363      731.6945     
   1103000   298.72169      0.0073076404   0.96238637     741.13674     -14.843367      726.29337    
   1104000   295.10838      0.0073076404   5.3915435      732.17203     -13.912516      718.25951    
   1105000   307.46556      0.0073076404   4.0722059      762.83052     -14.130295      748.70023    
   1106000   305.68773      0.0073076404   0.8884622      758.41968     -16.94488       741.4748     
   1107000   301.0573       0.0073076404   4.1185545      746.93145     -19.396422      727.53503    
   1108000   300.58489      0.0073076404   7.1216144      745.7594      -15.529545      730.22985    
   1109000   300.04463      0.0073076404   3.6110763      744.41901     -12.757941      731.66107    
   1110000   291.30864      0.0073076404   2.3002221      722.74477     -10.805311      711.93946    
   1111000   298.50414      0.0073076404   4.2445963      740.59699     -10.89353       729.70346    
   1112000   311.23242      0.0073076404   6.0680055      772.17621     -9.7115469      762.46466    
   1113000   284.41934      0.0073076404   3.1889826      705.65221     -11.268797      694.38342    
   1114000   286.3031       0.0073076404   2.1055347      710.32589     -11.71796       698.60793    
   1115000   302.85639      0.0073076404   6.0465323      751.39506     -13.582425      737.81263    
   1116000   295.36598      0.0073076404   6.6303229      732.81113     -12.863768      719.94736    
   1117000   305.0535       0.0073076404   3.6173638      756.84613     -15.011059      741.83507    
   1118000   304.35411      0.0073076404  -0.13166943     755.11093     -14.091434      741.0195     
   1119000   298.04055      0.0073076404   4.698174       739.44681     -12.374287      727.07252    
   1120000   311.58847      0.0073076404   4.9827196      773.0596      -12.973554      760.08604    
   1121000   306.85308      0.0073076404   4.5861613      761.31095     -13.991209      747.31974    
   1122000   289.23355      0.0073076404  -1.8919541      717.59642     -17.286089      700.31033    
   1123000   294.17583      0.0073076404   6.5000501      729.85833     -14.455691      715.40264    
   1124000   305.55312      0.0073076404   4.4670544      758.08571     -15.881201      742.20451    
   1125000   317.0898       0.0073076404  -2.3099829      786.70853     -15.636032      771.0725     
   1126000   294.61899      0.0073076404   3.7143151      730.95783     -13.923655      717.03417    
   1127000   293.48219      0.0073076404   6.8446481      728.13739     -11.760304      716.37709    
   1128000   312.61506      0.0073076404   2.946069       775.60657     -15.693412      759.91316    
   1129000   304.49865      0.0073076404   2.5710681      755.46953     -14.071274      741.39826    
   1130000   290.02593      0.0073076404   6.4231164      719.56233     -14.837349      704.72498    
   1131000   305.90587      0.0073076404   7.3697376      758.9609      -17.212838      741.74807    
   1132000   302.56875      0.0073076404  -8.373865       750.6814      -16.667607      734.01379    
   1133000   291.69746      0.0073076404   5.3695935      723.70944     -18.384388      705.32505    
   1134000   316.99023      0.0073076404   6.8852623      786.4615      -13.962259      772.49924    
   1135000   306.85891      0.0073076404  -1.1018898      761.3254      -13.516669      747.80874    
   1136000   295.89353      0.0073076404   3.137328       734.12001     -13.000343      721.11966    
   1137000   300.07993      0.0073076404   6.9403904      744.50659     -13.080072      731.42652    
   1138000   313.76862      0.0073076404   15.822753      778.46858     -12.35329       766.1153     
   1139000   301.88416      0.0073076404   1.6988891      748.98293     -12.54613       736.4368     
   1140000   277.08329      0.0073076404  -6.6680594      687.45128     -12.867289      674.58399    
   1141000   292.97371      0.0073076404   3.6416981      726.87585     -12.830429      714.04542    
   1142000   302.41803      0.0073076404   10.497217      750.30746     -15.105805      735.20165    
   1143000   302.37386      0.0073076404  -3.5792631      750.19788     -13.241992      736.95589    
   1144000   303.98558      0.0073076404   1.5358872      754.19661     -10.842908      743.35371    
   1145000   294.2851       0.0073076404   6.8983583      730.12945     -12.236481      717.89296    
   1146000   295.5018       0.0073076404   6.4987015      733.1481      -7.5379501      725.61015    
   1147000   293.32047      0.0073076404   5.0028449      727.73617     -9.2980551      718.43811    
   1148000   300.74061      0.0073076404   4.3044838      746.14573     -9.3240432      736.82169    
   1149000   301.65553      0.0073076404   3.8392817      748.41569     -10.491712      737.92398    
   1150000   301.47419      0.0073076404   3.6083908      747.96578     -14.811323      733.15445    
   1151000   299.81395      0.0073076404   8.4562617      743.84669     -16.210131      727.63656    
   1152000   307.16895      0.0073076404   1.599105       762.09464     -12.335521      749.75912    
   1153000   303.93071      0.0073076404  -0.091586       754.06046     -11.517576      742.54289    
   1154000   286.31202      0.0073076404   4.6294199      710.34801     -12.251045      698.09697    
   1155000   295.97063      0.0073076404   5.4789829      734.31128     -12.911479      721.39981    
   1156000   307.48896      0.0073076404   4.0430678      762.88859     -14.567432      748.32116    
   1157000   309.30536      0.0073076404   4.1771756      767.39512     -12.115554      755.27956    
   1158000   289.74154      0.0073076404   4.8075457      718.85676     -16.05135       702.80541    
   1159000   286.24623      0.0073076404   3.6135451      710.18479     -14.181758      696.00303    
   1160000   304.08691      0.0073076404   3.0787945      754.448       -15.820353      738.62765    
   1161000   307.4735       0.0073076404   5.3471601      762.85022     -14.273087      748.57714    
   1162000   285.50298      0.0073076404   2.9430161      708.34076     -17.212596      691.12816    
   1163000   298.45111      0.0073076404   0.92309672     740.46542     -17.667067      722.79836    
   1164000   306.32592      0.0073076404   8.0007768      760.00304     -14.87407       745.12897    
   1165000   301.51868      0.0073076404   4.2220836      748.07616     -10.752052      737.32411    
   1166000   319.79288      0.0073076404   1.2819038      793.41494     -12.95821       780.45673    
   1167000   309.91614      0.0073076404   3.3553915      768.91048     -12.35123       756.55925    
   1168000   296.49296      0.0073076404   7.5871682      735.60721     -10.59947       725.00774    
   1169000   289.40427      0.0073076404   4.8309109      718.01996     -11.247157      706.7728     
   1170000   299.39999      0.0073076404   0.98212991     742.81963     -12.313704      730.50592    
   1171000   305.8741       0.0073076404   3.0733136      758.88207     -11.631335      747.25074    
   1172000   300.76754      0.0073076404   4.5413266      746.21255     -13.557807      732.65474    
   1173000   283.34755      0.0073076404   5.6888324      702.99307     -14.599306      688.39377    
   1174000   303.34903      0.0073076404  -6.0442651      752.61729     -15.556052      737.06124    
   1175000   305.01172      0.0073076404   5.9918496      756.74249     -13.926825      742.81566    
   1176000   308.44531      0.0073076404   7.1011732      765.26132     -16.356182      748.90514    
   1177000   278.45719      0.0073076404   2.9142089      690.85997     -13.932588      676.92738    
   1178000   301.65182      0.0073076404   3.2971521      748.40647     -13.946017      734.46046    
   1179000   298.68484      0.0073076404   9.7403015      741.04533     -9.9736443      731.07169    
   1180000   301.37125      0.0073076404   2.019275       747.71037     -13.680528      734.02985    
   1181000   313.65305      0.0073076404   0.38674856     778.18187     -12.49155       765.69032    
   1182000   295.45188      0.0073076404   7.6144254      733.02425     -11.194394      721.82986    
   1183000   292.82275      0.0073076404   0.57318884     726.50131     -12.47304       714.02827    
   1184000   309.18065      0.0073076404   2.5050917      767.08572     -12.043427      755.04229    
   1185000   311.5402       0.0073076404   12.947207      772.93983     -10.656747      762.28309    
   1186000   289.12034      0.0073076404   2.6453625      717.31553     -11.055191      706.26034    
   1187000   295.47502      0.0073076404   0.14937445     733.08167     -14.441123      718.64055    
   1188000   304.60895      0.0073076404   13.276347      755.7432      -12.203372      743.53983    
   1189000   293.01089      0.0073076404   3.4293367      726.9681      -10.815276      716.15282    
   1190000   292.23216      0.0073076404   1.6780081      725.03605     -13.431635      711.60442    
   1191000   318.5284       0.0073076404   5.7876763      790.27773     -11.577797      778.69993    
   1192000   311.4248       0.0073076404   8.4602608      772.65351     -14.382239      758.27127    
   1193000   300.4611       0.0073076404   0.93299206     745.45227     -16.02191       729.43036    
   1194000   299.8194       0.0073076404   5.5108347      743.86019     -16.466593      727.3936     
   1195000   297.62303      0.0073076404   6.9384813      738.41095     -12.576732      725.83422    
   1196000   302.39991      0.0073076404   1.8381707      750.26251     -15.848419      734.4141     
   1197000   301.54995      0.0073076404  -0.19022071     748.15374     -14.83962       733.31412    
   1198000   312.66587      0.0073076404   8.5789348      775.73263     -14.623773      761.10886    
   1199000   299.67416      0.0073076404   4.4310126      743.49985     -16.310429      727.18942    
   1200000   305.0839       0.0073076404   3.418088       756.92156     -14.285847      742.63572    
   1201000   313.72058      0.0073076404   3.770779       778.3494      -15.151955      763.19745    
   1202000   306.35212      0.0073076404   8.6817693      760.06805     -14.767637      745.30041    
   1203000   287.68493      0.0073076404   5.3199         713.75424     -16.621431      697.13281    
   1204000   307.18918      0.0073076404  -0.14854976     762.14482     -13.494251      748.65057    
   1205000   305.71352      0.0073076404   7.1537975      758.48367     -14.736154      743.74752    
   1206000   286.15252      0.0073076404   4.4672993      709.95229     -15.152398      694.7999     
   1207000   289.9862       0.0073076404   1.778281       719.46375     -14.702395      704.76136    
   1208000   311.88675      0.0073076404   3.5845231      773.79963     -13.541729      760.2579     
   1209000   302.33553      0.0073076404   3.8891381      750.10277     -14.603658      735.49911    
   1210000   293.13827      0.0073076404   5.6824628      727.28414     -15.067393      712.21675    
   1211000   292.0352       0.0073076404   3.9741397      724.54738     -13.96805       710.57933    
   1212000   312.87625      0.0073076404   3.1282136      776.25461     -14.704703      761.5499     
   1213000   315.73539      0.0073076404   2.8199975      783.3482      -12.826912      770.52129    
   1214000   299.20885      0.0073076404   4.868733       742.3454      -16.038171      726.30723    
   1215000   295.84871      0.0073076404   5.7056906      734.00881     -18.255026      715.75379    
   1216000   296.27337      0.0073076404   4.0468332      735.0624      -13.490167      721.57223    
   1217000   306.95366      0.0073076404  -2.0559837      761.56049     -15.164718      746.39577    
   1218000   310.62074      0.0073076404   4.6555599      770.65861     -14.331284      756.32733    
   1219000   291.00632      0.0073076404   5.9258551      721.99469     -11.33744       710.65725    
   1220000   293.26779      0.0073076404   3.4243027      727.60548     -10.636769      716.96871    
   1221000   319.8033       0.0073076404   3.4966847      793.44081     -13.058295      780.38251    
   1222000   312.75043      0.0073076404   4.1409143      775.94245     -14.442034      761.50041    
   1223000   290.50236      0.0073076404   4.0755428      720.74437     -15.266443      705.47793    
   1224000   300.20815      0.0073076404   3.653424       744.8247      -14.218949      730.60575    
   1225000   310.07008      0.0073076404   4.0486863      769.29242     -13.51491       755.77751    
   1226000   308.46007      0.0073076404   4.6427503      765.29795     -14.440703      750.85724    
   1227000   292.76109      0.0073076404   3.9823271      726.34834     -11.953753      714.39459    
   1228000   312.14384      0.0073076404   3.6405515      774.43746     -12.395581      762.04188    
   1229000   314.92545      0.0073076404   4.5756648      781.33873     -11.59506       769.74367    
   1230000   298.27317      0.0073076404   5.0358914      740.02396     -12.131414      727.89254    
   1231000   290.95248      0.0073076404   3.3492748      721.86113     -12.199153      709.66198    
   1232000   307.65282      0.0073076404   2.6458021      763.29513     -14.882896      748.41224    
   1233000   313.0271       0.0073076404   5.8190116      776.62887     -12.868249      763.76062    
   1234000   297.09283      0.0073076404   5.5872049      737.09551     -16.620262      720.47524    
   1235000   291.85825      0.0073076404   0.95498465     724.10836     -15.258119      708.85025    
   1236000   303.87039      0.0073076404  -0.68071478     753.91082     -13.968566      739.94225    
   1237000   310.25508      0.0073076404   3.7164293      769.7514      -12.774893      756.9765     
   1238000   301.57474      0.0073076404   5.9779403      748.21523     -12.311323      735.90391    
   1239000   293.68373      0.0073076404   3.2490583      728.63744     -11.485111      717.15233    
   1240000   298.3641       0.0073076404   2.5146706      740.24956     -9.3146823      730.93488    
   1241000   304.84616      0.0073076404   5.9050613      756.33172     -11.812683      744.51903    
   1242000   294.97356      0.0073076404   4.1973737      731.83753     -12.715913      719.12161    
   1243000   287.28987      0.0073076404   4.1041669      712.77409     -9.503324       703.27076    
   1244000   307.95229      0.0073076404   3.8785615      764.03812     -10.707829      753.33029    
   1245000   303.6732       0.0073076404   3.5561516      753.42158     -11.847723      741.57386    
   1246000   295.59666      0.0073076404   4.6154003      733.38345     -12.102681      721.28077    
   1247000   303.05868      0.0073076404   4.3573288      751.89693     -11.614587      740.28235    
   1248000   301.5272       0.0073076404   2.5761744      748.09731     -11.864853      736.23245    
   1249000   308.73917      0.0073076404   4.0800513      765.99039     -11.396636      754.59375    
   1250000   290.51129      0.0073076404   5.9066542      720.76653     -13.961438      706.80509    
   1251000   294.08102      0.0073076404   3.169772       729.62313     -13.705074      715.91805    
   1252000   307.38892      0.0073076404   3.7143482      762.64038     -14.607927      748.03245    
   1253000   294.63706      0.0073076404   4.3140638      731.00266     -13.898862      717.1038     
   1254000   295.13365      0.0073076404   0.014547793    732.23473     -13.646098      718.58863    
   1255000   306.48918      0.0073076404   4.7808646      760.40812     -14.860861      745.54725    
   1256000   305.57613      0.0073076404   4.354442       758.1428      -13.074542      745.06826    
   1257000   293.71405      0.0073076404   2.19136        728.71266     -14.581358      714.1313     
   1258000   306.01726      0.0073076404   3.9707343      759.23726     -12.230745      747.00652    
   1259000   303.4975       0.0073076404   6.5144407      752.98567     -13.732311      739.25336    
   1260000   296.63092      0.0073076404   4.7558747      735.94949     -13.590518      722.35897    
   1261000   301.10361      0.0073076404   1.1086296      747.04635     -10.699437      736.34691    
   1262000   302.46164      0.0073076404   3.6328124      750.41567     -13.61958       736.79609    
   1263000   303.05646      0.0073076404   4.7161567      751.89143     -12.894514      738.99692    
   1264000   295.27757      0.0073076404   3.8266208      732.59178     -12.684899      719.90688    
   1265000   295.1589       0.0073076404   4.1492801      732.29736     -10.480837      721.81652    
   1266000   297.78797      0.0073076404   4.0751512      738.82015     -12.040976      726.77917    
   1267000   302.19129      0.0073076404   4.0308616      749.74492     -12.245423      737.4995     
   1268000   309.26564      0.0073076404   4.7406165      767.29657     -11.380414      755.91616    
   1269000   283.51661      0.0073076404   4.1114109      703.41253     -10.947186      692.46534    
   1270000   304.39599      0.0073076404   3.9462         755.21485     -14.599264      740.61559    
   1271000   296.07973      0.0073076404   4.4755201      734.58197     -12.021028      722.56094    
   1272000   298.70764      0.0073076404   3.9151619      741.10189     -11.326573      729.77531    
   1273000   311.00403      0.0073076404   4.0338536      771.60958     -12.757728      758.85185    
   1274000   303.73724      0.0073076404   3.4562714      753.58046     -12.721514      740.85895    
   1275000   283.13849      0.0073076404   3.6520976      702.47439     -14.830995      687.64339    
   1276000   301.97723      0.0073076404   5.6980394      749.21384     -14.371774      734.84207    
   1277000   310.07442      0.0073076404   3.6174186      769.30318     -13.386318      755.91686    
   1278000   299.86809      0.0073076404   3.4871351      743.98101     -14.669604      729.3114     
   1279000   301.01094      0.0073076404   6.1632615      746.81643     -12.915682      733.90075    
   1280000   298.07073      0.0073076404   4.4676542      739.5217      -14.807819      724.71388    
   1281000   304.0984       0.0073076404   3.2659537      754.47651     -14.605944      739.87057    
   1282000   296.91409      0.0073076404   3.9308134      736.65203     -10.813576      725.83846    
   1283000   301.1736       0.0073076404   3.9419574      747.22        -11.806338      735.41366    
   1284000   298.26131      0.0073076404   4.9433702      739.99452     -10.666679      729.32784    
   1285000   302.36401      0.0073076404   4.2801878      750.17344     -16.599548      733.57389    
   1286000   311.19576      0.0073076404   2.9589514      772.08525     -16.794887      755.29037    
   1287000   300.40107      0.0073076404   3.8356663      745.30334     -14.369396      730.93394    
   1288000   310.48937      0.0073076404   4.5849967      770.33269     -15.075558      755.25713    
   1289000   292.50036      0.0073076404   3.0423809      725.70147     -13.886481      711.81498    
   1290000   303.81211      0.0073076404   3.5230402      753.76623     -15.036223      738.73       
   1291000   294.96901      0.0073076404   4.4348676      731.82625     -14.720401      717.10584    
   1292000   293.79803      0.0073076404   4.0818729      728.92102     -17.570661      711.35036    
   1293000   303.83329      0.0073076404   3.8554435      753.81877     -12.606114      741.21265    
   1294000   323.33511      0.0073076404   4.6202855      802.20333     -19.649587      782.55375    
   1295000   293.8135       0.0073076404   4.8675653      728.95938     -18.400208      710.55917    
   1296000   299.23573      0.0073076404   3.9539318      742.41209     -15.278642      727.13344    
   1297000   305.88875      0.0073076404   3.6276059      758.91843     -16.137278      742.78115    
   1298000   308.17769      0.0073076404   4.7348193      764.59735     -15.676351      748.921      
   1299000   289.90556      0.0073076404   3.8574882      719.26368     -18.800897      700.46279    
   1300000   294.62431      0.0073076404   3.7173926      730.97103     -17.679796      713.29123    
   1301000   302.08879      0.0073076404   3.7363115      749.49062     -18.405575      731.08504    
   1302000   304.3373       0.0073076404   4.0098822      755.06922     -15.461868      739.60735    
   1303000   305.81395      0.0073076404   4.5970006      758.73283     -18.092046      740.64078    
   1304000   300.15785      0.0073076404   3.91646        744.6999      -15.900066      728.79983    
   1305000   306.9266       0.0073076404   2.6818817      761.49335     -15.425813      746.06754    
   1306000   296.20478      0.0073076404   7.6446407      734.89222     -17.026269      717.86595    
   1307000   296.06844      0.0073076404   3.4749056      734.55396     -17.968439      716.58552    
   1308000   294.95028      0.0073076404  -2.8565787      731.77977     -13.269804      718.50996    
   1309000   302.16003      0.0073076404   5.1075813      749.66737     -14.755906      734.91146    
   1310000   303.4819       0.0073076404   6.4038826      752.94696     -15.260521      737.68644    
   1311000   292.47877      0.0073076404  -1.425106       725.64788     -12.074952      713.57293    
   1312000   294.52077      0.0073076404   1.5804538      730.71416     -13.677617      717.03654    
   1313000   307.45519      0.0073076404   5.9832952      762.80481     -15.704109      747.1007     
   1314000   310.47182      0.0073076404   5.5309633      770.28914     -18.096737      752.19241    
   1315000   294.33183      0.0073076404   0.61063564     730.24539     -15.10805       715.13734    
   1316000   301.6144       0.0073076404   4.3220657      748.31365     -13.527398      734.78625    
   1317000   306.1451       0.0073076404   4.1466486      759.55443     -13.66231       745.89212    
   1318000   296.74607      0.0073076404   3.7866956      736.23519     -13.374227      722.86096    
   1319000   306.26895      0.0073076404   4.4438329      759.86171     -13.510674      746.35104    
   1320000   299.08264      0.0073076404   5.8062652      742.03228     -10.442915      731.58936    
   1321000   298.45581      0.0073076404   4.6774361      740.47709     -12.923932      727.55316    
   1322000   300.63975      0.0073076404   1.4016886      745.89551     -16.658817      729.23669    
   1323000   307.87426      0.0073076404   4.0406503      763.84452     -16.823599      747.02092    
   1324000   291.75185      0.0073076404   3.2143377      723.84438     -20.631217      703.21316    
   1325000   287.07947      0.0073076404   3.7251893      712.25207     -18.983022      693.26905    
   1326000   302.70149      0.0073076404   4.0905952      751.01074     -17.542801      733.46794    
   1327000   312.05347      0.0073076404   3.3090123      774.21326     -19.051314      755.16194    
   1328000   287.24441      0.0073076404   3.4530137      712.66129     -20.006505      692.65479    
   1329000   280.66133      0.0073076404   4.6787443      696.3285      -16.501865      679.82664    
   1330000   296.56968      0.0073076404   4.0686754      735.79756     -19.525122      716.27244    
   1331000   312.6744       0.0073076404   4.0251941      775.7538      -17.967217      757.78659    
   1332000   309.2383       0.0073076404   2.558792       767.22874     -18.622308      748.60643    
   1333000   289.30914      0.0073076404   4.6531493      717.78394     -16.515942      701.268      
   1334000   314.58562      0.0073076404   4.813064       780.49559     -15.100572      765.39502    
   1335000   295.38021      0.0073076404   2.2906997      732.84645     -14.917308      717.92915    
   1336000   308.43263      0.0073076404   4.08922        765.22987     -15.551593      749.67828    
   1337000   298.84696      0.0073076404   7.4224932      741.44754     -15.917339      725.53021    
   1338000   297.74639      0.0073076404   4.8885911      738.717       -15.702744      723.01426    
   1339000   303.8006       0.0073076404   2.3972037      753.73767     -14.363993      739.37368    
   1340000   303.23918      0.0073076404   4.723897       752.34477     -15.913224      736.43155    
   1341000   300.71007      0.0073076404   8.5041839      746.06997     -17.013433      729.05653    
   1342000   300.99959      0.0073076404   2.2956629      746.78827     -18.190691      728.59758    
   1343000   289.32986      0.0073076404   3.604898       717.83536     -17.1095        700.72586    
   1344000   310.39138      0.0073076404   6.8151062      770.08958     -12.732781      757.3568     
   1345000   302.26474      0.0073076404   7.3452526      749.92716     -15.059446      734.86771    
   1346000   301.60389      0.0073076404  -0.69303886     748.28757     -16.250474      732.0371     
   1347000   302.72594      0.0073076404   3.8375702      751.0714      -14.747093      736.32431    
   1348000   302.08275      0.0073076404   2.6169347      749.47563     -11.263889      738.21174    
   1349000   289.22275      0.0073076404   6.2140849      717.56962     -13.893083      703.67654    
   1350000   290.73138      0.0073076404   10.127411      721.31257     -12.944749      708.36782    
   1351000   310.80656      0.0073076404   2.8383018      771.11965     -10.600236      760.51941    
   1352000   297.08933      0.0073076404   3.748624       737.08681     -14.670185      722.41663    
   1353000   293.4034       0.0073076404   4.8972149      727.94192     -14.417111      713.52481    
   1354000   305.0814       0.0073076404   4.8165483      756.91536     -15.823841      741.09152    
   1355000   304.27039      0.0073076404   3.3073679      754.90322     -15.396106      739.50712    
   1356000   291.61147      0.0073076404   2.5396618      723.4961      -19.346749      704.14935    
   1357000   295.99137      0.0073076404   5.2963562      734.36275     -13.800578      720.56217    
   1358000   318.4821       0.0073076404   3.165861       790.16287     -9.925437       780.23743    
   1359000   301.46324      0.0073076404   1.7986511      747.9386      -9.6760856      738.26252    
   1360000   287.53614      0.0073076404   4.0434839      713.38508     -11.956784      701.4283     
   1361000   312.44748      0.0073076404   5.3731539      775.1908      -11.769558      763.42124    
   1362000   301.06465      0.0073076404   3.1980267      746.94969     -9.8500605      737.09963    
   1363000   289.68997      0.0073076404   3.9040717      718.72879     -7.6253689      711.10342    
   1364000   297.32782      0.0073076404   4.7612603      737.67851     -11.140037      726.53847    
   1365000   315.42988      0.0073076404   3.8445475      782.59024     -11.475264      771.11497    
   1366000   310.21519      0.0073076404   2.728276       769.65243     -9.645589       760.00684    
   1367000   292.44781      0.0073076404   2.3989398      725.57108     -6.9557265      718.61535    
   1368000   290.39102      0.0073076404   2.2553115      720.46813     -8.0971224      712.371      
   1369000   293.06615      0.0073076404   4.7597325      727.10519     -7.3294347      719.77576    
   1370000   299.36069      0.0073076404   4.6512509      742.72211     -6.6975687      736.02455    
   1371000   297.42017      0.0073076404   4.1343683      737.90763     -8.4518285      729.4558     
   1372000   299.41012      0.0073076404   3.7520528      742.84477     -9.2702437      733.57453    
   1373000   290.10258      0.0073076404   2.7799302      719.7525      -10.24185       709.51065    
   1374000   297.84437      0.0073076404   5.2666249      738.96009     -9.125387       729.8347     
   1375000   311.64307      0.0073076404   2.9772031      773.19504     -8.7519627      764.44308    
   1376000   304.26031      0.0073076404   2.800173       754.87821     -11.794625      743.08359    
   1377000   292.66677      0.0073076404   5.212889       726.11432     -15.415105      710.69921    
   1378000   304.29875      0.0073076404   6.1416102      754.97358     -11.696046      743.27754    
   1379000   299.1332       0.0073076404  -3.2588867      742.15772     -13.824675      728.33305    
   1380000   293.02007      0.0073076404   2.5974792      726.99087     -12.666133      714.32474    
   1381000   306.04219      0.0073076404   6.4685216      759.29912     -12.277817      747.0213     
   1382000   315.79112      0.0073076404   7.5582737      783.48646     -14.376017      769.11045    
   1383000   294.79465      0.0073076404  -2.3753902      731.39365     -11.630839      719.76281    
   1384000   305.71341      0.0073076404   10.07541       758.4834      -12.568915      745.91448    
   1385000   306.98919      0.0073076404   3.2668407      761.64865     -9.6484597      752.00019    
   1386000   293.21038      0.0073076404   2.6597259      727.46304     -10.049799      717.41324    
   1387000   284.25483      0.0073076404   10.231869      705.24407     -10.945589      694.29848    
   1388000   315.39974      0.0073076404   5.133782       782.51545     -14.078744      768.4367     
   1389000   309.78134      0.0073076404   2.4035068      768.57604     -16.217403      752.35863    
   1390000   293.74754      0.0073076404   3.2030747      728.79575     -10.678139      718.11761    
   1391000   287.04932      0.0073076404   8.1826175      712.17727     -11.183799      700.99347    
   1392000   298.14734      0.0073076404   2.8920282      739.71176     -12.689211      727.02255    
   1393000   294.42377      0.0073076404   2.6507153      730.4735      -14.820372      715.65313    
   1394000   301.20813      0.0073076404   4.6532622      747.30568     -15.677         731.62868    
   1395000   307.23423      0.0073076404   5.5628254      762.25658     -11.425499      750.83108    
   1396000   304.49962      0.0073076404   4.4325815      755.47195     -12.29253       743.17942    
   1397000   297.59905      0.0073076404  -0.28242953     738.35143     -9.0095947      729.34184    
   1398000   309.10298      0.0073076404   3.5013836      766.893       -11.684454      755.20855    
   1399000   301.02049      0.0073076404   6.0838675      746.84013     -12.001389      734.83874    
   1400000   295.50811      0.0073076404  -1.364977       733.16377     -12.544056      720.61971    
   1401000   294.73276      0.0073076404   5.4996686      731.2401      -11.044169      720.19593    
   1402000   312.55595      0.0073076404   5.3168613      775.45994     -13.137403      762.32253    
   1403000   303.7136       0.0073076404   1.4092464      753.52182     -9.9698106      743.55201    
   1404000   286.78399      0.0073076404   1.7171177      711.519       -7.7057887      703.81321    
   1405000   297.21391      0.0073076404   7.4381725      737.39592     -7.4379157      729.958      
   1406000   318.48848      0.0073076404   7.2332303      790.17869     -8.7530296      781.42566    
   1407000   311.90196      0.0073076404   6.5963115      773.83737     -10.192269      763.6451     
   1408000   301.42869      0.0073076404   3.3440413      747.85288     -8.1778158      739.67506    
   1409000   290.87893      0.0073076404   1.6013548      721.67865     -9.8376698      711.84098    
   1410000   302.93285      0.0073076404   4.9748176      751.58475     -10.984278      740.60047    
   1411000   297.19579      0.0073076404   5.960507       737.35094     -14.331292      723.01965    
   1412000   300.88916      0.0073076404   2.6658001      746.5143      -11.923389      734.59092    
   1413000   301.74345      0.0073076404   3.5677556      748.63382     -10.537584      738.09623    
   1414000   291.2027       0.0073076404   4.3148354      722.48193     -8.3464818      714.13545    
   1415000   309.12383      0.0073076404   4.910608       766.94475     -8.6789962      758.26575    
   1416000   301.27324      0.0073076404   1.995964       747.46722     -12.101184      735.36604    
   1417000   294.50045      0.0073076404   4.1087157      730.66373     -12.449919      718.21381    
   1418000   307.81879      0.0073076404   4.5738051      763.70689     -15.820205      747.88669    
   1419000   315.69146      0.0073076404   4.0864241      783.23922     -13.880595      769.35862    
   1420000   295.67113      0.0073076404   3.7249154      733.56822     -14.980919      718.5873     
   1421000   286.22534      0.0073076404   4.4425076      710.13296     -14.387328      695.74563    
   1422000   312.47374      0.0073076404   5.1564156      775.25596     -12.424762      762.83119    
   1423000   306.77728      0.0073076404   3.9530353      761.1229      -12.540366      748.58253    
   1424000   294.76733      0.0073076404   3.6609823      731.32587     -15.190689      716.13518    
   1425000   289.71536      0.0073076404   4.1705028      718.7918      -15.020995      703.77081    
   1426000   311.39028      0.0073076404   8.8507863      772.56787     -12.429308      760.13856    
   1427000   309.09513      0.0073076404   3.4414696      766.87353     -14.832127      752.0414     
   1428000   286.09159      0.0073076404   5.1625649      709.80111     -13.236466      696.56465    
   1429000   305.62244      0.0073076404   4.5414141      758.25769     -14.907749      743.34994    
   1430000   307.71371      0.0073076404   0.25471664     763.4462      -14.217658      749.22854    
   1431000   291.21111      0.0073076404   3.5094555      722.50279     -15.020453      707.48234    
   1432000   300.27723      0.0073076404   4.1317076      744.99608     -15.25755       729.73853    
   1433000   311.9621       0.0073076404   5.2480609      773.98657     -9.1719723      764.81459    
   1434000   306.46395      0.0073076404   7.7943996      760.34551     -12.600874      747.74463    
   1435000   300.65012      0.0073076404   4.1542192      745.92123     -9.8956674      736.02556    
   1436000   299.43299      0.0073076404   0.053035367    742.9015      -10.809227      732.09227    
   1437000   296.19955      0.0073076404   2.9822576      734.87926     -10.192869      724.68639    
   1438000   293.02039      0.0073076404   5.8152654      726.99166     -12.963736      714.02793    
   1439000   305.28827      0.0073076404   4.0676635      757.4286      -12.858833      744.56977    
   1440000   292.3307       0.0073076404   3.6302465      725.28053     -12.554632      712.7259     
   1441000   307.50834      0.0073076404   4.8595702      762.93666     -11.490156      751.4465     
   1442000   304.32035      0.0073076404   4.772264       755.02717     -8.6309162      746.39625    
   1443000   296.20441      0.0073076404   3.8510938      734.89129     -12.653931      722.23736    
   1444000   298.89417      0.0073076404   5.7591865      741.56467     -9.0848407      732.47983    
   1445000   295.41535      0.0073076404   2.6000959      732.93361     -13.048804      719.88481    
   1446000   303.41156      0.0073076404   2.9955882      752.77245     -12.387721      740.38473    
   1447000   298.69361      0.0073076404   4.6244743      741.06707     -10.514501      730.55257    
   1448000   294.43416      0.0073076404   3.5879625      730.49927     -9.7908506      720.70842    
   1449000   308.74742      0.0073076404  -2.7426085      766.01086     -12.933616      753.07724    
   1450000   306.38632      0.0073076404   4.8586088      760.15291     -11.94878       748.20413    
   1451000   299.96945      0.0073076404   4.9601505      744.23246     -16.995335      727.23713    
   1452000   287.56321      0.0073076404   3.7795865      713.45226     -16.902952      696.54931    
   1453000   293.91702      0.0073076404   7.6871847      729.21623     -20.395786      708.82044    
   1454000   298.16799      0.0073076404   2.6642742      739.76301     -15.225807      724.5372     
   1455000   325.8087       0.0073076404   2.6891798      808.34036     -14.136704      794.20365    
   1456000   303.76772      0.0073076404   8.6851938      753.65609     -12.323927      741.33216    
   1457000   285.63028      0.0073076404   3.3320352      708.65659     -12.843943      695.81264    
   1458000   317.45325      0.0073076404   2.6662408      787.61027     -9.3553308      778.25494    
   1459000   308.6803       0.0073076404   4.5592418      765.84434     -14.844994      750.99934    
   1460000   294.37353      0.0073076404   4.2951543      730.34884     -10.324353      720.02448    
   1461000   295.57245      0.0073076404   3.2890664      733.3234      -13.376197      719.9472     
   1462000   308.37509      0.0073076404   4.6615019      765.08709     -16.553789      748.53331    
   1463000   300.27387      0.0073076404   4.7850477      744.98776     -14.563311      730.42445    
   1464000   300.03472      0.0073076404   2.0231677      744.39441     -13.265768      731.12864    
   1465000   297.75565      0.0073076404   2.3549838      738.73998     -14.718227      724.02175    
   1466000   295.75265      0.0073076404   5.688741       733.77047     -15.796849      717.97363    
   1467000   305.9627       0.0073076404   4.8793396      759.10189     -15.400549      743.70134    
   1468000   295.78031      0.0073076404   1.1302686      733.83911     -16.810362      717.02875    
   1469000   289.91065      0.0073076404   2.6329609      719.27632     -12.421281      706.85504    
   1470000   315.51783      0.0073076404   4.2158132      782.80844     -13.301596      769.50684    
   1471000   314.75207      0.0073076404   4.5112325      780.90856     -11.208433      769.70012    
   1472000   282.27137      0.0073076404   4.0575473      700.32306     -13.523161      686.7999     
   1473000   297.77223      0.0073076404   2.6521132      738.7811      -13.35332       725.42778    
   1474000   309.75728      0.0073076404   4.9196117      768.51636     -10.131925      758.38444    
   1475000   303.4683       0.0073076404   5.0087854      752.91321     -10.433718      742.4795     
   1476000   290.08042      0.0073076404   3.2821357      719.69753     -11.004127      708.6934     
   1477000   288.19309      0.0073076404   2.931216       715.01499     -12.545419      702.46958    
   1478000   312.15796      0.0073076404   4.1864408      774.4725      -13.970953      760.50155    
   1479000   309.94811      0.0073076404   4.0575397      768.98982     -12.706645      756.28317    
   1480000   299.57625      0.0073076404   4.2896656      743.25693     -13.198366      730.05856    
   1481000   291.54513      0.0073076404   4.2697589      723.33149     -10.074836      713.25666    
   1482000   299.66601      0.0073076404   3.7829165      743.47964     -10.29439       733.18525    
   1483000   309.70697      0.0073076404   3.9568516      768.39153     -9.5371723      758.85435    
   1484000   291.85614      0.0073076404   4.016774       724.10314     -10.6316        713.47154    
   1485000   299.47436      0.0073076404   3.1298548      743.00413     -12.006885      730.99724    
   1486000   289.80837      0.0073076404   3.5253883      719.02256     -13.889198      705.13337    
   1487000   301.61242      0.0073076404   4.3207272      748.30872     -12.04994       736.25878    
   1488000   314.95699      0.0073076404   4.0405643      781.41697     -13.141913      768.27506    
   1489000   293.01944      0.0073076404   3.1029991      726.9893      -14.365161      712.62414    
   1490000   295.91443      0.0073076404   4.9576984      734.17185     -13.134059      721.0378     
   1491000   301.91678      0.0073076404   5.4467568      749.06384     -11.096565      737.96728    
   1492000   304.31374      0.0073076404   2.8260236      755.01077     -13.559774      741.45099    
   1493000   297.28053      0.0073076404   0.50287929     737.5612      -9.8613503      727.69985    
   1494000   295.7542       0.0073076404   5.6896803      733.77431     -11.189531      722.58478    
   1495000   291.5595       0.0073076404   8.6163048      723.36716     -11.192724      712.17443    
   1496000   299.26998      0.0073076404   4.8079826      742.49706     -12.047874      730.44919    
   1497000   307.1548       0.0073076404   4.9628739      762.05952     -10.24107       751.81845    
   1498000   312.04164      0.0073076404   1.4190236      774.1839      -10.692         763.4919     
   1499000   294.81991      0.0073076404   1.8433077      731.45631     -9.9495611      721.50675    
   1500000   299.59633      0.0073076404   6.0501907      743.30675     -11.257493      732.04925    
   1501000   306.37142      0.0073076404   4.8691709      760.11595     -14.601956      745.51399    
   1502000   300.20263      0.0073076404   3.317415       744.81099     -13.70724       731.10375    
   1503000   281.96016      0.0073076404   1.7979036      699.55094     -10.575758      688.97518    
   1504000   293.87433      0.0073076404   5.5835917      729.11031     -11.149315      717.96099    
   1505000   312.37565      0.0073076404   7.5435435      775.01261     -12.664332      762.34828    
   1506000   297.33116      0.0073076404   0.087131695    737.6868      -13.383183      724.30361    
   1507000   293.85382      0.0073076404   5.3833649      729.05943     -17.258682      711.80075    
   1508000   318.46979      0.0073076404   4.2042538      790.13233     -17.499735      772.63259    
   1509000   305.60571      0.0073076404  -0.89765437     758.21619     -14.508027      743.70816    
   1510000   294.621        0.0073076404   4.3626199      730.96283     -13.901133      717.0617     
   1511000   300.44779      0.0073076404   9.9269669      745.41926     -12.74968       732.66957    
   1512000   304.01865      0.0073076404   4.1300136      754.27866     -11.180982      743.09768    
   1513000   307.31345      0.0073076404   2.302036       762.45313     -8.922787       753.53035    
   1514000   297.99468      0.0073076404   3.8103141      739.33302     -10.08646       729.24656    
   1515000   288.76807      0.0073076404   5.451751       716.44154     -8.3877931      708.05374    
   1516000   300.4882       0.0073076404   8.9248628      745.51951     -8.8219644      736.69755    
   1517000   313.45059      0.0073076404   7.6428518      777.67954     -9.3647358      768.31481    
   1518000   303.84025      0.0073076404   0.15875851     753.83604     -8.247348       745.58869    
   1519000   288.17454      0.0073076404   6.9557196      714.96899     -9.2527521      705.71623    
   1520000   298.69648      0.0073076404   7.5535689      741.07419     -13.726152      727.34804    
   1521000   317.25633      0.0073076404   2.1760117      787.12171     -13.155669      773.96604    
   1522000   297.62486      0.0073076404   2.1514212      738.41549     -13.201956      725.21353    
   1523000   295.10352      0.0073076404   5.2503705      732.15997     -10.400269      721.75971    
   1524000   305.30558      0.0073076404   6.0711465      757.47157     -13.226093      744.24548    
   1525000   311.47878      0.0073076404  -0.4618053      772.78745     -14.449464      758.33798    
   1526000   294.90352      0.0073076404   4.4417028      731.66377     -14.4443        717.21947    
   1527000   289.3967       0.0073076404   4.860191       718.00119     -12.552559      705.44863    
   1528000   304.422        0.0073076404   2.9879435      755.27937     -13.408087      741.87128    
   1529000   300.82115      0.0073076404   4.1360972      746.34557     -10.729825      735.61574    
   1530000   311.13144      0.0073076404   5.3239148      771.92569     -9.4698906      762.4558     
   1531000   300.86107      0.0073076404   2.6067708      746.4446      -9.8084917      736.63611    
   1532000   296.77219      0.0073076404  -2.2495986      736.29998     -9.7563826      726.5436     
   1533000   302.4004       0.0073076404   5.3515542      750.26374     -11.274984      738.98876    
   1534000   309.62022      0.0073076404   4.4918172      768.1763      -9.4645523      758.71175    
   1535000   304.00567      0.0073076404   1.2386537      754.24644     -8.4990821      745.74736    
   1536000   290.24591      0.0073076404   4.117137       720.1081      -7.8257708      712.28233    
   1537000   312.90513      0.0073076404   5.2737641      776.32626     -7.5905358      768.73572    
   1538000   311.64628      0.0073076404   3.5522719      773.20302     -6.6281804      766.57484    
   1539000   286.05868      0.0073076404   3.9334445      709.71948     -8.4262522      701.29323    
   1540000   295.90753      0.0073076404   4.9443185      734.15473     -10.703704      723.45103    
   1541000   306.12566      0.0073076404   4.1323497      759.50619     -7.4426791      752.06351    
   1542000   297.07747      0.0073076404   3.820346       737.05739     -9.1921911      727.8652     
   1543000   299.67434      0.0073076404   4.2910283      743.50031     -13.138663      730.36165    
   1544000   307.24661      0.0073076404   4.114663       762.28731     -11.540483      750.74683    
   1545000   304.67455      0.0073076404   1.7519528      755.90596     -14.650693      741.25526    
   1546000   297.51365      0.0073076404   2.2333597      738.13957     -14.261006      723.87856    
   1547000   297.78354      0.0073076404   3.090623       738.80918     -13.215107      725.59408    
   1548000   300.53039      0.0073076404   5.0956134      745.62418     -17.538708      728.08547    
   1549000   298.34663      0.0073076404   4.3931669      740.20621     -17.499775      722.70643    
   1550000   309.56699      0.0073076404   4.695617       768.04423     -14.40625       753.63798    
   1551000   295.39648      0.0073076404   0.52395563     732.8868      -15.189855      717.69695    
   1552000   290.61203      0.0073076404   4.3921413      721.01647     -15.425273      705.59119    
   1553000   319.96109      0.0073076404   12.332636      793.83228     -14.69433       779.13795    
   1554000   302.6799       0.0073076404   2.1776463      750.95716     -15.99736       734.9598     
   1555000   289.8195       0.0073076404   3.3044856      719.05017     -14.752125      704.29804    
   1556000   296.50103      0.0073076404   3.7231535      735.62724     -15.117053      720.51019    
   1557000   306.13509      0.0073076404   5.8727124      759.52959     -13.43986       746.08973    
   1558000   309.28558      0.0073076404   3.4144772      767.34605     -15.533237      751.81281    
   1559000   296.48059      0.0073076404   3.8568166      735.57651     -13.362608      722.2139     
   1560000   291.83058      0.0073076404   3.9753342      724.0397      -12.574493      711.46521    
   1561000   294.31035      0.0073076404   5.1807837      730.1921      -11.46682       718.72528    
   1562000   310.48556      0.0073076404   4.0961031      770.32322     -15.004135      755.31909    
   1563000   292.61561      0.0073076404   4.1226509      725.9874      -14.990412      710.99699    
   1564000   279.37761      0.0073076404   3.7463481      693.14354     -14.722919      678.42062    
   1565000   307.54797      0.0073076404   3.7104628      763.03498     -12.176276      750.85871    
   1566000   312.29398      0.0073076404   4.2619219      774.80997     -13.294306      761.51566    
   1567000   288.46309      0.0073076404   3.4041252      715.68487     -10.217422      705.46745    
   1568000   298.3813       0.0073076404   4.0917947      740.29222     -10.374132      729.91809    
   1569000   296.23257      0.0073076404   7.9322198      734.96118     -11.140104      723.82107    
   1570000   295.51651      0.0073076404   4.4762177      733.18462     -13.412086      719.77253    
   1571000   307.34709      0.0073076404   1.3595912      762.53661     -13.909347      748.62726    
   1572000   297.95279      0.0073076404   2.8676794      739.22908     -13.598164      725.63091    
   1573000   296.47505      0.0073076404   5.7541798      735.56278     -11.260056      724.30273    
   1574000   302.55271      0.0073076404   6.1518884      750.64161     -14.810632      735.83098    
   1575000   312.76448      0.0073076404   3.214803       775.9773      -14.454803      761.5225     
   1576000   306.27714      0.0073076404   3.6817837      759.88203     -14.302556      745.57947    
   1577000   297.69041      0.0073076404   4.0194838      738.57812     -13.981873      724.59625    
   1578000   310.69689      0.0073076404   3.1418662      770.84755     -17.350851      753.4967     
   1579000   311.23489      0.0073076404   5.1833833      772.18234     -17.932571      754.24977    
   1580000   295.42253      0.0073076404   3.0668224      732.95145     -15.813924      717.13752    
   1581000   293.73398      0.0073076404   4.0110188      728.76209     -20.070112      708.69198    
   1582000   292.01248      0.0073076404   3.7276708      724.49101     -18.262582      706.22843    
   1583000   299.72477      0.0073076404   4.2167045      743.62542     -15.943085      727.68233    
   1584000   302.7054       0.0073076404   4.3696298      751.02044     -16.710503      734.30994    
   1585000   302.02054      0.0073076404   4.257071       749.32129     -12.716169      736.60512    
   1586000   292.12429      0.0073076404   4.3107475      724.76841     -14.332486      710.43593    
   1587000   289.57212      0.0073076404   4.8986717      718.43641     -14.581946      703.85447    
   1588000   304.8902       0.0073076404   6.4634131      756.441       -13.527664      742.91334    
   1589000   310.28084      0.0073076404   4.524435       769.81532     -18.177307      751.63801    
   1590000   302.92259      0.0073076404   1.3443931      751.5593      -17.575063      733.98424    
   1591000   284.24465      0.0073076404   4.9694738      705.2188      -17.554205      687.6646     
   1592000   304.92071      0.0073076404   7.8500436      756.51669     -18.047548      738.46914    
   1593000   307.23193      0.0073076404   2.6880102      762.25088     -19.066614      743.18427    
   1594000   283.4534       0.0073076404   3.8478399      703.25569     -13.177195      690.07849    
   1595000   298.36486      0.0073076404   4.7409802      740.25145     -12.379137      727.87231    
   1596000   310.6324       0.0073076404   1.4587717      770.68756     -12.003034      758.68452    
   1597000   289.55648      0.0073076404   2.0131771      718.39761     -10.822538      707.57508    
   1598000   288.16035      0.0073076404   3.9795182      714.93376     -12.973299      701.96046    
   1599000   316.48753      0.0073076404   2.6624894      785.2143      -14.373983      770.84031    
   1600000   305.474        0.0073076404   4.1325048      757.88942     -14.05522       743.8342     
   1601000   288.69336      0.0073076404   3.4091471      716.2562      -13.132767      703.12343    
   1602000   301.16184      0.0073076404   4.2655159      747.19082     -13.546434      733.64439    
   1603000   303.89509      0.0073076404   4.2993034      753.97209     -12.165197      741.80689    
   1604000   292.66466      0.0073076404   4.6979015      726.10908     -10.117916      715.99116    
   1605000   299.76387      0.0073076404   2.7563685      743.72243     -14.409843      729.31259    
   1606000   299.87289      0.0073076404   4.2052373      743.9929      -14.204961      729.78794    
   1607000   291.33482      0.0073076404   4.6420801      722.80972     -11.908166      710.90156    
   1608000   312.30221      0.0073076404   3.7006131      774.8304      -13.83182       760.99858    
   1609000   300.35528      0.0073076404   3.965681       745.18973     -13.118088      732.07164    
   1610000   297.78583      0.0073076404   4.9418796      738.81486     -14.740229      724.07463    
   1611000   295.49849      0.0073076404   3.2884888      733.13989     -13.368086      719.7718     
   1612000   333.54332      0.0073076404   4.278601       827.53018     -12.283148      815.24703    
   1613000   313.83942      0.0073076404   3.6699205      778.64424     -16.984315      761.65992    
   1614000   302.30577      0.0073076404   4.5737364      750.02894     -19.240087      730.78886    
   1615000   287.51764      0.0073076404   2.1263727      713.3392      -16.150272      697.18892    
   1616000   294.38325      0.0073076404   3.2141662      730.37295     -16.770472      713.60248    
   1617000   313.78333      0.0073076404   4.7156364      778.50508     -17.679307      760.82577    
   1618000   309.9121       0.0073076404   8.3736273      768.90047     -17.344258      751.55621    
   1619000   285.63829      0.0073076404   5.1866692      708.67646     -18.069962      690.6065     
   1620000   307.80536      0.0073076404   3.1624335      763.67359     -15.395682      748.27791    
   1621000   314.15049      0.0073076404   6.8234544      779.41603     -19.294614      760.12142    
   1622000   283.3025       0.0073076404   4.077232       702.8813      -17.864302      685.017      
   1623000   300.62296      0.0073076404   3.2978088      745.85386     -16.016952      729.8369     
   1624000   319.69244      0.0073076404   4.4744149      793.16574     -13.937527      779.22822    
   1625000   301.15418      0.0073076404   3.3564747      747.17183     -15.012468      732.15936    
   1626000   298.26522      0.0073076404   2.8374911      740.00423     -12.245783      727.75845    
   1627000   289.6476       0.0073076404   6.2759907      718.62367     -14.420841      704.20283    
   1628000   306.72548      0.0073076404   3.8011294      760.99437     -13.559306      747.43506    
   1629000   302.53041      0.0073076404   3.0386818      750.58629     -14.672962      735.91333    
   1630000   294.58229      0.0073076404   4.1117121      730.86679     -14.842409      716.02438    
   1631000   310.96301      0.0073076404   3.8302579      771.50781     -12.093457      759.41435    
   1632000   298.67794      0.0073076404   3.9784872      741.0282      -12.537781      728.49042    
   1633000   302.04387      0.0073076404   3.9394011      749.37918     -14.424849      734.95433    
   1634000   297.26971      0.0073076404   3.7551966      737.53435     -15.115613      722.41874    
   1635000   302.16903      0.0073076404   1.406889       749.68969     -15.292598      734.3971     
   1636000   301.8355       0.0073076404   3.7386222      748.8622      -14.316331      734.54587    
   1637000   305.86881      0.0073076404   3.9618413      758.86894     -12.567533      746.30141    
   1638000   303.59792      0.0073076404   4.7933955      753.23481     -15.52322       737.71159    
   1639000   308.51946      0.0073076404   6.4078847      765.44528     -14.086644      751.35864    
   1640000   301.19616      0.0073076404   3.6003544      747.27598     -15.616369      731.65961    
   1641000   302.89723      0.0073076404   3.8441699      751.49639     -16.102922      735.39347    
   1642000   296.57025      0.0073076404   4.0042627      735.79897     -17.545946      718.25303    
   1643000   302.02265      0.0073076404   4.7541005      749.32651     -16.544634      732.78188    
   1644000   297.60242      0.0073076404   3.5632482      738.3598      -17.812316      720.54748    
   1645000   307.17223      0.0073076404   3.9356931      762.10278     -17.028209      745.07457    
   1646000   302.53482      0.0073076404   5.1142526      750.59722     -16.031673      734.56554    
   1647000   276.69359      0.0073076404   3.5316831      686.48442     -15.75827       670.72615    
   1648000   292.80316      0.0073076404   4.55278        726.45272     -12.17266       714.28006    
   1649000   303.87854      0.0073076404   4.4299764      753.93102     -10.199355      743.73167    
   1650000   304.23339      0.0073076404   1.5131722      754.81142     -7.8139742      746.99745    
   1651000   299.10208      0.0073076404   3.8476882      742.0805      -11.915722      730.16478    
   1652000   310.05394      0.0073076404   3.7880644      769.25238     -11.108888      758.14349    
   1653000   300.24483      0.0073076404   5.8043646      744.91571     -13.885008      731.0307     
   1654000   289.13942      0.0073076404   7.2101274      717.36287     -15.151741      702.21113    
   1655000   287.46352      0.0073076404   2.0897899      713.20491     -10.905792      702.29912    
   1656000   285.50298      0.0073076404   2.6413281      708.34077     -10.03702       698.30375    
   1657000   300.16579      0.0073076404   4.1976726      744.71959     -10.953998      733.76559    
   1658000   307.19135      0.0073076404  -4.1285052      762.1502      -11.807227      750.34298    
   1659000   294.36412      0.0073076404   6.5644917      730.3255      -7.9829694      722.34253    
   1660000   304.23935      0.0073076404   12.71604       754.82621     -6.9553235      747.87089    
   1661000   295.50365      0.0073076404   7.0019307      733.15271     -6.7685391      726.38417    
   1662000   298.77189      0.0073076404  -3.2853725      741.26128     -8.7670194      732.49426    
   1663000   304.91341      0.0073076404  -1.420405       756.49858     -13.522618      742.97597    
   1664000   297.9293       0.0073076404   6.9402007      739.17081     -13.043601      726.12721    
   1665000   310.56331      0.0073076404   4.9130399      770.51613     -11.727646      758.78848    
   1666000   301.64597      0.0073076404  -2.5451951      748.39198     -11.893595      736.49838    
   1667000   300.51274      0.0073076404   5.0554824      745.58038     -13.458284      732.1221     
   1668000   292.38345      0.0073076404   4.024763       725.4114      -10.819638      714.59176    
   1669000   307.38165      0.0073076404  -2.3012436      762.62234     -11.308914      751.31342    
   1670000   306.71158      0.0073076404   5.6539149      760.95989     -8.9428821      752.01701    
   1671000   299.41088      0.0073076404   9.4905156      742.84664     -9.5519151      733.29472    
   1672000   289.74582      0.0073076404   2.4521466      718.86737     -12.437252      706.43012    
   1673000   310.53373      0.0073076404  -0.50961434     770.44274     -11.345944      759.0968     
   1674000   313.10481      0.0073076404   7.1267672      776.82166     -9.1143907      767.70727    
   1675000   290.04359      0.0073076404   5.7541169      719.60615     -9.1876727      710.41848    
   1676000   291.53201      0.0073076404   2.4233978      723.29896     -12.619676      710.67929    
   1677000   305.38223      0.0073076404  -0.2831404      757.66173     -9.7645608      747.89716    
   1678000   305.79828      0.0073076404   4.7416424      758.69396     -10.536205      748.15775    
   1679000   292.27195      0.0073076404   8.196165       725.13477     -10.731311      714.40346    
   1680000   299.5994       0.0073076404   3.699554       743.31438     -10.587478      732.7269     
   1681000   307.68886      0.0073076404  -2.5597763      763.38455     -9.7250124      753.65954    
   1682000   305.68282      0.0073076404   6.9542648      758.40751     -12.940647      745.46686    
   1683000   281.14905      0.0073076404   0.77250644     697.53855     -14.027997      683.51055    
   1684000   304.30519      0.0073076404  -0.3039603      754.98955     -11.007156      743.9824     
   1685000   320.06166      0.0073076404   6.3396316      794.0818      -11.817429      782.26437    
   1686000   315.71513      0.0073076404   7.4955619      783.29794     -13.459123      769.83882    
   1687000   305.24014      0.0073076404   9.8960952      757.30921     -9.1696692      748.13954    
   1688000   292.57524      0.0073076404   5.0528143      725.88723     -9.9716159      715.91561    
   1689000   288.70903      0.0073076404   2.9969261      716.29506     -8.2088471      708.08621    
   1690000   299.04745      0.0073076404   2.6975333      741.94496     -7.351739       734.59322    
   1691000   305.11007      0.0073076404   5.0933427      756.9865      -6.3726619      750.61384    
   1692000   299.80835      0.0073076404   6.7001711      743.83278     -5.8244815      738.00829    
   1693000   297.61679      0.0073076404   2.4731413      738.39547     -6.2282029      732.16727    
   1694000   310.56971      0.0073076404   3.7773974      770.53201     -7.4690471      763.06296    
   1695000   308.75492      0.0073076404   4.6770541      766.02947     -5.66235        760.36712    
   1696000   301.29701      0.0073076404   5.8899371      747.5262      -9.5660151      737.96018    
   1697000   297.81476      0.0073076404   3.2594768      738.88662     -10.328774      728.55784    
   1698000   302.99067      0.0073076404   1.2376701      751.72821     -9.5585283      742.16968    
   1699000   305.77554      0.0073076404   7.0457182      758.63755     -9.5599753      749.07757    
   1700000   317.32593      0.0073076404   6.5573767      787.29437     -11.144335      776.15004    
   1701000   295.88606      0.0073076404   4.7598605      734.10147     -9.0574713      725.044      
   1702000   285.22576      0.0073076404   1.7895888      707.65298     -10.31843       697.33455    
   1703000   301.65207      0.0073076404   4.4658612      748.4071      -10.42706       737.98004    
   1704000   304.1975       0.0073076404   4.4674891      754.72238     -9.4057605      745.31662    
   1705000   286.2312       0.0073076404   3.5847264      710.1475      -8.6761917      701.47131    
   1706000   301.94377      0.0073076404   4.0928028      749.13081     -7.5125354      741.61827    
   1707000   303.47455      0.0073076404   4.4785899      752.92873     -8.8962507      744.03247    
   1708000   292.78061      0.0073076404   3.8915797      726.39676     -11.574727      714.82203    
   1709000   290.76179      0.0073076404   4.0102488      721.38801     -7.6265777      713.76143    
   1710000   312.52883      0.0073076404   4.4151562      775.39265     -8.4720837      766.92056    
   1711000   309.4384       0.0073076404   4.3675411      767.72519     -9.9343792      757.79081    
   1712000   296.50655      0.0073076404   3.6449091      735.64092     -11.682362      723.95856    
   1713000   291.54962      0.0073076404   4.5808243      723.34265     -9.6790762      713.66357    
   1714000   294.57128      0.0073076404   4.014552       730.83945     -8.378769       722.46068    
   1715000   309.00046      0.0073076404   2.4348646      766.63866     -8.5856775      758.05298    
   1716000   298.39095      0.0073076404   3.5426603      740.31617     -12.337191      727.97898    
   1717000   293.66419      0.0073076404   3.7596855      728.58895     -10.056372      718.53258    
   1718000   300.03018      0.0073076404   4.7507002      744.38314     -10.499974      733.88317    
   1719000   304.28267      0.0073076404   4.3677048      754.93368     -9.8747901      745.05889    
   1720000   318.15617      0.0073076404   4.0910985      789.35424     -11.011845      778.34239    
   1721000   297.62805      0.0073076404   3.3386176      738.42339     -11.756249      726.66714    
   1722000   274.6853       0.0073076404   6.4829601      681.50181     -11.001326      670.50048    
   1723000   295.5194       0.0073076404   5.8577808      733.19177     -11.15432       722.03745    
   1724000   307.77391      0.0073076404   3.5314184      763.59554     -10.777229      752.81832    
   1725000   289.96302      0.0073076404   0.27534072     719.40625     -13.673839      705.73242    
   1726000   300.28334      0.0073076404   6.088718       745.01124     -11.958806      733.05243    
   1727000   311.83401      0.0073076404   4.3591065      773.66876     -13.419918      760.24884    
   1728000   312.10943      0.0073076404   0.99556194     774.35211     -13.043233      761.30888    
   1729000   295.9961       0.0073076404   3.3281685      734.37449     -12.329232      722.04526    
   1730000   307.66953      0.0073076404   9.3733134      763.33658     -11.321383      752.0152     
   1731000   305.86366      0.0073076404   1.377675       758.85618     -11.704957      747.15122    
   1732000   298.90388      0.0073076404  -3.7828456      741.58876     -12.223106      729.36566    
   1733000   312.4267       0.0073076404   3.655353       775.13927     -12.536707      762.60256    
   1734000   300.33595      0.0073076404   7.0543578      745.14176     -15.704597      729.43717    
   1735000   300.94176      0.0073076404   9.6511225      746.64481     -14.673364      731.97144    
   1736000   303.87407      0.0073076404   4.1440132      753.91993     -15.387725      738.53221    
   1737000   308.71039      0.0073076404  -1.0473931      765.91898     -14.895041      751.02394    
   1738000   316.04858      0.0073076404  -14.075005      784.12524     -12.636975      771.48826    
   1739000   286.31466      0.0073076404  -1.2089807      710.35457     -12.641967      697.7126     
   1740000   293.46879      0.0073076404   5.2008038      728.10415     -7.5751348      720.52901    
   1741000   303.72867      0.0073076404   9.1796917      753.5592      -12.886571      740.67262    
   1742000   322.58595      0.0073076404   6.249005       800.34463     -11.124214      789.22041    
   1743000   301.44504      0.0073076404   3.3495529      747.89345     -11.217631      736.67582    
   1744000   274.99803      0.0073076404   3.4070597      682.27768     -11.155977      671.1217     
   1745000   292.43302      0.0073076404   5.2882085      725.53439     -10.361073      715.17332    
   1746000   308.79143      0.0073076404   4.7797879      766.12004     -8.5429165      757.57712    
   1747000   304.56812      0.0073076404   3.6783036      755.64189     -11.647478      743.99441    
   1748000   288.52812      0.0073076404   4.1889134      715.84621     -8.722981       707.12323    
   1749000   314.82748      0.0073076404   6.9954105      781.09565     -9.798592       771.29706    
   1750000   314.66681      0.0073076404   4.0268827      780.69703     -10.545321      770.15171    
   1751000   298.1605       0.0073076404   4.3067492      739.74441     -13.823833      725.92058    
   1752000   299.6919       0.0073076404   4.049507       743.54387     -13.572759      729.97111    
   1753000   303.93166      0.0073076404   4.4268174      754.06282     -15.004872      739.05794    
   1754000   309.2413       0.0073076404   4.1527289      767.23619     -12.313103      754.92308    
   1755000   292.85498      0.0073076404   3.2964957      726.58128     -12.478679      714.1026     
   1756000   301.70365      0.0073076404   3.9472316      748.53506     -11.477134      737.05793    
   1757000   299.06506      0.0073076404   6.270358       741.98865     -10.55994       731.42871    
   1758000   300.15698      0.0073076404   2.4294929      744.69774     -10.870199      733.82754    
   1759000   310.20859      0.0073076404   3.9897423      769.63607     -14.860727      754.77535    
   1760000   306.24669      0.0073076404   4.5815885      759.80648     -7.374301       752.43218    
   1761000   296.2884       0.0073076404   2.2043784      735.09969     -9.436364       725.66332    
   1762000   288.85569      0.0073076404   3.8944458      716.65894     -7.539163       709.11978    
   1763000   302.50141      0.0073076404   4.903338       750.51433     -6.6424559      743.87188    
   1764000   314.14879      0.0073076404   2.8394958      779.41181     -5.6973035      773.71451    
   1765000   294.29637      0.0073076404   3.7520505      730.1574      -5.9640566      724.19334    
   1766000   294.91511      0.0073076404   6.7101655      731.69253     -9.1261968      722.56633    
   1767000   310.73005      0.0073076404   3.8622635      770.92982     -9.5448893      761.38493    
   1768000   302.6761       0.0073076404   4.3158291      750.94775     -9.8123669      741.13538    
   1769000   276.94763      0.0073076404   3.7146802      687.1147      -10.716126      676.39858    
   1770000   302.76737      0.0073076404   4.2748693      751.17419     -9.3949759      741.77921    
   1771000   299.9089       0.0073076404   5.63005        744.08224     -11.538108      732.54413    
   1772000   293.17298      0.0073076404   3.3313067      727.37025     -11.728985      715.64127    
   1773000   287.09941      0.0073076404   3.4675031      712.30156     -8.4465715      703.85499    
   1774000   300.18244      0.0073076404   1.1741324      744.76092     -9.0517454      735.70917    
   1775000   314.51601      0.0073076404   4.4279698      780.32288     -7.7599944      772.56288    
   1776000   302.02791      0.0073076404   6.4913214      749.33958     -8.0397613      741.29982    
   1777000   282.95445      0.0073076404   4.6096686      702.01778     -9.7044832      692.3133     
   1778000   301.2108       0.0073076404   1.8361607      747.31229     -6.3940691      740.91822    
   1779000   303.11265      0.0073076404  -0.76707541     752.03084     -9.2351361      742.79571    
   1780000   303.85965      0.0073076404   2.2090267      753.88416     -8.3329931      745.55117    
   1781000   303.22385      0.0073076404   4.2700472      752.30674     -10.093815      742.21293    
   1782000   305.31913      0.0073076404   4.2272312      757.50519     -9.5197574      747.98543    
   1783000   300.5327       0.0073076404   2.8201116      745.62992     -8.1138871      737.51603    
   1784000   298.98618      0.0073076404   3.6682893      741.79295     -9.0578848      732.73507    
   1785000   303.871        0.0073076404   5.0774627      753.91232     -12.733177      741.17915    
   1786000   306.86798      0.0073076404   5.524272       761.34792     -11.581366      749.76655    
   1787000   299.61226      0.0073076404   2.1564064      743.34627     -11.35398       731.99229    
   1788000   293.82279      0.0073076404   1.0278386      728.98243     -16.961862      712.02057    
   1789000   306.83072      0.0073076404   3.1422386      761.25547     -13.126758      748.12871    
   1790000   307.77101      0.0073076404   6.4184501      763.58836     -11.975529      751.61284    
   1791000   286.39725      0.0073076404   4.2370812      710.55947     -15.384925      695.17455    
   1792000   299.81778      0.0073076404   2.3368702      743.85619     -15.044827      728.81136    
   1793000   304.89354      0.0073076404   7.1198833      756.44929     -15.679664      740.76963    
   1794000   290.76609      0.0073076404   4.4124535      721.39869     -12.911641      708.48705    
   1795000   297.9923       0.0073076404   3.0400057      739.3271      -13.617378      725.70972    
   1796000   309.07694      0.0073076404   2.9503585      766.82841     -15.015214      751.8132     
   1797000   299.4835       0.0073076404   5.5700176      743.02682     -11.540983      731.48584    
   1798000   295.50617      0.0073076404   3.699959       733.15896     -10.50236       722.6566     
   1799000   311.5886       0.0073076404   3.9678992      773.05991     -12.088846      760.97106    
   1800000   305.37973      0.0073076404   3.2332632      757.65553     -14.121163      743.53437    
   1801000   293.83965      0.0073076404   3.871624       729.02427     -13.354148      715.67012    
   1802000   288.78827      0.0073076404   3.7230597      716.49167     -13.970881      702.52079    
   1803000   307.96154      0.0073076404   3.3727698      764.06107     -10.54696       753.51411    
   1804000   313.18412      0.0073076404   4.5055336      777.01845     -13.661848      763.3566     
   1805000   293.16082      0.0073076404   3.9761049      727.34007     -12.036684      715.30339    
   1806000   279.00705      0.0073076404   3.4950721      692.22418     -12.041938      680.18224    
   1807000   303.58638      0.0073076404   3.4381328      753.20617     -13.438108      739.76806    
   1808000   303.0833       0.0073076404   3.9507435      751.95803     -13.630979      738.32705    
   1809000   282.56772      0.0073076404   3.9028223      701.05829     -12.143002      688.91529    
   1810000   306.97439      0.0073076404   3.5544636      761.61192     -12.19837       749.41355    
   1811000   310.28872      0.0073076404   3.4852131      769.83486     -9.65168        760.18318    
   1812000   287.03966      0.0073076404   4.4721981      712.15331     -12.136772      700.01653    
   1813000   290.99942      0.0073076404   4.6034101      721.97758     -15.237427      706.74016    
   1814000   295.01835      0.0073076404   4.2865382      731.94867     -10.884161      721.06451    
   1815000   289.13426      0.0073076404   4.0370492      717.35007     -11.952844      705.39722    
   1816000   303.86087      0.0073076404   4.6546912      753.88719     -12.908399      740.97879    
   1817000   296.512        0.0073076404   4.2600471      735.65445     -9.9304354      725.72401    
   1818000   309.2157       0.0073076404   5.1049204      767.17268     -8.9052436      758.26743    
   1819000   297.18756      0.0073076404   3.8544233      737.33053     -10.462944      726.86759    
   1820000   299.21771      0.0073076404   4.6028265      742.36738     -9.1595746      733.2078     
   1821000   306.49578      0.0073076404   3.2053133      760.42447     -9.9251089      750.49936    
   1822000   287.37283      0.0073076404   1.2582849      712.9799      -13.370074      699.60983    
   1823000   303.61677      0.0073076404   2.7999283      753.28157     -14.684709      738.59686    
   1824000   287.73668      0.0073076404   5.6943001      713.88264     -17.469184      696.41346    
   1825000   305.70812      0.0073076404   5.0231644      758.47028     -13.200421      745.26986    
   1826000   302.67508      0.0073076404   2.5955136      750.94523     -10.418956      740.52627    
   1827000   294.44885      0.0073076404   2.4895296      730.53571     -6.8803262      723.65538    
   1828000   293.36258      0.0073076404   5.7043589      727.84065     -9.4791557      718.36149    
   1829000   294.36408      0.0073076404   9.615551       730.32541     -9.0459528      721.27946    
   1830000   303.45828      0.0073076404   1.5349858      752.88836     -9.0081754      743.88018    
   1831000   303.64927      0.0073076404   5.4051731      753.36221     -11.071569      742.29065    
   1832000   300.6858       0.0073076404   9.5146405      746.00977     -11.783436      734.22633    
   1833000   301.92574      0.0073076404   1.0550434      749.08607     -11.873365      737.21271    
   1834000   292.91436      0.0073076404   4.2151113      726.7286      -12.335566      714.39303    
   1835000   314.72525      0.0073076404   9.1275728      780.84203     -14.568713      766.27332    
   1836000   303.7251       0.0073076404   3.0677743      753.55035     -15.626683      737.92367    
   1837000   275.86784      0.0073076404   4.5071757      684.43573     -15.469732      668.966      
   1838000   306.62916      0.0073076404   7.3370449      760.75541     -15.082719      745.67269    
   1839000   305.87095      0.0073076404   2.9553832      758.87427     -13.966254      744.90801    
   1840000   287.56701      0.0073076404   3.3200727      713.46167     -11.723223      701.73845    
   1841000   291.09568      0.0073076404   5.1923369      722.21641     -13.692477      708.52393    
   1842000   302.04846      0.0073076404   6.4692361      749.39055     -10.622729      738.76782    
   1843000   301.2187       0.0073076404   3.3851071      747.3319      -11.437642      735.89425    
   1844000   290.9625       0.0073076404   0.93526557     721.88599     -13.167043      708.71894    
   1845000   299.88871      0.0073076404   6.6407969      744.03217     -12.217912      731.81426    
   1846000   300.5566       0.0073076404   6.8697797      745.6892      -14.206077      731.48313    
   1847000   302.83847      0.0073076404   3.575043       751.35059     -15.922315      735.42827    
   1848000   297.89495      0.0073076404   3.6867101      739.08558     -16.248721      722.83686    
   1849000   301.72609      0.0073076404   3.7673772      748.59074     -15.769751      732.82099    
   1850000   303.42708      0.0073076404   2.1374777      752.81095     -16.247572      736.56337    
   1851000   302.61329      0.0073076404   4.0830715      750.7919      -12.642414      738.14949    
   1852000   299.30731      0.0073076404   7.2280622      742.58968     -11.23046       731.35922    
   1853000   305.68517      0.0073076404   3.4682967      758.41332     -14.914408      743.49892    
   1854000   306.19536      0.0073076404   3.7709532      759.67913     -10.451417      749.22772    
   1855000   292.66842      0.0073076404   5.0961574      726.11841     -10.25293       715.86548    
   1856000   301.00996      0.0073076404   4.4187137      746.81401     -10.932898      735.88111    
   1857000   303.02758      0.0073076404   4.8269537      751.81979     -9.3387492      742.48104    
   1858000   294.45378      0.0073076404   2.5400194      730.54794     -7.4113423      723.1366     
   1859000   304.9051       0.0073076404   9.4711746      756.47796     -8.5355692      747.94239    
   1860000   292.80076      0.0073076404   4.6520366      726.44676     -10.059788      716.38697    
   1861000   304.54953      0.0073076404   0.82853261     755.59579     -10.755782      744.84001    
   1862000   311.86206      0.0073076404   4.7281243      773.73837     -11.698797      762.03958    
   1863000   300.10784      0.0073076404   6.5962625      744.57582     -9.0577281      735.51809    
   1864000   287.80201      0.0073076404   5.4779948      714.04473     -11.543022      702.50171    
   1865000   300.32809      0.0073076404   1.0336069      745.12228     -12.734517      732.38776    
   1866000   308.7118       0.0073076404   5.0288349      765.92249     -10.790188      755.1323     
   1867000   279.72614      0.0073076404   5.9448136      694.00826     -12.848917      681.15934    
   1868000   298.56143      0.0073076404   1.9903726      740.73914     -12.318637      728.4205     
   1869000   316.59274      0.0073076404   7.7919648      785.47532     -12.335053      773.14027    
   1870000   301.22596      0.0073076404   5.0037739      747.34991     -14.268851      733.08106    
   1871000   288.55963      0.0073076404   3.8998403      715.9244      -9.0318326      706.89257    
   1872000   317.57498      0.0073076404   4.0021926      787.91229     -10.650024      777.26226    
   1873000   299.12427      0.0073076404   6.7281056      742.13556     -12.576817      729.55874    
   1874000   296.02552      0.0073076404   0.32604685     734.44747     -13.609977      720.83749    
   1875000   298.24066      0.0073076404   3.7227088      739.9433      -14.038435      725.90487    
   1876000   309.46643      0.0073076404   4.3173068      767.79474     -13.085209      754.70953    
   1877000   298.82714      0.0073076404   4.2564668      741.39838     -13.354465      728.04391    
   1878000   292.49342      0.0073076404   2.4915462      725.68424     -13.165021      712.51922    
   1879000   304.51932      0.0073076404   4.7717214      755.52082     -13.519731      742.00109    
   1880000   305.96985      0.0073076404   4.8781034      759.11963     -16.035912      743.08372    
   1881000   295.34748      0.0073076404   3.9735681      732.76524     -15.233418      717.53182    
   1882000   310.72733      0.0073076404   3.4470029      770.92307     -13.99748       756.92559    
   1883000   300.39982      0.0073076404   4.773671       745.30023     -13.749064      731.55116    
   1884000   292.50168      0.0073076404   3.1293364      725.70472     -16.049536      709.65519    
   1885000   307.8223       0.0073076404   3.7298331      763.71561     -16.863008      746.8526     
   1886000   292.63457      0.0073076404   3.9552193      726.03444     -16.406453      709.62799    
   1887000   304.08998      0.0073076404   3.5241313      754.45563     -17.559707      736.89593    
   1888000   306.0085       0.0073076404   2.8614569      759.21552     -16.293325      742.92219    
   1889000   303.16795      0.0073076404   5.6818364      752.16804     -15.169822      736.99822    
   1890000   297.61165      0.0073076404   5.5957373      738.3827      -14.62886       723.75384    
   1891000   296.08209      0.0073076404   2.5914181      734.58783     -18.630414      715.95741    
   1892000   310.19397      0.0073076404   3.7292422      769.59978     -16.061127      753.53865    
   1893000   300.96069      0.0073076404   4.1208937      746.69178     -13.521228      733.17055    
   1894000   279.35879      0.0073076404   3.6287098      693.09686     -13.146331      679.95053    
   1895000   297.04167      0.0073076404   4.1312248      736.96858     -13.122728      723.84585    
   1896000   302.11144      0.0073076404   4.1960837      749.54681     -11.635309      737.9115     
   1897000   303.1798       0.0073076404   4.0145425      752.19743     -13.574022      738.62341    
   1898000   291.46274      0.0073076404   4.0517881      723.1271      -12.861353      710.26575    
   1899000   310.64996      0.0073076404   4.2975549      770.73112     -14.691197      756.03992    
   1900000   319.10157      0.0073076404   3.6141764      791.69979     -14.345504      777.35428    
   1901000   290.99989      0.0073076404   3.4181281      721.97876     -14.18849       707.79027    
   1902000   287.34879      0.0073076404   5.3540931      712.92026     -14.549831      698.37042    
   1903000   306.18286      0.0073076404   6.1181991      759.64812     -12.980253      746.66787    
   1904000   314.79287      0.0073076404   1.8663499      781.00978     -13.421061      767.58872    
   1905000   296.39151      0.0073076404   3.0883881      735.3555      -11.548925      723.80657    
   1906000   290.29077      0.0073076404   4.9415611      720.2194      -10.411986      709.80741    
   1907000   310.91176      0.0073076404   5.1230717      771.38065     -11.218823      760.16183    
   1908000   303.38003      0.0073076404   4.6817936      752.69423     -12.622101      740.07212    
   1909000   298.15015      0.0073076404   2.6002545      739.71873     -13.115592      726.60314    
   1910000   304.44433      0.0073076404   3.8817053      755.33477     -10.52746       744.80731    
   1911000   297.7586       0.0073076404   2.7359094      738.7473      -9.7145352      729.03277    
   1912000   294.33975      0.0073076404   3.996093       730.26504     -10.376995      719.88804    
   1913000   299.05232      0.0073076404   4.2733545      741.95704     -10.943352      731.01369    
   1914000   300.06107      0.0073076404   3.5881042      744.45977     -10.310737      734.14904    
   1915000   308.42655      0.0073076404   4.08534        765.21477     -13.193624      752.02115    
   1916000   285.91068      0.0073076404   4.2534497      709.35227     -16.860329      692.49194    
   1917000   298.28981      0.0073076404   3.6754518      740.06525     -15.287045      724.7782     
   1918000   321.68476      0.0073076404   3.19904        798.10877     -17.61662       780.49215    
   1919000   295.58235      0.0073076404   4.4102015      733.34795     -12.745614      720.60233    
   1920000   266.57774      0.0073076404   3.4541549      661.38671     -13.893418      647.49329    
   1921000   298.90858      0.0073076404   3.0359099      741.60042     -15.552369      726.04805    
   1922000   322.05157      0.0073076404   4.3212568      799.01881     -13.803516      785.2153     
   1923000   292.7528       0.0073076404   4.031369       726.32777     -14.853133      711.47464    
   1924000   304.26878      0.0073076404   3.7787026      754.89923     -14.218322      740.68091    
   1925000   301.11544      0.0073076404   4.3268307      747.07572     -14.399235      732.67648    
   1926000   297.73538      0.0073076404   4.5988473      738.68967     -11.899506      726.79017    
   1927000   290.83226      0.0073076404   4.1784473      721.56287     -11.294167      710.2687     
   1928000   296.84294      0.0073076404   3.4650019      736.47551     -11.988257      724.48725    
   1929000   310.11497      0.0073076404   4.6560157      769.40378     -8.8989648      760.50481    
   1930000   305.99885      0.0073076404   3.8811903      759.19158     -12.798996      746.39259    
   1931000   293.34741      0.0073076404   4.1001683      727.80302     -13.935864      713.86716    
   1932000   299.73788      0.0073076404   4.1846144      743.65793     -14.22931       729.42862    
   1933000   286.9669       0.0073076404   3.833758       711.97278     -14.293145      697.67963    
   1934000   304.7083       0.0073076404   3.1150549      755.98968     -14.353303      741.63638    
   1935000   309.13941      0.0073076404   5.229504       766.9834      -14.149352      752.83405    
   1936000   298.11536      0.0073076404   4.4323372      739.63244     -18.340193      721.29224    
   1937000   294.976        0.0073076404   2.6125751      731.84358     -21.622958      710.22062    
   1938000   303.3888       0.0073076404   3.1733669      752.71597     -22.09761       730.61836    
   1939000   295.59765      0.0073076404   3.9619359      733.38593     -20.858092      712.52783    
   1940000   297.4912       0.0073076404   4.0846438      738.08387     -18.346336      719.73753    
   1941000   305.58846      0.0073076404   4.5556977      758.1734      -19.911877      738.26152    
   1942000   296.88204      0.0073076404   3.8273431      736.57252     -19.743005      716.82951    
   1943000   304.23317      0.0073076404   2.9034197      754.81088     -16.222758      738.58812    
   1944000   309.08662      0.0073076404   4.2744044      766.85242     -19.689396      747.16303    
   1945000   303.41409      0.0073076404   4.2879961      752.77871     -19.97682       732.80189    
   1946000   289.95544      0.0073076404   3.4001098      719.38744     -17.086118      702.30132    
   1947000   304.52134      0.0073076404   3.4205934      755.52584     -18.66364       736.8622     
   1948000   299.93658      0.0073076404   5.252589       744.15092     -19.642458      724.50847    
   1949000   302.32026      0.0073076404   3.9129585      750.0649      -17.914314      732.15059    
   1950000   294.324        0.0073076404   3.3234242      730.22595     -13.323679      716.90227    
   1951000   297.28147      0.0073076404   3.6675685      737.56353     -13.75989       723.80364    
   1952000   311.71597      0.0073076404   4.7857377      773.37591     -17.896796      755.47911    
   1953000   305.31403      0.0073076404   5.6262292      757.49253     -19.381971      738.11056    
   1954000   290.16908      0.0073076404   4.9590656      719.91748     -15.713425      704.20405    
   1955000   287.99516      0.0073076404   2.3479773      714.52393     -16.288069      698.23586    
   1956000   303.13187      0.0073076404   3.9636743      752.07853     -18.054933      734.02359    
   1957000   314.31439      0.0073076404   11.91969       779.82267     -18.08484       761.73783    
   1958000   289.62257      0.0073076404   4.1649028      718.56159     -19.242132      699.31946    
   1959000   302.21343      0.0073076404   3.385913       749.79986     -21.856513      727.94335    
   1960000   307.67059      0.0073076404   4.5742948      763.33921     -17.974796      745.36442    
   1961000   294.96092      0.0073076404   3.1699402      731.80616     -16.026009      715.78016    
   1962000   290.46976      0.0073076404   3.0802112      720.66349     -20.668523      699.99497    
   1963000   296.31002      0.0073076404   0.98989815     735.15333     -16.221152      718.93218    
   1964000   309.51382      0.0073076404   4.4932123      767.91231     -15.366651      752.54566    
   1965000   308.69902      0.0073076404   7.3501744      765.89078     -17.864344      748.02643    
   1966000   281.99154      0.0073076404   3.0408254      699.62878     -15.067605      684.56117    
   1967000   304.46417      0.0073076404   3.2115146      755.384       -14.090588      741.29341    
   1968000   312.43736      0.0073076404   6.2663881      775.16569     -18.212944      756.95275    
   1969000   293.33574      0.0073076404   4.4363725      727.77406     -18.886184      708.88788    
   1970000   300.0364       0.0073076404   1.88306        744.39859     -19.208234      725.19035    
   1971000   315.03331      0.0073076404   3.8602822      781.60632     -17.056745      764.54958    
   1972000   291.91759      0.0073076404   4.7174651      724.25558     -17.787741      706.46784    
   1973000   296.50537      0.0073076404   3.547992       735.63799     -14.607007      721.03098    
   1974000   310.49569      0.0073076404   5.0333766      770.34836     -17.436094      752.91226    
   1975000   297.84697      0.0073076404   4.0744995      738.96655     -16.383645      722.58291    
   1976000   294.43537      0.0073076404   2.7247223      730.50228     -15.502117      715.00016    
   1977000   310.93235      0.0073076404   3.9887113      771.43174     -16.06314       755.3686     
   1978000   294.79414      0.0073076404   6.0968174      731.39238     -17.820956      713.57142    
   1979000   295.47551      0.0073076404   2.4613649      733.08289     -16.937252      716.14564    
   1980000   314.34938      0.0073076404   3.947567       779.90947     -19.808436      760.10104    
   1981000   289.79286      0.0073076404   4.4307014      718.98408     -15.91726       703.06682    
   1982000   296.66178      0.0073076404   3.9366177      736.02606     -16.070341      719.95572    
   1983000   308.83602      0.0073076404   5.2475786      766.23067     -17.844864      748.38581    
   1984000   300.97627      0.0073076404   5.3229904      746.73042     -14.730454      731.99997    
   1985000   294.67226      0.0073076404   3.1701084      731.08999     -14.894907      716.19508    
   1986000   298.57266      0.0073076404   4.0283759      740.76701     -13.088431      727.67858    
   1987000   306.25741      0.0073076404   5.6415985      759.83307     -14.040661      745.79241    
   1988000   297.06468      0.0073076404   3.6974698      737.02565     -11.130363      725.89528    
   1989000   297.41288      0.0073076404   4.0287324      737.88956     -12.948624      724.94094    
   1990000   308.09428      0.0073076404   4.1778285      764.3904      -10.257816      754.13258    
   1991000   317.78175      0.0073076404   4.0759224      788.42527     -11.636171      776.7891     
   1992000   297.40416      0.0073076404   4.3637601      737.86791     -14.384863      723.48305    
   1993000   287.04011      0.0073076404   2.7388294      712.15444     -14.01751       698.13693    
   1994000   309.84637      0.0073076404   3.7707739      768.73739     -14.22749       754.5099     
   1995000   317.37984      0.0073076404   5.4433344      787.42812     -15.044389      772.38374    
   1996000   286.66974      0.0073076404   3.5267242      711.23554     -16.437806      694.79773    
   1997000   313.13761      0.0073076404   1.734889       776.90304     -19.004799      757.89824    
   1998000   312.29096      0.0073076404   4.3931434      774.80248     -17.084353      757.71813    
   1999000   287.97126      0.0073076404   4.3926575      714.46462     -17.740583      696.72404    
   2000000   288.19667      0.0073076404   4.4695722      715.02389     -16.290331      698.73356    
   2001000   297.43279      0.0073076404   4.2172895      737.93895     -17.569531      720.36942    
   2002000   315.99489      0.0073076404   3.9859447      783.99204     -12.91492       771.07712    
   2003000   301.197        0.0073076404   3.3001545      747.27807     -15.503543      731.77452    
   2004000   295.30212      0.0073076404   4.0413443      732.65271     -15.131343      717.52137    
   2005000   302.45448      0.0073076404   4.1078228      750.3979      -15.890687      734.50721    
   2006000   301.23773      0.0073076404   3.9549307      747.37912     -16.903884      730.47523    
   2007000   295.91726      0.0073076404   3.7839961      734.17887     -17.805256      716.37361    
   2008000   305.36206      0.0073076404   3.9201933      757.61168     -20.638327      736.97335    
   2009000   308.61238      0.0073076404   4.0369935      765.67583     -17.994495      747.68134    
   2010000   301.13063      0.0073076404   4.7778853      747.11338     -18.533311      728.58007    
   2011000   298.22915      0.0073076404   2.5770621      739.91474     -15.229688      724.68505    
   2012000   309.83918      0.0073076404   1.3953847      768.71954     -14.006799      754.71274    
   2013000   300.39526      0.0073076404   3.569523       745.28893     -14.108564      731.18036    
   2014000   308.77965      0.0073076404   5.741194       766.09081     -11.603413      754.4874     
   2015000   307.65949      0.0073076404   4.5276234      763.31167     -12.037972      751.2737     
   2016000   284.78541      0.0073076404   3.2900494      706.56046     -14.059234      692.50123    
   2017000   302.40322      0.0073076404   1.3624073      750.27073     -16.098101      734.17263    
   2018000   300.0211       0.0073076404   6.0530526      744.36062     -15.367559      728.99306    
   2019000   272.63416      0.0073076404   3.6271204      676.41288     -13.825842      662.58704    
   2020000   302.84294      0.0073076404   4.1157482      751.36167     -12.638692      738.72298    
   2021000   303.0819       0.0073076404   3.9947824      751.95455     -14.867934      737.08662    
   2022000   291.23127      0.0073076404   4.0322502      722.55281     -13.837904      708.7149     
   2023000   293.71867      0.0073076404   5.098193       728.72411     -12.477315      716.2468     
   2024000   304.6671       0.0073076404   4.9373468      755.88747     -12.409114      743.47836    
   2025000   305.32203      0.0073076404   3.0129993      757.51238     -11.580945      745.93144    
   2026000   286.85556      0.0073076404   3.9716598      711.69656     -13.519918      698.17664    
   2027000   308.04919      0.0073076404   4.155732       764.27852     -16.101689      748.17683    
   2028000   300.00878      0.0073076404   3.8581522      744.33005     -15.104995      729.22505    
   2029000   294.54165      0.0073076404   3.8603742      730.76596     -15.400892      715.36507    
   2030000   306.11351      0.0073076404   4.007159       759.47605     -16.05433       743.42172    
   2031000   307.98081      0.0073076404   6.5638491      764.10887     -13.815478      750.29339    
   2032000   307.40919      0.0073076404   4.6011335      762.69068     -13.013963      749.67672    
   2033000   299.23187      0.0073076404  -0.034189835    742.40251     -14.00836       728.39415    
   2034000   292.94995      0.0073076404   2.5486717      726.81689     -15.040722      711.77617    
   2035000   301.17205      0.0073076404   5.5379954      747.21617     -15.403206      731.81296    
   2036000   301.04075      0.0073076404  -2.1513208      746.8904      -11.715635      735.17476    
   2037000   292.09751      0.0073076404   6.8277822      724.70197     -14.006912      710.69506    
   2038000   309.63375      0.0073076404   4.1221687      768.20987     -12.56979       755.64008    
   2039000   293.34496      0.0073076404  -1.061483       727.79692     -11.900848      715.89608    
   2040000   288.37689      0.0073076404   6.8772071      715.47102     -10.229523      705.24149    
   2041000   296.5803       0.0073076404   10.869837      735.8239      -13.792172      722.03173    
   2042000   312.82761      0.0073076404   2.8808627      776.13393     -9.6827019      766.45123    
   2043000   293.01164      0.0073076404   2.8352414      726.96996     -11.324188      715.64577    
   2044000   297.84763      0.0073076404   7.8629925      738.96817     -9.8212732      729.1469     
   2045000   295.69107      0.0073076404   3.7074986      733.61769     -13.725185      719.8925     
   2046000   293.47518      0.0073076404  -2.2914969      728.12        -10.426194      717.69381    
   2047000   301.21418      0.0073076404   4.93555        747.32067     -8.6207881      738.69989    
   2048000   302.10134      0.0073076404   7.5370934      749.52174     -9.1071187      740.41462    
   2049000   302.56705      0.0073076404   5.2940822      750.6772      -11.294807      739.3824     
   2050000   305.61667      0.0073076404   3.1813736      758.24339     -10.347955      747.89544    
   2051000   290.46073      0.0073076404   7.6941731      720.64107     -11.852481      708.78859    
   2052000   317.76103      0.0073076404   4.3561701      788.37387     -12.818272      775.5556     
   2053000   310.43667      0.0073076404   2.0319394      770.20193     -12.843663      757.35826    
   2054000   283.07983      0.0073076404   4.0286801      702.32887     -9.8085157      692.52035    
   2055000   312.93521      0.0073076404   7.4031283      776.40089     -11.93646       764.46443    
   2056000   315.42317      0.0073076404   4.2487512      782.57358     -9.6932882      772.88029    
   2057000   303.17838      0.0073076404   2.9801505      752.19391     -10.482189      741.71173    
   2058000   285.17548      0.0073076404   4.9429639      707.52824     -8.8993966      698.62884    
   2059000   308.3387       0.0073076404   4.7580384      764.99682     -8.6271397      756.36968    
   2060000   310.98533      0.0073076404   3.9912901      771.56318     -9.845363       761.71781    
   2061000   292.73811      0.0073076404   3.0767941      726.29132     -9.6630472      716.62828    
   2062000   294.25897      0.0073076404   3.1758409      730.06462     -8.7493945      721.31523    
   2063000   315.73771      0.0073076404   4.231123       783.35396     -11.684685      771.66927    
   2064000   303.05207      0.0073076404   4.0161937      751.88054     -12.472698      739.40784    
   2065000   296.75055      0.0073076404   4.009802       736.24629     -12.25974       723.98655    
   2066000   305.55901      0.0073076404   4.0900425      758.10032     -12.220388      745.87993    
   2067000   302.39382      0.0073076404   4.445066       750.24741     -13.02962       737.21779    
   2068000   311.80662      0.0073076404   4.6618421      773.60081     -11.519382      762.08143    
   2069000   299.17777      0.0073076404   2.3034535      742.26829     -14.556402      727.71188    
   2070000   285.85686      0.0073076404   2.0329675      709.21875     -14.379326      694.83943    
   2071000   303.14341      0.0073076404   4.7766565      752.10716     -12.163311      739.94385    
   2072000   307.72376      0.0073076404   6.3685974      763.47113     -13.6373        749.83383    
   2073000   296.85586      0.0073076404   3.2920512      736.50756     -10.409969      726.09759    
   2074000   297.54294      0.0073076404   3.0653571      738.21225     -11.602334      726.60991    
   2075000   307.98622      0.0073076404   4.5878793      764.12229     -14.088925      750.03337    
   2076000   297.01098      0.0073076404   3.6615999      736.89242     -15.561004      721.33141    
   2077000   289.78853      0.0073076404   2.9454496      718.97333     -14.314825      704.65851    
   2078000   284.4434       0.0073076404   2.6548029      705.71192     -12.123326      693.58859    
   2079000   312.84884      0.0073076404   5.8122309      776.18659     -12.512305      763.67429    
   2080000   308.55529      0.0073076404   2.7140477      765.53417     -15.143359      750.39081    
   2081000   289.37667      0.0073076404   2.0022855      717.95149     -15.468998      702.4825     
   2082000   302.24897      0.0073076404   4.2480689      749.88803     -14.367275      735.52076    
   2083000   304.7041       0.0073076404   4.5011403      755.97928     -13.380472      742.5988     
   2084000   303.69291      0.0073076404   3.3956165      753.47049     -14.847669      738.62282    
   2085000   308.52285      0.0073076404   3.7876068      765.45369     -10.966494      754.4872     
   2086000   301.09283      0.0073076404   1.3212616      747.01962     -12.058081      734.96154    
   2087000   290.58873      0.0073076404   3.8825302      720.95864     -12.056203      708.90244    
   2088000   297.82776      0.0073076404   4.6527263      738.91887     -12.935254      725.98362    
   2089000   283.52064      0.0073076404   3.6509583      703.42253     -12.57438       690.84815    
   2090000   306.63857      0.0073076404   3.9556221      760.77875     -11.519431      749.25932    
   2091000   315.36753      0.0073076404   3.8204818      782.43553     -10.898911      771.53662    
   2092000   298.74448      0.0073076404   4.0778052      741.1933      -11.009593      730.1837     
   2093000   293.77205      0.0073076404   3.6656956      728.85655     -13.753613      715.10294    
   2094000   304.47454      0.0073076404   3.8741683      755.40974     -13.022134      742.3876     
   2095000   307.78687      0.0073076404   4.9235339      763.62772     -14.466211      749.16151    
   2096000   295.68533      0.0073076404   7.8773741      733.60345     -9.2655866      724.33786    
   2097000   286.97669      0.0073076404   0.97468553     711.99709     -8.0307535      703.96634    
   2098000   302.26891      0.0073076404  -1.4785848      749.93751     -8.5415071      741.396      
   2099000   316.3792       0.0073076404   5.1769051      784.94552     -8.8705799      776.07494    
   2100000   305.1529       0.0073076404   6.028846       757.09276     -8.3003931      748.79237    
   2101000   291.86497      0.0073076404   9.4859467      724.12504     -11.017965      713.10708    
   2102000   296.01209      0.0073076404   3.1866518      734.41416     -11.239302      723.17486    
   2103000   294.98223      0.0073076404   2.8167502      731.85904     -10.839689      721.01935    
   2104000   308.33521      0.0073076404   4.886749       764.98815     -11.753634      753.23452    
   2105000   307.68562      0.0073076404   4.8673174      763.37651     -9.3126638      754.06384    
   2106000   292.44161      0.0073076404   3.7586171      725.5557      -8.5482185      717.00749    
   2107000   301.94881      0.0073076404   4.1950179      749.14333     -8.3708135      740.77251    
   2108000   306.00456      0.0073076404   4.206626       759.20575     -10.450416      748.75533    
   2109000   295.40815      0.0073076404   3.9412194      732.91578     -10.237439      722.67834    
   2110000   295.30817      0.0073076404   3.8217364      732.6677      -11.948801      720.7189     
   2111000   299.82081      0.0073076404   3.2016055      743.8637      -16.368438      727.49526    
   2112000   290.80536      0.0073076404   3.5535819      721.49612     -11.810793      709.68532    
   2113000   301.67264      0.0073076404   3.9092047      748.45813     -12.774365      735.68376    
   2114000   302.71989      0.0073076404   4.7952732      751.0564      -16.347832      734.70857    
   2115000   302.3994       0.0073076404   4.4283926      750.26126     -11.689053      738.5722     
   2116000   296.12508      0.0073076404   2.0181747      734.69449     -11.547224      723.14727    
   2117000   298.85377      0.0073076404   4.0191027      741.46444     -13.614781      727.84966    
   2118000   298.60501      0.0073076404   4.525379       740.84727     -13.210114      727.63716    
   2119000   301.72918      0.0073076404   3.8412676      748.59841     -12.325927      736.27248    
   2120000   305.1098       0.0073076404   3.7114645      756.98583     -10.693829      746.292      
   2121000   294.08376      0.0073076404   4.5227449      729.62991     -10.665755      718.96415    
   2122000   289.37315      0.0073076404   4.028513       717.94276     -9.5637797      708.37898    
   2123000   306.4117       0.0073076404   4.6841278      760.21586     -12.216837      747.99903    
   2124000   317.32314      0.0073076404   4.9847798      787.28747     -10.709766      776.5777     
   2125000   298.18753      0.0073076404   2.7486287      739.81147     -13.829016      725.98246    
   2126000   302.75178      0.0073076404   3.4586664      751.13552     -12.345018      738.7905     
   2127000   291.45301      0.0073076404   5.102936       723.10295     -11.317534      711.78542    
   2128000   307.9645       0.0073076404   6.5329843      764.06842     -14.235818      749.83261    
   2129000   311.56111      0.0073076404   5.1027227      772.9917      -14.801845      758.18985    
   2130000   307.14032      0.0073076404   3.022006       762.0236      -10.615653      751.40795    
   2131000   286.86386      0.0073076404   5.3246027      711.71714     -11.930697      699.78644    
   2132000   306.94091      0.0073076404   6.3130937      761.52887     -9.0013895      752.52748    
   2133000   298.288        0.0073076404   3.5939785      740.06074     -8.9936154      731.06713    
   2134000   299.96795      0.0073076404  -0.032606361    744.22875     -9.788747       734.44001    
   2135000   292.806        0.0073076404   4.8276595      726.45975     -10.62388       715.83587    
   2136000   283.10044      0.0073076404   5.4849122      702.37999     -11.892215      690.48778    
   2137000   304.30509      0.0073076404   5.0972481      754.98932     -10.429815      744.55951    
   2138000   305.33165      0.0073076404   3.5426457      757.53624     -8.510493       749.02574    
   2139000   306.04228      0.0073076404   3.6612244      759.29933     -9.3239325      749.9754     
   2140000   301.05542      0.0073076404   10.50784       746.92679     -8.7146011      738.21219    
   2141000   300.00103      0.0073076404   1.4516216      744.31082     -7.3212752      736.98954    
   2142000   282.70881      0.0073076404   3.8900125      701.40836     -8.6877047      692.72066    
   2143000   299.18485      0.0073076404   7.1633918      742.28587     -10.589977      731.69589    
   2144000   312.5287       0.0073076404   3.6246358      775.39231     -11.383381      764.00893    
   2145000   286.45743      0.0073076404   1.8409663      710.70879     -12.704894      698.00389    
   2146000   298.12079      0.0073076404   5.3488303      739.64591     -14.826692      724.81922    
   2147000   311.93312      0.0073076404   3.1355281      773.91467     -13.222673      760.692      
   2148000   298.32615      0.0073076404   2.622739       740.15541     -15.303935      724.85148    
   2149000   294.72942      0.0073076404   4.9681067      731.23182     -13.298771      717.93305    
   2150000   296.7563       0.0073076404   6.0384089      736.26056     -15.06924       721.19132    
   2151000   308.60671      0.0073076404   2.9635062      765.66176     -12.932303      752.72946    
   2152000   302.04445      0.0073076404   2.8746777      749.3806      -16.449164      732.93144    
   2153000   290.62784      0.0073076404   5.6427475      721.05568     -19.431563      701.62412    
   2154000   302.80405      0.0073076404   4.1861199      751.2652      -16.937505      734.32769    
   2155000   297.94746      0.0073076404  -1.0789268      739.21585     -15.408425      723.80743    
   2156000   301.44598      0.0073076404   3.92548        747.89579     -15.257099      732.63869    
   2157000   291.70861      0.0073076404   5.1004724      723.73711     -15.458319      708.27879    
   2158000   292.47002      0.0073076404   4.4046635      725.62618     -16.297869      709.32831    
   2159000   307.32901      0.0073076404   2.8117909      762.49175     -19.050033      743.44171    
   2160000   292.29802      0.0073076404   2.1689532      725.19945     -15.884842      709.31461    
   2161000   299.92902      0.0073076404   5.9811892      744.13217     -15.219136      728.91303    
   2162000   299.15692      0.0073076404   2.6393466      742.21657     -15.231512      726.98506    
   2163000   309.29004      0.0073076404   3.5815207      767.35712     -14.39143       752.96569    
   2164000   296.57547      0.0073076404   4.5974445      735.81193     -14.178253      721.63368    
   2165000   291.1294       0.0073076404   6.3922471      722.30006     -13.89886       708.4012     
   2166000   313.56437      0.0073076404   4.6914537      777.96185     -17.449644      760.51221    
   2167000   298.46397      0.0073076404  -0.0051220033   740.49734     -14.80658       725.69076    
   2168000   289.9364       0.0073076404   4.06816        719.3402      -14.671727      704.66848    
   2169000   295.97981      0.0073076404   6.9918465      734.33406     -13.084451      721.24961    
   2170000   308.90825      0.0073076404   4.9395725      766.40987     -13.221865      753.18801    
   2171000   306.55375      0.0073076404   4.0062404      760.56829     -14.807058      745.76124    
   2172000   297.09336      0.0073076404   3.8120417      737.09682     -15.445115      721.65171    
   2173000   288.37187      0.0073076404   3.5066844      715.45857     -15.292434      700.16613    
   2174000   303.41457      0.0073076404   4.057619       752.7799      -13.273039      739.50686    
   2175000   290.80562      0.0073076404   4.0393076      721.49676     -14.334876      707.16188    
   2176000   304.01719      0.0073076404   4.1026168      754.27504     -12.259302      742.01574    
   2177000   310.5426       0.0073076404   4.1151436      770.46475     -11.976237      758.48851    
   2178000   297.91769      0.0073076404   4.9532063      739.14199     -12.765023      726.37697    
   2179000   282.66501      0.0073076404   4.7300341      701.29968     -12.622963      688.67671    
   2180000   298.63788      0.0073076404   2.9778534      740.92882     -12.40779       728.52103    
   2181000   318.99194      0.0073076404   4.0215381      791.42779     -12.527641      778.90015    
   2182000   296.58215      0.0073076404   3.8546448      735.82849     -13.329477      722.49901    
   2183000   289.0499       0.0073076404   2.897265       717.14077     -12.309754      704.83101    
   2184000   306.40207      0.0073076404   4.3288487      760.19199     -10.016889      750.1751     
   2185000   295.76785      0.0073076404   3.8644064      733.80819     -13.693768      720.11442    
   2186000   286.48153      0.0073076404   4.5603609      710.76858     -11.244948      699.52363    
   2187000   307.79689      0.0073076404   4.134841       763.65257     -9.0938893      754.55868    
   2188000   307.85485      0.0073076404   3.9496579      763.79637     -10.962876      752.8335     
   2189000   290.23439      0.0073076404   3.4029276      720.07951     -10.412698      709.66681    
   2190000   298.42574      0.0073076404   4.7078442      740.40248     -12.332643      728.06984    
   2191000   307.29215      0.0073076404   3.7233624      762.4003      -13.14093       749.25938    
   2192000   278.54994      0.0073076404   4.4933858      691.09007     -11.49434       679.59573    
   2193000   297.38671      0.0073076404   4.2455146      737.82463     -10.358549      727.46608    
   2194000   304.31029      0.0073076404   3.7628732      755.00222     -12.385955      742.61627    
   2195000   306.57469      0.0073076404   4.878034       760.62025     -12.416498      748.20376    
   2196000   292.90803      0.0073076404   3.8426658      726.71289     -12.79442       713.91847    
   2197000   301.66251      0.0073076404   3.4580283      748.43299     -12.795005      735.63799    
   2198000   306.94706      0.0073076404   4.8968337      761.54412     -13.66484       747.87928    
   2199000   311.40881      0.0073076404   3.9671247      772.61384     -16.547348      756.06649    
   2200000   280.15155      0.0073076404   3.565295       695.06371     -14.992654      680.07105    
   2201000   301.65557      0.0073076404   4.1698846      748.41577     -12.741201      735.67457    
   2202000   295.80045      0.0073076404   3.9518068      733.88907     -13.961653      719.92742    
   2203000   300.1962       0.0073076404   3.946678       744.79506     -14.462087      730.33297    
   2204000   312.45346      0.0073076404   3.2648261      775.20565     -13.803097      761.40255    
   2205000   301.56586      0.0073076404   6.1550146      748.19321     -13.407118      734.78609    
   2206000   296.31493      0.0073076404   7.8074652      735.16551     -12.34862       722.81689    
   2207000   300.26554      0.0073076404   4.9404136      744.96709     -15.360475      729.60661    
   2208000   295.71156      0.0073076404   3.3177683      733.66854     -14.152599      719.51594    
   2209000   313.35357      0.0073076404   3.1470694      777.43884     -13.186788      764.25206    
   2210000   303.66352      0.0073076404   9.5859701      753.39756     -13.25694       740.14062    
   2211000   292.87099      0.0073076404   3.1548338      726.62099     -10.326584      716.29441    
   2212000   290.41338      0.0073076404  -3.6348953      720.52361     -10.72696       709.79665    
   2213000   306.16432      0.0073076404   6.5798439      759.60211     -12.396211      747.2059     
   2214000   299.8698       0.0073076404   6.0173         743.98525     -15.195975      728.78927    
   2215000   298.29387      0.0073076404  -5.4605808      740.0753      -12.444995      727.63031    
   2216000   297.83981      0.0073076404   6.1579012      738.94877     -13.284553      725.66421    
   2217000   287.4039       0.0073076404   3.458718       713.057       -15.43716       697.61984    
   2218000   294.46985      0.0073076404  -7.5741383      730.58781     -16.019504      714.56831    
   2219000   312.96741      0.0073076404   5.3083994      776.48077     -14.289166      762.1916     
   2220000   300.07785      0.0073076404   8.7304058      744.50142     -14.474016      730.02741    
   2221000   285.0743       0.0073076404   1.8058446      707.27719     -14.952025      692.32516    
   2222000   302.51885      0.0073076404  -0.80859944     750.55761     -14.053481      736.50413    
   2223000   305.95571      0.0073076404   5.0801977      759.08454     -13.83795       745.24659    
   2224000   291.76131      0.0073076404   6.4087679      723.86785     -14.526727      709.34113    
   2225000   296.49738      0.0073076404   5.2376585      735.61817     -9.7842374      725.83393    
   2226000   297.86386      0.0073076404   6.4226188      739.00846     -11.554602      727.45386    
   2227000   306.36434      0.0073076404   3.3433073      760.09836     -11.852253      748.24611    
   2228000   304.06033      0.0073076404   0.67776645     754.38206     -11.114191      743.26787    
   2229000   311.07573      0.0073076404   15.565413      771.78746     -13.714574      758.07289    
   2230000   292.10151      0.0073076404   3.4953624      724.71189     -12.730447      711.98144    
   2231000   313.2199       0.0073076404  -0.43923778     777.10721     -11.695912      765.4113     
   2232000   304.60217      0.0073076404   7.2765184      755.72639     -12.318878      743.40751    
   2233000   283.97432      0.0073076404   6.2371017      704.54811     -12.768497      691.77961    
   2234000   309.14322      0.0073076404   0.56930756     766.99284     -12.593933      754.39891    
   2235000   318.34877      0.0073076404   6.3459502      789.83208     -11.037432      778.79465    
   2236000   294.1816       0.0073076404   5.8179142      729.87267     -11.923556      717.94911    
   2237000   293.40905      0.0073076404   2.4754487      727.95594     -14.756548      713.19939    
   2238000   316.89751      0.0073076404  -1.3987593      786.23146     -12.212175      774.01929    
   2239000   289.87963      0.0073076404   7.3504425      719.19935     -11.671582      707.52777    
   2240000   291.18026      0.0073076404   5.3049992      722.42625     -10.498666      711.92758    
   2241000   302.94094      0.0073076404  -0.93051895     751.60483     -7.9054258      743.6994     
   2242000   308.1003       0.0073076404   8.7259378      764.40533     -10.44473       753.9606     
   2243000   289.0058       0.0073076404   4.3931456      717.03134     -14.599998      702.43135    
   2244000   302.17585      0.0073076404  -5.2369505      749.70662     -12.940305      736.76631    
   2245000   309.14561      0.0073076404   6.2140773      766.99877     -13.577808      753.42097    
   2246000   292.99385      0.0073076404   5.4126111      726.92581     -15.206136      711.71967    
   2247000   294.50981      0.0073076404   2.7694503      730.68696     -14.353501      716.33346    
   2248000   310.36984      0.0073076404  -1.5404532      770.03613     -11.476212      758.55992    
   2249000   302.22681      0.0073076404   7.3390414      749.83305     -15.077249      734.7558     
   2250000   298.43073      0.0073076404   5.2638452      740.41486     -14.78904       725.62582    
   2251000   287.39731      0.0073076404   0.8884497      713.04064     -17.372922      695.66772    
   2252000   291.49126      0.0073076404   0.15586341     723.19784     -15.975068      707.22277    
   2253000   295.20508      0.0073076404   3.1181926      732.41194     -14.032892      718.37905    
   2254000   303.10319      0.0073076404   5.7674577      752.00737     -13.899618      738.10775    
   2255000   304.14889      0.0073076404   5.2507955      754.60179     -14.066342      740.53545    
   2256000   284.50538      0.0073076404   5.8839359      705.86568     -12.589715      693.27597    
   2257000   300.26342      0.0073076404   3.6893455      744.96182     -13.601889      731.35993    
   2258000   313.60789      0.0073076404   4.4925003      778.06982     -14.423652      763.64617    
   2259000   298.9634       0.0073076404   4.1694885      741.73644     -12.002585      729.73385    
   2260000   299.68251      0.0073076404   3.3627335      743.52056     -15.091911      728.42865    
   2261000   303.54931      0.0073076404   1.7512702      753.1142      -14.611573      738.50263    
   2262000   298.41838      0.0073076404   7.2252849      740.38423     -13.700097      726.68413    
   2263000   299.00589      0.0073076404   5.387167       741.84186     -15.235299      726.60656    
   2264000   309.54112      0.0073076404   2.8142114      767.98005     -15.692253      752.2878     
   2265000   296.74418      0.0073076404   3.9267493      736.2305      -15.879193      720.3513     
   2266000   284.56695      0.0073076404   4.7406096      706.01844     -16.600906      689.41753    
   2267000   298.94139      0.0073076404   4.1892023      741.68183     -19.064614      722.61722    
   2268000   309.23526      0.0073076404   2.6921548      767.22121     -17.759139      749.46207    
   2269000   304.60058      0.0073076404   3.6466618      755.72242     -15.192124      740.5303     
   2270000   295.26171      0.0073076404   6.4068044      732.55245     -15.337128      717.21532    
   2271000   307.18738      0.0073076404   5.060344       762.14036     -14.184759      747.9556     
   2272000   304.35819      0.0073076404   2.2562697      755.12106     -13.997875      741.12318    
   2273000   300.72789      0.0073076404   2.973587       746.11419     -12.395385      733.71881    
   2274000   286.38305      0.0073076404   6.901046       710.52425     -12.772699      697.75155    
   2275000   308.04953      0.0073076404   11.592153      764.27937     -14.447548      749.83182    
   2276000   311.38681      0.0073076404   2.4390237      772.55927     -11.018852      761.54042    
   2277000   300.26291      0.0073076404  -0.79349862     744.96056     -13.880634      731.07993    
   2278000   295.98846      0.0073076404   2.348127       734.35553     -13.301728      721.0538     
   2279000   297.63636      0.0073076404   5.8231198      738.44402     -14.50079       723.94323    
   2280000   299.88623      0.0073076404   4.8341921      744.02601     -11.905055      732.12096    
   2281000   307.81217      0.0073076404  -2.3539118      763.69047     -12.881274      750.8092     
   2282000   299.29033      0.0073076404   6.6373525      742.54757     -14.491804      728.05576    
   2283000   299.17624      0.0073076404   5.2899518      742.2645      -13.190304      729.07419    
   2284000   309.63661      0.0073076404   1.8558118      768.21697     -13.857879      754.35909    
   2285000   305.85132      0.0073076404   2.8380796      758.82556     -14.785758      744.0398     
   2286000   294.36795      0.0073076404   9.0883734      730.335       -13.269726      717.06528    
   2287000   314.04654      0.0073076404   1.0159183      779.15813     -13.502094      765.65603    
   2288000   293.7605       0.0073076404  -3.946167       728.8279      -14.471401      714.35649    
   2289000   292.06169      0.0073076404   9.6409623      724.61309     -16.108345      708.50475    
   2290000   297.34695      0.0073076404   8.6012923      737.72597     -15.726203      721.99977    
   2291000   311.81208      0.0073076404   2.8759151      773.61438     -16.930278      756.6841     
   2292000   303.08805      0.0073076404  -1.2150002      751.9698      -17.13647       734.83333    
   2293000   290.19893      0.0073076404  -2.0539231      719.99155     -14.339381      705.65217    
   2294000   301.92284      0.0073076404   12.10879       749.07888     -13.150307      735.92857    
   2295000   312.21769      0.0073076404   11.86129       774.6207      -13.161156      761.45955    
   2296000   304.8496       0.0073076404  -5.0216648      756.34027     -13.042618      743.29765    
   2297000   283.45886      0.0073076404   5.4601476      703.26925     -14.087186      689.18207    
   2298000   292.20138      0.0073076404   9.3511288      724.95967     -11.872464      713.0872     
   2299000   309.31609      0.0073076404   7.0881086      767.42176     -10.361126      757.06063    
   2300000   315.54388      0.0073076404   1.0533857      782.87306     -9.2574662      773.61559    
   2301000   293.42012      0.0073076404  -0.068059328    727.9834      -8.5862748      719.39713    
   2302000   288.19629      0.0073076404   9.2961317      715.02293     -12.991349      702.03158    
   2303000   297.60699      0.0073076404   9.1707211      738.37113     -11.497639      726.87349    
   2304000   319.36498      0.0073076404   5.5893261      792.35331     -11.850777      780.50254    
   2305000   288.70814      0.0073076404   2.2439164      716.29285     -8.7258738      707.56697    
   2306000   291.32906      0.0073076404   6.3534231      722.79543     -11.647398      711.14803    
   2307000   310.1112       0.0073076404   11.005048      769.39445     -13.183393      756.21105    
   2308000   312.49034      0.0073076404  -5.71471        775.29715     -13.87396       761.42319    
   2309000   295.04856      0.0073076404   0.76973373     732.02361     -12.795391      719.22822    
   2310000   290.84719      0.0073076404   1.5582562      721.59991     -13.366845      708.23306    
   2311000   305.72815      0.0073076404   12.338561      758.51997     -11.794546      746.72543    
   2312000   297.13061      0.0073076404  -4.663978       737.18924     -10.119469      727.06977    
   2313000   290.70754      0.0073076404   6.2673925      721.25342     -10.155399      711.09802    
   2314000   316.3762       0.0073076404   16.190352      784.93808     -11.08557       773.85251    
   2315000   303.16414      0.0073076404   2.3728807      752.15858     -11.821154      740.33742    
   2316000   302.87373      0.0073076404  -0.5592616      751.43806     -10.611853      740.82621    
   2317000   322.49328      0.0073076404  -7.7234838      800.11471     -10.198433      789.91628    
   2318000   296.77275      0.0073076404   2.6946137      736.30137     -10.462128      725.83925    
   2319000   304.77818      0.0073076404   10.318408      756.16307     -8.710259       747.45281    
   2320000   300.08845      0.0073076404   2.2958692      744.52772     -12.548135      731.97958    
   2321000   298.75485      0.0073076404  -4.3036722      741.21902     -10.83811       730.38091    
   2322000   300.71836      0.0073076404   10.23343       746.09053     -11.446543      734.64399    
   2323000   298.28282      0.0073076404   4.6416318      740.04789     -10.880499      729.1674     
   2324000   300.93709      0.0073076404   4.1204283      746.63321     -12.838216      733.79499    
   2325000   286.82594      0.0073076404  -0.61994241     711.62306     -11.662626      699.96043    
   2326000   297.11252      0.0073076404   5.9214454      737.14436     -13.252211      723.89215    
   2327000   300.17515      0.0073076404   6.5109983      744.74283     -15.53736       729.20547    
   2328000   297.57959      0.0073076404   4.0171158      738.30315     -13.138478      725.16468    
   2329000   316.35323      0.0073076404  -0.91985057     784.88109     -15.055238      769.82585    
   2330000   294.68334      0.0073076404   5.1523734      731.11749     -15.455064      715.66243    
   2331000   307.98745      0.0073076404   8.6945265      764.12536     -11.931365      752.19399    
   2332000   297.56759      0.0073076404   1.2595962      738.2734      -13.268807      725.00459    
   2333000   290.92061      0.0073076404   4.2454937      721.78204     -14.906531      706.87551    
   2334000   300.12564      0.0073076404   5.0699708      744.61999     -16.306592      728.3134     
   2335000   300.43507      0.0073076404   4.1338503      745.38769     -17.599704      727.78798    
   2336000   298.3318       0.0073076404   2.4621977      740.16941     -18.058327      722.11108    
   2337000   303.81044      0.0073076404   3.1950472      753.76208     -17.912988      735.84909    
   2338000   304.70977      0.0073076404   5.6742664      755.99334     -13.800586      742.19276    
   2339000   296.69558      0.0073076404   4.6609387      736.10991     -12.565583      723.54433    
   2340000   303.70701      0.0073076404   3.6303933      753.50547     -15.45627       738.04919    
   2341000   303.37072      0.0073076404   1.649858       752.67112     -17.315873      735.35524    
   2342000   275.89601      0.0073076404   2.9321557      684.5056      -18.221861      666.28374    
   2343000   299.66079      0.0073076404   4.618776       743.46668     -20.850699      722.61598    
   2344000   300.1995       0.0073076404   6.5967523      744.80324     -17.184965      727.61827    
   2345000   302.35877      0.0073076404   5.9400771      750.16045     -15.317879      734.84257    
   2346000   298.63252      0.0073076404   0.1811498      740.91552     -16.609343      724.30618    
   2347000   285.862        0.0073076404   3.9291626      709.23149     -16.963885      692.26761    
   2348000   302.23681      0.0073076404   8.1107322      749.85786     -17.596083      732.26178    
   2349000   299.93818      0.0073076404   3.8300787      744.1549      -17.03263       727.12227    
   2350000   299.21134      0.0073076404   1.9357937      742.35159     -17.31267       725.03891    
   2351000   298.93989      0.0073076404   7.7983623      741.67811     -15.258631      726.41947    
   2352000   307.30025      0.0073076404   7.5486256      762.42039     -13.764528      748.65586    
   2353000   297.07101      0.0073076404   1.8765466      737.04136     -14.203381      722.83798    
   2354000   294.88377      0.0073076404   2.7894629      731.61475     -13.114189      718.50056    
   2355000   287.93697      0.0073076404   5.6424199      714.37957     -9.8940197      704.48555    
   2356000   308.17668      0.0073076404   6.1240853      764.59483     -12.72938       751.86545    
   2357000   308.09404      0.0073076404   2.3973385      764.38981     -12.421511      751.9683     
   2358000   293.80279      0.0073076404   4.4065984      728.93283     -10.133515      718.79931    
   2359000   295.42852      0.0073076404   4.8432069      732.9663      -13.070841      719.89546    
   2360000   307.99281      0.0073076404   4.8220621      764.13865     -12.655767      751.48288    
   2361000   303.57671      0.0073076404   3.1478004      753.18219     -12.756473      740.42572    
   2362000   279.92347      0.0073076404   3.7532468      694.49784     -13.254639      681.2432     
   2363000   294.25473      0.0073076404   4.411791       730.05408     -11.396784      718.6573     
   2364000   309.98707      0.0073076404   5.0822248      769.08647     -13.653444      755.43302    
   2365000   305.55259      0.0073076404   4.3950418      758.08439     -14.541396      743.543      
   2366000   294.23594      0.0073076404   5.5019135      730.00747     -13.159085      716.84838    
   2367000   304.99101      0.0073076404   4.0389328      756.6911      -12.830869      743.86023    
   2368000   300.50207      0.0073076404   3.8475087      745.55391     -15.068005      730.48591    
   2369000   289.05454      0.0073076404   3.6173949      717.15228     -16.273776      700.8785     
   2370000   292.16983      0.0073076404   4.0667309      724.88141     -15.015428      709.86598    
   2371000   315.09741      0.0073076404   5.7626341      781.76537     -11.888805      769.87656    
   2372000   308.35727      0.0073076404   4.6222335      765.0429      -10.928553      754.11434    
   2373000   287.88934      0.0073076404   3.7768743      714.26138     -10.049469      704.21191    
   2374000   296.92032      0.0073076404   3.8790905      736.66749     -6.9033132      729.76418    
   2375000   308.1994       0.0073076404   1.5895733      764.6512      -10.452878      754.19833    
   2376000   313.52688      0.0073076404   4.5063733      777.86884     -10.867422      767.00141    
   2377000   295.97302      0.0073076404   4.6073891      734.31722     -12.964414      721.3528     
   2378000   288.33791      0.0073076404   3.816165       715.37429     -11.819994      703.5543     
   2379000   308.44418      0.0073076404   4.0533641      765.25852     -13.547595      751.71092    
   2380000   305.01244      0.0073076404   4.8899958      756.74428     -15.822316      740.92197    
   2381000   292.61172      0.0073076404   4.0568294      725.97775     -15.992899      709.98485    
   2382000   312.57836      0.0073076404   3.6773364      775.51554     -13.856301      761.65924    
   2383000   317.54996      0.0073076404   4.9071491      787.85019     -10.172554      777.67764    
   2384000   291.63391      0.0073076404   4.0543736      723.55176     -11.147713      712.40405    
   2385000   297.83992      0.0073076404   3.0733464      738.94905     -11.761141      727.18791    
   2386000   301.58879      0.0073076404   4.5213271      748.25009     -11.569028      736.68106    
   2387000   306.93528      0.0073076404   4.5081895      761.5149      -14.286722      747.22818    
   2388000   288.29581      0.0073076404   2.3512138      715.26984     -13.016432      702.25341    
   2389000   295.37448      0.0073076404   3.2560812      732.83223     -14.879921      717.95231    
   2390000   300.02541      0.0073076404   9.1732136      744.3713      -17.640956      726.73035    
   2391000   305.32975      0.0073076404   1.2494237      757.53151     -13.818844      743.71267    
   2392000   303.64257      0.0073076404   4.71324        753.3456      -13.500188      739.84541    
   2393000   290.05707      0.0073076404   7.5435334      719.6396      -10.15519       709.48441    
   2394000   302.38535      0.0073076404   2.6479361      750.22638     -10.935598      739.29078    
   2395000   302.68543      0.0073076404   3.6636787      750.9709      -7.8309214      743.13998    
   2396000   302.93453      0.0073076404   4.9737342      751.58893     -10.784641      740.80429    
   2397000   299.21606      0.0073076404   5.608108       742.36329     -8.9810626      733.38223    
   2398000   303.37548      0.0073076404   5.3111461      752.68292     -9.8302249      742.8527     
   2399000   303.03505      0.0073076404  -2.1249427      751.8383      -12.992003      738.8463     
   2400000   310.57728      0.0073076404   4.8302006      770.55079     -8.9357128      761.61507    
   2401000   292.46032      0.0073076404   9.9477012      725.60211     -10.512842      715.08927    
   2402000   289.97391      0.0073076404   0.85467682     719.43326     -11.725355      707.7079     
   2403000   303.14286      0.0073076404   3.6945423      752.10578     -10.932993      741.17279    
   2404000   309.91119      0.0073076404   7.0997493      768.8982      -9.4413813      759.45682    
   2405000   287.20026      0.0073076404   1.8120612      712.55177     -9.8750528      702.67672    
   2406000   297.11967      0.0073076404  -1.7368902      737.1621      -9.0923418      728.06976    
   2407000   316.24404      0.0073076404   7.9976067      784.61019     -12.013189      772.597      
   2408000   307.07391      0.0073076404   12.516232      761.85884     -9.1842601      752.67458    
   2409000   296.49918      0.0073076404  -4.9246182      735.62264     -10.192927      725.42971    
   2410000   300.51588      0.0073076404   5.057945       745.58819     -12.968102      732.62009    
   2411000   309.28986      0.0073076404   5.929565       767.35666     -15.752458      751.60421    
   2412000   298.82141      0.0073076404   4.1836819      741.38415     -12.511071      728.87308    
   2413000   295.69453      0.0073076404   2.7919379      733.62627     -20.271876      713.3544     
   2414000   314.87284      0.0073076404  -3.2341342      781.2082      -20.303622      760.90458    
   2415000   311.97551      0.0073076404   6.9144737      774.01985     -18.340881      755.67897    
   2416000   302.52837      0.0073076404   5.647284       750.58121     -16.180416      734.4008     
   2417000   291.89382      0.0073076404   13.174521      724.19661     -13.960797      710.23581    
   2418000   289.06139      0.0073076404   2.6793559      717.16929     -17.459811      699.70947    
   2419000   306.06165      0.0073076404   3.1944077      759.34739     -18.262234      741.08515    
   2420000   297.53826      0.0073076404   4.3714263      738.20062     -16.875825      721.32479    
   2421000   294.8374       0.0073076404   7.1594693      731.49972     -16.413478      715.08624    
   2422000   294.74698      0.0073076404   3.6612807      731.27538     -15.237449      716.03793    
   2423000   304.00769      0.0073076404   1.9701628      754.25147     -13.734437      740.51703    
   2424000   297.4491       0.0073076404   4.3434919      737.9794      -12.245899      725.7335     
   2425000   301.13913      0.0073076404   11.805847      747.13449     -12.685682      734.44881    
   2426000   298.07937      0.0073076404   8.1657179      739.54314     -14.599119      724.94402    
   2427000   295.27988      0.0073076404   0.22330233     732.59752     -12.296394      720.30112    
   2428000   304.67784      0.0073076404  -1.0157272      755.91412     -11.792618      744.12151    
   2429000   307.49705      0.0073076404   10.030771      762.90866     -11.916314      750.99234    
   2430000   302.59729      0.0073076404   5.9835554      750.75221     -12.319854      738.43236    
   2431000   293.01553      0.0073076404   0.36171828     726.9796      -9.6939656      717.28563    
   2432000   299.50819      0.0073076404  -1.9634862      743.08808     -11.850637      731.23744    
   2433000   326.61948      0.0073076404   9.8993128      810.35194     -12.685162      797.66678    
   2434000   299.59061      0.0073076404   4.8945738      743.29256     -11.857277      731.43528    
   2435000   289.75366      0.0073076404   4.6116125      718.88681     -9.9768468      708.90996    
   2436000   297.34639      0.0073076404   2.7546996      737.72459     -11.8866        725.83799    
   2437000   296.88223      0.0073076404   3.6586441      736.573       -11.442049      725.13095    
   2438000   298.80947      0.0073076404   6.9694432      741.35454     -11.420434      729.9341     
   2439000   309.46459      0.0073076404   9.8008364      767.79017     -14.194848      753.59533    
   2440000   287.09646      0.0073076404   1.4163099      712.29423     -13.23684       699.05739    
   2441000   291.76025      0.0073076404   2.3567293      723.86522     -14.209193      709.65603    
   2442000   306.97396      0.0073076404   5.0692664      761.61086     -11.253894      750.35696    
   2443000   288.29013      0.0073076404   7.438302       715.25577     -11.661126      703.59464    
   2444000   297.29636      0.0073076404   2.4013755      737.60046     -12.683572      724.91688    
   2445000   287.05374      0.0073076404   3.5514634      712.18824     -12.264678      699.92356    
   2446000   311.75398      0.0073076404   5.9292489      773.47022     -11.124406      762.34581    
   2447000   300.77548      0.0073076404   4.8082911      746.23226     -11.415182      734.81708    
   2448000   284.78494      0.0073076404   0.35744071     706.5593      -11.661514      694.89778    
   2449000   300.08064      0.0073076404   3.1184863      744.50833     -11.923685      732.58465    
   2450000   292.29378      0.0073076404   4.8983875      725.18892     -13.284475      711.90444    
   2451000   301.0284       0.0073076404   2.4141213      746.85976     -14.82086       732.0389     
   2452000   300.04364      0.0073076404   4.3044428      744.41654     -13.034954      731.38159    
   2453000   285.15116      0.0073076404   4.8728158      707.4679      -11.871638      695.59626    
   2454000   296.7365       0.0073076404   3.9500925      736.21144     -14.067483      722.14396    
   2455000   297.4965       0.0073076404   2.5156924      738.09703     -16.280962      721.81606    
   2456000   312.78429      0.0073076404   4.3506569      776.02644     -13.080129      762.94631    
   2457000   289.56417      0.0073076404   3.7875906      718.41668     -11.703345      706.71334    
   2458000   305.1372       0.0073076404   4.8288121      757.05382     -10.850703      746.20311    
   2459000   306.21157      0.0073076404   4.5351227      759.71935     -12.137679      747.58167    
   2460000   306.29195      0.0073076404   3.9002527      759.91877     -10.096578      749.82219    
   2461000   290.82943      0.0073076404   3.5248884      721.55582     -13.363169      708.19265    
   2462000   291.65838      0.0073076404   4.2097672      723.61247     -10.786859      712.82562    
   2463000   303.59332      0.0073076404   7.1107843      753.2234      -13.074795      740.14861    
   2464000   309.52644      0.0073076404   2.4225113      767.94362     -14.65444       753.28918    
   2465000   290.83318      0.0073076404   1.8004886      721.56514     -12.778585      708.78656    
   2466000   294.76804      0.0073076404   5.570947       731.32764     -12.237663      719.08998    
   2467000   312.53439      0.0073076404   7.7152454      775.40643     -12.002013      763.40442    
   2468000   295.01601      0.0073076404   0.06459405     731.94285     -13.936465      718.00639    
   2469000   298.50674      0.0073076404   2.6532285      740.60344     -15.399566      725.20387    
   2470000   299.76175      0.0073076404   9.4385309      743.71716     -16.726896      726.99027    
   2471000   305.25325      0.0073076404   4.22384        757.34172     -15.230946      742.11078    
   2472000   301.68995      0.0073076404   0.98785575     748.50107     -14.758988      733.74209    
   2473000   279.19981      0.0073076404   4.2996506      692.70243     -15.755691      676.94674    
   2474000   304.01415      0.0073076404   7.4680643      754.26747     -15.903626      738.36385    
   2475000   306.99431      0.0073076404   3.5655583      761.66135     -17.471542      744.18981    
   2476000   297.82819      0.0073076404  -1.0441185      738.91994     -13.570353      725.34959    
   2477000   286.48912      0.0073076404   4.7711169      710.78741     -14.445988      696.34142    
   2478000   303.80848      0.0073076404   7.1742106      753.75722     -12.825716      740.93151    
   2479000   309.00991      0.0073076404   2.7128735      766.66212     -12.056772      754.60534    
   2480000   289.82475      0.0073076404   2.2461371      719.06318     -13.40694       705.65624    
   2481000   293.50018      0.0073076404   3.5968727      728.18204     -13.911789      714.27025    
   2482000   302.27167      0.0073076404   4.7241449      749.94435     -14.032767      735.91158    
   2483000   297.89441      0.0073076404   6.5900544      739.08425     -16.575357      722.50889    
   2484000   302.31964      0.0073076404   3.4435153      750.06336     -15.72941       734.33395    
   2485000   294.52927      0.0073076404   2.7470606      730.73525     -14.083174      716.65207    
   2486000   294.6295       0.0073076404   3.4805081      730.98392     -12.438197      718.54572    
   2487000   302.841        0.0073076404   5.2693172      751.35687     -12.958988      738.39788    
   2488000   303.82325      0.0073076404   5.7194774      753.79386     -11.253646      742.54021    
   2489000   294.171        0.0073076404   2.8942372      729.84637     -10.499507      719.34686    
   2490000   301.01653      0.0073076404   7.5255681      746.83031     -13.733924      733.09639    
   2491000   316.7144       0.0073076404   5.5798236      785.77716     -12.895255      772.88191    
   2492000   305.41222      0.0073076404   3.3718734      757.73614     -11.681802      746.05434    
   2493000   286.28428      0.0073076404   3.4725459      710.27919     -11.205932      699.07326    
   2494000   307.05958      0.0073076404   4.0407292      761.82328     -10.512309      751.31097    
   2495000   307.86053      0.0073076404   4.2069484      763.81047     -9.699033       754.11144    
   2496000   293.90898      0.0073076404   4.3498489      729.19628     -13.12253       716.07375    
   2497000   292.1177       0.0073076404   3.8422615      724.75206     -13.06314       711.68892    
   2498000   301.94878      0.0073076404   5.067134       749.14324     -12.378278      736.76496    
   2499000   315.36715      0.0073076404   6.1278554      782.43459     -10.780963      771.65363    
   2500000   305.009        0.0073076404  -0.56489809     756.73573     -15.51845       741.21728    
   2501000   292.61407      0.0073076404   3.5527127      725.98359     -11.733463      714.25012    
   2502000   284.33661      0.0073076404   4.5116416      705.44697     -13.008979      692.43799    
   2503000   316.25644      0.0073076404   6.5739612      784.64096     -14.327752      770.31321    
   2504000   298.33529      0.0073076404   1.6002401      740.17808     -14.85633       725.32175    
   2505000   286.30606      0.0073076404   3.8229821      710.33323     -14.523317      695.80991    
   2506000   309.91734      0.0073076404   8.2498796      768.91348     -14.557259      754.35622    
   2507000   301.6902       0.0073076404   5.3158901      748.50171     -15.722853      732.77886    
   2508000   292.25708      0.0073076404  -3.6552208      725.09786     -16.021153      709.07671    
   2509000   297.81462      0.0073076404   6.0925161      738.88629     -15.20514       723.68115    
   2510000   309.16685      0.0073076404   8.5089304      767.05147     -11.880679      755.17079    
   2511000   296.90215      0.0073076404   1.1911303      736.62243     -9.2112711      727.41116    
   2512000   300.68315      0.0073076404  -1.5819148      746.00317     -13.105662      732.89751    
   2513000   297.36031      0.0073076404   2.6974915      737.75913     -11.004261      726.75487    
   2514000   303.24432      0.0073076404   8.5837298      752.35751     -14.751447      737.60606    
   2515000   299.29136      0.0073076404  -1.6143034      742.55011     -15.492387      727.05772    
   2516000   285.41423      0.0073076404   2.921234       708.12056     -13.368594      694.75197    
   2517000   302.05874      0.0073076404   8.5743019      749.41606     -16.767418      732.64864    
   2518000   312.59719      0.0073076404   7.7566834      775.56225     -16.455949      759.1063     
   2519000   301.862        0.0073076404  -0.56271345     748.92794     -16.927126      732.00082    
   2520000   295.3642       0.0073076404   2.9498929      732.80671     -17.394642      715.41207    
   2521000   304.88937      0.0073076404   6.6381661      756.43893     -14.052004      742.38693    
   2522000   313.50753      0.0073076404   5.3367047      777.82082     -12.20814       765.61268    
   2523000   295.63475      0.0073076404   2.3867036      733.47797     -13.794513      719.68346    
   2524000   290.25973      0.0073076404   2.9382245      720.14239     -14.058397      706.08399    
   2525000   289.32216      0.0073076404   5.1375943      717.81625     -13.945176      703.87107    
   2526000   305.90539      0.0073076404   4.3814148      758.9597      -13.850889      745.10881    
   2527000   306.09268      0.0073076404   5.0401638      759.42437     -14.661301      744.76307    
   2528000   293.19258      0.0073076404   0.94720247     727.41887     -14.428751      712.99012    
   2529000   297.95083      0.0073076404   3.8436644      739.22422     -15.597403      723.62682    
   2530000   293.48962      0.0073076404   6.9521567      728.15584     -13.840875      714.31496    
   2531000   314.90604      0.0073076404   4.8054363      781.29058     -15.501687      765.78889    
   2532000   295.66056      0.0073076404   4.2665916      733.54199     -16.278448      717.26354    
   2533000   302.99467      0.0073076404   4.2818713      751.73812     -17.069423      734.6687     
   2534000   292.92853      0.0073076404   3.9104217      726.76375     -13.735756      713.02799    
   2535000   292.10608      0.0073076404   3.6951396      724.72324     -15.124761      709.59847    
   2536000   308.51702      0.0073076404   3.857823       765.43924     -13.76286       751.67638    
   2537000   292.24919      0.0073076404   3.5473103      725.0783      -14.379242      710.69906    
   2538000   295.43797      0.0073076404   5.998571       732.98974     -15.456892      717.53285    
   2539000   296.56121      0.0073076404   3.4839586      735.77653     -15.174441      720.60208    
   2540000   292.80503      0.0073076404   1.7487761      726.45734     -13.921442      712.5359     
   2541000   299.76816      0.0073076404   4.5961971      743.73306     -11.812424      731.92063    
   2542000   301.35873      0.0073076404   4.1505627      747.67932     -15.345682      732.33364    
   2543000   307.49311      0.0073076404   2.8654646      762.89889     -15.92987       746.96902    
   2544000   291.4535       0.0073076404   3.732081       723.10416     -17.700073      705.40409    
   2545000   296.44631      0.0073076404   3.2432174      735.49146     -15.492427      719.99903    
   2546000   306.66375      0.0073076404   5.6440453      760.84121     -13.137473      747.70374    
   2547000   289.43745      0.0073076404   4.8317284      718.10228     -14.747241      703.35504    
   2548000   302.70416      0.0073076404   3.7697824      751.01736     -14.854923      736.16243    
   2549000   305.50157      0.0073076404   4.2959602      757.95782     -14.059708      743.89811    
   2550000   290.64658      0.0073076404   5.1765432      721.10217     -17.332747      703.76942    
   2551000   303.62278      0.0073076404   3.6300684      753.29648     -15.843474      737.45301    
   2552000   307.27464      0.0073076404   2.5963575      762.35685     -15.267489      747.08936    
   2553000   300.83752      0.0073076404   6.4398604      746.38617     -15.017706      731.36847    
   2554000   289.49498      0.0073076404   3.1714585      718.24503     -13.200888      705.04414    
   2555000   301.76526      0.0073076404   1.919546       748.68793     -11.614904      737.07302    
   2556000   315.29471      0.0073076404   3.0536439      782.25487     -11.104729      771.15014    
   2557000   305.33593      0.0073076404   6.0546008      757.54685     -11.328401      746.21845    
   2558000   299.51302      0.0073076404   2.5682224      743.10006     -9.1324054      733.96766    
   2559000   321.87978      0.0073076404   3.8435257      798.59261     -8.0972953      790.49531    
   2560000   306.8598       0.0073076404   4.3055113      761.32761     -9.7215695      751.60604    
   2561000   293.27147      0.0073076404   4.0407176      727.61459     -12.605169      715.00943    
   2562000   298.04551      0.0073076404   3.5835831      739.45913     -16.285222      723.17391    
   2563000   307.58262      0.0073076404   3.9246041      763.12095     -13.705824      749.41512    
   2564000   296.5818       0.0073076404   3.4979365      735.82762     -13.983611      721.84401    
   2565000   280.71236      0.0073076404   3.5942933      696.45509     -13.479759      682.97533    
   2566000   309.47484      0.0073076404   4.7385708      767.81561     -16.131494      751.68411    
   2567000   309.66376      0.0073076404   4.2992505      768.28432     -13.715522      754.5688     
   2568000   299.56279      0.0073076404   3.7135925      743.22354     -12.388955      730.83459    
   2569000   292.71825      0.0073076404   3.6316584      726.24205     -14.121609      712.12044    
   2570000   293.19784      0.0073076404   3.4053642      727.43193     -10.825817      716.60612    
   2571000   310.24874      0.0073076404   6.5377621      769.73568     -12.351758      757.38392    
   2572000   292.21847      0.0073076404   2.8764295      725.00207     -11.272426      713.72964    
   2573000   284.86998      0.0073076404   4.6121651      706.77027     -11.060455      695.70981    
   2574000   294.83018      0.0073076404   6.7527901      731.48181     -11.149844      720.33197    
   2575000   314.39935      0.0073076404   5.1892924      780.03346     -12.384585      767.64888    
   2576000   290.97808      0.0073076404   0.34180711     721.92463     -14.451513      707.47312    
   2577000   288.16915      0.0073076404   6.0261956      714.9556      -12.409057      702.54654    
   2578000   291.66773      0.0073076404   10.163021      723.63567     -9.798661       713.83701    
   2579000   305.70388      0.0073076404   3.7638033      758.45974     -11.408652      747.05109    
   2580000   304.34808      0.0073076404   3.2316384      755.09598     -10.406796      744.68918    
   2581000   289.032        0.0073076404   2.8958348      717.09635     -10.971383      706.12497    
   2582000   290.65778      0.0073076404   6.2523679      721.12997     -11.667692      709.46228    
   2583000   312.27026      0.0073076404   0.8956796      774.75111     -12.437409      762.3137     
   2584000   314.17102      0.0073076404  -0.057018169    779.46697     -10.439803      769.02717    
   2585000   309.34856      0.0073076404   3.8326361      767.50231     -10.808321      756.69399    
   2586000   299.51566      0.0073076404   4.1789799      743.1066      -11.098386      732.00821    
   2587000   295.12764      0.0073076404   6.3512534      732.21981     -13.365515      718.85429    
   2588000   314.07514      0.0073076404   3.0641638      779.22908     -13.703787      765.5253     
   2589000   310.49165      0.0073076404   0.48075009     770.33833     -9.399544       760.93879    
   2590000   283.68846      0.0073076404   4.1508885      703.83889     -8.2663337      695.57255    
   2591000   309.19137      0.0073076404   4.7532577      767.11231     -11.048276      756.06403    
   2592000   303.5747       0.0073076404   0.81255833     753.17721     -8.7822545      744.39496    
   2593000   287.53507      0.0073076404   5.9383701      713.38243     -14.423245      698.95919    
   2594000   301.30066      0.0073076404   7.3264081      747.53523     -13.803302      733.73193    
   2595000   306.52116      0.0073076404   4.069525       760.48745     -11.843751      748.6437     
   2596000   299.14733      0.0073076404   2.5161219      742.19276     -10.353333      731.83943    
   2597000   300.86634      0.0073076404   4.4619733      746.45769     -7.4472558      739.01043    
   2598000   312.50243      0.0073076404   4.3309198      775.32714     -11.467856      763.85928    
   2599000   305.71092      0.0073076404   2.6841262      758.47721     -10.649971      747.82724    
   2600000   287.59956      0.0073076404   3.1718805      713.54244     -11.188754      702.35368    
   2601000   295.5305       0.0073076404   4.4806639      733.21932     -10.981243      722.23807    
   2602000   307.25077      0.0073076404   4.0472894      762.29763     -12.350889      749.94674    
   2603000   304.61984      0.0073076404   2.6349266      755.77022     -14.735658      741.03456    
   2604000   287.00263      0.0073076404   3.9932934      712.06145     -15.393883      696.66757    
   2605000   303.22675      0.0073076404   5.794945       752.31393     -14.180653      738.13328    
   2606000   305.76285      0.0073076404   3.3766413      758.60607     -9.8237537      748.78231    
   2607000   294.75939      0.0073076404   3.3414724      731.30618     -9.9781543      721.32803    
   2608000   291.57615      0.0073076404   3.6240768      723.40846     -11.608006      711.80046    
   2609000   299.88133      0.0073076404   4.1075191      744.01385     -11.56728       732.44657    
   2610000   305.35661      0.0073076404   4.3098743      757.59816     -10.436917      747.16124    
   2611000   298.78926      0.0073076404   7.7209002      741.30438     -11.586468      729.71791    
   2612000   303.61909      0.0073076404   1.7019648      753.28732     -11.609846      741.67748    
   2613000   294.25328      0.0073076404   2.3995047      730.05049     -11.716037      718.33445    
   2614000   307.3355       0.0073076404   3.3584125      762.50785     -13.000488      749.50736    
   2615000   308.8409       0.0073076404   6.5817176      766.24278     -13.185244      753.05753    
   2616000   294.07243      0.0073076404   3.9998924      729.6018      -13.675957      715.92584    
   2617000   298.94666      0.0073076404   3.7523105      741.69492     -11.735482      729.95943    
   2618000   313.36546      0.0073076404   3.6997315      777.46835     -12.133227      765.33512    
   2619000   299.59645      0.0073076404   3.4405456      743.30706     -13.778097      729.52896    
   2620000   285.57569      0.0073076404   4.8475378      708.52115     -13.115101      695.40605    
   2621000   297.41075      0.0073076404   4.2986921      737.88428     -13.731465      724.15281    
   2622000   301.24614      0.0073076404   5.17324        747.39998     -10.457041      736.94294    
   2623000   302.41868      0.0073076404  -3.2231297      750.30908     -10.962124      739.34696    
   2624000   308.85959      0.0073076404   2.5282438      766.28917     -8.2793925      758.00978    
   2625000   294.1053       0.0073076404   4.5132815      729.68335     -8.4454865      721.23787    
   2626000   300.38388      0.0073076404   6.3409594      745.26069     -9.6169671      735.64372    
   2627000   302.92111      0.0073076404   2.6416047      751.55562     -9.4909908      742.06463    
   2628000   291.9731       0.0073076404   1.9489056      724.39331     -10.453639      713.93967    
   2629000   306.33105      0.0073076404   4.6008483      760.01579     -10.085051      749.93074    
   2630000   304.45168      0.0073076404   4.7032912      755.35302     -8.9078095      746.44521    
   2631000   295.2999       0.0073076404   4.0516034      732.64719     -9.5913251      723.05587    
   2632000   295.43592      0.0073076404   1.4971286      732.98466     -9.691743       723.29292    
   2633000   300.45216      0.0073076404   5.9258283      745.43008     -12.031061      733.39902    
   2634000   294.11615      0.0073076404   7.9778119      729.71029     -12.638526      717.07176    
   2635000   298.35399      0.0073076404   1.7937886      740.22447     -13.679728      726.54475    
   2636000   286.66515      0.0073076404   7.0894796      711.22414     -12.787142      698.437      
   2637000   288.63761      0.0073076404  -0.092064732    716.11787     -10.650458      705.46741    
   2638000   297.44137      0.0073076404   7.655747       737.96024     -12.479054      725.48119    
   2639000   304.72564      0.0073076404   1.2821265      756.03271     -13.681449      742.35126    
   2640000   293.10632      0.0073076404   2.1392474      727.20485     -14.812314      712.39253    
   2641000   305.58674      0.0073076404   7.1989053      758.16913     -12.85395       745.31518    
   2642000   303.14693      0.0073076404   6.5814746      752.11589     -12.096244      740.01964    
   2643000   304.46289      0.0073076404   3.0912252      755.38082     -13.281238      742.09959    
   2644000   304.21156      0.0073076404   1.8702307      754.75727     -12.721523      742.03575    
   2645000   312.78523      0.0073076404   1.4208575      776.02877     -14.799455      761.22932    
   2646000   296.16189      0.0073076404   12.314265      734.78581     -17.054233      717.73158    
   2647000   314.74387      0.0073076404   5.0080129      780.88822     -14.580379      766.30785    
   2648000   290.98908      0.0073076404   1.8657181      721.95193     -21.338285      700.61365    
   2649000   303.29572      0.0073076404   7.6987717      752.48505     -17.884099      734.60095    
   2650000   308.24233      0.0073076404   1.3573954      764.75773     -15.01801       749.73972    
   2651000   311.9847       0.0073076404   4.1729412      774.04264     -14.273876      759.76877    
   2652000   307.14545      0.0073076404   2.6682696      762.03632     -13.006775      749.02955    
   2653000   292.16965      0.0073076404   2.0056185      724.88094     -12.794795      712.08615    
   2654000   296.15943      0.0073076404   6.5397691      734.77972     -9.6777468      725.10197    
   2655000   299.99206      0.0073076404   3.7730151      744.28857     -10.918234      733.37034    
   2656000   308.14359      0.0073076404   5.3497259      764.51275     -11.32186       753.19089    
   2657000   298.69016      0.0073076404   3.8912764      741.05851     -10.859894      730.19862    
   2658000   293.71785      0.0073076404   3.9589518      728.72209     -12.804218      715.91787    
   2659000   298.39249      0.0073076404   4.7824334      740.32        -9.3427569      730.97724    
   2660000   307.35227      0.0073076404   3.3249875      762.54944     -12.903516      749.64593    
   2661000   308.39532      0.0073076404   5.4887226      765.1373      -12.545831      752.59147    
   2662000   288.25852      0.0073076404   5.7859253      715.17734     -10.683481      704.49386    
   2663000   310.73698      0.0073076404   2.2153953      770.94701     -14.234851      756.71216    
   2664000   310.59816      0.0073076404   4.2077014      770.60259     -14.147465      756.45513    
   2665000   294.7283       0.0073076404   5.8011897      731.22903     -11.386902      719.84212    
   2666000   286.85275      0.0073076404   5.2774325      711.68959     -14.523743      697.16584    
   2667000   299.59577      0.0073076404   2.3287514      743.30536     -16.17401       727.13135    
   2668000   309.3508       0.0073076404   4.3019084      767.50785     -14.944677      752.56317    
   2669000   304.50443      0.0073076404   4.2434689      755.4839      -14.158815      741.32508    
   2670000   300.3273       0.0073076404   2.6599402      745.1203      -14.906547      730.21376    
   2671000   303.7677       0.0073076404   3.940517       753.65604     -13.9677        739.68834    
   2672000   303.67644      0.0073076404   4.4208881      753.42963     -17.927894      735.50174    
   2673000   320.37094      0.0073076404   4.4891289      794.84914     -13.667536      781.1816     
   2674000   294.31807      0.0073076404   3.3517037      730.21124     -14.160587      716.05065    
   2675000   285.05289      0.0073076404   4.8242921      707.22408     -10.1058        697.11828    
   2676000   294.09293      0.0073076404   4.8786633      729.65267     -9.2619721      720.39069    
   2677000   300.10677      0.0073076404   3.8087983      744.57318     -11.478073      733.0951     
   2678000   297.89092      0.0073076404   3.3829018      739.07558     -10.463186      728.61239    
   2679000   307.75318      0.0073076404   4.1839044      763.54412     -12.135621      751.40849    
   2680000   306.76932      0.0073076404   4.6065217      761.10314     -11.425676      749.67747    
   2681000   290.33864      0.0073076404   3.8992341      720.33818     -11.393003      708.94518    
   2682000   301.78352      0.0073076404   3.1629829      748.73322     -12.180001      736.55322    
   2683000   308.8807       0.0073076404   7.1411756      766.34152     -10.980726      755.3608     
   2684000   292.04648      0.0073076404   3.7771516      724.57537     -12.677528      711.89785    
   2685000   303.06213      0.0073076404   2.6723756      751.90549     -14.749003      737.15648    
   2686000   304.76059      0.0073076404   5.4010558      756.11944     -13.497627      742.62181    
   2687000   293.56492      0.0073076404   3.5181701      728.34266     -13.277474      715.06519    
   2688000   314.15706      0.0073076404   2.0736074      779.43233     -9.1688536      770.26348    
   2689000   302.80786      0.0073076404   4.3748261      751.27464     -9.3290326      741.9456     
   2690000   302.47392      0.0073076404   4.9461298      750.44613     -8.8389767      741.60715    
   2691000   304.17055      0.0073076404   4.0385852      754.65551     -11.477682      743.17783    
   2692000   290.17526      0.0073076404   3.2379092      719.93282     -9.3515157      710.5813     
   2693000   307.65222      0.0073076404   4.7331816      763.29363     -10.001723      753.29191    
   2694000   302.29942      0.0073076404   6.6940397      750.01319     -7.5607916      742.4524     
   2695000   291.19953      0.0073076404   5.8273665      722.47407     -8.7951599      713.67891    
   2696000   279.38488      0.0073076404  -0.46804966     693.16158     -9.1306137      684.03097    
   2697000   309.25038      0.0073076404   1.1368972      767.25871     -9.8793717      757.37934    
   2698000   299.83863      0.0073076404   4.2061799      743.90791     -13.71916       730.18875    
   2699000   293.99081      0.0073076404   4.2776965      729.39929     -11.803943      717.59535    
   2700000   296.45825      0.0073076404   4.8043369      735.5211      -12.211713      723.30939    
   2701000   310.82082      0.0073076404   4.0528081      771.15501     -12.938143      758.21687    
   2702000   294.14994      0.0073076404   3.1117454      729.7941      -13.432993      716.36111    
   2703000   304.29762      0.0073076404   3.9677071      754.97079     -13.825113      741.14568    
   2704000   303.12848      0.0073076404   4.5211787      752.07012     -12.046157      740.02396    
   2705000   290.51393      0.0073076404   4.1863403      720.77306     -14.20081       706.57225    
   2706000   299.28804      0.0073076404   3.1113241      742.54189     -10.78012       731.76177    
   2707000   298.39565      0.0073076404   4.7780864      740.32784     -15.287113      725.04073    
   2708000   306.00007      0.0073076404   3.6900752      759.1946      -14.252634      744.94196    
   2709000   296.86607      0.0073076404   3.6889815      736.53289     -14.249692      722.2832     
   2710000   298.72029      0.0073076404   4.6827846      741.13327     -15.269887      725.86338    
   2711000   289.73931      0.0073076404   2.5644208      718.85121     -15.283814      703.5674     
   2712000   303.06548      0.0073076404   3.3596513      751.91381     -13.187995      738.72581    
   2713000   303.76609      0.0073076404   3.5975808      753.65203     -13.531935      740.1201     
   2714000   301.57454      0.0073076404   9.0375484      748.21473     -12.586826      735.62791    
   2715000   289.73481      0.0073076404   4.3699921      718.84006     -15.75878       703.08128    
   2716000   305.30711      0.0073076404   2.4707759      757.47536     -15.921875      741.55349    
   2717000   307.01136      0.0073076404   8.6008962      761.70364     -13.497443      748.2062     
   2718000   295.87067      0.0073076404   3.9422003      734.06328     -14.011576      720.05171    
   2719000   309.16314      0.0073076404   1.6831227      767.04227     -14.806106      752.23616    
   2720000   315.62973      0.0073076404   4.108853       783.08605     -13.769739      769.31631    
   2721000   309.41702      0.0073076404   5.4665099      767.67215     -11.978518      755.69363    
   2722000   295.67486      0.0073076404   6.1240521      733.57748     -13.268608      720.30887    
   2723000   286.55505      0.0073076404   3.3724494      710.95097     -10.263676      700.6873     
   2724000   309.29139      0.0073076404   2.8367601      767.36047     -13.285966      754.0745     
   2725000   308.36686      0.0073076404   2.9800794      765.06668     -13.612036      751.45464    
   2726000   295.17358      0.0073076404   5.9220067      732.3338      -7.9340368      724.39976    
   2727000   287.54714      0.0073076404   4.640159       713.41239     -9.7553254      703.65707    
   2728000   298.44271      0.0073076404   4.1930424      740.44458     -5.3549671      735.08961    
   2729000   305.57594      0.0073076404   4.3146561      758.14233     -8.5604137      749.58192    
   2730000   296.44191      0.0073076404   3.4895935      735.48054     -10.824011      724.65653    
   2731000   296.88404      0.0073076404   4.0400436      736.57749     -11.961345      724.61614    
   2732000   301.75729      0.0073076404   4.2693465      748.66816     -12.734687      735.93347    
   2733000   306.55912      0.0073076404   3.9994596      760.58163     -11.101707      749.47992    
   2734000   298.21382      0.0073076404   3.8648735      739.87671     -10.837486      729.03923    
   2735000   294.10762      0.0073076404   4.0407003      729.68911     -9.1729715      720.51614    
   2736000   302.31493      0.0073076404   4.0850297      750.05168     -12.631965      737.41972    
   2737000   305.61405      0.0073076404   3.8042143      758.23689     -9.9534857      748.2834     
   2738000   305.97142      0.0073076404   4.032367       759.12352     -10.572094      748.55143    
   2739000   305.04962      0.0073076404   4.7651802      756.83651     -11.537161      745.29935    
   2740000   313.06827      0.0073076404   4.3155526      776.73101     -12.755421      763.97559    
   2741000   296.76794      0.0073076404   5.2574499      736.28945     -14.17027       722.11918    
   2742000   288.42139      0.0073076404   3.5729981      715.58143     -15.763287      699.81814    
   2743000   309.34016      0.0073076404   4.1718532      767.48146     -10.602329      756.87913    
   2744000   316.81107      0.0073076404   3.896629       786.017       -11.434954      774.58205    
   2745000   292.19716      0.0073076404   3.6547885      724.94921     -9.2684829      715.68073    
   2746000   302.08201      0.0073076404   6.6367749      749.4738      -10.11193       739.36187    
   2747000   307.62228      0.0073076404   4.727618       763.21935     -10.759813      752.45953    
   2748000   309.89964      0.0073076404   2.6629136      768.86954     -11.035851      757.83369    
   2749000   291.91698      0.0073076404   2.4927245      724.25406     -11.449037      712.80502    
   2750000   290.09083      0.0073076404   4.4347387      719.72334     -11.930747      707.7926     
   2751000   288.37621      0.0073076404   5.7588764      715.46931     -10.311808      705.15751    
   2752000   312.5995       0.0073076404   7.2970397      775.56798     -12.618933      762.94905    
   2753000   301.06485      0.0073076404   3.2706548      746.95019     -7.4068357      739.54336    
   2754000   286.20818      0.0073076404   4.367912       710.09038     -7.9850961      702.10528    
   2755000   303.56161      0.0073076404   4.2916098      753.14473     -7.6692596      745.47547    
   2756000   313.67176      0.0073076404   4.7776399      778.22828     -6.9835752      771.24471    
   2757000   288.1367       0.0073076404   5.0714375      714.8751      -7.422679       707.45242    
   2758000   294.02297      0.0073076404   3.2117614      729.47909     -8.1562694      721.32282    
   2759000   301.0771       0.0073076404   4.1952091      746.98059     -7.978641       739.00195    
   2760000   294.40363      0.0073076404   6.3100924      730.42352     -10.796646      719.62688    
   2761000   303.34625      0.0073076404   3.9779595      752.6104      -8.5158742      744.09453    
   2762000   325.21895      0.0073076404   4.5537975      806.87718     -8.563233       798.31395    
   2763000   305.12963      0.0073076404   4.7426762      757.03502     -11.801748      745.23327    
   2764000   300.36093      0.0073076404   4.6569338      745.20374     -14.909131      730.29461    
   2765000   291.02449      0.0073076404   3.6917436      722.03979     -12.250687      709.7891     
   2766000   306.10717      0.0073076404   3.9147433      759.46033     -10.262787      749.19754    
   2767000   301.30075      0.0073076404   4.327276       747.53548     -10.377634      737.15784    
   2768000   299.11999      0.0073076404   4.39366        742.12493     -9.111316       733.01362    
   2769000   300.17868      0.0073076404   3.6011491      744.75158     -10.550334      734.20125    
   2770000   294.03759      0.0073076404   2.9140956      729.51537     -9.717735       719.79763    
   2771000   306.40675      0.0073076404   4.3323682      760.20358     -8.4283898      751.77519    
   2772000   297.41586      0.0073076404   3.9721528      737.89696     -10.944175      726.95278    
   2773000   300.95586      0.0073076404   2.6687644      746.67978     -10.40029       736.27949    
   2774000   300.02788      0.0073076404   4.1114295      744.37743     -10.319869      734.05756    
   2775000   301.27505      0.0073076404   4.0070531      747.4717      -9.9077277      737.56397    
   2776000   297.58297      0.0073076404   4.1251119      738.31156     -9.2048168      729.10674    
   2777000   302.68584      0.0073076404   2.8999305      750.9719      -10.975629      739.99627    
   2778000   308.3966       0.0073076404   4.0691185      765.14045     -12.508871      752.63158    
   2779000   293.35175      0.0073076404   5.4809603      727.81378     -15.325447      712.48833    
   2780000   293.17839      0.0073076404  -0.23917567     727.38368     -14.06703       713.31665    
   2781000   302.11309      0.0073076404   1.7044312      749.5509      -13.585924      735.96497    
   2782000   302.38101      0.0073076404   4.8617332      750.21562     -13.957836      736.25778    
   2783000   286.23801      0.0073076404   5.2934896      710.1644      -12.230307      697.93409    
   2784000   305.53114      0.0073076404   3.785822       758.03119     -11.808136      746.22305    
   2785000   295.60982      0.0073076404   3.0670698      733.41612     -10.498152      722.91797    
   2786000   308.25681      0.0073076404   4.6028963      764.79364     -10.301104      754.49253    
   2787000   295.98936      0.0073076404   4.5660369      734.35775     -9.0238112      725.33394    
   2788000   294.87322      0.0073076404   1.72772        731.5886      -9.3449757      722.24362    
   2789000   310.85893      0.0073076404   3.1016367      771.24957     -7.4631428      763.78643    
   2790000   294.0304       0.0073076404   7.8069679      729.49753     -10.033626      719.46391    
   2791000   294.95438      0.0073076404   3.655591       731.78994     -9.2904197      722.49952    
   2792000   308.17618      0.0073076404   2.9087465      764.59359     -8.940843       755.65275    
   2793000   311.71885      0.0073076404   5.6453798      773.38307     -12.057501      761.32556    
   2794000   295.80092      0.0073076404   5.5091438      733.89024     -14.410703      719.47954    
   2795000   302.156        0.0073076404   4.1050845      749.65738     -16.206981      733.45039    
   2796000   301.68466      0.0073076404  -0.28547289     748.48796     -14.372069      734.11589    
   2797000   302.16661      0.0073076404   4.3018275      749.68369     -9.8208847      739.86281    
   2798000   310.16092      0.0073076404   9.0428296      769.51778     -9.1939621      760.32382    
   2799000   301.18177      0.0073076404   5.0947371      747.24027     -9.7124177      737.52786    
   2800000   300.89887      0.0073076404   0.79358672     746.53839     -13.122111      733.41628    
   2801000   301.55726      0.0073076404  -6.5693549      748.17187     -12.747128      735.42474    
   2802000   306.41083      0.0073076404   3.2097612      760.21373     -12.164456      748.04927    
   2803000   291.85025      0.0073076404   9.0370066      724.08851     -16.760069      707.32844    
   2804000   286.34261      0.0073076404  -0.54422975     710.42391     -11.006914      699.41699    
   2805000   298.63263      0.0073076404  -1.2309222      740.9158      -10.473274      730.44252    
   2806000   312.6824       0.0073076404   7.6224349      775.77365     -7.6334937      768.14016    
   2807000   287.8006       0.0073076404   8.6058359      714.04122     -10.220479      703.82074    
   2808000   288.04858      0.0073076404  -1.1413442      714.65646     -9.6254154      705.03104    
   2809000   308.28359      0.0073076404   2.8367879      764.86009     -10.472116      754.38798    
   2810000   306.26617      0.0073076404   6.7484374      759.8548      -16.191307      743.6635     
   2811000   298.36756      0.0073076404   6.3545719      740.25813     -14.832815      725.42532    
   2812000   291.25727      0.0073076404   1.1463345      722.61731     -16.971415      705.64589    
   2813000   309.81937      0.0073076404   0.98590784     768.6704      -12.375324      756.29508    
   2814000   308.71866      0.0073076404   4.4040868      765.93951     -12.702586      753.23692    
   2815000   292.68158      0.0073076404   7.8910819      726.15107     -13.194882      712.95619    
   2816000   294.41462      0.0073076404   2.4122184      730.45079     -13.956076      716.49472    
   2817000   304.30976      0.0073076404  -0.49529153     755.00089     -16.340157      738.66074    
   2818000   308.58209      0.0073076404   4.0517861      765.60068     -12.139669      753.46101    
   2819000   292.16091      0.0073076404   14.160167      724.85928     -10.934317      713.92497    
   2820000   295.3266       0.0073076404  -0.13764741     732.71343     -12.933777      719.77965    
   2821000   312.03905      0.0073076404   4.9120126      774.17747     -17.26427       756.9132     
   2822000   290.2968       0.0073076404   10.337137      720.23436     -16.003234      704.23112    
   2823000   293.69098      0.0073076404  -0.43541479     728.65541     -11.19852       717.45688    
   2824000   310.99208      0.0073076404   1.5811048      771.57993     -13.713816      757.86611    
   2825000   323.15885      0.0073076404   5.4242508      801.76601     -10.524858      791.24115    
   2826000   293.90327      0.0073076404   5.2819429      729.18211     -11.558353      717.62376    
   2827000   296.58255      0.0073076404   4.1035799      735.82948     -9.915296       725.91418    
   2828000   309.5479       0.0073076404  -0.30728973     767.99687     -12.543271      755.4536     
   2829000   298.31671      0.0073076404   6.3656669      740.13198     -14.035441      726.09654    
   2830000   288.93317      0.0073076404   5.1465133      716.85115     -12.968999      703.88215    
   2831000   314.82357      0.0073076404  -0.49803556     781.08596     -12.43133       768.65463    
   2832000   305.93278      0.0073076404   2.9710929      759.02767     -6.9338012      752.09387    
   2833000   297.03589      0.0073076404   6.9757994      736.95422     -11.764802      725.18942    
   2834000   291.17328      0.0073076404   1.6003496      722.40893     -9.8456197      712.56331    
   2835000   301.631        0.0073076404   0.55512634     748.35483     -9.0440937      739.31074    
   2836000   306.05584      0.0073076404   0.23157929     759.33298     -8.4943798      750.8386     
   2837000   302.1573       0.0073076404   4.1370456      749.6606      -7.4468321      742.21377    
   2838000   300.33342      0.0073076404   6.5596683      745.13549     -9.6226162      735.51288    
   2839000   295.89395      0.0073076404   3.3937275      734.12105     -10.631595      723.48946    
   2840000   310.95023      0.0073076404   1.383948       771.47608     -13.304887      758.17119    
   2841000   299.69676      0.0073076404   4.5880208      743.55593     -11.397298      732.15864    
   2842000   295.62014      0.0073076404   4.7853989      733.44173     -10.616439      722.82529    
   2843000   290.91939      0.0073076404   5.1402913      721.77904     -12.863331      708.91571    
   2844000   304.2404       0.0073076404   3.3734433      754.82882     -7.8650994      746.96372    
   2845000   307.92827      0.0073076404   5.7643697      763.97852     -11.814343      752.16418    
   2846000   295.62927      0.0073076404   4.4505262      733.46437     -10.89749       722.56688    
   2847000   268.55552      0.0073076404   5.0926072      666.29364     -9.5484936      656.74515    
   2848000   309.9148       0.0073076404   4.4862594      768.90717     -10.362988      758.54419    
   2849000   291.37679      0.0073076404   3.7850914      722.91384     -10.595941      712.3179     
   2850000   286.72834      0.0073076404   4.4811163      711.38092     -9.04733        702.33359    
   2851000   301.51181      0.0073076404   4.5798824      748.05911     -11.964632      736.09448    
   2852000   311.85739      0.0073076404   4.2738482      773.72679     -10.053454      763.67333    
   2853000   288.92123      0.0073076404   3.2956584      716.82154     -11.740278      705.08126    
   2854000   295.00684      0.0073076404   3.9111712      731.9201      -12.113125      719.80697    
   2855000   314.43753      0.0073076404   6.3536195      780.12818     -9.3772197      770.75096    
   2856000   308.7871       0.0073076404   2.2818314      766.10931     -10.846184      755.26312    
   2857000   295.93979      0.0073076404   1.2483482      734.23478     -9.2753038      724.95947    
   2858000   307.63218      0.0073076404   4.1077079      763.24393     -9.4387111      753.80522    
   2859000   306.73431      0.0073076404   4.5092807      761.01629     -7.9203441      753.09595    
   2860000   309.17386      0.0073076404   6.9761621      767.06888     -10.113855      756.95502    
   2861000   305.17579      0.0073076404   1.1485474      757.14955     -12.780318      744.36923    
   2862000   291.45977      0.0073076404   2.161259       723.11973     -13.666173      709.45356    
   2863000   302.26432      0.0073076404   5.7325809      749.9261      -10.26848       739.65762    
   2864000   314.7046       0.0073076404   6.5368453      780.79078     -8.6615614      772.12922    
   2865000   298.85632      0.0073076404   3.6976337      741.47077     -8.9389725      732.53179    
   2866000   295.67208      0.0073076404   0.34980197     733.57059     -11.2824        722.28819    
   2867000   301.14538      0.0073076404   4.3059155      747.14999     -12.670619      734.47937    
   2868000   303.67362      0.0073076404   4.969203       753.42262     -13.45281       739.96981    
   2869000   320.78796      0.0073076404   6.7235599      795.88376     -12.99653       782.88723    
   2870000   296.25244      0.0073076404   2.4377513      735.01047     -13.064149      721.94632    
   2871000   287.25469      0.0073076404   3.703988       712.68679     -13.428969      699.25782    
   2872000   305.85479      0.0073076404   6.0367517      758.83416     -15.386071      743.44809    
   2873000   310.4475       0.0073076404   4.2655415      770.22881     -13.362947      756.86586    
   2874000   296.43297      0.0073076404   0.98841841     735.45837     -14.270902      721.18747    
   2875000   287.58475      0.0073076404   3.4148724      713.50569     -13.984227      699.52146    
   2876000   297.69863      0.0073076404   5.7609666      738.59851     -11.733703      726.8648     
   2877000   304.421        0.0073076404   3.9018774      755.27689     -12.842317      742.43457    
   2878000   301.78304      0.0073076404   3.5483362      748.73203     -11.182801      737.54923    
   2879000   295.42664      0.0073076404   3.9518962      732.96163     -12.068782      720.89285    
   2880000   303.47042      0.0073076404   5.1190563      752.91848     -10.210824      742.70766    
   2881000   308.56243      0.0073076404   6.4977132      765.55189     -11.864197      753.68769    
   2882000   303.96643      0.0073076404   0.77539637     754.14908     -10.476775      743.6723     
   2883000   286.98386      0.0073076404   0.64617941     712.01486     -8.9418733      703.07298    
   2884000   289.65532      0.0073076404   3.7786966      718.64284     -9.3675604      709.27528    
   2885000   301.57274      0.0073076404   6.8846511      748.21029     -9.4286926      738.78159    
   2886000   305.90639      0.0073076404   3.5947091      758.96218     -13.668031      745.29415    
   2887000   283.92371      0.0073076404   2.9632147      704.42256     -11.77192       692.65064    
   2888000   298.95146      0.0073076404   4.9461916      741.7068      -9.9307438      731.77606    
   2889000   305.23076      0.0073076404   4.0566165      757.28593     -12.70642       744.57951    
   2890000   301.54018      0.0073076404   2.2029334      748.1295      -11.678205      736.4513     
   2891000   289.58226      0.0073076404   4.1014932      718.46158     -9.7051661      708.75642    
   2892000   295.49117      0.0073076404   5.6713533      733.12174     -11.996652      721.12509    
   2893000   308.93055      0.0073076404   3.5720252      766.46521     -8.9761145      757.48909    
   2894000   307.8308       0.0073076404   3.1881234      763.7367      -7.9728212      755.76388    
   2895000   293.08401      0.0073076404   4.8552499      727.14951     -6.090326       721.05918    
   2896000   298.84655      0.0073076404   4.3949336      741.44653     -8.0009798      733.44555    
   2897000   300.03743      0.0073076404   4.3992375      744.40114     -7.7331823      736.66795    
   2898000   298.46533      0.0073076404   2.1481306      740.50072     -9.5601146      730.9406     
   2899000   292.67099      0.0073076404   3.4818169      726.12478     -10.666225      715.45856    
   2900000   296.1559       0.0073076404   7.4428409      734.77094     -13.35244       721.4185     
   2901000   298.66798      0.0073076404   3.895851       741.00348     -9.6134928      731.38999    
   2902000   300.97438      0.0073076404   2.7297803      746.72573     -14.008252      732.71748    
   2903000   291.89313      0.0073076404  -0.0038679761   724.19491     -13.517555      710.67736    
   2904000   291.44022      0.0073076404   5.9940491      723.07121     -10.138586      712.93263    
   2905000   306.24832      0.0073076404   5.4100193      759.81051     -11.74951       748.061      
   2906000   303.06483      0.0073076404   0.45226446     751.91219     -13.245691      738.6665     
   2907000   299.50285      0.0073076404   4.7146687      743.07482     -12.935124      730.13969    
   2908000   307.59402      0.0073076404   3.7464781      763.14923     -12.952973      750.19626    
   2909000   284.23792      0.0073076404   0.093568443    705.20211     -13.373346      691.82876    
   2910000   305.6239       0.0073076404   6.5269191      758.26132     -13.096743      745.16458    
   2911000   300.95412      0.0073076404   10.788805      746.67547     -15.004134      731.67133    
   2912000   298.89461      0.0073076404   5.1579643      741.56577     -12.801087      728.76468    
   2913000   305.62481      0.0073076404   2.1648709      758.26357     -13.640287      744.62329    
   2914000   294.78071      0.0073076404   3.5735279      731.35908     -11.635645      719.72343    
   2915000   289.63971      0.0073076404   6.1649072      718.60411     -13.42865       705.17546    
   2916000   319.97945      0.0073076404   11.199734      793.87783     -11.957482      781.92035    
   2917000   301.96276      0.0073076404   2.0002016      749.17794     -11.253963      737.92397    
   2918000   291.68979      0.0073076404   2.2713855      723.6904      -10.529562      713.16084    
   2919000   300.42207      0.0073076404   7.7984449      745.35544     -12.523263      732.83218    
   2920000   314.22047      0.0073076404   3.253234       779.58964     -13.938961      765.65068    
   2921000   295.79602      0.0073076404   3.956112       733.87808     -13.952472      719.92561    
   2922000   305.81955      0.0073076404   3.6520647      758.74673     -15.955981      742.79075    
   2923000   312.98964      0.0073076404   5.8857012      776.53592     -14.36095       762.17497    
   2924000   290.55675      0.0073076404   4.0788879      720.8793      -14.343457      706.53585    
   2925000   300.34358      0.0073076404   3.5109184      745.16071     -10.848587      734.31212    
   2926000   314.57034      0.0073076404   4.3071917      780.45768     -15.091013      765.36667    
   2927000   309.54168      0.0073076404   4.043863       767.98145     -13.59493       754.38652    
   2928000   295.08914      0.0073076404   4.499072       732.12428     -16.344379      715.7799     
   2929000   299.0368       0.0073076404   4.6233488      741.91854     -17.818779      724.09976    
   2930000   315.70008      0.0073076404   4.4048933      783.26061     -14.732842      768.52777    
   2931000   307.34531      0.0073076404   4.4719934      762.53218     -16.173198      746.35898    
   2932000   284.33992      0.0073076404   3.8862924      705.45519     -12.902942      692.55225    
   2933000   296.91495      0.0073076404   3.8106359      736.65418     -16.240946      720.41324    
   2934000   305.17959      0.0073076404   3.3377719      757.15898     -16.942756      740.21623    
   2935000   311.71561      0.0073076404   4.4089322      773.37503     -15.009195      758.36583    
   2936000   293.51292      0.0073076404   4.0951403      728.21364     -15.384245      712.82939    
   2937000   305.51345      0.0073076404   3.7688513      757.9873      -15.846129      742.14117    
   2938000   314.1211       0.0073076404   4.0704167      779.34311     -16.570752      762.77236    
   2939000   299.57731      0.0073076404   3.7528794      743.25956     -16.049566      727.20999    
   2940000   292.86755      0.0073076404   3.6975245      726.61247     -13.777606      712.83487    
   2941000   282.13389      0.0073076404   3.8670613      699.98196     -15.311883      684.67007    
   2942000   319.51812      0.0073076404   4.3896496      792.73326     -15.507199      777.22606    
   2943000   313.23417      0.0073076404   3.7406356      777.14262     -15.42055       761.72207    
   2944000   291.036        0.0073076404   3.962623       722.06833     -12.216785      709.85155    
   2945000   294.43894      0.0073076404   5.7167478      730.51113     -10.466407      720.04473    
   2946000   310.1878       0.0073076404   4.0398008      769.58447     -11.96287       757.6216     
   2947000   297.71049      0.0073076404   4.238971       738.62793     -11.287099      727.34084    
   2948000   280.09348      0.0073076404   3.7812228      694.91965     -9.9636146      684.95604    
   2949000   308.24221      0.0073076404   2.1299175      764.75741     -10.005513      754.7519     
   2950000   310.1741       0.0073076404   4.7946813      769.55049     -12.072185      757.47831    
   2951000   300.50395      0.0073076404   4.2849797      745.55859     -11.410634      734.14796    
   2952000   302.2997       0.0073076404   4.1185132      750.01388     -11.312556      738.70133    
   2953000   295.42192      0.0073076404   4.0403117      732.94992     -14.443056      718.50686    
   2954000   292.0936       0.0073076404   4.212931       724.69226     -11.528679      713.16358    
   2955000   297.71035      0.0073076404   4.0244687      738.62757     -11.132549      727.49502    
   2956000   304.16993      0.0073076404   4.9700087      754.65398     -12.513208      742.14078    
   2957000   316.18986      0.0073076404   3.536179       784.47576     -9.5163453      774.95942    
   2958000   288.02109      0.0073076404   3.6330771      714.58826     -10.80981       703.77845    
   2959000   312.02926      0.0073076404   4.8606073      774.15319     -10.385294      763.7679     
   2960000   311.48654      0.0073076404   1.7039312      772.80669     -12.284758      760.52193    
   2961000   288.94748      0.0073076404   3.4531443      716.88665     -7.587681       709.29897    
   2962000   294.05473      0.0073076404   3.6620981      729.55788     -6.9763369      722.58155    
   2963000   309.80279      0.0073076404   5.9840817      768.62926     -8.2571068      760.37216    
   2964000   300.44779      0.0073076404   1.507907       745.41926     -8.4959255      736.92333    
   2965000   289.46501      0.0073076404   3.8056436      718.17067     -8.7238921      709.44678    
   2966000   304.91498      0.0073076404   6.1673729      756.50247     -11.539532      744.96294    
   2967000   316.67709      0.0073076404   3.222284       785.68459     -14.098924      771.58566    
   2968000   294.79021      0.0073076404   2.2149665      731.38264     -11.625076      719.75757    
   2969000   291.30779      0.0073076404   4.2735402      722.74264     -10.630104      712.11254    
   2970000   303.068        0.0073076404   4.5035775      751.92006     -8.3951537      743.5249     
   2971000   311.4149       0.0073076404   4.1452695      772.62895     -8.5034079      764.12554    
   2972000   302.43835      0.0073076404   4.286846       750.35789     -8.1494399      742.20845    
   2973000   297.63429      0.0073076404   5.0153366      738.43889     -9.4197976      729.01909    
   2974000   297.00202      0.0073076404   3.9382581      736.8702      -12.488742      724.38146    
   2975000   298.07919      0.0073076404   3.4330915      739.54268     -11.141812      728.40087    
   2976000   308.16634      0.0073076404   4.1754903      764.56918     -10.063627      754.50555    
   2977000   292.64055      0.0073076404   3.3083329      726.04928     -12.842925      713.20635    
   2978000   298.24496      0.0073076404   3.7416117      739.95398     -13.212914      726.74106    
   2979000   298.84558      0.0073076404   4.4690765      741.44413     -14.293036      727.1511     
   2980000   293.67233      0.0073076404   4.0027982      728.60914     -14.858402      713.75074    
   2981000   306.52161      0.0073076404   4.6431162      760.48855     -10.501621      749.98693    
   2982000   311.72647      0.0073076404   2.7629016      773.40197     -9.9835688      763.4184     
   2983000   296.59432      0.0073076404   3.1653725      735.85868     -11.433562      724.42511    
   2984000   295.89127      0.0073076404   7.5927854      734.11439     -9.3569933      724.75739    
   2985000   292.25738      0.0073076404   4.286838       725.0986      -6.5196448      718.57896    
   2986000   306.97391      0.0073076404   4.0432333      761.61074     -9.180277       752.43047    
   2987000   305.08538      0.0073076404   3.7990603      756.92524     -10.255629      746.66961    
   2988000   307.30652      0.0073076404   4.299485       762.43594     -9.2751538      753.16079    
   2989000   299.61125      0.0073076404   4.2883738      743.34376     -12.370105      730.97365    
   2990000   311.31228      0.0073076404   4.4376129      772.37435     -10.742891      761.63146    
   2991000   292.00033      0.0073076404   1.5781865      724.46087     -9.8053122      714.65556    
   2992000   299.54803      0.0073076404   5.6525788      743.18692     -10.047782      733.13914    
   2993000   301.56795      0.0073076404   5.7128989      748.19841     -11.509356      736.68905    
   2994000   301.60555      0.0073076404   4.0155434      748.29168     -10.591902      737.69978    
   2995000   303.19038      0.0073076404   2.1004774      752.22368     -7.7798468      744.44383    
   2996000   283.25062      0.0073076404   3.5989356      702.75261     -10.628759      692.12385    
   2997000   293.0705       0.0073076404   4.772381       727.11599     -10.440978      716.67501    
   2998000   302.47922      0.0073076404   3.9530135      750.45927     -12.596713      737.86256    
   2999000   301.88109      0.0073076404   3.9014327      748.97531     -14.709434      734.26588    
   3000000   292.73583      0.0073076404   3.0833023      726.28567     -10.829283      715.45638    
   3001000   299.66912      0.0073076404   4.102818       743.48735     -11.272158      732.21519    
   3002000   305.16145      0.0073076404   4.0141842      757.11396     -10.952125      746.16183    
   3003000   299.3768       0.0073076404   3.1183405      742.76208     -11.771429      730.99065    
   3004000   311.57316      0.0073076404   4.439873       773.02159     -13.012233      760.00935    
   3005000   302.7487       0.0073076404   4.9468499      751.12788     -12.786851      738.34103    
   3006000   301.75666      0.0073076404   4.2192741      748.66658     -9.2127015      739.45388    
   3007000   308.63694      0.0073076404   3.0689399      765.73677     -11.686407      754.05036    
   3008000   303.37767      0.0073076404   5.4042818      752.68835     -11.846734      740.84162    
   3009000   282.969        0.0073076404   3.6093738      702.05388     -10.08053       691.97335    
   3010000   293.68182      0.0073076404   4.024473       728.6327      -12.203339      716.42936    
   3011000   303.29869      0.0073076404   3.9629088      752.49241     -10.825581      741.66683    
   3012000   299.19844      0.0073076404   3.329965       742.31957     -10.717943      731.60162    
   3013000   303.92551      0.0073076404   4.4084704      754.04756     -11.510024      742.53754    
   3014000   297.00641      0.0073076404   4.7333549      736.88108     -13.08838       723.7927     
   3015000   299.87781      0.0073076404   2.0585014      744.00512     -10.911063      733.09405    
   3016000   299.21878      0.0073076404   2.6624215      742.37005     -10.912764      731.45728    
   3017000   303.37676      0.0073076404   4.0305974      752.68611     -10.901293      741.78482    
   3018000   296.23201      0.0073076404   2.8321909      734.95977     -8.4011064      726.55867    
   3019000   304.83466      0.0073076404   5.130499       756.3032      -12.819692      743.48351    
   3020000   300.14059      0.0073076404   4.4189219      744.65708     -13.807356      730.84972    
   3021000   299.48879      0.0073076404   2.9602853      743.03995     -12.55104       730.48891    
   3022000   305.02248      0.0073076404   4.3663543      756.76918     -13.824196      742.94498    
   3023000   308.53122      0.0073076404   3.8926005      765.47447     -11.926978      753.5475     
   3024000   295.22472      0.0073076404   3.8743767      732.46068     -11.79556       720.66512    
   3025000   288.94473      0.0073076404   2.533372       716.87983     -14.48205       702.39778    
   3026000   304.05708      0.0073076404   3.8052659      754.374       -14.994395      739.3796     
   3027000   304.4096       0.0073076404   3.9407775      755.24861     -14.97787       740.27074    
   3028000   293.92868      0.0073076404   5.9365908      729.24516     -14.493466      714.7517     
   3029000   292.20988      0.0073076404   3.6150754      724.98076     -17.680937      707.29982    
   3030000   304.06918      0.0073076404   3.8880107      754.40403     -15.90502       738.49901    
   3031000   312.40801      0.0073076404   5.3298806      775.09289     -16.796887      758.29601    
   3032000   289.29967      0.0073076404   3.8964996      717.76046     -15.173076      702.58738    
   3033000   312.64392      0.0073076404   4.9178278      775.67818     -15.564602      760.11357    
   3034000   300.75042      0.0073076404   4.3672142      746.17008     -17.026177      729.1439     
   3035000   296.21335      0.0073076404   3.8651859      734.91347     -19.641833      715.27164    
   3036000   309.32793      0.0073076404   4.0489976      767.45112     -19.35064       748.10048    
   3037000   294.70102      0.0073076404   3.8771283      731.16135     -15.767606      715.39374    
   3038000   303.6379       0.0073076404   3.9674692      753.334       -15.999435      737.33457    
   3039000   301.85429      0.0073076404   4.2973336      748.90882     -16.624413      732.2844     
   3040000   301.90989      0.0073076404   4.0920474      749.04675     -14.996804      734.04995    
   3041000   292.19344      0.0073076404   3.7241304      724.93998     -12.537939      712.40204    
   3042000   306.18794      0.0073076404   3.8271473      759.66071     -13.063934      746.59678    
   3043000   298.38233      0.0073076404   3.1558623      740.2948      -12.201836      728.09296    
   3044000   306.51544      0.0073076404   3.9334547      760.47325     -14.033052      746.44019    
   3045000   315.99971      0.0073076404   3.0419278      784.004       -12.679987      771.32401    
   3046000   286.75321      0.0073076404   4.4966197      711.44262     -14.683253      696.75937    
   3047000   303.79208      0.0073076404   5.6398659      753.71653     -16.13138       737.58515    
   3048000   307.04795      0.0073076404   3.7358485      761.79442     -18.825425      742.96899    
   3049000   299.82538      0.0073076404   2.8816565      743.87504     -19.28975       724.58529    
   3050000   285.59788      0.0073076404   4.7556792      708.57622     -18.535174      690.04104    
   3051000   316.27561      0.0073076404   5.114519       784.6885      -16.502743      768.18576    
   3052000   312.06957      0.0073076404   3.5990267      774.25322     -15.415288      758.83793    
   3053000   282.44348      0.0073076404   3.8667365      700.75006     -13.975882      686.77418    
   3054000   285.97077      0.0073076404   3.8986752      709.50136     -13.762837      695.73853    
   3055000   309.38513      0.0073076404   4.3671982      767.59304     -16.3512        751.24184    
   3056000   309.73936      0.0073076404   4.1206468      768.4719      -14.03757       754.43433    
   3057000   301.30175      0.0073076404   3.6554895      747.53795     -13.580101      733.95784    
   3058000   294.9234       0.0073076404   2.559686       731.71309     -14.479795      717.2333     
   3059000   297.05982      0.0073076404   4.1972646      737.01361     -13.105648      723.90796    
   3060000   310.52885      0.0073076404   4.3256327      770.43065     -12.979274      757.45137    
   3061000   297.51191      0.0073076404   3.8933056      738.13524     -13.244636      724.89061    
   3062000   291.66535      0.0073076404   4.4877572      723.62978     -10.349646      713.28014    
   3063000   317.85148      0.0073076404   4.1429761      788.59829     -12.260784      776.3375     
   3064000   308.10139      0.0073076404   3.1004991      764.40805     -12.409013      751.99904    
   3065000   287.50145      0.0073076404   3.8483256      713.29902     -9.9508368      703.34818    
   3066000   288.48371      0.0073076404   5.0493945      715.73605     -11.437666      704.29838    
   3067000   303.47672      0.0073076404   3.9130113      752.9341      -11.690262      741.24383    
   3068000   317.65984      0.0073076404   3.3051826      788.12282     -14.09845       774.02437    
   3069000   297.60009      0.0073076404   3.9974918      738.35402     -10.386506      727.96751    
   3070000   292.16765      0.0073076404   4.6680391      724.876       -12.398306      712.47769    
   3071000   314.69647      0.0073076404   4.334957       780.77061     -11.411113      769.3595     
   3072000   299.75492      0.0073076404   2.4553143      743.70021     -11.680578      732.01963    
   3073000   291.36267      0.0073076404   3.7674719      722.87883     -13.168933      709.70989    
   3074000   299.52539      0.0073076404   6.606161       743.13075     -14.574488      728.55626    
   3075000   311.03391      0.0073076404   2.2829496      771.68369     -14.697475      756.98622    
   3076000   287.26739      0.0073076404   2.476264       712.71831     -13.796205      698.9221     
   3077000   295.44736      0.0073076404   4.923992       733.01305     -11.271111      721.74194    
   3078000   326.63698      0.0073076404   3.8388426      810.39535     -11.493633      798.90171    
   3079000   293.59379      0.0073076404   3.2626667      728.41428     -14.603877      713.8104     
   3080000   298.33765      0.0073076404   4.3837397      740.18393     -14.300269      725.88366    
   3081000   303.99676      0.0073076404   4.2786461      754.22435     -16.238276      737.98607    
   3082000   296.15219      0.0073076404   0.82809495     734.76174     -15.829605      718.93214    
   3083000   295.11798      0.0073076404   1.8279282      732.19584     -17.333866      714.86198    
   3084000   302.27931      0.0073076404   5.632797       749.96331     -17.851994      732.11131    
   3085000   309.78898      0.0073076404   5.7464068      768.59499     -17.683167      750.91182    
   3086000   297.41088      0.0073076404   2.9475695      737.8846      -14.169952      723.71464    
   3087000   288.05743      0.0073076404   3.9556539      714.67843     -16.428998      698.24943    
   3088000   312.84619      0.0073076404   4.7401882      776.18003     -14.759401      761.42063    
   3089000   305.38283      0.0073076404   3.7625508      757.66321     -12.734041      744.92917    
   3090000   291.38522      0.0073076404   3.888972       722.93477     -13.463484      709.47129    
   3091000   302.14235      0.0073076404   3.7575308      749.62349     -20.853114      728.77038    
   3092000   304.4811       0.0073076404   6.8584962      755.42601     -18.59089       736.83512    
   3093000   297.88026      0.0073076404   3.5482587      739.04913     -18.849827      720.1993     
   3094000   308.70909      0.0073076404   3.6368963      765.91577     -17.82942       748.08635    
   3095000   301.60319      0.0073076404   4.313092       748.28582     -15.84134       732.44448    
   3096000   301.65128      0.0073076404   3.8141945      748.40515     -17.578637      730.82651    
   3097000   299.28993      0.0073076404   5.533708       742.54656     -17.125715      725.42084    
   3098000   302.00111      0.0073076404   3.7351833      749.27309     -17.63264       731.64045    
   3099000   291.82645      0.0073076404  -1.542085       724.02946     -20.080441      703.94902    
   3100000   293.40753      0.0073076404   5.659865       727.95217     -17.190603      710.76157    
   3101000   295.3169       0.0073076404   9.7164701      732.68937     -18.124304      714.56506    
   3102000   301.07102      0.0073076404   4.4592174      746.96551     -17.566488      729.39902    
   3103000   308.77638      0.0073076404   2.4465703      766.08271     -15.219237      750.86347    
   3104000   287.47263      0.0073076404   1.5687306      713.22751     -15.645227      697.58228    
   3105000   294.73528      0.0073076404   4.2028135      731.24636     -11.373686      719.87268    
   3106000   320.15865      0.0073076404   5.8257457      794.32243     -13.866332      780.4561     
   3107000   297.01487      0.0073076404   2.8374656      736.90209     -13.491593      723.41049    
   3108000   294.55137      0.0073076404   7.7883251      730.79006     -12.96445       717.82561    
   3109000   307.41059      0.0073076404   6.7872342      762.69415     -10.035537      752.65861    
   3110000   312.96562      0.0073076404   5.2311431      776.47633     -9.7090634      766.76727    
   3111000   290.1946       0.0073076404   4.1806489      719.98081     -6.7986012      713.18221    
   3112000   302.8303       0.0073076404   1.4665546      751.33033     -6.113          745.21733    
   3113000   297.26198      0.0073076404   4.7519402      737.51516     -8.3643209      729.15084    
   3114000   299.74556      0.0073076404   5.6162328      743.677       -8.2388844      735.43811    
   3115000   313.19961      0.0073076404  -1.7181946      777.05687     -8.6370384      768.41983    
   3116000   295.26048      0.0073076404   1.1941293      732.5494      -7.4102699      725.13913    
   3117000   299.82482      0.0073076404   7.5333676      743.87363     -10.23552       733.63811    
   3118000   297.45244      0.0073076404   3.4736766      737.98771     -11.422599      726.56511    
   3119000   297.85198      0.0073076404  -0.46412674     738.97897     -10.23472       728.74425    
   3120000   290.66271      0.0073076404   3.7537316      721.14221     -12.682946      708.45926    
   3121000   299.31841      0.0073076404   7.4505788      742.61724     -10.992717      731.62452    
   3122000   304.03129      0.0073076404   4.7835637      754.31001     -13.208653      741.10136    
   3123000   316.14686      0.0073076404   0.98000482     784.36908     -11.3075        773.06158    
   3124000   297.74313      0.0073076404  -0.18754622     738.7089      -13.535034      725.17387    
   3125000   289.12144      0.0073076404   9.2313372      717.31826     -10.880906      706.43735    
   3126000   299.1902       0.0073076404   5.0624398      742.29914     -12.20126       730.09788    
   3127000   304.77937      0.0073076404   1.9369289      756.16602     -11.39577       744.77025    
   3128000   294.60219      0.0073076404   3.6722115      730.91616     -10.750159      720.166      
   3129000   293.93583      0.0073076404   5.0501729      729.26289     -11.236814      718.02608    
   3130000   312.82809      0.0073076404   4.1155137      776.13511     -8.191947       767.94316    
   3131000   306.59014      0.0073076404   2.8323086      760.65859     -7.6889908      752.9696     
   3132000   287.4678       0.0073076404   3.5176358      713.21554     -9.6956804      703.51986    
   3133000   287.09395      0.0073076404   7.1777446      712.28801     -11.514594      700.77342    
   3134000   309.09775      0.0073076404   5.0157939      766.88003     -9.9734085      756.90662    
   3135000   296.7949       0.0073076404   2.4274584      736.35632     -8.9503029      727.40601    
   3136000   297.89102      0.0073076404   6.4772729      739.07583     -11.350645      727.72518    
   3137000   305.06534      0.0073076404   3.8850402      756.87552     -9.8209153      747.05461    
   3138000   299.56142      0.0073076404   3.408576       743.22013     -6.894102       736.32603    
   3139000   294.2104       0.0073076404   3.7810726      729.94412     -8.8739197      721.0702     
   3140000   298.44841      0.0073076404   4.6463672      740.45872     -7.3881129      733.07061    
   3141000   316.05754      0.0073076404   4.5091016      784.14748     -6.3783814      777.7691     
   3142000   303.14452      0.0073076404   3.8509929      752.10992     -8.0644133      744.0455     
   3143000   286.25541      0.0073076404   4.1289193      710.20756     -5.1801342      705.02742    
   3144000   295.76631      0.0073076404   3.9011655      733.80437     -7.0628132      726.74156    
   3145000   307.12985      0.0073076404   4.4586699      761.99762     -8.9960215      753.0016     
   3146000   315.71049      0.0073076404   4.7060018      783.28643     -7.162455       776.12397    
   3147000   299.23649      0.0073076404   6.231336       742.41399     -7.6821145      734.73187    
   3148000   288.88847      0.0073076404   2.0099791      716.74025     -8.1212277      708.61902    
   3149000   296.93412      0.0073076404  -0.2296648      736.70173     -8.5612793      728.14045    
   3150000   304.38483      0.0073076404   4.2002931      755.18716     -7.8124793      747.37468    
   3151000   293.51881      0.0073076404   5.7435942      728.22827     -8.0515672      720.1767     
   3152000   295.58182      0.0073076404   4.8708989      733.34664     -8.2268561      725.11978    
   3153000   301.10747      0.0073076404   3.4604826      747.05594     -11.348173      735.70776    
   3154000   301.94191      0.0073076404   4.1518198      749.12619     -10.071291      739.0549     
   3155000   297.23892      0.0073076404   6.0187158      737.45796     -9.6405769      727.81739    
   3156000   298.95055      0.0073076404   4.5005245      741.70456     -11.280141      730.42442    
   3157000   301.17508      0.0073076404   2.0061523      747.22368     -12.462701      734.76097    
   3158000   300.72681      0.0073076404   4.9814899      746.11149     -14.966345      731.14515    
   3159000   304.17392      0.0073076404   5.6226641      754.66389     -13.049668      741.61422    
   3160000   302.86016      0.0073076404   4.5187685      751.40441     -10.787043      740.61736    
   3161000   296.50245      0.0073076404   2.1728146      735.63074     -9.7980754      725.83267    
   3162000   296.77449      0.0073076404   2.6615753      736.30568     -12.653438      723.65224    
   3163000   313.41146      0.0073076404   7.954078       777.58247     -11.482484      766.09998    
   3164000   297.889        0.0073076404   4.8002096      739.07082     -11.560419      727.5104     
   3165000   294.43741      0.0073076404   3.8104511      730.50734     -11.441144      719.06619    
   3166000   297.98381      0.0073076404  -1.7294173      739.30604     -8.3295694      730.97647    
   3167000   314.02312      0.0073076404   6.9671018      779.10002     -9.7528454      769.34718    
   3168000   293.80181      0.0073076404   6.5582322      728.93038     -7.0514921      721.87889    
   3169000   296.9398       0.0073076404   2.1414196      736.71583     -5.2323819      731.48345    
   3170000   302.11731      0.0073076404   5.0063661      749.56137     -6.7231792      742.83819    
   3171000   303.97806      0.0073076404   6.3945641      754.17795     -5.124896       749.05306    
   3172000   308.26869      0.0073076404   4.0176641      764.82311     -8.4738458      756.34927    
   3173000   296.47241      0.0073076404   3.2526142      735.55622     -10.086364      725.46986    
   3174000   292.78705      0.0073076404   2.8467275      726.41275     -9.0099971      717.40276    
   3175000   308.43007      0.0073076404   4.2683735      765.22351     -10.544115      754.67939    
   3176000   301.02617      0.0073076404   3.8626336      746.85422     -10.802515      736.0517     
   3177000   295.01247      0.0073076404   4.1504059      731.93406     -9.4769988      722.45706    
   3178000   297.80988      0.0073076404   4.0929043      738.87452     -12.80061       726.07391    
   3179000   301.90054      0.0073076404   4.1892929      749.02356     -10.641409      738.38215    
   3180000   298.54938      0.0073076404   3.8176311      740.70925     -8.3752999      732.33395    
   3181000   296.7506       0.0073076404   3.8711387      736.24642     -10.746323      725.5001     
   3182000   289.33758      0.0073076404   6.5480062      717.8545      -11.766444      706.08806    
   3183000   309.01852      0.0073076404   7.2221491      766.68346     -13.432206      753.25125    
   3184000   309.69084      0.0073076404   3.5857903      768.3515      -16.331766      752.01974    
   3185000   296.61819      0.0073076404   2.6736562      735.91792     -13.017714      722.9002     
   3186000   284.62608      0.0073076404   3.5361967      706.16516     -14.283352      691.88181    
   3187000   302.63823      0.0073076404   4.8633753      750.8538      -10.058859      740.79494    
   3188000   308.8082       0.0073076404   3.6993473      766.16165     -9.1203663      757.04128    
   3189000   288.72069      0.0073076404   3.3446398      716.32398     -10.556748      705.76723    
   3190000   298.1527       0.0073076404   6.8043374      739.72506     -6.8593381      732.86572    
   3191000   312.76335      0.0073076404   5.0058223      775.97449     -6.3682626      769.60623    
   3192000   312.93112      0.0073076404   2.268382       776.39074     -7.240755       769.14998    
   3193000   289.20449      0.0073076404   1.9944539      717.5243      -8.7762874      708.74802    
   3194000   287.65784      0.0073076404   6.2758476      713.68704     -11.227936      702.45911    
   3195000   303.89266      0.0073076404   4.743795       753.96608     -11.533223      742.43285    
   3196000   305.40528      0.0073076404   3.6739952      757.71891     -12.544848      745.17406    
   3197000   290.81216      0.0073076404   2.3374832      721.513       -12.067122      709.44587    
   3198000   294.54529      0.0073076404   5.2151312      730.77499     -11.402744      719.37224    
   3199000   316.7363       0.0073076404   4.3242258      785.83149     -10.390363      775.44113    
   3200000   296.74412      0.0073076404   3.7098778      736.23034     -9.9471771      726.28316    
   3201000   285.34239      0.0073076404   4.3360252      707.94233     -8.2646433      699.67768    
   3202000   293.52156      0.0073076404   4.9626215      728.23507     -12.429149      715.80593    
   3203000   313.03529      0.0073076404   5.1199023      776.64919     -9.679378       766.96981    
   3204000   309.20016      0.0073076404   3.9544013      767.13413     -11.637934      755.4962     
   3205000   299.17415      0.0073076404   4.0324624      742.25932     -11.815671      730.44365    
   3206000   288.72352      0.0073076404   4.728868       716.33102     -10.106205      706.22482    
   3207000   315.02569      0.0073076404   6.0115365      781.58741     -12.100342      769.48707    
   3208000   289.46444      0.0073076404   2.3391351      718.16927     -10.195615      707.97365    
   3209000   285.47897      0.0073076404   5.1188765      708.2812      -11.441447      696.83976    
   3210000   292.94609      0.0073076404   5.7201806      726.80732     -10.823802      715.98352    
   3211000   317.16439      0.0073076404   4.3311794      786.89358     -11.061943      775.83164    
   3212000   300.78928      0.0073076404   3.5904935      746.26649     -10.937855      735.32864    
   3213000   281.57353      0.0073076404   4.9299821      698.5917      -10.899624      687.69207    
   3214000   304.03465      0.0073076404   4.0586451      754.31836     -11.165207      743.15315    
   3215000   308.96453      0.0073076404   3.6464351      766.5495      -13.369789      753.17971    
   3216000   289.52568      0.0073076404   4.5712151      718.32119     -10.872184      707.44901    
   3217000   291.70475      0.0073076404   3.8008958      723.72752     -11.020714      712.7068     
   3218000   322.03602      0.0073076404   4.5856438      798.98025     -9.7783182      789.20193    
   3219000   305.62296      0.0073076404   3.1713551      758.259       -11.214915      747.04408    
   3220000   290.44282      0.0073076404   3.8289342      720.59663     -11.11409       709.48254    
   3221000   297.17621      0.0073076404   0.43011982     737.30238     -11.158875      726.1435     
   3222000   313.9076       0.0073076404   9.0811842      778.81342     -13.099179      765.71424    
   3223000   299.10761      0.0073076404   5.7352549      742.09422     -11.07036       731.02386    
   3224000   283.67269      0.0073076404   8.717741       703.79976     -8.2855087      695.51425    
   3225000   296.55237      0.0073076404   2.1433295      735.75461     -10.852978      724.90164    
   3226000   322.30491      0.0073076404   4.8463231      799.64736     -11.869418      787.77794    
   3227000   305.76552      0.0073076404   5.9338907      758.61269     -12.183606      746.42908    
   3228000   284.29595      0.0073076404   4.0437478      705.34609     -13.669298      691.67679    
   3229000   278.19659      0.0073076404   2.5237323      690.21342     -10.527121      679.6863     
   3230000   304.75279      0.0073076404   3.6886392      756.10007     -11.490764      744.60931    
   3231000   308.22439      0.0073076404   4.1035078      764.71321     -13.693119      751.02009    
   3232000   280.93878      0.0073076404   3.97195        697.01685     -14.006472      683.01038    
   3233000   293.12008      0.0073076404   3.6880804      727.23899     -16.207459      711.03153    
   3234000   308.51203      0.0073076404   3.5010529      765.42685     -16.118324      749.30853    
   3235000   305.94089      0.0073076404   3.7457254      759.04778     -15.491784      743.556      
   3236000   299.53039      0.0073076404   4.1773682      743.14315     -17.97206       725.17109    
   3237000   301.42387      0.0073076404   4.3002237      747.84093     -15.115799      732.72513    
   3238000   308.35375      0.0073076404   2.5864558      765.03415     -16.024694      749.00945    
   3239000   300.45027      0.0073076404   4.1898624      745.4254      -14.515527      730.90988    
   3240000   304.03321      0.0073076404   3.3091696      754.31477     -18.189214      736.12555    
   3241000   307.79737      0.0073076404   4.4869726      763.65377     -16.277253      747.37652    
   3242000   303.60459      0.0073076404   6.4585755      753.25135     -15.224891      738.02646    
   3243000   296.85782      0.0073076404   4.2629445      736.51243     -11.905876      724.60656    
   3244000   291.99705      0.0073076404  -3.9065309      724.45273     -10.381835      714.0709     
   3245000   310.7315       0.0073076404   5.5368405      770.9334      -8.3520769      762.58133    
   3246000   311.59611      0.0073076404   5.8077811      773.07853     -9.9451438      763.13338    
   3247000   297.61118      0.0073076404   3.960938       738.38155     -10.186888      728.19466    
   3248000   303.8415       0.0073076404  -0.96060871     753.83914     -10.260778      743.57836    
   3249000   297.94507      0.0073076404   3.7677009      739.20993     -12.152046      727.05788    
   3250000   290.78639      0.0073076404   4.3525248      721.44905     -12.015478      709.43358    
   3251000   293.38603      0.0073076404   9.5644995      727.89882     -13.059237      714.83959    
   3252000   306.27703      0.0073076404   6.3275335      759.88176     -14.452837      745.42892    
   3253000   293.03748      0.0073076404   0.77059732     727.03406     -12.84232       714.19174    
   3254000   298.8874       0.0073076404   3.4980705      741.54787     -12.430036      729.11784    
   3255000   302.12933      0.0073076404   4.6892801      749.59119     -6.5267448      743.06444    
   3256000   297.9064       0.0073076404   9.8247225      739.11398     -8.5780635      730.53592    
   3257000   284.64978      0.0073076404   3.1025625      706.22396     -11.540714      694.68325    
   3258000   292.5583       0.0073076404   3.1258057      725.8452      -12.126657      713.71854    
   3259000   298.25         0.0073076404   3.777148       739.96646     -15.18505       724.78141    
   3260000   308.90194      0.0073076404   6.1532697      766.39422     -14.418011      751.97621    
   3261000   280.21826      0.0073076404   3.2280928      695.22923     -15.31408       679.91515    
   3262000   298.46021      0.0073076404   3.2214346      740.488       -14.934316      725.55369    
   3263000   321.24332      0.0073076404   4.1760698      797.01352     -13.55583       783.45769    
   3264000   300.89638      0.0073076404   3.863375       746.53222     -10.21995       736.31227    
   3265000   300.88873      0.0073076404   4.2701521      746.51322     -11.879194      734.63403    
   3266000   304.40943      0.0073076404   4.1338798      755.24818     -10.997975      744.2502     
   3267000   296.16188      0.0073076404   3.67957        734.78578     -11.65833       723.12745    
   3268000   296.46686      0.0073076404   4.784338       735.54244     -13.570349      721.97209    
   3269000   308.80841      0.0073076404   3.9554484      766.16217     -13.335507      752.82667    
   3270000   311.18753      0.0073076404   3.5228469      772.06484     -14.300468      757.76437    
   3271000   293.59525      0.0073076404   3.6295834      728.4179      -11.968349      716.44955    
   3272000   286.37121      0.0073076404   4.7832901      710.49487     -15.819505      694.67537    
   3273000   319.7556       0.0073076404   4.0231281      793.32245     -14.107077      779.21537    
   3274000   297.44639      0.0073076404   0.85840592     737.97269     -16.229913      721.74278    
   3275000   294.20704      0.0073076404   3.4429         729.93578     -13.345681      716.5901     
   3276000   302.65433      0.0073076404   6.7399467      750.89375     -12.585462      738.30828    
   3277000   318.79775      0.0073076404   3.4618598      790.94601     -12.284829      778.66118    
   3278000   296.94907      0.0073076404   3.5443667      736.73882     -15.322582      721.41624    
   3279000   292.49609      0.0073076404   4.3628627      725.69087     -17.617805      708.07307    
   3280000   311.51528      0.0073076404   4.3329777      772.87799     -19.650128      753.22786    
   3281000   306.88956      0.0073076404   5.3690011      761.40145     -16.544788      744.85666    
   3282000   285.13613      0.0073076404   4.0378822      707.43061     -13.427762      694.00285    
   3283000   298.88539      0.0073076404   3.8346517      741.54289     -11.513394      730.0295     
   3284000   315.13865      0.0073076404   4.5547247      781.86768     -12.353491      769.51419    
   3285000   305.67204      0.0073076404   6.5188896      758.38076     -9.9746346      748.40613    
   3286000   286.31027      0.0073076404   3.5258708      710.34368     -12.860889      697.48279    
   3287000   295.56027      0.0073076404   2.569414       733.29318     -10.030618      723.26256    
   3288000   302.96962      0.0073076404   3.6796053      751.67599     -13.057479      738.61851    
   3289000   309.58199      0.0073076404   4.0237507      768.08146     -9.7343784      758.34708    
   3290000   295.33053      0.0073076404   5.4735797      732.72319     -8.5619012      724.16128    
   3291000   290.99304      0.0073076404   3.8679937      721.96175     -8.8590081      713.10274    
   3292000   292.88623      0.0073076404   1.7283037      726.65881     -11.607382      715.05143    
   3293000   295.28403      0.0073076404   2.6909102      732.60781     -15.431101      717.17671    
   3294000   302.73708      0.0073076404   2.39255        751.09905     -12.647606      738.45144    
   3295000   301.36285      0.0073076404   5.2385343      747.68955     -10.813039      736.87651    
   3296000   309.03174      0.0073076404   6.293372       766.71627     -15.516028      751.20024    
   3297000   299.23002      0.0073076404   4.0614106      742.39794     -11.990622      730.40731    
   3298000   291.90686      0.0073076404   2.1337221      724.22897     -11.621888      712.60709    
   3299000   308.77879      0.0073076404   4.3351868      766.08868     -13.026221      753.06246    
   3300000   303.30464      0.0073076404   7.451467       752.50717     -15.291021      737.21615    
   3301000   291.21209      0.0073076404   3.2832474      722.50522     -14.792582      707.71264    
   3302000   291.27977      0.0073076404   2.8995357      722.67313     -11.657278      711.01586    
   3303000   305.08518      0.0073076404   1.3772412      756.92473     -9.5144935      747.41024    
   3304000   308.58904      0.0073076404   11.324347      765.61792     -8.1422947      757.47563    
   3305000   295.53551      0.0073076404   6.217981       733.23175     -9.9787881      723.25296    
   3306000   287.59879      0.0073076404   3.2224659      713.54053     -9.6962543      703.84428    
   3307000   315.32502      0.0073076404   2.5686341      782.33006     -9.6643548      772.6657     
   3308000   304.51662      0.0073076404   4.8118331      755.51414     -10.728199      744.78594    
   3309000   287.91666      0.0073076404   4.4775527      714.32916     -11.945067      702.3841     
   3310000   296.26527      0.0073076404   3.3103933      735.04229     -10.076794      724.9655     
   3311000   313.51755      0.0073076404   3.8684182      777.84568     -10.500473      767.34521    
   3312000   310.09996      0.0073076404   5.1941368      769.36655     -10.635898      758.73065    
   3313000   295.69106      0.0073076404   6.6023537      733.61767     -8.5237767      725.09389    
   3314000   290.29005      0.0073076404   3.59703        720.21761     -7.4836989      712.73391    
   3315000   298.98697      0.0073076404   3.4567392      741.79493     -6.1664503      735.62848    
   3316000   306.35779      0.0073076404   5.3408244      760.08211     -7.7352307      752.34688    
   3317000   301.17047      0.0073076404   4.0950561      747.21223     -7.4423076      739.76992    
   3318000   300.58286      0.0073076404   4.0006091      745.75436     -7.1134213      738.64093    
   3319000   293.98066      0.0073076404   3.5652596      729.37412     -8.3640469      721.01007    
   3320000   287.14225      0.0073076404   5.0518875      712.40784     -9.3767121      703.03112    
   3321000   311.06127      0.0073076404   4.5722127      771.7516      -8.2773188      763.47428    
   3322000   299.03247      0.0073076404   4.6852629      741.90781     -8.4645852      733.44323    
   3323000   298.34536      0.0073076404   3.8886784      740.20305     -9.1844335      731.01862    
   3324000   302.70406      0.0073076404   2.8501611      751.01711     -10.389296      740.62781    
   3325000   300.29773      0.0073076404   4.0157938      745.04694     -13.66135       731.38559    
   3326000   293.34748      0.0073076404   5.0902285      727.80318     -9.5510632      718.25212    
   3327000   306.47176      0.0073076404   3.3363307      760.36488     -10.823182      749.5417     
   3328000   296.7946       0.0073076404   4.0498527      736.35559     -8.0347027      728.32089    
   3329000   304.11798      0.0073076404   4.0660091      754.52509     -9.0615426      745.46355    
   3330000   293.8368       0.0073076404   3.6880216      729.01719     -9.4778952      719.53929    
   3331000   302.32943      0.0073076404   6.1539856      750.08764     -10.751099      739.33654    
   3332000   308.64013      0.0073076404   3.3977275      765.74467     -11.681543      754.06312    
   3333000   296.17042      0.0073076404   1.6212634      734.80697     -11.893939      722.91303    
   3334000   303.36766      0.0073076404   3.4086168      752.66352     -11.895713      740.7678     
   3335000   303.11483      0.0073076404   6.1731256      752.03624     -12.212235      739.82401    
   3336000   295.96274      0.0073076404   3.936055       734.29172     -13.257886      721.03383    
   3337000   308.50313      0.0073076404   0.40296285     765.40478     -9.7230189      755.68176    
   3338000   296.60867      0.0073076404   2.5974098      735.89429     -8.0019488      727.89235    
   3339000   309.3782       0.0073076404   13.209699      767.57583     -8.9125102      758.66332    
   3340000   300.6231       0.0073076404   1.8937188      745.85421     -13.790187      732.06402    
   3341000   291.74096      0.0073076404  -0.049366385    723.81736     -11.155024      712.66234    
   3342000   304.20392      0.0073076404   8.3854267      754.73832     -10.113481      744.62484    
   3343000   310.95398      0.0073076404   3.5244169      771.48539     -7.6469286      763.83846    
   3344000   295.2017       0.0073076404  -0.60074861     732.40356     -8.1474906      724.25607    
   3345000   296.29544      0.0073076404   5.4175285      735.11715     -7.3966486      727.7205     
   3346000   317.85858      0.0073076404   5.0242276      788.61591     -6.8015052      781.81441    
   3347000   309.09675      0.0073076404  -2.0117344      766.87755     -8.3305917      758.54696    
   3348000   290.3082       0.0073076404   5.2807186      720.26266     -9.1434332      711.11922    
   3349000   305.4154       0.0073076404   6.32378        757.74402     -11.481725      746.26229    
   3350000   304.14607      0.0073076404   3.0164376      754.59478     -10.923483      743.67129    
   3351000   295.13852      0.0073076404   3.7331952      732.24679     -9.5192724      722.72752    
   3352000   298.23486      0.0073076404   4.7697267      739.9289      -10.247817      729.68108    
   3353000   294.35571      0.0073076404   3.9360632      730.30462     -9.0893199      721.2153     
   3354000   301.05711      0.0073076404   3.6967776      746.931       -11.435463      735.49553    
   3355000   304.10916      0.0073076404   4.2811376      754.50321     -10.978975      743.52424    
   3356000   309.68683      0.0073076404   4.2883407      768.34157     -10.748651      757.59292    
   3357000   301.7486       0.0073076404   2.8082041      748.64659     -11.347848      737.29874    
   3358000   301.68613      0.0073076404   0.93643282     748.4916      -11.700776      736.79082    
   3359000   282.26659      0.0073076404  -0.38481488     700.31118     -10.223429      690.08776    
   3360000   296.23667      0.0073076404   4.8668818      734.97134     -9.351266       725.62007    
   3361000   313.67514      0.0073076404   8.7543945      778.23667     -10.204132      768.03254    
   3362000   306.12405      0.0073076404   7.4945818      759.50221     -10.377909      749.1243     
   3363000   300.41062      0.0073076404   2.47286        745.32703     -10.661817      734.66521    
   3364000   295.72466      0.0073076404   2.821521       733.70104     -11.644621      722.05642    
   3365000   302.19997      0.0073076404   6.851022       749.76647     -11.717562      738.04891    
   3366000   293.91315      0.0073076404   0.88377146     729.20663     -10.329384      718.87725    
   3367000   291.75255      0.0073076404   5.9519953      723.84612     -11.289757      712.55637    
   3368000   315.13276      0.0073076404   5.2185178      781.85305     -11.580079      770.27297    
   3369000   298.57167      0.0073076404   4.0997893      740.76454     -9.885959       730.87858    
   3370000   303.87668      0.0073076404   7.6480198      753.92641     -11.771531      742.15488    
   3371000   312.06131      0.0073076404   2.4889526      774.23271     -13.652484      760.58023    
   3372000   303.45239      0.0073076404  -0.15563553     752.87374     -12.152219      740.72153    
   3373000   296.06338      0.0073076404   6.1288698      734.5414      -14.709085      719.83232    
   3374000   305.29257      0.0073076404   5.0057177      757.43929     -14.880484      742.5588     
   3375000   309.83883      0.0073076404  -2.3281215      768.71867     -13.673573      755.0451     
   3376000   290.3207       0.0073076404   3.6692529      720.29367     -14.184004      706.10967    
   3377000   301.99927      0.0073076404   6.4355596      749.26852     -14.758436      734.51008    
   3378000   311.4973       0.0073076404   2.4701555      772.8334      -16.31012       756.52328    
   3379000   304.85787      0.0073076404   2.8819257      756.36077     -10.604125      745.75664    
   3380000   295.05454      0.0073076404   10.4862        732.03844     -13.776675      718.26176    
   3381000   302.70329      0.0073076404   1.9101352      751.01521     -9.1102005      741.90501    
   3382000   291.59705      0.0073076404   2.0023568      723.46032     -7.8486738      715.61165    
   3383000   298.22884      0.0073076404   8.8104901      739.91397     -10.018677      729.89529    
   3384000   306.24633      0.0073076404   3.501611       759.80559     -9.0623591      750.74323    
   3385000   302.33822      0.0073076404   3.2153639      750.10947     -11.559612      738.54986    
   3386000   286.32513      0.0073076404  -6.2166016      710.38055     -11.833722      698.54683    
   3387000   295.53404      0.0073076404   4.6316248      733.2281      -13.21399       720.01411    
   3388000   313.75393      0.0073076404   6.7198359      778.43216     -14.725766      763.70639    
   3389000   299.99847      0.0073076404   4.1100784      744.30447     -12.827829      731.47664    
   3390000   282.0838       0.0073076404  -0.90371131     699.85769     -12.897983      686.9597     
   3391000   289.23784      0.0073076404   3.2043787      717.60706     -12.240735      705.36632    
   3392000   301.16156      0.0073076404   4.2138924      747.19013     -11.345983      735.84415    
   3393000   316.12843      0.0073076404   4.3299351      784.32336     -12.737832      771.58553    
   3394000   302.63869      0.0073076404   4.1255875      750.85494     -11.226593      739.62835    
   3395000   303.34826      0.0073076404   2.890704       752.61538     -11.583507      741.03188    
   3396000   301.04474      0.0073076404   3.9911092      746.90031     -11.44819       735.45212    
   3397000   295.9538       0.0073076404   1.6023718      734.26954     -12.336783      721.93275    
   3398000   305.18703      0.0073076404   3.0582402      757.17743     -16.038675      741.13876    
   3399000   309.8434       0.0073076404   6.6977285      768.73001     -11.363292      757.36671    
   3400000   293.11912      0.0073076404   4.0511685      727.23661     -8.9245454      718.31207    
   3401000   301.73853      0.0073076404   2.159719       748.62161     -7.0049223      741.61669    
   3402000   317.43412      0.0073076404   4.5085651      787.5628      -8.7526595      778.81014    
   3403000   297.79078      0.0073076404   4.3984817      738.82712     -10.904764      727.92236    
   3404000   292.05947      0.0073076404   3.4585148      724.6076      -9.5972338      715.01036    
   3405000   296.06216      0.0073076404   2.7505068      734.53837     -9.1848367      725.35353    
   3406000   312.27979      0.0073076404   3.6195862      774.77476     -10.09898       764.67578    
   3407000   309.84298      0.0073076404   5.8301686      768.72899     -8.1865639      760.54242    
   3408000   301.74011      0.0073076404   4.2568466      748.62554     -6.2794103      742.34613    
   3409000   284.70025      0.0073076404   3.9828155      706.34916     -4.9286245      701.42054    
   3410000   306.23105      0.0073076404   1.5339939      759.76766     -5.2705739      754.49709    
   3411000   310.40603      0.0073076404   4.6678809      770.12591     -6.98539        763.14052    
   3412000   306.58673      0.0073076404   5.3051285      760.65013     -10.103274      750.54686    
   3413000   288.93957      0.0073076404   4.4886128      716.86704     -12.138242      704.72879    
   3414000   293.7382       0.0073076404   3.1384637      728.77257     -13.023926      715.74864    
   3415000   308.48126      0.0073076404   3.9283138      765.35052     -13.782443      751.56808    
   3416000   305.51714      0.0073076404   5.2309626      757.99646     -12.84088       745.15558    
   3417000   292.18634      0.0073076404   4.9459931      724.92236     -12.815326      712.10703    
   3418000   299.04039      0.0073076404   3.0778678      741.92744     -11.999687      729.92775    
   3419000   315.39341      0.0073076404   4.302772       782.49975     -10.281804      772.21795    
   3420000   291.14429      0.0073076404   3.9178922      722.33701     -10.82628       711.51073    
   3421000   284.34032      0.0073076404   2.4609001      705.45618     -9.2431639      696.21302    
   3422000   304.62101      0.0073076404   4.7031097      755.77312     -7.5904298      748.18269    
   3423000   307.09589      0.0073076404   3.8869008      761.91338     -8.6647783      753.2486     
   3424000   310.01371      0.0073076404   2.8843139      769.15257     -8.6612694      760.4913     
   3425000   298.34465      0.0073076404   4.1406631      740.20131     -10.008146      730.19317    
   3426000   287.98377      0.0073076404   3.539838       714.49568     -7.4373756      707.0583     
   3427000   296.5685       0.0073076404   3.9569314      735.79463     -9.634131       726.1605     
   3428000   313.31846      0.0073076404   3.4536181      777.35172     -9.1758949      768.17583    
   3429000   303.45788      0.0073076404   5.5616773      752.88738     -8.6692714      744.2181     
   3430000   280.21818      0.0073076404   0.65941396     695.22902     -12.514943      682.71408    
   3431000   310.2604       0.0073076404   1.1186313      769.76462     -12.78784       756.97678    
   3432000   312.03759      0.0073076404   5.390187       774.17386     -15.979774      758.19409    
   3433000   295.05322      0.0073076404   4.197774       732.03517     -9.8906314      722.14454    
   3434000   304.91348      0.0073076404   1.2832571      756.49875     -8.6040656      747.89468    
   3435000   311.19606      0.0073076404   3.0825555      772.08601     -8.5137768      763.57223    
   3436000   301.61369      0.0073076404   8.4347599      748.31188     -9.2608534      739.05103    
   3437000   296.05552      0.0073076404   4.5037301      734.52191     -8.7736478      725.74826    
   3438000   297.82034      0.0073076404   3.6526147      738.90048     -7.5966286      731.30385    
   3439000   324.18917      0.0073076404   3.1716629      804.32227     -13.535582      790.78669    
   3440000   297.21816      0.0073076404   5.2524461      737.40644     -12.973563      724.43288    
   3441000   285.96365      0.0073076404   5.0264509      709.4837      -14.379965      695.10374    
   3442000   300.92969      0.0073076404   3.8527424      746.61487     -14.077977      732.53689    
   3443000   305.06541      0.0073076404   3.7520359      756.8757      -13.819791      743.05591    
   3444000   302.11731      0.0073076404   3.9830001      749.56138     -11.325515      738.23587    
   3445000   290.87506      0.0073076404   5.841238       721.66905     -8.8413834      712.82766    
   3446000   288.35326      0.0073076404   3.6362222      715.4124      -11.061235      704.35116    
   3447000   306.04774      0.0073076404   3.7981748      759.31287     -8.9481576      750.36471    
   3448000   300.35862      0.0073076404   4.1299069      745.19801     -12.068059      733.12995    
   3449000   299.81348      0.0073076404   4.0331852      743.84552     -14.930627      728.91489    
   3450000   300.49972      0.0073076404   3.8901256      745.5481      -15.567602      729.98049    
   3451000   296.05267      0.0073076404   3.910214       734.51484     -17.097761      717.41708    
   3452000   292.06394      0.0073076404   4.1024414      724.61868     -15.7221        708.89658    
   3453000   292.95987      0.0073076404   6.0108532      726.84152     -11.917023      714.9245     
   3454000   308.12283      0.0073076404   4.5804522      764.46123     -13.569715      750.89151    
   3455000   299.77191      0.0073076404   2.8415559      743.74237     -13.363899      730.37847    
   3456000   297.3896       0.0073076404   4.7110798      737.83181     -16.848713      720.98309    
   3457000   297.55119      0.0073076404   6.0178914      738.2327      -13.419441      724.81326    
   3458000   305.22469      0.0073076404   3.7608832      757.27086     -10.453258      746.8176     
   3459000   305.8266       0.0073076404   3.3612044      758.76422     -9.5621926      749.20202    
   3460000   297.47876      0.0073076404   4.6024755      738.05301     -12.597487      725.45552    
   3461000   289.03218      0.0073076404   5.4439392      717.0968      -11.721056      705.37574    
   3462000   308.38527      0.0073076404   4.0536542      765.11237     -14.072144      751.04022    
   3463000   318.62072      0.0073076404   2.5422155      790.50679     -12.392637      778.11415    
   3464000   289.75579      0.0073076404   3.3660484      718.89211     -11.119703      707.77241    
   3465000   298.11078      0.0073076404   4.3256312      739.62107     -11.25705       728.36402    
   3466000   313.96827      0.0073076404   4.2293905      778.96393     -9.9812758      768.98265    
   3467000   294.75571      0.0073076404   4.2485262      731.29704     -10.518275      720.77877    
   3468000   291.33055      0.0073076404   4.0841613      722.79913     -11.873656      710.92548    
   3469000   305.37579      0.0073076404   4.3033415      757.64576     -12.514736      745.13102    
   3470000   312.39668      0.0073076404   4.9788677      775.06478     -13.348934      761.71585    
   3471000   284.97187      0.0073076404   4.0311013      707.02306     -13.676813      693.34625    
   3472000   296.24287      0.0073076404   2.9543448      734.98673     -13.331896      721.65483    
   3473000   313.76448      0.0073076404   3.0765485      778.45832     -12.503433      765.95489    
   3474000   296.98508      0.0073076404   5.4108282      736.82817     -16.973778      719.85439    
   3475000   294.56793      0.0073076404   1.8940996      730.83116     -12.0287        718.80246    
   3476000   309.84074      0.0073076404   4.3808441      768.72343     -14.870032      753.85339    
   3477000   284.43775      0.0073076404   6.2629221      705.6979      -11.724878      693.97302    
   3478000   296.71253      0.0073076404   2.1286246      736.15197     -13.348792      722.80318    
   3479000   303.46573      0.0073076404   2.8964558      752.90685     -9.1238741      743.78298    
   3480000   329.76055      0.0073076404   4.2421923      818.14502     -11.5861        806.55892    
   3481000   307.65837      0.0073076404   4.7676842      763.3089      -12.908353      750.40055    
   3482000   289.35967      0.0073076404   5.0410745      717.90933     -12.609412      705.29991    
   3483000   296.1406       0.0073076404   3.8108526      734.733       -14.034153      720.69884    
   3484000   300.627        0.0073076404   5.8511064      745.86387     -12.429992      733.43388    
   3485000   303.41739      0.0073076404   6.7947706      752.78691     -13.806887      738.98003    
   3486000   302.79552      0.0073076404   4.0143882      751.24402     -14.656063      736.58796    
   3487000   293.28195      0.0073076404   0.28931674     727.64061     -12.92992       714.71069    
   3488000   298.40502      0.0073076404   3.1085546      740.35108     -12.996648      727.35443    
   3489000   300.59066      0.0073076404   5.6072598      745.77372     -11.159329      734.61439    
   3490000   302.49586      0.0073076404   1.6933274      750.50057     -9.1344463      741.36612    
   3491000   300.62567      0.0073076404   1.5090965      745.86057     -12.300673      733.55989    
   3492000   307.61161      0.0073076404   3.5296952      763.19288     -13.303952      749.88893    
   3493000   301.77296      0.0073076404   6.1002938      748.70704     -12.787276      735.91977    
   3494000   298.65092      0.0073076404   4.2178067      740.96116     -12.061317      728.89984    
   3495000   292.81187      0.0073076404   2.9371793      726.47433     -10.639141      715.83519    
   3496000   297.1989       0.0073076404   4.4322667      737.35865     -11.279949      726.07871    
   3497000   296.47843      0.0073076404   3.9994301      735.57116     -12.9303        722.64086    
   3498000   312.87119      0.0073076404   5.4148093      776.24204     -9.8728267      766.36921    
   3499000   297.16978      0.0073076404   4.3023533      737.28643     -11.366174      725.92025    
   3500000   301.49321      0.0073076404   4.2899813      748.01297     -9.5983786      738.41459    
   3501000   298.35689      0.0073076404   3.9920471      740.23166     -9.0776954      731.15396    
   3502000   291.03764      0.0073076404   4.2446545      722.07242     -10.540388      711.53203    
   3503000   294.3249       0.0073076404   4.1213463      730.22819     -12.927067      717.30113    
   3504000   311.87109      0.0073076404   3.8915136      773.76078     -12.419327      761.34145    
   3505000   298.01036      0.0073076404   4.9320727      739.37191     -12.601717      726.77019    
   3506000   289.61327      0.0073076404   3.987108       718.5385      -12.636101      705.9024     
   3507000   305.50524      0.0073076404   3.1028922      757.96691     -9.9152412      748.05167    
   3508000   315.74573      0.0073076404   3.871013       783.37385     -17.00212       766.37173    
   3509000   304.28645      0.0073076404   4.2360114      754.94306     -16.062897      738.88017    
   3510000   295.63746      0.0073076404   4.1901307      733.4847      -11.501303      721.98339    
   3511000   290.93348      0.0073076404   3.3885528      721.81398     -13.755765      708.05822    
   3512000   307.4856       0.0073076404   3.3585365      762.88025     -10.918381      751.96187    
   3513000   306.7456       0.0073076404   4.1195122      761.0443      -9.1379636      751.90633    
   3514000   290.23111      0.0073076404   4.1411703      720.07139     -10.17571       709.89568    
   3515000   299.97476      0.0073076404   3.6655353      744.24564     -10.624452      733.62119    
   3516000   315.0125       0.0073076404   3.8270739      781.5547      -8.9592833      772.59541    
   3517000   298.60134      0.0073076404   3.4754995      740.83814     -7.8953453      732.9428     
   3518000   291.75598      0.0073076404   3.4207904      723.85464     -6.5273998      717.32724    
   3519000   312.97077      0.0073076404   5.8234556      776.48911     -10.349623      766.13949    
   3520000   296.21887      0.0073076404   2.7343135      734.92718     -7.9648009      726.96238    
   3521000   290.32752      0.0073076404   3.3436309      720.31058     -7.3908629      712.91971    
   3522000   305.35286      0.0073076404   6.2737256      757.58886     -8.41547        749.17339    
   3523000   297.35076      0.0073076404   3.7431575      737.73544     -9.7474508      727.98799    
   3524000   296.86077      0.0073076404   1.466209       736.51976     -9.8359506      726.68381    
   3525000   301.19574      0.0073076404   4.5911088      747.27494     -11.895442      735.3795     
   3526000   299.07802      0.0073076404   4.3981979      742.0208      -11.764262      730.25654    
   3527000   298.5441       0.0073076404   4.7317382      740.69615     -10.415728      730.28042    
   3528000   292.96155      0.0073076404   2.2758094      726.84569     -14.792127      712.05356    
   3529000   291.77165      0.0073076404   4.1909849      723.8935      -11.210375      712.68312    
   3530000   307.59863      0.0073076404   3.4729552      763.16067     -11.046205      752.11447    
   3531000   313.42329      0.0073076404   4.3017884      777.61182     -11.794955      765.81687    
   3532000   293.38504      0.0073076404   4.2824594      727.89638     -11.482546      716.41383    
   3533000   297.85979      0.0073076404   3.9017704      738.99835     -14.204394      724.79396    
   3534000   314.10205      0.0073076404   4.5975083      779.29584     -14.802583      764.49326    
   3535000   308.31589      0.0073076404   4.2917201      764.94022     -12.636432      752.30378    
   3536000   292.02594      0.0073076404   3.892658       724.52442     -8.9775903      715.54682    
   3537000   299.38025      0.0073076404   3.8706529      742.77066     -7.335259       735.4354     
   3538000   301.82494      0.0073076404   4.4147576      748.83601     -7.3878031      741.4482     
   3539000   301.13668      0.0073076404   2.8706411      747.12841     -7.5588121      739.56959    
   3540000   295.65643      0.0073076404   3.8477677      733.53176     -8.2696         725.26216    
   3541000   297.50145      0.0073076404   3.9285351      738.10929     -7.2014882      730.90781    
   3542000   305.59878      0.0073076404   1.471257       758.199       -9.7278329      748.47117    
   3543000   319.80135      0.0073076404   3.3190709      793.43596     -11.950309      781.48565    
   3544000   291.76977      0.0073076404   4.7382664      723.88884     -9.2966889      714.59215    
   3545000   298.50944      0.0073076404   2.9976932      740.61015     -10.880279      729.72987    
   3546000   319.09345      0.0073076404   3.8765244      791.67965     -11.385196      780.29446    
   3547000   307.14465      0.0073076404   4.9579276      762.03435     -9.2365554      752.79779    
   3548000   291.25868      0.0073076404   4.0262934      722.62081     -9.0637565      713.55705    
   3549000   293.2421       0.0073076404   3.4183636      727.54174     -9.5178596      718.02388    
   3550000   312.87179      0.0073076404   3.9548739      776.24353     -10.820388      765.42314    
   3551000   304.85636      0.0073076404   3.9965088      756.35703     -7.9329089      748.42412    
   3552000   291.80731      0.0073076404   4.4841795      723.98198     -10.403417      713.57856    
   3553000   314.39011      0.0073076404   4.263206       780.01054     -14.373796      765.63674    
   3554000   301.33637      0.0073076404   4.0596632      747.62385     -11.908867      735.71498    
   3555000   291.43167      0.0073076404   4.1504427      723.05002     -12.101305      710.94871    
   3556000   289.85313      0.0073076404   3.530614       719.1336      -11.646822      707.48678    
   3557000   297.65139      0.0073076404   3.2497468      738.4813      -13.057555      725.42375    
   3558000   303.43915      0.0073076404   3.0338443      752.8409      -14.732192      738.10871    
   3559000   303.5362       0.0073076404   6.4334934      753.08168     -12.605189      740.47649    
   3560000   292.16296      0.0073076404   3.7587958      724.86435     -14.505236      710.35911    
   3561000   295.9757       0.0073076404   3.9975335      734.32386     -15.532509      718.79135    
   3562000   307.57033      0.0073076404   4.3514045      763.09047     -11.641027      751.44945    
   3563000   313.40151      0.0073076404   3.7448482      777.55778     -12.120646      765.43713    
   3564000   297.07477      0.0073076404   3.8099092      737.0507      -10.935086      726.11561    
   3565000   295.5774       0.0073076404   4.7940198      733.33568     -12.212915      721.12277    
   3566000   317.9163       0.0073076404   4.4064721      788.75911     -10.503776      778.25534    
   3567000   303.29283      0.0073076404   3.6020556      752.47788     -15.397523      737.08036    
   3568000   292.21704      0.0073076404   3.5649788      724.99852     -14.382144      710.61638    
   3569000   295.65137      0.0073076404   4.1200105      733.5192      -18.50267       715.01654    
   3570000   318.76508      0.0073076404   4.7983803      790.86495     -17.816577      773.04837    
   3571000   300.80457      0.0073076404   2.6326402      746.30442     -14.043157      732.26127    
   3572000   283.44041      0.0073076404   2.5833179      703.22347     -13.808309      689.41517    
   3573000   299.84302      0.0073076404   4.6034798      743.9188      -10.752366      733.16644    
   3574000   311.89878      0.0073076404   5.8411286      773.82947     -10.540387      763.28908    
   3575000   297.8502       0.0073076404   3.3486216      738.97457     -10.752498      728.22207    
   3576000   294.02185      0.0073076404   1.0747704      729.47631     -10.577799      718.89851    
   3577000   299.07753      0.0073076404   3.5961258      742.01959     -7.7559044      734.26369    
   3578000   293.63874      0.0073076404   4.11247        728.52581     -13.445045      715.08077    
   3579000   292.74375      0.0073076404   4.3256948      726.30531     -11.365714      714.93959    
   3580000   293.27156      0.0073076404   3.1275583      727.61482     -8.434209       719.18061    
   3581000   303.38968      0.0073076404   3.1841467      752.71816     -8.8208868      743.89727    
   3582000   290.87716      0.0073076404   3.2702752      721.67426     -10.211631      711.46263    
   3583000   300.18023      0.0073076404   5.2321208      744.75543     -10.164366      734.59106    
   3584000   314.10714      0.0073076404   3.6885868      779.30847     -8.3347061      770.97376    
   3585000   298.66556      0.0073076404   4.0203546      740.99748     -8.712647       732.28483    
   3586000   291.3406       0.0073076404   3.4332737      722.82406     -11.410748      711.41332    
   3587000   301.88634      0.0073076404   4.2142984      748.98832     -10.147973      738.84035    
   3588000   319.14307      0.0073076404   6.5183228      791.80276     -9.1838429      782.61891    
   3589000   300.38157      0.0073076404   3.4640865      745.25496     -8.9463789      736.30858    
   3590000   293.27075      0.0073076404   3.0843361      727.61281     -11.674442      715.93837    
   3591000   316.23601      0.0073076404   9.3107363      784.59025     -12.935439      771.65481    
   3592000   313.01832      0.0073076404   2.0657328      776.60707     -7.9845428      768.62253    
   3593000   291.56504      0.0073076404   4.5542889      723.38091     -11.499399      711.88151    
   3594000   301.60483      0.0073076404   9.8183221      748.28989     -12.719832      735.57006    
   3595000   311.78762      0.0073076404   3.7901557      773.55369     -9.0809932      764.4727     
   3596000   293.50308      0.0073076404   3.0965636      728.18923     -10.103488      718.08574    
   3597000   291.82846      0.0073076404   4.0535897      724.03446     -8.3328007      715.70166    
   3598000   303.70106      0.0073076404   6.7601685      753.49071     -11.926277      741.56443    
   3599000   312.82637      0.0073076404   4.2435746      776.13084     -12.638238      763.4926     
   3600000   295.30408      0.0073076404   1.8060692      732.65756     -13.182157      719.47541    
   3601000   287.7626       0.0073076404   6.5149692      713.94693     -10.86107       703.08586    
   3602000   301.3002       0.0073076404   4.1402197      747.53411     -8.8781071      738.65601    
   3603000   304.93724      0.0073076404   4.0801367      756.55771     -7.4936686      749.06404    
   3604000   301.59154      0.0073076404   4.5974517      748.25692     -8.7572354      739.49969    
   3605000   303.61415      0.0073076404   4.3602738      753.27508     -11.0038        742.27128    
   3606000   299.79448      0.0073076404   2.3167921      743.79836     -10.941512      732.85685    
   3607000   302.25721      0.0073076404   3.8374854      749.90846     -11.124765      738.78369    
   3608000   287.83292      0.0073076404   5.0786608      714.12142     -10.699383      703.42204    
   3609000   304.35303      0.0073076404   5.5431492      755.10826     -7.9457671      747.1625     
   3610000   307.12635      0.0073076404   3.9919173      761.98894     -12.668632      749.3203     
   3611000   301.09059      0.0073076404   4.0426234      747.01406     -10.965689      736.04838    
   3612000   287.63776      0.0073076404   3.5451207      713.6372      -12.759624      700.87758    
   3613000   306.09013      0.0073076404   3.760818       759.41806     -16.814589      742.60347    
   3614000   311.69521      0.0073076404   4.7618195      773.32442     -13.121781      760.20264    
   3615000   300.55607      0.0073076404   4.0550031      745.68789     -12.351298      733.33659    
   3616000   295.20915      0.0073076404   3.4157123      732.42204     -9.4449685      722.97708    
   3617000   306.14501      0.0073076404   3.693578       759.55421     -11.46446       748.08975    
   3618000   313.19606      0.0073076404   4.4669949      777.04805     -10.458725      766.58933    
   3619000   298.82245      0.0073076404   4.1529485      741.38674     -11.632973      729.75376    
   3620000   299.92768      0.0073076404   3.9694574      744.12884     -14.213164      729.91568    
   3621000   298.47933      0.0073076404   3.9343813      740.53546     -8.9552174      731.58024    
   3622000   304.33725      0.0073076404   3.6834943      755.06911     -8.7471218      746.32199    
   3623000   297.08491      0.0073076404   4.140293       737.07586     -10.858701      726.21716    
   3624000   299.03844      0.0073076404   4.744221       741.9226      -11.846875      730.07573    
   3625000   297.7189       0.0073076404   3.8203463      738.6488      -13.717988      724.93081    
   3626000   294.68005      0.0073076404   4.2543144      731.10934     -12.04069       719.06865    
   3627000   312.07816      0.0073076404   2.8857622      774.27451     -14.346598      759.92791    
   3628000   292.14122      0.0073076404   2.960319       724.81043     -15.36083       709.4496     
   3629000   298.32694      0.0073076404   4.8095684      740.15736     -14.710144      725.44722    
   3630000   300.78609      0.0073076404   4.0694162      746.25859     -17.574637      728.68395    
   3631000   297.0401       0.0073076404   3.02252        736.96467     -15.449739      721.51493    
   3632000   311.35136      0.0073076404   3.9159333      772.4713      -13.509191      758.96211    
   3633000   306.26647      0.0073076404   5.1131333      759.85556     -14.708672      745.14689    
   3634000   298.3174       0.0073076404   4.0369271      740.13369     -12.773902      727.35978    
   3635000   308.27403      0.0073076404   3.1033962      764.83637     -10.228697      754.60767    
   3636000   309.90819      0.0073076404   4.0462515      768.89077     -10.652733      758.23803    
   3637000   281.56594      0.0073076404   8.0114064      698.57287     -12.146166      686.4267     
   3638000   286.94812      0.0073076404   1.0819611      711.92618     -11.140825      700.78536    
   3639000   297.32087      0.0073076404  -1.7785445      737.66128     -13.409705      724.25158    
   3640000   310.97999      0.0073076404   1.4421909      771.54993     -13.743104      757.80683    
   3641000   296.91501      0.0073076404   5.8809104      736.65433     -14.522885      722.13144    
   3642000   288.58028      0.0073076404   4.5856288      715.97564     -12.074457      703.90118    
   3643000   291.24765      0.0073076404   4.1984449      722.59345     -11.473218      711.12023    
   3644000   315.4822       0.0073076404   0.27358656     782.72004     -14.27415       768.44589    
   3645000   300.42335      0.0073076404   4.2414537      745.35862     -11.88223       733.47639    
   3646000   295.88695      0.0073076404   5.0051014      734.10367     -11.466377      722.63729    
   3647000   303.26233      0.0073076404   4.1319728      752.40221     -10.821768      741.58044    
   3648000   295.68987      0.0073076404   2.9838986      733.61471     -8.5277903      725.08692    
   3649000   306.76134      0.0073076404   4.1636863      761.08335     -9.3304207      751.75293    
   3650000   309.14888      0.0073076404   5.995465       767.00688     -8.526746       758.48014    
   3651000   292.28307      0.0073076404   3.542509       725.16235     -10.494914      714.66744    
   3652000   293.05061      0.0073076404   1.5735691      727.06663     -10.958189      716.10844    
   3653000   302.55119      0.0073076404   9.1503988      750.63783     -9.4634136      741.17442    
   3654000   301.2763       0.0073076404   7.9761543      747.4748      -13.814831      733.65997    
   3655000   301.5252       0.0073076404   4.7929079      748.09234     -13.574696      734.51764    
   3656000   301.07874      0.0073076404   1.1768402      746.98466     -9.7344393      737.25022    
   3657000   310.7214       0.0073076404   3.3919398      770.90835     -13.300742      757.60761    
   3658000   293.35883      0.0073076404   6.4543732      727.83134     -12.441018      715.39033    
   3659000   287.89578      0.0073076404   6.6104144      714.27737     -13.279383      700.99799    
   3660000   300.34391      0.0073076404   0.54531303     745.16152     -11.318874      733.84265    
   3661000   306.4875       0.0073076404   5.3880835      760.40393     -13.216544      747.18738    
   3662000   295.51494      0.0073076404   5.1443272      733.18072     -13.076825      720.1039     
   3663000   293.98265      0.0073076404  -1.1030872      729.37907     -12.394003      716.98507    
   3664000   309.07422      0.0073076404   5.4674499      766.82165     -13.698851      753.1228     
   3665000   295.54353      0.0073076404   4.9094         733.25164     -11.249983      722.00166    
   3666000   283.15819      0.0073076404   4.0234289      702.52328     -11.474243      691.04904    
   3667000   298.65784      0.0073076404   4.0305859      740.97834     -11.140522      729.83782    
   3668000   304.73495      0.0073076404   4.2822763      756.05581     -13.843276      742.21254    
   3669000   298.90258      0.0073076404   6.963379       741.58554     -14.09749       727.48805    
   3670000   286.87267      0.0073076404   4.384306       711.73899     -19.806751      691.93224    
   3671000   304.6204       0.0073076404   1.9084237      755.77161     -14.255529      741.51608    
   3672000   313.96101      0.0073076404   5.9354853      778.94592     -14.985583      763.96034    
   3673000   291.65078      0.0073076404   6.5859326      723.59363     -12.703609      710.89002    
   3674000   297.31106      0.0073076404   1.4071925      737.63695     -14.486524      723.15042    
   3675000   305.85784      0.0073076404   4.013037       758.84173     -13.386033      745.4557     
   3676000   286.13872      0.0073076404   8.1527552      709.91805     -9.885544       700.0325     
   3677000   295.332        0.0073076404   7.727615       732.72683     -11.770255      720.95657    
   3678000   305.10515      0.0073076404  -1.0570617      756.97428     -9.572966       747.40131    
   3679000   296.25488      0.0073076404   7.9703585      735.01653     -12.236249      722.78028    
   3680000   296.86566      0.0073076404   3.1950237      736.53189     -10.853282      725.67861    
   3681000   305.86513      0.0073076404  -1.4945522      758.85981     -10.36164       748.49817    
   3682000   297.46262      0.0073076404  -2.6157018      738.01296     -10.3511        727.66186    
   3683000   304.30571      0.0073076404   6.1565604      754.99086     -9.2870294      745.70383    
   3684000   289.04819      0.0073076404   2.9385865      717.13653     -13.306075      703.83046    
   3685000   315.87365      0.0073076404  -2.9255163      783.69123     -14.027247      769.66398    
   3686000   308.98003      0.0073076404   5.1341101      766.58797     -13.26158       753.32639    
   3687000   294.51253      0.0073076404   5.6789894      730.69371     -13.926137      716.76758    
   3688000   297.68055      0.0073076404   3.2603779      738.55364     -10.303723      728.24992    
   3689000   317.80372      0.0073076404   2.8276668      788.47979     -11.331196      777.14859    
   3690000   302.20466      0.0073076404   3.2725781      749.7781      -13.042389      736.73571    
   3691000   291.0589       0.0073076404   4.4819093      722.12515     -12.912913      709.21223    
   3692000   298.73998      0.0073076404   4.2639632      741.18213     -12.900664      728.28147    
   3693000   296.40611      0.0073076404   3.6752396      735.39173     -13.558473      721.83326    
   3694000   311.87811      0.0073076404   4.1878686      773.77818     -11.839163      761.93902    
   3695000   296.7857       0.0073076404   2.4575795      736.33349     -12.247565      724.08593    
   3696000   279.74832      0.0073076404   3.0265262      694.0633      -11.598199      682.4651     
   3697000   302.27575      0.0073076404   4.8171247      749.95447     -12.07915       737.87532    
   3698000   314.75786      0.0073076404   4.185548       780.92293     -9.8971482      771.02578    
   3699000   312.43944      0.0073076404   3.7299439      775.17087     -14.244499      760.92637    
   3700000   288.77625      0.0073076404   2.5630565      716.46183     -13.167839      703.29399    
   3701000   286.88228      0.0073076404   6.6369459      711.76285     -13.557128      698.20572    
   3702000   292.18582      0.0073076404   8.1312967      724.92106     -13.122745      711.79832    
   3703000   298.12673      0.0073076404   4.078267       739.66063     -14.104853      725.55577    
   3704000   299.63228      0.0073076404   4.2181782      743.39596     -14.825322      728.57064    
   3705000   300.15703      0.0073076404   2.906969       744.69786     -14.768059      729.9298     
   3706000   299.97629      0.0073076404   3.542781       744.24945     -15.354226      728.89522    
   3707000   306.68644      0.0073076404   5.9765591      760.89751     -13.134886      747.76262    
   3708000   298.08864      0.0073076404   3.1017242      739.56613     -15.500024      724.06611    
   3709000   303.7266       0.0073076404   3.3371985      753.55407     -14.233572      739.32049    
   3710000   308.82086      0.0073076404   4.315256       766.19306     -10.633871      755.55919    
   3711000   300.65876      0.0073076404   4.5585958      745.94267     -10.130685      735.81198    
   3712000   283.21203      0.0073076404   3.3529839      702.65685     -11.738894      690.91796    
   3713000   294.77724      0.0073076404   4.2208464      731.35047     -15.460513      715.88995    
   3714000   314.5041       0.0073076404   4.9078679      780.29333     -13.30799       766.98534    
   3715000   295.48948      0.0073076404   3.8770005      733.11756     -13.254844      719.86271    
   3716000   289.28824      0.0073076404   3.8713901      717.7321      -13.331976      704.40012    
   3717000   303.67706      0.0073076404   4.0088677      753.43117     -11.006998      742.42417    
   3718000   309.05229      0.0073076404   4.0785565      766.76725     -8.3603506      758.4069     
   3719000   307.41937      0.0073076404   4.5828946      762.71594     -9.3373271      753.37861    
   3720000   310.86954      0.0073076404   3.7378678      771.27589     -11.725529      759.55036    
   3721000   299.52002      0.0073076404   3.9202491      743.11743     -10.670296      732.44714    
   3722000   295.89754      0.0073076404   4.5599932      734.12994     -9.902238       724.22771    
   3723000   293.37791      0.0073076404   10.099912      727.87868     -11.383902      716.49477    
   3724000   296.7773       0.0073076404   2.5805245      736.31267     -12.591208      723.72146    
   3725000   317.15038      0.0073076404   3.8476299      786.85882     -11.488656      775.37017    
   3726000   308.41532      0.0073076404   4.011527       765.18691     -10.92153       754.26538    
   3727000   291.49396      0.0073076404   4.8530353      723.20455     -7.9920805      715.21247    
   3728000   311.03745      0.0073076404   2.891139       771.69249     -11.291286      760.4012     
   3729000   305.05039      0.0073076404   4.3667106      756.83843     -7.2088172      749.62961    
   3730000   304.48355      0.0073076404   3.9983642      755.43207     -12.686423      742.74565    
   3731000   295.91785      0.0073076404   4.8636156      734.18033     -10.662451      723.51788    
   3732000   302.29095      0.0073076404   4.3641392      749.99219     -9.2324195      740.75977    
   3733000   302.34625      0.0073076404   1.9940375      750.12939     -10.248633      739.88076    
   3734000   301.33418      0.0073076404   4.2118655      747.6184      -8.7051171      738.91328    
   3735000   295.50733      0.0073076404   5.939129       733.16183     -8.9651268      724.1967     
   3736000   290.48192      0.0073076404   5.393149       720.69365     -9.248977       711.44467    
   3737000   301.70984      0.0073076404   1.9172905      748.55043     -9.8982158      738.65222    
   3738000   326.89591      0.0073076404   4.0579397      811.03777     -10.228184      800.80958    
   3739000   300.02983      0.0073076404   4.5783844      744.38229     -8.3971306      735.98516    
   3740000   281.12189      0.0073076404   3.49488        697.47116     -7.3250403      690.14612    
   3741000   307.3718       0.0073076404   4.2137957      762.59791     -9.3819442      753.21596    
   3742000   301.1146       0.0073076404   3.0649506      747.07362     -11.34452       735.7291     
   3743000   287.66768      0.0073076404   3.9868993      713.71146     -11.549541      702.16192    
   3744000   299.58532      0.0073076404   3.1485192      743.27943     -12.423504      730.85593    
   3745000   306.99063      0.0073076404   1.9406478      761.65221     -11.169204      750.48301    
   3746000   292.3367       0.0073076404   4.3168723      725.29542     -9.264069       716.03135    
   3747000   284.4567       0.0073076404   3.5213105      705.74491     -11.029349      694.71557    
   3748000   306.55223      0.0073076404   3.9718356      760.56453     -9.5215639      751.04297    
   3749000   311.56766      0.0073076404   4.1223861      773.00795     -12.724665      760.28329    
   3750000   300.67249      0.0073076404   4.1082257      745.97673     -12.517405      733.45933    
   3751000   308.02427      0.0073076404   3.1672489      764.2167      -7.9415927      756.2751     
   3752000   296.62411      0.0073076404   4.1916227      735.93259     -9.2723046      726.66029    
   3753000   297.47723      0.0073076404   2.8966965      738.0492      -8.9863782      729.06282    
   3754000   311.12974      0.0073076404   7.8442403      771.92146     -7.2114412      764.71002    
   3755000   303.47085      0.0073076404   5.1672863      752.91955     -8.8315439      744.08801    
   3756000   285.40583      0.0073076404   3.0809532      708.09972     -11.038437      697.06128    
   3757000   303.06065      0.0073076404   3.7451592      751.90183     -13.402634      738.4992     
   3758000   307.17461      0.0073076404   6.2443453      762.10868     -17.747045      744.36163    
   3759000   302.73748      0.0073076404   4.0340744      751.10004     -16.005596      735.09444    
   3760000   298.52596      0.0073076404   4.2744071      740.65113     -13.585969      727.06516    
   3761000   299.81479      0.0073076404   3.6398507      743.84875     -14.251019      729.59773    
   3762000   303.21917      0.0073076404   4.6541267      752.29513     -13.892008      738.40312    
   3763000   296.71542      0.0073076404   4.562099       736.15914     -13.263993      722.89514    
   3764000   313.9218       0.0073076404   3.6767906      778.84864     -16.403537      762.4451     
   3765000   306.52278      0.0073076404   6.7176026      760.49146     -12.040161      748.4513     
   3766000   285.81126      0.0073076404   8.7201751      709.10562     -13.062951      696.04267    
   3767000   284.383        0.0073076404   2.3194157      705.56205     -9.6165569      695.9455     
   3768000   302.12033      0.0073076404   4.643737       749.56888     -9.5720615      739.99681    
   3769000   294.78715      0.0073076404   7.6144482      731.37504     -8.1877316      723.18731    
   3770000   307.95889      0.0073076404   4.6557341      764.0545      -9.4720632      754.58244    
   3771000   300.32803      0.0073076404   2.6091557      745.12211     -9.8568841      735.26523    
   3772000   309.09228      0.0073076404   4.153813       766.86648     -10.18095       756.68553    
   3773000   297.25304      0.0073076404   4.9918756      737.49299     -9.1765524      728.31644    
   3774000   297.84842      0.0073076404   2.72381        738.97015     -8.7648157      730.20533    
   3775000   314.86426      0.0073076404   4.3579894      781.18691     -10.801726      770.38518    
   3776000   298.30374      0.0073076404   6.5322935      740.09979     -9.3435658      730.75623    
   3777000   296.46365      0.0073076404   3.2130181      735.53449     -6.8241353      728.71035    
   3778000   312.51836      0.0073076404   2.139518       775.36667     -8.635995       766.73067    
   3779000   302.02938      0.0073076404   4.5989502      749.34322     -11.830301      737.51292    
   3780000   301.78887      0.0073076404   4.7185506      748.7465      -11.155206      737.59129    
   3781000   298.81754      0.0073076404   4.1163805      741.37455     -11.664542      729.71001    
   3782000   302.58691      0.0073076404   3.1324895      750.72645     -14.303028      736.42343    
   3783000   300.20262      0.0073076404   3.9533107      744.81097     -12.127429      732.68354    
   3784000   294.38176      0.0073076404   4.1808975      730.36927     -11.257073      719.11219    
   3785000   305.22419      0.0073076404   4.1279207      757.26962     -13.655665      743.61395    
   3786000   299.56847      0.0073076404   3.377159       743.23764     -12.048468      731.18917    
   3787000   285.74155      0.0073076404   4.1472484      708.93266     -14.964024      693.96864    
   3788000   304.17297      0.0073076404   4.5490037      754.66152     -13.511328      741.15019    
   3789000   309.90118      0.0073076404   1.2255539      768.87337     -13.972891      754.90048    
   3790000   294.75657      0.0073076404   3.640121       731.29917     -15.124491      716.17468    
   3791000   296.39117      0.0073076404   4.3246999      735.35466     -17.040165      718.31449    
   3792000   303.27589      0.0073076404   4.496648       752.43584     -13.755762      738.68008    
   3793000   307.40232      0.0073076404   3.8987058      762.67363     -10.664569      752.00906    
   3794000   294.67783      0.0073076404   3.4212148      731.10381     -12.699329      718.40448    
   3795000   288.52662      0.0073076404   3.3356556      715.8425      -15.297613      700.54488    
   3796000   311.74914      0.0073076404   4.3807358      773.45822     -13.967378      759.49084    
   3797000   306.3854       0.0073076404   3.2058839      760.15062     -13.725399      746.42522    
   3798000   296.87287      0.0073076404   3.7272652      736.54977     -13.656727      722.89304    
   3799000   298.07218      0.0073076404   3.8177513      739.52529     -15.213289      724.31201    
   3800000   301.46928      0.0073076404   4.9282485      747.9536      -12.695204      735.25839    
   3801000   310.96839      0.0073076404   4.5653577      771.52115     -14.778486      756.74267    
   3802000   297.08118      0.0073076404   2.7721261      737.06659     -11.435994      725.63059    
   3803000   306.52574      0.0073076404   3.6344498      760.4988      -11.901472      748.59733    
   3804000   303.16996      0.0073076404   6.1398472      752.17303     -14.688649      737.48438    
   3805000   308.19529      0.0073076404   3.3254707      764.641       -11.900168      752.74083    
   3806000   306.40445      0.0073076404  -1.6219076      760.19789     -11.345182      748.85271    
   3807000   299.12784      0.0073076404   2.2401038      742.14442     -10.148535      731.99588    
   3808000   300.339        0.0073076404   5.7240923      745.14933     -11.59234       733.55699    
   3809000   296.84459      0.0073076404   5.4109519      736.47962     -8.8214288      727.65819    
   3810000   304.64106      0.0073076404   6.5611679      755.82288     -9.57654        746.24634    
   3811000   297.35613      0.0073076404   2.3974555      737.74875     -10.38358       727.36517    
   3812000   298.76046      0.0073076404   5.8846051      741.23293     -13.130152      728.10277    
   3813000   305.16049      0.0073076404   5.8892026      757.11158     -13.091252      744.02033    
   3814000   306.75435      0.0073076404   2.8511184      761.066       -13.868149      747.19785    
   3815000   305.54922      0.0073076404   1.9248979      758.07603     -9.1595679      748.91647    
   3816000   296.6886       0.0073076404   3.6293013      736.09259     -8.4922656      727.60032    
   3817000   296.44865      0.0073076404   6.388052       735.49726     -16.082121      719.41514    
   3818000   299.38868      0.0073076404   13.385588      742.79157     -16.018299      726.77327    
   3819000   308.7389       0.0073076404   4.5829276      765.98973     -14.51495       751.47478    
   3820000   290.0806       0.0073076404   3.2552058      719.69797     -14.162903      705.53507    
   3821000   302.98494      0.0073076404   3.4894083      751.714       -13.366518      738.34748    
   3822000   295.14007      0.0073076404   3.4229603      732.25065     -12.082671      720.16798    
   3823000   299.59924      0.0073076404   4.199396       743.31398     -10.355051      732.95893    
   3824000   296.3936       0.0073076404   4.1763232      735.36069     -10.603709      724.75698    
   3825000   298.39507      0.0073076404   4.1318805      740.32639     -10.334422      729.99196    
   3826000   308.04351      0.0073076404   3.480683       764.26444     -14.095518      750.16893    
   3827000   301.75333      0.0073076404   3.9253157      748.65833     -12.483066      736.17526    
   3828000   303.56797      0.0073076404   4.3201128      753.1605      -10.87999       742.28051    
   3829000   291.79907      0.0073076404   4.1178218      723.96154     -11.814791      712.14675    
   3830000   300.77265      0.0073076404   4.2586887      746.22522     -12.421151      733.80407    
   3831000   283.21122      0.0073076404   3.3652881      702.65484     -12.739249      689.91559    
   3832000   297.46426      0.0073076404   4.6055211      738.01703     -10.250457      727.76658    
   3833000   299.13043      0.0073076404   5.1063209      742.15084     -8.7030522      733.44778    
   3834000   305.07019      0.0073076404   2.2913147      756.88756     -10.849332      746.03823    
   3835000   298.10182      0.0073076404   1.7904266      739.59882     -7.3822259      732.2166     
   3836000   301.30571      0.0073076404   7.6578779      747.54776     -12.121937      735.42583    
   3837000   305.95129      0.0073076404   4.8227439      759.0736      -14.522173      744.55142    
   3838000   300.8487       0.0073076404   3.4717768      746.41392     -12.579523      733.83439    
   3839000   306.26036      0.0073076404   3.6361503      759.84038     -11.361881      748.4785     
   3840000   295.43883      0.0073076404   6.3536906      732.99187     -12.71839       720.27348    
   3841000   305.43504      0.0073076404   4.968583       757.79276     -14.717335      743.07543    
   3842000   309.61948      0.0073076404   3.1772122      768.17447     -10.779293      757.39517    
   3843000   292.80172      0.0073076404  -2.389464       726.44914     -10.028818      716.42033    
   3844000   297.3338       0.0073076404   8.0465093      737.69335     -11.807677      725.88568    
   3845000   315.22545      0.0073076404   5.1185234      782.08303     -11.423452      770.65958    
   3846000   291.74293      0.0073076404  -3.3252513      723.82225     -11.191875      712.63038    
   3847000   290.57767      0.0073076404   6.8942393      720.93122     -11.368708      709.56251    
   3848000   306.27874      0.0073076404   8.1269078      759.88599     -13.708242      746.17774    
   3849000   312.48118      0.0073076404   5.3529815      775.27441     -13.401298      761.87312    
   3850000   292.46726      0.0073076404  -3.0127726      725.61933     -13.638674      711.98065    
   3851000   295.09315      0.0073076404   3.297803       732.13423     -11.904704      720.22953    
   3852000   296.15512      0.0073076404   8.5737365      734.76902     -11.602104      723.16692    
   3853000   304.92944      0.0073076404   7.900228       756.53835     -11.262725      745.27563    
   3854000   309.20459      0.0073076404   8.3897231      767.14511     -11.448956      755.69615    
   3855000   298.55045      0.0073076404  -1.0955183      740.7119      -12.95671       727.75519    
   3856000   299.33026      0.0073076404   5.1340249      742.64661     -11.232891      731.41372    
   3857000   312.79864      0.0073076404   5.281711       776.06205     -12.105524      763.95653    
   3858000   303.99408      0.0073076404   2.1044332      754.21769     -11.203181      743.01451    
   3859000   289.00046      0.0073076404   3.302965       717.01811     -10.630072      706.38803    
   3860000   297.15486      0.0073076404   2.6695018      737.2494      -12.143256      725.10615    
   3861000   305.21063      0.0073076404   4.6933783      757.23598     -11.351306      745.88467    
   3862000   306.42959      0.0073076404   4.3552945      760.26027     -12.480059      747.78021    
   3863000   290.16059      0.0073076404   2.629947       719.89643     -14.07572       705.82071    
   3864000   288.68819      0.0073076404   7.2549064      716.24336     -11.934297      704.30906    
   3865000   309.11299      0.0073076404   8.685204       766.91785     -14.371643      752.5462     
   3866000   293.66539      0.0073076404   2.7918815      728.59193     -13.080958      715.51097    
   3867000   287.20823      0.0073076404   3.9335423      712.57153     -13.618138      698.9534     
   3868000   318.21971      0.0073076404   5.9628233      789.51187     -18.878886      770.63298    
   3869000   301.67713      0.0073076404   0.36497611     748.46926     -17.641532      730.82773    
   3870000   291.93587      0.0073076404   2.2303143      724.30093     -14.14243       710.1585     
   3871000   288.64062      0.0073076404   7.8746861      716.12534     -13.51353       702.61181    
   3872000   317.6273       0.0073076404   4.0302279      788.04209     -13.072004      774.97009    
   3873000   309.98788      0.0073076404  -0.24164352     769.08847     -15.82564       753.26283    
   3874000   275.66326      0.0073076404   2.4742629      683.92814     -11.378672      672.54947    
   3875000   294.30273      0.0073076404   7.4204096      730.17319     -11.656955      718.51623    
   3876000   305.43267      0.0073076404   6.7636525      757.78689     -17.396218      740.39067    
   3877000   314.63583      0.0073076404   2.5516819      780.62018     -13.567921      767.05226    
   3878000   300.42249      0.0073076404   0.40983183     745.35648     -13.259412      732.09707    
   3879000   285.88481      0.0073076404   5.3438842      709.28808     -11.033577      698.25451    
   3880000   299.62051      0.0073076404   4.3139601      743.36674     -12.258556      731.10819    
   3881000   312.20166      0.0073076404   1.7051373      774.58093     -8.853161       765.72777    
   3882000   297.28356      0.0073076404   2.8379144      737.5687      -12.414012      725.15469    
   3883000   296.46098      0.0073076404   6.7872774      735.52785     -11.607128      723.92072    
   3884000   302.55391      0.0073076404   1.2858578      750.6446      -9.7246079      740.91999    
   3885000   303.00764      0.0073076404   3.8860472      751.7703      -11.374921      740.39538    
   3886000   299.87927      0.0073076404   4.3717846      744.00872     -12.04651       731.96221    
   3887000   290.54197      0.0073076404   4.7354255      720.84263     -14.978184      705.86445    
   3888000   312.20761      0.0073076404   2.8719294      774.59569     -13.154121      761.44157    
   3889000   303.71645      0.0073076404   2.7726895      753.52888     -11.622179      741.9067     
   3890000   298.77492      0.0073076404   5.2243365      741.26882     -12.684493      728.58432    
   3891000   301.53449      0.0073076404   5.3352952      748.11537     -11.441704      736.67367    
   3892000   304.01656      0.0073076404   4.3808539      754.27345     -12.07087       742.20258    
   3893000   316.24475      0.0073076404   2.053649       784.61194     -8.6876929      775.92425    
   3894000   292.77073      0.0073076404   3.2197467      726.37225     -9.964028       716.40822    
   3895000   286.56929      0.0073076404   9.0733047      710.98631     -11.588126      699.39818    
   3896000   312.64789      0.0073076404   4.9759734      775.68803     -6.9368706      768.75116    
   3897000   315.1964       0.0073076404   3.4295107      782.01095     -11.571166      770.43978    
   3898000   298.37667      0.0073076404   3.6079393      740.28073     -13.042715      727.23802    
   3899000   298.82226      0.0073076404   5.9117208      741.38627     -8.2591134      733.12715    
   3900000   311.16263      0.0073076404   1.0690144      772.00306     -11.600466      760.40259    
   3901000   300.36875      0.0073076404   3.9847246      745.22315     -14.098577      731.12457    
   3902000   295.34836      0.0073076404   4.8417838      732.76741     -9.8030532      722.96436    
   3903000   314.50053      0.0073076404   0.83462419     780.28448     -10.392111      769.89237    
   3904000   288.23353      0.0073076404   3.4068882      715.11533     -7.3498996      707.76543    
   3905000   302.05672      0.0073076404   7.7062586      749.41104     -7.7101204      741.70092    
   3906000   299.99172      0.0073076404   4.0410665      744.28772     -8.5151361      735.77258    
   3907000   295.28443      0.0073076404   3.4751072      732.60882     -9.7515361      722.85728    
   3908000   302.13913      0.0073076404   3.2091925      749.61551     -6.5939207      743.02158    
   3909000   302.82139      0.0073076404   6.0288728      751.30822     -10.55569       740.75253    
   3910000   304.84182      0.0073076404   3.4219878      756.32096     -11.195491      745.12547    
   3911000   281.67171      0.0073076404  -1.0806585      698.83526     -11.69756       687.13771    
   3912000   299.19455      0.0073076404   3.4616954      742.30992     -9.5789219      732.73099    
   3913000   314.65655      0.0073076404   5.203151       780.67157     -10.333479      770.33809    
   3914000   298.56098      0.0073076404   3.257903       740.73803     -9.248974       731.48905    
   3915000   292.98801      0.0073076404   2.0395998      726.91132     -10.60859       716.30273    
   3916000   281.04375      0.0073076404   2.9400742      697.27728     -11.219739      686.05754    
   3917000   315.04486      0.0073076404   5.6448706      781.63498     -8.5614458      773.07354    
   3918000   301.98628      0.0073076404   4.2800294      749.23629     -12.629583      736.6067     
   3919000   306.8704       0.0073076404   3.6543081      761.35393     -14.611285      746.74265    
   3920000   289.93016      0.0073076404   3.9905296      719.32472     -13.040401      706.28431    
   3921000   298.18233      0.0073076404   4.0462957      739.79858     -13.952937      725.84565    
   3922000   304.44754      0.0073076404   4.5204677      755.34274     -16.453155      738.88959    
   3923000   303.81853      0.0073076404   3.6738385      753.78215     -12.060737      741.72141    
   3924000   297.95808      0.0073076404   3.4140726      739.24221     -14.03945       725.20276    
   3925000   316.32173      0.0073076404   3.3066818      784.80292     -12.101066      772.70186    
   3926000   300.94667      0.0073076404   5.562926       746.657       -13.259435      733.39756    
   3927000   305.65143      0.0073076404   4.2895213      758.32963     -12.646068      745.68356    
   3928000   292.28855      0.0073076404   3.4667016      725.17594     -11.42443       713.75151    
   3929000   295.34573      0.0073076404   4.5275349      732.76089     -12.93937       719.82152    
   3930000   301.389        0.0073076404   4.0690717      747.75441     -14.924018      732.8304     
   3931000   290.63587      0.0073076404   4.1173593      721.07561     -14.473976      706.60163    
   3932000   313.2262       0.0073076404   4.8845956      777.12282     -15.48917       761.63365    
   3933000   292.27825      0.0073076404   3.5872071      725.15041     -12.507472      712.64293    
   3934000   289.71684      0.0073076404   3.6350932      718.79547     -10.887065      707.9084     
   3935000   295.21842      0.0073076404   4.0584305      732.44504     -9.7720369      722.67301    
   3936000   326.6936       0.0073076404   3.984134       810.53583     -9.7995294      800.7363     
   3937000   304.73397      0.0073076404   5.1183747      756.05339     -8.4176223      747.63577    
   3938000   295.58699      0.0073076404   5.7413911      733.35947     -9.7174277      723.64204    
   3939000   296.04901      0.0073076404   2.6617282      734.50575     -10.120432      724.38532    
   3940000   307.94312      0.0073076404   3.1840886      764.01536     -7.8433638      756.172      
   3941000   304.01921      0.0073076404   4.6177669      754.28004     -8.6275551      745.65248    
   3942000   298.01473      0.0073076404   3.6336756      739.38277     -9.6688603      729.71391    
   3943000   295.84172      0.0073076404   5.964739       733.99146     -8.4564529      725.53501    
   3944000   305.71554      0.0073076404   3.4683705      758.48868     -9.5552571      748.93343    
   3945000   309.53897      0.0073076404   4.0786614      767.97471     -10.45823       757.51648    
   3946000   298.25112      0.0073076404   4.0422568      739.96926     -8.9200097      731.04925    
   3947000   298.87763      0.0073076404   3.8271079      741.52365     -12.025513      729.49814    
   3948000   306.26566      0.0073076404   3.8980487      759.85354     -13.289569      746.56397    
   3949000   297.81393      0.0073076404   4.8230208      738.88458     -9.8880685      728.99651    
   3950000   283.35235      0.0073076404   3.8266257      703.00499     -9.3114595      693.69353    
   3951000   297.44332      0.0073076404   1.9225809      737.96507     -10.61273       727.35234    
   3952000   300.03328      0.0073076404   4.7313823      744.39084     -10.157138      734.23371    
   3953000   297.05211      0.0073076404   5.0763775      736.99446     -9.8704402      727.12402    
   3954000   295.07451      0.0073076404   3.1650118      732.088       -9.6527187      722.43529    
   3955000   302.34767      0.0073076404   3.0997191      750.1329      -11.783261      738.34964    
   3956000   310.46722      0.0073076404   5.4170242      770.27772     -10.330614      759.94711    
   3957000   311.50812      0.0073076404   4.6955965      772.86022     -7.1562221      765.704      
   3958000   285.05315      0.0073076404   3.071058       707.22471     -6.2516055      700.97311    
   3959000   306.97714      0.0073076404   2.6717332      761.61875     -7.4375138      754.18123    
   3960000   307.80901      0.0073076404   5.0978991      763.68264     -8.3738783      755.30876    
   3961000   296.87588      0.0073076404   3.5207508      736.55725     -12.750816      723.80643    
   3962000   294.60216      0.0073076404   4.2088568      730.91607     -12.366721      718.54935    
   3963000   298.10861      0.0073076404   4.1847588      739.61567     -10.471016      729.14465    
   3964000   306.06775      0.0073076404   4.5672777      759.36252     -9.0650196      750.2975     
   3965000   292.41912      0.0073076404   3.9063652      725.4999      -12.981287      712.51861    
   3966000   297.28088      0.0073076404   1.7466662      737.56205     -12.226202      725.33584    
   3967000   309.57584      0.0073076404   5.9327765      768.0662      -10.431848      757.63435    
   3968000   307.89859      0.0073076404   5.6770939      763.9049      -12.26909       751.63581    
   3969000   295.5058       0.0073076404   3.2953674      733.15803     -14.620079      718.53795    
   3970000   301.11858      0.0073076404  -1.6720124      747.0835      -9.6597582      737.42375    
   3971000   307.33458      0.0073076404   4.0184546      762.50556     -10.75083       751.75473    
   3972000   291.44324      0.0073076404   11.187829      723.0787      -15.262777      707.81593    
   3973000   297.82908      0.0073076404   2.1953641      738.92215     -12.960851      725.9613     
   3974000   309.86703      0.0073076404   1.2060193      768.78865     -13.212825      755.57583    
   3975000   300.53514      0.0073076404   4.0347238      745.63595     -14.795368      730.84059    
   3976000   294.69195      0.0073076404   8.5188064      731.13885     -13.36454       717.77431    
   3977000   295.39381      0.0073076404   2.7586123      732.88017     -11.28576       721.59441    
   3978000   302.27578      0.0073076404   0.99898229     749.95453     -11.041526      738.91301    
   3979000   295.64366      0.0073076404   0.90199219     733.50006     -12.581756      720.91831    
   3980000   297.26817      0.0073076404   0.6930386      737.53053     -10.236947      727.29358    
   3981000   301.92685      0.0073076404   4.5208528      749.08883     -8.7921647      740.29666    
   3982000   297.91515      0.0073076404   9.7474958      739.13569     -10.109559      729.02613    
   3983000   305.76156      0.0073076404   1.6067988      758.60285     -11.992393      746.61046    
   3984000   298.26404      0.0073076404   4.9596227      740.0013      -9.2323843      730.76892    
   3985000   309.61555      0.0073076404   3.7492337      768.16472     -8.8147568      759.34997    
   3986000   300.68679      0.0073076404   11.296922      746.0122      -9.735122       736.27708    
   3987000   297.24442      0.0073076404   1.704243       737.4716      -12.013255      725.45835    
   3988000   304.95807      0.0073076404   1.754605       756.60939     -10.561391      746.048      
   3989000   310.01033      0.0073076404   8.7141622      769.14417     -14.80853       754.33564    
   3990000   297.78291      0.0073076404   4.2546554      738.80762     -10.608765      728.19885    
   3991000   295.48149      0.0073076404  -0.58538684     733.09772     -14.409375      718.68834    
   3992000   300.67979      0.0073076404   3.7376118      745.99486     -13.354855      732.64       
   3993000   301.7498       0.0073076404   8.4306889      748.64958     -14.07522       734.57436    
   3994000   290.05013      0.0073076404   4.4979286      719.62237     -16.571606      703.05076    
   3995000   307.67173      0.0073076404  -0.81499157     763.34203     -16.17579       747.16624    
   3996000   308.4565       0.0073076404   4.8899634      765.28907     -16.982243      748.30683    
   3997000   287.88554      0.0073076404   9.9597491      714.25195     -8.6564663      705.59549    
   3998000   299.6633       0.0073076404   2.8145827      743.4729      -11.906496      731.5664     
   3999000   298.02325      0.0073076404   2.7430083      739.40389     -13.165889      726.238      
   4000000   296.25454      0.0073076404   10.74019       735.01568     -12.011187      723.00449    
Loop time of 9791.68 on 1 procs for 4000000 steps with 1500 atoms

Performance: 8.824 ns/day, 2.720 hours/ns, 408.510 timesteps/s, 612.765 katom-step/s
100.0% CPU use with 1 MPI tasks x 1 OpenMP threads

MPI task timing breakdown:
Section |  min time  |  avg time  |  max time  |%varavg| %total
---------------------------------------------------------------
Pair    | 879.69     | 879.69     | 879.69     |   0.0 |  8.98
Bond    | 86.303     | 86.303     | 86.303     |   0.0 |  0.88
Kspace  | 8338.9     | 8338.9     | 8338.9     |   0.0 | 85.16
Neigh   | 0.030485   | 0.030485   | 0.030485   |   0.0 |  0.00
Comm    | 14.099     | 14.099     | 14.099     |   0.0 |  0.14
Output  | 0.076472   | 0.076472   | 0.076472   |   0.0 |  0.00
Modify  | 461.2      | 461.2      | 461.2      |   0.0 |  4.71
Other   |            | 11.41      |            |       |  0.12

Nlocal:           1500 ave        1500 max        1500 min
Histogram: 1 0 0 0 0 0 0 0 0 0
Nghost:            878 ave         878 max         878 min
Histogram: 1 0 0 0 0 0 0 0 0 0
Neighs:              0 ave           0 max           0 min
Histogram: 1 0 0 0 0 0 0 0 0 0

Total # of neighbors = 0
Ave neighs/atom = 0
Ave special neighs/atom = 2
Neighbor list builds = 19779
Dangerous builds = 0
write_data	last_conf.data pair ij
System init for write_data ...
PPPM initialization ...
  using 12-bit tables for long-range coulomb (src/kspace.cpp:342)
  G vector (1/distance) = 0.15557183
  grid = 32 32 32
  stencil order = 5
  estimated absolute RMS force accuracy = 0.035261612
  estimated relative force accuracy = 0.0001061893
  using double precision FFTW3
  3d grid and FFT values/proc = 50653 32768
Generated 1 of 1 mixed pair_coeff terms from arithmetic mixing rule
Total wall time: 2:43:11
