LAMMPS (29 Aug 2024 - Update 1)
  using 1 OpenMP thread(s) per MPI task
package gpu 1 gpuID 0
# GCMC for CO2 molecular fluid, rigid/small/nvt dynamics
# Rigid CO2 TraPPE model
# [Potoff and J.I. Siepmann, Vapor-liquid equilibria of
# mixtures containing alkanes, carbon dioxide and
# nitrogen AIChE J., 47,1676-1682 (2001)].

# global model settings

units           real
atom_style      full
boundary        p p p
pair_style      lj/cut/coul/long  12
pair_modify     mix arithmetic shift yes
kspace_style    pppm 1.0e-4
bond_style      harmonic
angle_style     harmonic
neigh_modify    one 4000

# box, start molecules on simple cubic lattice
region          mbox block 0 ${lbox} 0 ${lbox} 0 ${lbox} units box
region          mbox block 0 189 0 ${lbox} 0 ${lbox} units box
region          mbox block 0 189 0 189 0 ${lbox} units box
region          mbox block 0 189 0 189 0 189 units box
create_box      2 mbox                                       bond/types 1                                angle/types 1                               extra/bond/per/atom 2                       extra/angle/per/atom 1                      extra/special/per/atom 2
Created orthogonal box = (0 0 0) to (189 189 189)
  1 by 1 by 1 MPI processor grid
molecule        co2mol ../CO2.txt
Read molecule template co2mol:
# CO2 molecule file. TraPPE model.
  1 molecules
  0 fragments
  3 atoms with max type 2
  2 bonds with max type 1
  1 angles with max type 1
  0 dihedrals with max type 0
  0 impropers with max type 0
create_atoms   	0 random ${nmols} 34578 mbox mol co2mol 464563 overlap 1.2
create_atoms   	0 random 500 34578 mbox mol co2mol 464563 overlap 1.2
Created 1500 atoms
  using lattice units in orthogonal box = (0 0 0) to (189 189 189)
  create_atoms CPU = 0.013 seconds

# rigid CO2 TraPPE model

pair_coeff      1   1  0.053649   2.800
pair_coeff      2   2  0.156973   3.050
bond_coeff      1       0       1.16
angle_coeff     1       0       180

# masses

mass 1 12.0107
mass 2 15.9994

write_data init_conf.data  pair ij
System init for write_data ...
PPPM initialization ...
  using 12-bit tables for long-range coulomb (src/kspace.cpp:342)
  G vector (1/distance) = 0.15699891
  grid = 36 36 36
  stencil order = 5
  estimated absolute RMS force accuracy = 0.028458409
  estimated relative force accuracy = 8.5701652e-05
  using double precision FFTW3
  3d grid and FFT values/proc = 68921 46656
Generated 1 of 1 mixed pair_coeff terms from arithmetic mixing rule

# MD settings

group           co2 type 1 2
1500 atoms in group co2
velocity       	all create 300 54654
timestep        0.25

# rigid constraints with thermostat
fix             myrigidnvt co2 rigid/nvt molecule temp 300 300 $(100*dt)
fix             myrigidnvt co2 rigid/nvt molecule temp 300 300 25
  500 rigid bodies with 1500 atoms

thermo 1000
thermo_style custom step temp density press ke pe etotal


variable    mvol equal vol
variable    mden equal density
variable	mtmp equal temp
variable    mpre equal press

fix mydat all ave/time 1 4000 4000 v_mtmp v_mden v_mpre file statistics.dat ## every 1ps

run 4000000 ## 1ns

CITE-CITE-CITE-CITE-CITE-CITE-CITE-CITE-CITE-CITE-CITE-CITE-CITE

Your simulation uses code contributions which should be cited:

- GPU package (short-range, long-range and three-body potentials): doi:10.1016/j.cpc.2010.12.021, doi:10.1016/j.cpc.2011.10.012, doi:10.1016/j.cpc.2013.08.002, doi:10.1016/j.commatsci.2014.10.068, doi:10.1016/j.cpc.2016.10.020, doi:10.3233/APC200086

@Article{Brown11,
 author = {W. M. Brown and P. Wang and S. J. Plimpton and A. N. Tharrington},
 title = {Implementing Molecular Dynamics on Hybrid High Performance Computers---Short Range Forces},
 journal = {Comput.\ Phys.\ Commun.},
 year =    2011,
 volume =  182,
 pages =   {898--911},
 doi =     {10.1016/j.cpc.2010.12.021}
}

@Article{Brown12,
 author = {W. M. Brown and A. Kohlmeyer and S. J. Plimpton and A. N. Tharrington},
 title = {Implementing Molecular Dynamics on Hybrid High Performance Computers - Particle-Particle Particle-Mesh},
 journal = {Comput.\ Phys.\ Commun.},
 year =    2012,
 volume =  183,
 doi =     {10.1016/j.cpc.2011.10.012},
 pages =   {449--459}
}

@Article{Brown13,
 author = {W. M. Brown and Y. Masako},
 title = {Implementing Molecular Dynamics on Hybrid High Performance Computers---Three-Body Potentials},
 journal = {Comput.\ Phys.\ Commun.},
 year =    2013,
 volume =  184,
 pages =   {2785--2793},
 doi =     {10.1016/j.cpc.2013.08.002},
}

@Article{Trung15,
 author = {T. D. Nguyen and S. J. Plimpton},
 title = {Accelerating Dissipative Particle Dynamics Simulations for Soft Matter Systems},
 journal = {Comput.\ Mater.\ Sci.},
 year =    2015,
 doi =     {10.1016/j.commatsci.2014.10.068},
 volume =  100,
 pages =   {173--180}
}

@Article{Trung17,
 author = {T. D. Nguyen},
 title = {{GPU}-Accelerated {T}ersoff Potentials for Massively Parallel
    Molecular Dynamics Simulations},
 journal = {Comput.\ Phys.\ Commun.},
 year =    2017,
 doi =     {10.1016/j.cpc.2016.10.020},
 volume =  212,
 pages =   {113--122}
}

@inproceedings{Nikolskiy19,
 author = {V. Nikolskiy and V. Stegailov},
 title = {{GPU} Acceleration of Four-Site Water Models in {LAMMPS}},
 booktitle = {Proceedings of the International Conference on Parallel
    Computing (ParCo 2019), Prague, Czech Republic},
 doi =     {10.3233/APC200086},
 year =    2019
}

CITE-CITE-CITE-CITE-CITE-CITE-CITE-CITE-CITE-CITE-CITE-CITE-CITE

PPPM initialization ...
  using 12-bit tables for long-range coulomb (src/kspace.cpp:342)
  G vector (1/distance) = 0.15699891
  grid = 36 36 36
  stencil order = 5
  estimated absolute RMS force accuracy = 0.028458409
  estimated relative force accuracy = 8.5701652e-05
  using double precision FFTW3
  3d grid and FFT values/proc = 68921 46656
Generated 1 of 1 mixed pair_coeff terms from arithmetic mixing rule
Per MPI rank memory allocation (min/avg/max) = 14.01 | 14.01 | 14.01 Mbytes
   Step          Temp         Density         Press          KinEng         PotEng         TotEng    
         0   306.91746      0.0054122779   33.228834      761.47069      21502.729      22264.2      
      1000   315.64214      0.0054122779   5.7234664      783.11685     -4.6079518      778.5089     
      2000   303.96614      0.0054122779   1.8109818      754.14838     -8.1975986      745.95078    
      3000   301.84904      0.0054122779   0.33424513     748.89578     -10.024185      738.8716     
      4000   287.06528      0.0054122779   3.2157095      712.21687     -9.1574969      703.05938    
      5000   305.95733      0.0054122779   2.8255965      759.08858     -11.359291      747.72929    
      6000   315.10948      0.0054122779   3.3103957      781.79531     -10.820739      770.97457    
      7000   299.98779      0.0054122779   3.0224002      744.27797     -11.003299      733.27467    
      8000   300.25756      0.0054122779   2.8232572      744.94728     -11.026363      733.92092    
      9000   303.16864      0.0054122779   3.2762012      752.16974     -12.787323      739.38242    
     10000   302.94374      0.0054122779   3.7655149      751.61178     -13.952806      737.65897    
     11000   302.42993      0.0054122779   3.1328537      750.33699     -17.964192      732.3728     
     12000   306.51385      0.0054122779   2.7391058      760.4693      -22.122049      738.34725    
     13000   300.71499      0.0054122779   2.9983466      746.08218     -23.332231      722.74995    
     14000   304.17238      0.0054122779   4.0214351      754.66006     -25.209183      729.45088    
     15000   307.70537      0.0054122779   3.0250375      763.42551     -24.161523      739.26398    
     16000   300.51374      0.0054122779   1.1965956      745.58288     -26.655457      718.92743    
     17000   306.35335      0.0054122779   3.1873682      760.07111     -25.248727      734.82238    
     18000   298.47315      0.0054122779   5.819056       740.52012     -21.375385      719.14474    
     19000   313.83189      0.0054122779  -0.93830927     778.62557     -22.540421      756.08514    
     20000   294.53253      0.0054122779   2.7207917      730.74334     -23.680904      707.06243    
     21000   307.13405      0.0054122779   4.9430532      762.00805     -26.177326      735.83072    
     22000   303.53494      0.0054122779   1.9396772      753.07855     -26.002264      727.07628    
     23000   284.76215      0.0054122779   0.26759832     706.50275     -24.756433      681.74632    
     24000   290.64002      0.0054122779   4.9682741      721.08591     -25.80554       695.28037    
     25000   311.25784      0.0054122779   0.49377236     772.23929     -27.482621      744.75667    
     26000   297.85835      0.0054122779   2.8449315      738.99478     -25.843528      713.15125    
     27000   297.78683      0.0054122779   1.5117017      738.81734     -26.909828      711.90751    
     28000   305.48046      0.0054122779   3.0192089      757.90544     -28.981241      728.9242     
     29000   310.16548      0.0054122779   2.9767593      769.52911     -28.434379      741.09474    
     30000   300.3173       0.0054122779   2.8884678      745.09549     -30.152254      714.94324    
     31000   292.26867      0.0054122779   2.9559612      725.12662     -29.105957      696.02066    
     32000   296.28399      0.0054122779   3.1386541      735.08875     -34.020873      701.06788    
     33000   320.85722      0.0054122779   3.2201836      796.0556      -31.266229      764.78937    
     34000   297.63623      0.0054122779   2.55881        738.44368     -32.693825      705.74985    
     35000   287.96744      0.0054122779   3.0091644      714.45517     -32.551752      681.90342    
     36000   295.6984       0.0054122779   1.4539974      733.63588     -35.153595      698.48228    
     37000   305.96953      0.0054122779   3.8366425      759.11884     -36.288709      722.83013    
     38000   290.33454      0.0054122779   4.1600503      720.32799     -35.910435      684.41756    
     39000   295.43336      0.0054122779   2.743691       732.97832     -37.844752      695.13357    
     40000   310.23937      0.0054122779   3.4046956      769.71244     -40.064242      729.6482     
     41000   309.9365       0.0054122779   3.2223941      768.96099     -34.538613      734.42238    
     42000   307.48943      0.0054122779   0.28802205     762.88975     -34.615626      728.27412    
     43000   293.82047      0.0054122779   2.5901263      728.97668     -39.220686      689.75599    
     44000   301.50056      0.0054122779   2.7832195      748.0312      -38.46034       709.57086    
     45000   309.20238      0.0054122779   3.1524985      767.13962     -39.277693      727.86193    
     46000   299.56542      0.0054122779   2.4322452      743.23008     -37.508598      705.72148    
     47000   293.86914      0.0054122779   3.1771951      729.09745     -38.320343      690.7771     
     48000   303.77917      0.0054122779   5.2163279      753.68448     -38.299494      715.38499    
     49000   297.9381       0.0054122779  -2.473828       739.19265     -39.680018      699.51263    
     50000   291.1374       0.0054122779   4.8196414      722.31992     -45.026573      677.29335    
     51000   304.59646      0.0054122779   3.7067792      755.71221     -44.58859       711.12362    
     52000   302.00463      0.0054122779   2.6778913      749.28182     -46.518658      702.76316    
     53000   319.92392      0.0054122779  -0.035246005    793.74006     -52.206506      741.53355    
     54000   300.1786       0.0054122779   4.4631395      744.75139     -51.751752      692.99964    
     55000   289.57915      0.0054122779   3.788834       718.45386     -53.624477      664.82938    
     56000   304.47831      0.0054122779   1.4282909      755.41909     -56.13816       699.28093    
     57000   303.82459      0.0054122779   2.9847582      753.79719     -49.746362      704.05083    
     58000   318.74244      0.0054122779   4.7495444      790.80878     -53.194542      737.61423    
     59000   291.65253      0.0054122779   3.2817617      723.59796     -52.937121      670.66084    
     60000   297.95754      0.0054122779   2.9027342      739.24087     -49.737781      689.50309    
     61000   285.11001      0.0054122779   2.9481074      707.36579     -52.33495       655.03084    
     62000   318.28908      0.0054122779   2.4966013      789.68398     -52.68249       737.00149    
     63000   307.31302      0.0054122779   2.7117385      762.45207     -53.183227      709.26885    
     64000   299.23624      0.0054122779   2.4645774      742.41337     -53.266977      689.14639    
     65000   296.37637      0.0054122779   3.928168       735.31795     -50.108325      685.20962    
     66000   303.47021      0.0054122779   3.0547712      752.91795     -57.1895        695.72845    
     67000   304.32887      0.0054122779   2.8493913      755.04832     -47.657544      707.39078    
     68000   304.90055      0.0054122779   2.9184867      756.46666     -51.812011      704.65465    
     69000   294.7668       0.0054122779   4.3339362      731.32454     -52.46999       678.85455    
     70000   304.1403       0.0054122779   2.2231583      754.58046     -55.253373      699.32709    
     71000   299.92461      0.0054122779   3.4706177      744.12123     -58.149518      685.97171    
     72000   297.69753      0.0054122779   2.4686364      738.59579     -61.725191      676.8706     
     73000   312.24459      0.0054122779   2.9778783      774.68743     -57.395057      717.29238    
     74000   289.36284      0.0054122779   2.1314441      717.91717     -56.444851      661.47232    
     75000   296.00473      0.0054122779  -0.58796864     734.39588     -56.891548      677.50434    
     76000   299.15032      0.0054122779   6.0648638      742.20019     -54.404182      687.796      
     77000   310.10588      0.0054122779   3.0285876      769.38125     -55.163324      714.21792    
     78000   298.69212      0.0054122779   5.4112268      741.06339     -57.131287      683.9321     
     79000   300.38455      0.0054122779   2.512535       745.26235     -60.261872      685.00048    
     80000   303.3862       0.0054122779   2.505744       752.70952     -54.733608      697.97591    
     81000   296.60284      0.0054122779   6.3762247      735.87982     -57.803646      678.07617    
     82000   304.12481      0.0054122779   3.5831963      754.54203     -56.168997      698.37303    
     83000   291.23355      0.0054122779   2.7565005      722.55846     -56.446589      666.11187    
     84000   300.59222      0.0054122779   3.6214513      745.77759     -59.88108       685.89651    
     85000   305.59841      0.0054122779   3.7740163      758.19809     -57.947331      700.25076    
     86000   305.69782      0.0054122779   2.7315688      758.44472     -59.375756      699.06896    
     87000   301.21053      0.0054122779   0.34168192     747.31163     -63.139028      684.1726     
     88000   300.36669      0.0054122779   2.6358515      745.21803     -61.980617      683.23741    
     89000   292.32625      0.0054122779   6.4830097      725.26948     -57.98939       667.28009    
     90000   312.90026      0.0054122779   0.47926761     776.31418     -59.94387       716.37031    
     91000   306.08382      0.0054122779   4.656571       759.4024      -61.776196      697.6262     
     92000   294.94228      0.0054122779   3.6830204      731.75993     -60.63167       671.12826    
     93000   294.52911      0.0054122779  -0.19058947     730.73483     -58.471751      672.26308    
     94000   318.31016      0.0054122779  -3.2502327      789.73629     -58.791711      730.94458    
     95000   306.16343      0.0054122779   5.0002997      759.59991     -62.934691      696.66522    
     96000   282.93741      0.0054122779   1.8238181      701.97552     -61.29852       640.677      
     97000   306.23239      0.0054122779   1.1357315      759.77101     -60.680572      699.09044    
     98000   314.13152      0.0054122779   3.1935541      779.36897     -58.312416      721.05655    
     99000   294.71196      0.0054122779   2.951045       731.1885      -64.18182       667.00668    
    100000   290.10129      0.0054122779   2.6082569      719.74929     -61.975315      657.77397    
    101000   303.19956      0.0054122779   2.7966391      752.24646     -62.139965      690.1065     
    102000   295.96425      0.0054122779   6.0502241      734.29547     -64.164727      670.13075    
    103000   297.19282      0.0054122779   2.8970562      737.34359     -66.99458       670.34901    
    104000   304.50557      0.0054122779   2.5096027      755.4867      -61.759249      693.72746    
    105000   295.83158      0.0054122779   4.4200617      733.96632     -64.051169      669.91515    
    106000   303.15341      0.0054122779   3.2838936      752.13197     -62.960951      689.17101    
    107000   304.54059      0.0054122779   2.7875086      755.57359     -62.849197      692.72439    
    108000   297.0205       0.0054122779   3.5064579      736.91605     -58.910833      678.00521    
    109000   309.46279      0.0054122779   1.2736122      767.78572     -62.552917      705.2328     
    110000   290.85761      0.0054122779   1.1010004      721.62574     -61.288688      660.33706    
    111000   296.13852      0.0054122779   2.9066492      734.72783     -63.464083      671.26375    
    112000   317.95438      0.0054122779   4.761515       788.85359     -66.324436      722.52915    
    113000   303.89736      0.0054122779   3.9304975      753.97772     -69.815478      684.16224    
    114000   292.08936      0.0054122779  -2.1717923      724.68176     -69.563734      655.11803    
    115000   300.59836      0.0054122779   3.6759354      745.79282     -64.9925        680.80032    
    116000   305.52434      0.0054122779   3.0042188      758.0143      -65.948143      692.06616    
    117000   295.84959      0.0054122779   3.2854382      734.01098     -63.202545      670.80843    
    118000   297.58527      0.0054122779   3.2587593      738.31726     -61.294277      677.02298    
    119000   302.31571      0.0054122779   3.3631683      750.05361     -67.080157      682.97345    
    120000   301.82944      0.0054122779  -0.48298338     748.84717     -67.802138      681.04503    
    121000   299.89284      0.0054122779   4.7812377      744.04239     -67.038114      677.00428    
    122000   303.23531      0.0054122779   5.0532848      752.33516     -67.684292      684.65087    
    123000   301.62318      0.0054122779   3.7173536      748.33542     -69.716222      678.61919    
    124000   287.67456      0.0054122779   1.3047239      713.72852     -73.024938      640.70358    
    125000   296.01343      0.0054122779   3.9261864      734.41748     -71.998781      662.41869    
    126000   295.86382      0.0054122779   4.3718777      734.04628     -64.154217      669.89207    
    127000   299.92703      0.0054122779   3.0331916      744.12724     -64.044892      680.08234    
    128000   310.87843      0.0054122779   2.8324148      771.29796     -65.369676      705.92828    
    129000   298.63509      0.0054122779   2.3370729      740.92188     -67.011398      673.91048    
    130000   289.24518      0.0054122779   2.875953       717.62525     -66.950246      650.67501    
    131000   301.14257      0.0054122779   3.1315442      747.14302     -68.904039      678.23898    
    132000   304.50175      0.0054122779   3.8364557      755.47724     -70.917019      684.56023    
    133000   283.88247      0.0054122779   2.1688206      704.32023     -64.486843      639.83339    
    134000   298.60428      0.0054122779   2.7620662      740.84545     -67.732439      673.11301    
    135000   305.95809      0.0054122779   4.2464782      759.09046     -68.104679      690.98578    
    136000   299.16613      0.0054122779   2.9610101      742.23941     -62.633638      679.60577    
    137000   304.75319      0.0054122779   1.9023259      756.10106     -66.103536      689.99753    
    138000   308.07121      0.0054122779   6.8161143      764.33317     -67.776169      696.557      
    139000   287.54437      0.0054122779   2.9210398      713.4055      -67.079123      646.32638    
    140000   306.82407      0.0054122779   2.0245502      761.23897     -66.046198      695.19278    
    141000   313.16105      0.0054122779   3.2960382      776.96119     -67.265726      709.69546    
    142000   279.98902      0.0054122779   3.1640273      694.66047     -64.260896      630.39957    
    143000   296.51473      0.0054122779   1.5974631      735.66122     -70.205533      665.45568    
    144000   316.59905      0.0054122779   3.1250421      785.49097     -71.470795      714.02018    
    145000   304.24678      0.0054122779   3.2138095      754.84465     -68.571007      686.27364    
    146000   286.06604      0.0054122779   2.7118438      709.73773     -72.557933      637.1798     
    147000   296.56386      0.0054122779   2.5971508      735.78311     -69.522088      666.26102    
    148000   320.68058      0.0054122779   2.5344742      795.61735     -69.009433      726.60791    
    149000   309.26609      0.0054122779   3.2958412      767.29769     -71.335335      695.96235    
    150000   290.9955       0.0054122779   2.5046075      721.96786     -69.619885      652.34797    
    151000   295.59594      0.0054122779   1.943407       733.38168     -67.692932      665.68875    
    152000   311.26279      0.0054122779   3.0171171      772.25157     -69.03259       703.21898    
    153000   292.95796      0.0054122779   1.9600042      726.83678     -67.215671      659.6211     
    154000   302.97771      0.0054122779   1.0305088      751.69604     -66.198444      685.49759    
    155000   299.26089      0.0054122779   3.0860281      742.47452     -68.633602      673.84092    
    156000   306.49417      0.0054122779   3.3953815      760.42049     -71.205548      689.21494    
    157000   291.49437      0.0054122779   2.3623298      723.20556     -66.913513      656.29204    
    158000   289.79948      0.0054122779   4.3992645      719.00051     -59.812118      659.18839    
    159000   296.78449      0.0054122779   3.2481989      736.3305      -64.210396      672.1201     
    160000   294.24441      0.0054122779   2.2433216      730.02849     -68.098742      661.92975    
    161000   293.41516      0.0054122779   6.1665259      727.97109     -70.168908      657.80218    
    162000   316.34362      0.0054122779   3.7331694      784.85723     -63.699744      721.15749    
    163000   303.8804       0.0054122779   2.5711019      753.93564     -66.985958      686.94968    
    164000   289.08595      0.0054122779   0.89987127     717.23021     -69.229608      648.00061    
    165000   294.15615      0.0054122779   2.1476202      729.80953     -66.050475      663.75905    
    166000   318.51548      0.0054122779   3.153748       790.24567     -70.079654      720.16602    
    167000   301.60009      0.0054122779   3.8803662      748.27813     -67.772745      680.50538    
    168000   289.01515      0.0054122779   2.7599836      717.05455     -67.644446      649.4101     
    169000   300.34056      0.0054122779   2.4996477      745.1532      -64.124375      681.02882    
    170000   320.01881      0.0054122779   3.2443286      793.97549     -63.105971      730.86952    
    171000   309.38758      0.0054122779   3.0490848      767.59912     -64.298433      703.30069    
    172000   292.06753      0.0054122779   3.8323969      724.6276      -67.570382      657.05722    
    173000   282.63316      0.0054122779   4.8240696      701.22066     -67.495029      633.72563    
    174000   306.94003      0.0054122779   1.0611871      761.52666     -70.83782       690.68884    
    175000   306.79829      0.0054122779   6.5162192      761.17502     -69.246384      691.92863    
    176000   290.42564      0.0054122779   2.0727689      720.55402     -62.663693      657.89033    
    177000   297.40037      0.0054122779   1.3512915      737.8585      -66.199441      671.65906    
    178000   309.93753      0.0054122779   3.239661       768.96354     -71.007669      697.95588    
    179000   303.91332      0.0054122779   8.3686752      754.01733     -68.501224      685.51611    
    180000   290.64477      0.0054122779   1.7276506      721.09769     -68.247307      652.85038    
    181000   304.42463      0.0054122779   2.3866205      755.28589     -71.632663      683.65323    
    182000   298.60785      0.0054122779   4.3290203      740.8543      -67.173936      673.68037    
    183000   299.68942      0.0054122779   3.0185579      743.53771     -63.343669      680.19405    
    184000   273.66321      0.0054122779   3.8750118      678.96598     -50.838135      628.12784    
    185000   312.94769      0.0054122779   4.3046935      776.43186     -66.234082      710.19777    
    186000   303.52854      0.0054122779   3.1988642      753.06267     -68.361333      684.70133    
    187000   292.81913      0.0054122779   2.8552168      726.49234     -65.905872      660.58647    
    188000   312.11411      0.0054122779   4.9178027      774.3637      -62.756509      711.60719    
    189000   310.52936      0.0054122779   1.1785597      770.43191     -65.821876      704.61003    
    190000   286.4842       0.0054122779   2.0375324      710.7752      -62.798999      647.9762     
    191000   287.16072      0.0054122779   2.2915509      712.45365     -66.636752      645.8169     
    192000   302.47156      0.0054122779   4.0856409      750.44029     -69.582385      680.8579     
    193000   307.22542      0.0054122779   2.9017772      762.23473     -65.364918      696.86981    
    194000   290.57142      0.0054122779   8.6025935      720.91571     -65.299126      655.61659    
    195000   299.16987      0.0054122779   1.5991943      742.24869     -70.873769      671.37492    
    196000   311.27037      0.0054122779  -1.6204568      772.27038     -69.701419      702.56896    
    197000   311.5639       0.0054122779   3.9816079      772.99864     -71.237577      701.76106    
    198000   286.95968      0.0054122779   8.8406646      711.95488     -72.106441      639.84843    
    199000   296.15133      0.0054122779   1.0655483      734.75963     -71.918203      662.84142    
    200000   305.53908      0.0054122779   1.2028021      758.05089     -68.968633      689.08225    
    201000   305.05067      0.0054122779   5.754272       756.83912     -69.347999      687.49112    
    202000   302.73296      0.0054122779   3.0955344      751.08881     -64.99615       686.09266    
    203000   307.07875      0.0054122779   1.6619246      761.87085     -64.626834      697.24402    
    204000   302.70436      0.0054122779   2.7867425      751.01787     -63.490275      687.5276     
    205000   297.74804      0.0054122779   3.6641825      738.72109     -62.009718      676.71137    
    206000   295.30247      0.0054122779   1.3189268      732.65357     -59.144194      673.50938    
    207000   305.47692      0.0054122779   2.818174       757.89666     -63.219356      694.6773     
    208000   307.71842      0.0054122779   3.8174108      763.45787     -65.98959       697.46828    
    209000   277.64443      0.0054122779   3.5942691      688.84348     -70.633772      618.20971    
    210000   297.91465      0.0054122779   1.7548227      739.13445     -69.100162      670.03429    
    211000   308.39682      0.0054122779   2.9090206      765.14101     -66.33969       698.80132    
    212000   305.74206      0.0054122779   3.6143993      758.55447     -63.312488      695.24198    
    213000   296.71905      0.0054122779   2.6787962      736.16814     -68.176185      667.99196    
    214000   293.22385      0.0054122779   2.7121041      727.49646     -71.841617      655.65484    
    215000   303.06926      0.0054122779   3.1561642      751.92319     -67.877683      684.04551    
    216000   301.94591      0.0054122779   2.1055756      749.13612     -66.507442      682.62868    
    217000   294.18404      0.0054122779   1.4891764      729.87872     -69.441918      660.4368     
    218000   298.45042      0.0054122779   3.3777404      740.46372     -68.778339      671.68538    
    219000   311.20316      0.0054122779   3.0055877      772.10363     -68.194176      703.90945    
    220000   298.46768      0.0054122779   2.4971049      740.50653     -67.518629      672.9879     
    221000   299.81806      0.0054122779   3.7918792      743.85687     -66.450139      677.40673    
    222000   297.80974      0.0054122779   3.5766179      738.87416     -68.515672      670.35849    
    223000   293.59143      0.0054122779   0.80837232     728.40844     -67.136788      661.27165    
    224000   290.95792      0.0054122779   4.1818481      721.87463     -67.420357      654.45427    
    225000   301.18062      0.0054122779   5.0711745      747.23742     -69.275686      677.96174    
    226000   298.68596      0.0054122779   2.2530916      741.0481      -64.328621      676.71948    
    227000   296.04792      0.0054122779   2.9734478      734.50304     -61.828742      672.6743     
    228000   303.7724       0.0054122779   4.4061266      753.6677      -61.840885      691.82682    
    229000   302.0958       0.0054122779   2.4796034      749.508       -62.299565      687.20844    
    230000   295.99089      0.0054122779   2.4144573      734.36156     -60.83887       673.52269    
    231000   292.18629      0.0054122779   0.10935842     724.92224     -60.614661      664.30758    
    232000   289.91586      0.0054122779  -1.5340561      719.28923     -66.599542      652.68969    
    233000   307.47558      0.0054122779   5.0455861      762.8554      -68.956888      693.89851    
    234000   310.9264       0.0054122779   1.1991493      771.41698     -63.185832      708.23115    
    235000   297.40517      0.0054122779   3.1873905      737.87042     -62.466823      675.4036     
    236000   288.98039      0.0054122779   2.3639716      716.96832     -64.623127      652.34519    
    237000   310.79117      0.0054122779   3.2062478      771.08146     -63.844624      707.23684    
    238000   320.21682      0.0054122779   4.3494068      794.46677     -62.026517      732.44025    
    239000   297.01707      0.0054122779   4.0632548      736.90754     -65.089551      671.81799    
    240000   294.97236      0.0054122779  -2.7630446      731.83454     -66.321757      665.51279    
    241000   307.85802      0.0054122779   3.150416       763.80425     -70.181828      693.62242    
    242000   297.86703      0.0054122779   5.1414877      739.01631     -69.503374      669.51293    
    243000   295.64505      0.0054122779   1.5613961      733.50351     -66.241701      667.26181    
    244000   321.64256      0.0054122779   0.076782132    798.00406     -67.813355      730.19071    
    245000   305.07861      0.0054122779   3.3719217      756.90845     -62.74954       694.15891    
    246000   284.65185      0.0054122779   3.9656003      706.22908     -63.856168      642.37291    
    247000   294.24753      0.0054122779   3.1150417      730.03624     -62.998563      667.03767    
    248000   305.55045      0.0054122779   2.1065203      758.07909     -61.706923      696.37216    
    249000   303.08325      0.0054122779   1.7219884      751.9579      -64.016325      687.94158    
    250000   300.26308      0.0054122779   5.2268629      744.96099     -64.177781      680.7832     
    251000   282.11854      0.0054122779   3.4636664      699.94387     -65.193018      634.75085    
    252000   296.65107      0.0054122779   1.1407559      735.99947     -65.509411      670.49006    
    253000   309.45534      0.0054122779   0.16228297     767.76724     -66.459687      701.30755    
    254000   310.70505      0.0054122779   3.6622876      770.86781     -65.051684      705.81612    
    255000   293.12341      0.0054122779   3.109324       727.24725     -58.645193      668.60205    
    256000   301.82458      0.0054122779   2.8466985      748.8351      -63.274225      685.56088    
    257000   308.24055      0.0054122779   3.0291471      764.75329     -61.718227      703.03506    
    258000   305.1028       0.0054122779   3.1818354      756.96846     -59.309636      697.65883    
    259000   284.82631      0.0054122779   3.6142337      706.66193     -60.777427      645.8845     
    260000   296.51097      0.0054122779   2.2520731      735.6519      -61.317926      674.33398    
    261000   309.77055      0.0054122779   2.7492444      768.54927     -60.942989      707.60628    
    262000   306.25826      0.0054122779   3.0077018      759.83519     -58.624444      701.21075    
    263000   295.91388      0.0054122779   4.3968319      734.1705      -58.654267      675.51623    
    264000   293.38881      0.0054122779   2.8622733      727.90571     -61.027417      666.8783     
    265000   292.78573      0.0054122779   3.7436111      726.40946     -56.397869      670.01159    
    266000   296.71268      0.0054122779   2.4400672      736.15235     -54.613795      681.53855    
    267000   305.64502      0.0054122779   2.6166155      758.31372     -53.282732      705.03098    
    268000   288.23591      0.0054122779   6.4056559      715.12124     -57.072781      658.04846    
    269000   292.6793       0.0054122779   2.3960713      726.1454      -54.443201      671.7022     
    270000   326.74611      0.0054122779   2.4358234      810.66612     -60.112219      750.5539     
    271000   292.00288      0.0054122779   3.3521557      724.4672      -60.313797      664.15341    
    272000   299.89588      0.0054122779   2.4614416      744.04994     -60.864788      683.18515    
    273000   304.4886       0.0054122779   4.0060687      755.44461     -62.35155       693.09306    
    274000   285.91992      0.0054122779   3.0106578      709.37521     -60.155279      649.21993    
    275000   297.8887       0.0054122779   2.8152217      739.07007     -59.728793      679.34128    
    276000   304.37828      0.0054122779   1.9373453      755.17089     -63.029415      692.14148    
    277000   311.23048      0.0054122779   3.3041429      772.17139     -60.5088        711.66259    
    278000   296.32131      0.0054122779   2.6919411      735.18133     -64.405903      670.77543    
    279000   295.12041      0.0054122779   2.3710276      732.20187     -60.402617      671.79925    
    280000   305.13895      0.0054122779   3.7265778      757.05814     -60.773279      696.28486    
    281000   304.02386      0.0054122779   3.5492793      754.29157     -62.760594      691.53098    
    282000   305.12315      0.0054122779   2.6494369      757.01895     -61.202321      695.81662    
    283000   301.82686      0.0054122779   2.5439957      748.84075     -61.760612      687.08014    
    284000   293.4695       0.0054122779   4.5718406      728.10591     -64.47178       663.63413    
    285000   299.53998      0.0054122779   2.5335953      743.16696     -62.412266      680.75469    
    286000   293.892        0.0054122779   2.8211505      729.15416     -66.212319      662.94184    
    287000   313.72786      0.0054122779   1.3854461      778.36747     -64.348216      714.01926    
    288000   302.98375      0.0054122779   2.9778246      751.71105     -62.760214      688.95083    
    289000   295.90624      0.0054122779   2.647028       734.15153     -64.735526      669.416      
    290000   312.42918      0.0054122779   1.9784466      775.14542     -65.944573      709.20084    
    291000   287.24592      0.0054122779   1.2152076      712.66503     -67.20322       645.46181    
    292000   296.82109      0.0054122779   2.3159477      736.42131     -68.074858      668.34645    
    293000   300.66703      0.0054122779   2.7519406      745.96319     -65.775074      680.18811    
    294000   297.26784      0.0054122779   2.8889047      737.52972     -66.103962      671.42575    
    295000   304.7424       0.0054122779   2.1557335      756.0743      -63.183444      692.89086    
    296000   289.9471       0.0054122779   1.9794202      719.36674     -63.858524      655.50822    
    297000   297.11682      0.0054122779   1.9028037      737.15503     -59.885098      677.26993    
    298000   312.22677      0.0054122779   0.81172589     774.64323     -62.44748       712.19575    
    299000   298.34322      0.0054122779   6.5717484      740.19776     -61.415066      678.7827     
    300000   302.67174      0.0054122779   2.6442728      750.93692     -63.270044      687.66687    
    301000   311.90295      0.0054122779   2.4701295      773.83981     -68.380909      705.4589     
    302000   298.10937      0.0054122779   3.5617715      739.61756     -65.814289      673.80327    
    303000   285.89009      0.0054122779   3.9268915      709.3012      -65.484744      643.81646    
    304000   301.32467      0.0054122779   0.7374753      747.59481     -61.719632      685.87517    
    305000   309.78975      0.0054122779   2.8391754      768.59692     -62.776124      705.82079    
    306000   294.9854       0.0054122779   2.7348546      731.86691     -64.785337      667.08158    
    307000   286.81689      0.0054122779   2.6772389      711.60061     -62.087099      649.51351    
    308000   308.92372      0.0054122779   2.6207033      766.44826     -64.524327      701.92394    
    309000   291.12131      0.0054122779   3.2456898      722.27998     -65.171724      657.10826    
    310000   298.26291      0.0054122779   2.1608497      739.99849     -62.554634      677.44386    
    311000   314.31029      0.0054122779   3.5083248      779.8125      -65.021498      714.79101    
    312000   296.61115      0.0054122779   3.1731358      735.90044     -61.924572      673.97587    
    313000   296.59246      0.0054122779   2.7569858      735.85407     -63.504607      672.34946    
    314000   285.9638       0.0054122779   4.5390412      709.48407     -65.355991      644.12808    
    315000   303.0397       0.0054122779   3.0004491      751.84985     -64.456817      687.39304    
    316000   304.49452      0.0054122779   3.1196262      755.45929     -61.379537      694.07975    
    317000   301.66833      0.0054122779   3.0496527      748.44743     -60.942434      687.505      
    318000   291.80851      0.0054122779   3.4485126      723.98496     -59.886912      664.09805    
    319000   309.12769      0.0054122779   2.6137184      766.95431     -59.492577      707.46173    
    320000   305.653        0.0054122779   3.0556366      758.33353     -57.661718      700.67181    
    321000   292.93207      0.0054122779   2.6400412      726.77253     -60.044774      666.72775    
    322000   295.73988      0.0054122779   2.8738773      733.7388      -64.037571      669.70123    
    323000   315.40462      0.0054122779   3.0568705      782.52756     -60.676412      721.85115    
    324000   296.19003      0.0054122779   6.8441047      734.85564     -62.293395      672.56224    
    325000   293.19682      0.0054122779   2.8025908      727.42939     -62.246849      665.18254    
    326000   301.77979      0.0054122779   0.25906671     748.72398     -62.02647       686.69751    
    327000   304.09193      0.0054122779   2.1307532      754.46045     -61.352272      693.10818    
    328000   296.85287      0.0054122779   3.5707066      736.50016     -57.84506       678.6551     
    329000   288.38903      0.0054122779   3.10388        715.50112     -60.209825      655.2913     
    330000   301.7961       0.0054122779   3.2381453      748.76443     -63.451583      685.31285    
    331000   293.9556       0.0054122779   4.5590165      729.31195     -62.726599      666.58535    
    332000   305.46594      0.0054122779   0.10827749     757.86942     -60.153519      697.7159     
    333000   299.99028      0.0054122779   4.8972227      744.28416     -64.397497      679.88666    
    334000   299.44324      0.0054122779   5.4757914      742.92694     -63.291855      679.63509    
    335000   303.95596      0.0054122779  -1.198549       754.12311     -57.012734      697.11038    
    336000   304.94233      0.0054122779  -0.70016202     756.57032     -59.347549      697.22277    
    337000   309.34191      0.0054122779   0.44259191     767.48581     -64.241849      703.24396    
    338000   294.67647      0.0054122779   5.8904367      731.10045     -63.656514      667.44394    
    339000   305.7238       0.0054122779   0.87499466     758.50919     -64.802735      693.70645    
    340000   305.11791      0.0054122779   0.71772659     757.00595     -63.7237        693.28225    
    341000   293.039        0.0054122779   9.5602296      727.03785     -60.919899      666.11795    
    342000   295.47715      0.0054122779   5.3140143      733.08695     -61.16451       671.92244    
    343000   307.1307       0.0054122779  -0.24564153     761.99973     -67.343358      694.65637    
    344000   289.1888       0.0054122779   1.4348619      717.48538     -65.580936      651.90445    
    345000   312.9761       0.0054122779   8.514413       776.50233     -64.130545      712.37179    
    346000   307.06732      0.0054122779   3.9587216      761.84248     -63.419842      698.42263    
    347000   293.18348      0.0054122779   1.7904637      727.3963      -67.580584      659.81571    
    348000   313.07198      0.0054122779   1.6000035      776.74021     -64.268034      712.47218    
    349000   312.30399      0.0054122779   3.2575565      774.8348      -62.934423      711.90038    
    350000   296.78581      0.0054122779   2.9079473      736.33376     -62.614416      673.71935    
    351000   295.23946      0.0054122779   2.6678398      732.49723     -59.238035      673.2592     
    352000   299.37246      0.0054122779   3.6362524      742.75134     -64.475308      678.27603    
    353000   315.96438      0.0054122779   5.783499       783.91633     -66.620128      717.2962     
    354000   301.98619      0.0054122779   2.6484125      749.23606     -63.361627      685.87443    
    355000   305.50867      0.0054122779   0.15566196     757.97543     -62.703501      695.27193    
    356000   296.85567      0.0054122779   3.1696121      736.50711     -63.883056      672.62405    
    357000   304.58384      0.0054122779   3.3771731      755.68089     -64.522709      691.15818    
    358000   303.21453      0.0054122779   3.4058482      752.28361     -66.762201      685.52141    
    359000   293.86011      0.0054122779   2.557858       729.07502     -65.50953       663.56549    
    360000   294.19406      0.0054122779   2.1540892      729.90357     -66.668982      663.23459    
    361000   296.55457      0.0054122779   2.6352151      735.76007     -65.27834       670.48173    
    362000   299.58506      0.0054122779   3.2068391      743.27879     -64.487914      678.79087    
    363000   307.27558      0.0054122779   2.1254403      762.35918     -63.917327      698.44186    
    364000   313.09641      0.0054122779   2.6169214      776.80083     -60.055924      716.74491    
    365000   303.89463      0.0054122779   3.0469287      753.97094     -61.368565      692.60238    
    366000   296.92335      0.0054122779   3.2508384      736.67501     -59.422267      677.25274    
    367000   301.39848      0.0054122779   2.8532623      747.77794     -59.045174      688.73277    
    368000   296.77357      0.0054122779   1.4216051      736.30342     -62.046053      674.25736    
    369000   287.24027      0.0054122779   2.8340268      712.65103     -64.695814      647.95522    
    370000   294.92721      0.0054122779   3.3759364      731.72253     -67.867019      663.85552    
    371000   310.43495      0.0054122779   2.9402359      770.19767     -66.051403      704.14627    
    372000   302.47338      0.0054122779   1.4303089      750.44479     -60.862254      689.58254    
    373000   276.38597      0.0054122779   6.6857301      685.72122     -64.659038      621.06218    
    374000   304.23385      0.0054122779   3.0492514      754.81256     -65.429975      689.38259    
    375000   305.05299      0.0054122779  -0.27000824     756.84488     -65.062012      691.78286    
    376000   286.74749      0.0054122779   3.2693712      711.42842     -63.340973      648.08744    
    377000   301.77218      0.0054122779   8.9001455      748.70511     -57.521765      691.18334    
    378000   308.99855      0.0054122779   1.2856669      766.63392     -55.948175      710.68574    
    379000   301.91639      0.0054122779  -4.291089       749.06288     -56.9031        692.15978    
    380000   285.99592      0.0054122779   6.8443367      709.56377     -60.884861      648.67891    
    381000   309.46109      0.0054122779   5.0364748      767.7815      -64.237629      703.54387    
    382000   310.96353      0.0054122779   2.174727       771.5091      -57.334479      714.17462    
    383000   294.92729      0.0054122779   1.8523002      731.72273     -60.657124      671.06561    
    384000   297.29702      0.0054122779   2.9135812      737.60209     -56.782279      680.81981    
    385000   303.991        0.0054122779   2.3160229      754.21004     -60.261154      693.94889    
    386000   323.76171      0.0054122779   3.0130815      803.26173     -61.573593      741.68813    
    387000   299.65911      0.0054122779   1.2029187      743.46251     -58.204476      685.25803    
    388000   290.01797      0.0054122779   2.9067276      719.54257     -59.767236      659.77534    
    389000   304.1353       0.0054122779   2.5381697      754.56807     -64.512307      690.05576    
    390000   301.36732      0.0054122779   4.2257783      747.70063     -65.631982      682.06865    
    391000   296.84813      0.0054122779   3.3737457      736.48838     -63.308365      673.18002    
    392000   299.95981      0.0054122779   2.6063335      744.20856     -66.122493      678.08607    
    393000   292.7296       0.0054122779   3.0114747      726.2702      -62.159834      664.11036    
    394000   313.53811      0.0054122779   2.7065801      777.8967      -64.633679      713.26302    
    395000   293.98586      0.0054122779   2.836088       729.38702     -64.435053      664.95197    
    396000   287.74197      0.0054122779   2.5260449      713.89576     -60.697129      653.19863    
    397000   309.84005      0.0054122779   3.363152       768.7217      -59.141701      709.58       
    398000   307.44732      0.0054122779   5.1402829      762.78529     -64.202343      698.58294    
    399000   288.66135      0.0054122779   6.2669382      716.17677     -60.308927      655.86784    
    400000   301.70542      0.0054122779   2.3692417      748.53947     -57.403451      691.13602    
    401000   305.73508      0.0054122779   1.7990291      758.53716     -58.654484      699.88268    
    402000   302.4967       0.0054122779   7.9071442      750.50264     -60.309701      690.19294    
    403000   297.00805      0.0054122779   1.8421725      736.88516     -58.058696      678.82647    
    404000   309.40772      0.0054122779  -0.26251714     767.64908     -57.232819      710.41626    
    405000   299.22513      0.0054122779   5.5058899      742.38578     -56.945634      685.44015    
    406000   293.82877      0.0054122779  -3.7485149      728.99727     -62.987636      666.00963    
    407000   301.83868      0.0054122779   0.75571553     748.87008     -62.376374      686.49371    
    408000   300.59748      0.0054122779   7.0575711      745.79064     -57.880112      687.91053    
    409000   296.46267      0.0054122779   3.3650794      735.53205     -61.950748      673.5813     
    410000   296.29465      0.0054122779   3.0693998      735.1152      -59.657181      675.45802    
    411000   311.11844      0.0054122779  -2.1059342      771.89342     -59.108307      712.78512    
    412000   298.50755      0.0054122779   4.3923564      740.60546     -57.28379       683.32167    
    413000   285.07109      0.0054122779   1.8990929      707.26924     -59.500131      647.76911    
    414000   305.31111      0.0054122779   2.4184837      757.48528     -60.916276      696.56901    
    415000   303.97813      0.0054122779   3.1250056      754.17811     -60.560125      693.61799    
    416000   298.62986      0.0054122779   3.9852009      740.90891     -62.81943       678.08948    
    417000   293.35369      0.0054122779   1.9630051      727.81859     -61.522543      666.29605    
    418000   307.56436      0.0054122779   0.0025144277   763.07566     -60.323383      702.75228    
    419000   303.11133      0.0054122779   3.3790065      752.02756     -58.470254      693.55731    
    420000   294.75683      0.0054122779   2.857471       731.29982     -59.036973      672.26285    
    421000   293.30668      0.0054122779   2.5076569      727.70195     -59.322137      668.37982    
    422000   293.50449      0.0054122779   2.9713146      728.19272     -58.633309      669.55941    
    423000   297.81351      0.0054122779   2.6780623      738.88353     -59.116738      679.76679    
    424000   303.20145      0.0054122779   2.1849025      752.25115     -59.95729       692.29386    
    425000   291.82311      0.0054122779   2.8814232      724.02117     -63.000141      661.02103    
    426000   286.41293      0.0054122779   2.7703104      710.59839     -62.440393      648.15799    
    427000   293.18841      0.0054122779   2.7060919      727.40853     -60.08808       667.32045    
    428000   312.20988      0.0054122779   3.6135683      774.60131     -58.789475      715.81183    
    429000   305.23731      0.0054122779   4.3924976      757.30217     -60.01215       697.29002    
    430000   285.1139       0.0054122779   2.5524144      707.37545     -55.825214      651.55023    
    431000   299.75737      0.0054122779   1.2104164      743.70629     -61.548931      682.15736    
    432000   295.32083      0.0054122779   3.6697811      732.69913     -60.695355      672.00377    
    433000   304.36267      0.0054122779   5.1523424      755.13218     -63.764559      691.36762    
    434000   304.81863      0.0054122779   1.3788129      756.26343     -68.990585      687.27285    
    435000   309.56728      0.0054122779  -1.3120652      768.04495     -64.762423      703.28253    
    436000   291.72427      0.0054122779   4.5186562      723.77596     -61.294207      662.48176    
    437000   298.87996      0.0054122779   2.2359864      741.52943     -60.268089      681.26134    
    438000   315.60999      0.0054122779   2.8230882      783.03709     -64.221831      718.81526    
    439000   296.72094      0.0054122779   3.8342767      736.17283     -61.224303      674.94853    
    440000   295.66303      0.0054122779   0.88990157     733.54812     -61.503449      672.04467    
    441000   301.5253       0.0054122779   2.4956174      748.09259     -63.598732      684.49385    
    442000   303.2504       0.0054122779   9.0396242      752.3726      -64.986724      687.38588    
    443000   298.23685      0.0054122779   1.163095       739.93385     -62.682973      677.25088    
    444000   298.40002      0.0054122779   1.8291384      740.33867     -64.880976      675.4577     
    445000   303.63752      0.0054122779   3.2433194      753.33307     -64.095022      689.23805    
    446000   288.59804      0.0054122779   4.009731       716.01969     -61.899767      654.11992    
    447000   295.80343      0.0054122779   0.035340208    733.89647     -66.35441       667.54206    
    448000   307.13254      0.0054122779   1.9202446      762.00429     -68.086414      693.91788    
    449000   305.4401       0.0054122779   4.3067008      757.80532     -59.516583      698.28873    
    450000   300.76232      0.0054122779   5.2086233      746.19962     -59.052682      687.14694    
    451000   305.26888      0.0054122779   4.5325707      757.38051     -58.910062      698.47044    
    452000   291.92594      0.0054122779   0.94657053     724.27631     -60.424089      663.85222    
    453000   296.04511      0.0054122779  -0.35819614     734.49608     -62.410952      672.08513    
    454000   306.34558      0.0054122779  -6.3593907      760.05182     -63.036792      697.01502    
    455000   299.5457       0.0054122779   2.5245059      743.18114     -59.704402      683.47674    
    456000   300.52015      0.0054122779   4.2572525      745.59879     -59.150667      686.44812    
    457000   300.59936      0.0054122779   3.8759188      745.79529     -60.822553      684.97274    
    458000   289.72794      0.0054122779   0.70194146     718.823       -56.635236      662.18777    
    459000   290.67877      0.0054122779   4.3605182      721.18203     -58.981337      662.20069    
    460000   285.85028      0.0054122779  -2.5233568      709.20243     -57.182503      652.01992    
    461000   300.43613      0.0054122779   1.5442427      745.39033     -53.875726      691.51461    
    462000   309.57896      0.0054122779   2.5529514      768.07393     -51.476825      716.5971     
    463000   302.9327       0.0054122779   2.8923251      751.58438     -56.491017      695.09336    
    464000   293.67661      0.0054122779   2.1350604      728.61977     -55.942832      672.67694    
    465000   306.0971       0.0054122779   3.0397912      759.43534     -56.903283      702.53206    
    466000   302.77611      0.0054122779   3.5930245      751.19588     -57.337583      693.8583     
    467000   286.15658      0.0054122779   2.7261014      709.96236     -58.692099      651.27026    
    468000   306.94225      0.0054122779   2.9241627      761.5322      -57.111552      704.42064    
    469000   308.94863      0.0054122779   3.5840854      766.51008     -55.828938      710.68114    
    470000   279.14881      0.0054122779   2.7636113      692.5759      -54.243345      638.33256    
    471000   298.9417       0.0054122779   1.6555812      741.6826      -53.399669      688.28293    
    472000   302.45604      0.0054122779   2.5331512      750.40177     -54.112606      696.28916    
    473000   320.53459      0.0054122779   3.5473306      795.25514     -54.767339      740.4878     
    474000   298.08715      0.0054122779   3.6849249      739.56243     -55.900685      683.66175    
    475000   295.62147      0.0054122779   2.9349383      733.44502     -52.784231      680.66079    
    476000   313.35538      0.0054122779   2.740251       777.44334     -52.569465      724.87388    
    477000   297.64106      0.0054122779   2.9156498      738.45568     -56.526174      681.9295     
    478000   284.68244      0.0054122779   2.7544739      706.30498     -56.32829       649.97669    
    479000   294.08025      0.0054122779   2.8434595      729.6212      -58.040187      671.58101    
    480000   316.07867      0.0054122779   3.3396246      784.19989     -62.750573      721.44931    
    481000   307.16997      0.0054122779   3.526492       762.09717     -57.00954       705.08763    
    482000   291.46522      0.0054122779   2.9327836      723.13325     -57.966408      665.16684    
    483000   297.83467      0.0054122779   2.852194       738.93602     -59.306566      679.62945    
    484000   305.17949      0.0054122779   2.790864       757.15873     -59.907439      697.25129    
    485000   296.85792      0.0054122779   2.695086       736.51267     -53.186333      683.32634    
    486000   303.58904      0.0054122779   3.4878098      753.21278     -56.883301      696.32948    
    487000   301.20817      0.0054122779   2.4035855      747.30578     -59.562982      687.7428     
    488000   298.42081      0.0054122779   3.3533883      740.39025     -60.227972      680.16228    
    489000   298.03363      0.0054122779   2.7328413      739.42964     -63.769745      675.6599     
    490000   298.7401       0.0054122779   2.2606315      741.18241     -59.788137      681.39427    
    491000   295.84346      0.0054122779   3.1696645      733.99578     -59.714604      674.28117    
    492000   299.61436      0.0054122779   2.3994715      743.35148     -55.936065      687.41541    
    493000   297.70193      0.0054122779   2.8277897      738.6067      -54.348884      684.25782    
    494000   303.24805      0.0054122779   3.0300172      752.36678     -56.200981      696.1658     
    495000   298.135        0.0054122779   2.5374205      739.68115     -55.339435      684.34171    
    496000   291.33605      0.0054122779   3.3781079      722.81277     -53.488608      669.32416    
    497000   307.88256      0.0054122779   3.2964655      763.86511     -54.312034      709.55307    
    498000   295.11721      0.0054122779   1.3495616      732.19393     -54.432046      677.76189    
    499000   285.37959      0.0054122779   4.7504708      708.03463     -52.933777      655.10086    
    500000   303.66319      0.0054122779   7.8970219      753.39673     -53.285678      700.11105    
    501000   309.5449       0.0054122779   4.3499668      767.98943     -52.925052      715.06438    
    502000   299.82116      0.0054122779  -1.0338795      743.86455     -55.189828      688.67473    
    503000   297.17416      0.0054122779  -0.82707402     737.29727     -57.728144      679.56913    
    504000   294.70626      0.0054122779   5.6101223      731.17435     -58.48918       672.68517    
    505000   307.82538      0.0054122779  -1.4847501      763.72325     -54.291355      709.4319     
    506000   291.5583       0.0054122779  -3.4571024      723.36417     -57.628231      665.73594    
    507000   294.67192      0.0054122779   9.9335822      731.08916     -57.906539      673.18262    
    508000   303.86669      0.0054122779   3.4744314      753.90164     -54.735235      699.1664     
    509000   302.75077      0.0054122779   1.5422589      751.13299     -60.125944      691.00705    
    510000   286.85449      0.0054122779   2.1631705      711.69389     -58.307144      653.38675    
    511000   300.68088      0.0054122779   8.3729052      745.99755     -57.206354      688.79119    
    512000   311.99416      0.0054122779   1.3099989      774.0661      -57.19296       716.87314    
    513000   282.07334      0.0054122779   2.4507449      699.83172     -57.379019      642.45271    
    514000   291.45179      0.0054122779   4.0744385      723.09991     -60.533016      662.5669     
    515000   318.0448       0.0054122779   6.6904444      789.07791     -59.192473      729.88543    
    516000   309.37815      0.0054122779   0.27697867     767.57573     -59.680494      707.89523    
    517000   276.71804      0.0054122779  -2.3767544      686.54508     -54.18411       632.36097    
    518000   290.3501       0.0054122779  -1.293175       720.3666      -54.949547      665.41706    
    519000   300.05363      0.0054122779   2.4396648      744.44134     -57.615682      686.82565    
    520000   294.53608      0.0054122779   3.9876072      730.75213     -58.419748      672.33239    
    521000   302.04978      0.0054122779   3.6039988      749.39382     -60.585931      688.80789    
    522000   293.51651      0.0054122779  -4.3472605      728.22255     -57.591978      670.63057    
    523000   298.1278       0.0054122779   4.6733487      739.66329     -57.544839      682.11845    
    524000   298.89159      0.0054122779   10.597605      741.55827     -58.676377      682.88189    
    525000   302.44952      0.0054122779   5.0503948      750.3856      -60.788452      689.59715    
    526000   302.39048      0.0054122779  -3.0197805      750.23913     -58.73561       691.50352    
    527000   289.11078      0.0054122779   2.831034       717.29182     -57.826948      659.46487    
    528000   309.83683      0.0054122779   3.7489003      768.71371     -61.887735      706.82597    
    529000   291.18322      0.0054122779  -4.912456       722.43359     -63.153143      659.28044    
    530000   296.14043      0.0054122779   3.5261841      734.73256     -58.080744      676.65182    
    531000   308.92927      0.0054122779   5.1240968      766.46203     -56.614362      709.84767    
    532000   312.58316      0.0054122779   4.3923602      775.52744     -56.806285      718.72115    
    533000   301.86238      0.0054122779   2.919608       748.92889     -56.821351      692.10754    
    534000   296.21024      0.0054122779   2.1543682      734.90578     -56.587744      678.31803    
    535000   293.21045      0.0054122779   2.158413       727.46322     -58.440379      669.02284    
    536000   298.00645      0.0054122779   3.3877851      739.36221     -58.86826       680.49395    
    537000   305.03445      0.0054122779   3.180011       756.79888     -59.123325      697.67556    
    538000   320.64614      0.0054122779   2.9379446      795.53192     -54.02506       741.50686    
    539000   289.71803      0.0054122779   2.0362919      718.79841     -54.42202       664.37639    
    540000   290.92834      0.0054122779   3.0927626      721.80123     -56.926653      664.87458    
    541000   318.4789       0.0054122779   3.1760968      790.15492     -50.997297      739.15762    
    542000   302.81471      0.0054122779   2.8541344      751.29165     -55.008389      696.28327    
    543000   291.01656      0.0054122779   2.4356666      722.0201      -52.759324      669.26077    
    544000   305.20653      0.0054122779   2.9598098      757.2258      -53.097607      704.1282     
    545000   298.46238      0.0054122779   3.7425928      740.4934      -56.325243      684.16816    
    546000   292.33195      0.0054122779   2.6656795      725.28363     -56.183384      669.10025    
    547000   319.26448      0.0054122779   1.3388429      792.10397     -55.43099       736.67298    
    548000   324.48126      0.0054122779   3.4891472      805.04694     -54.568067      750.47887    
    549000   302.07039      0.0054122779   4.4756661      749.44498     -53.326343      696.11863    
    550000   292.56942      0.0054122779   3.1710176      725.87279     -49.977746      675.89504    
    551000   287.07558      0.0054122779   1.7297188      712.24242     -52.494634      659.74778    
    552000   308.22259      0.0054122779   2.7868428      764.70874     -51.801436      712.9073     
    553000   299.11617      0.0054122779   2.8003146      742.11547     -50.365321      691.75015    
    554000   284.86205      0.0054122779   2.6519793      706.75059     -50.36581       656.38478    
    555000   303.58769      0.0054122779   2.6611404      753.20942     -50.245707      702.96372    
    556000   303.01572      0.0054122779   2.8606433      751.79035     -52.213187      699.57716    
    557000   297.21064      0.0054122779   2.8057201      737.38779     -54.215768      683.17202    
    558000   278.90259      0.0054122779   2.8421148      691.96501     -53.964198      638.00081    
    559000   296.34055      0.0054122779   2.864128       735.22908     -55.508023      679.72106    
    560000   314.73165      0.0054122779   2.9597771      780.85789     -58.058415      722.79948    
    561000   294.71481      0.0054122779   2.8828125      731.19556     -48.157484      683.03808    
    562000   285.83208      0.0054122779   2.3570817      709.15728     -50.687578      658.4697     
    563000   309.39098      0.0054122779   2.8756791      767.60756     -51.047374      716.56018    
    564000   297.25686      0.0054122779   2.6295182      737.50247     -47.83846       689.66401    
    565000   296.19488      0.0054122779   3.2135933      734.86765     -48.656908      686.21074    
    566000   308.40961      0.0054122779   2.3005736      765.17274     -51.587402      713.58534    
    567000   302.22502      0.0054122779   2.631699       749.8286      -46.862205      702.9664     
    568000   304.40622      0.0054122779   3.965294       755.24023     -40.969232      714.27099    
    569000   302.59344      0.0054122779   4.5942639      750.74267     -42.902761      707.8399     
    570000   289.28273      0.0054122779   2.583653       717.71844     -44.897782      672.82065    
    571000   305.25648      0.0054122779   1.3109831      757.34975     -45.849958      711.49979    
    572000   306.62377      0.0054122779   1.2307804      760.74204     -44.222243      716.51979    
    573000   304.99215      0.0054122779   2.8679065      756.69392     -48.017841      708.67608    
    574000   292.70686      0.0054122779   3.9545452      726.21379     -45.16709       681.0467     
    575000   302.6076       0.0054122779   2.8918702      750.77779     -43.820966      706.95682    
    576000   296.61291      0.0054122779   2.900865       735.9048      -43.504704      692.4001     
    577000   289.00504      0.0054122779   2.2579393      717.02947     -45.554042      671.47543    
    578000   302.00825      0.0054122779   3.2474848      749.2908      -48.872344      700.41846    
    579000   303.64971      0.0054122779   3.5693563      753.36329     -49.580534      703.78276    
    580000   294.44379      0.0054122779   2.5630508      730.52316     -48.784775      681.73838    
    581000   298.78153      0.0054122779   2.143286       741.28522     -44.263994      697.02123    
    582000   304.33245      0.0054122779   3.0802378      755.0572      -47.034138      708.02306    
    583000   306.04071      0.0054122779   3.2941004      759.29544     -46.973351      712.32209    
    584000   296.59088      0.0054122779   3.6306625      735.85014     -48.73537       687.11477    
    585000   297.52579      0.0054122779   2.9770325      738.16969     -47.225734      690.94395    
    586000   304.50263      0.0054122779   0.90327404     755.47942     -43.749136      711.73029    
    587000   313.66523      0.0054122779   2.8168499      778.21207     -44.661625      733.55045    
    588000   300.11697      0.0054122779   3.8009259      744.59847     -52.417654      692.18082    
    589000   289.75705      0.0054122779   3.4642887      718.89522     -51.699631      667.19559    
    590000   296.3201       0.0054122779   2.8658616      735.17834     -49.641696      685.53664    
    591000   306.76017      0.0054122779   2.9529279      761.08044     -49.66977       711.41067    
    592000   302.04275      0.0054122779   2.5066512      749.37639     -46.116986      703.2594     
    593000   296.55089      0.0054122779   1.9031257      735.75093     -44.953287      690.79764    
    594000   294.12229      0.0054122779   3.3821791      729.72552     -44.349935      685.37558    
    595000   304.83011      0.0054122779   2.9995602      756.2919      -43.08176       713.21014    
    596000   310.10797      0.0054122779   3.7565885      769.38641     -43.600836      725.78558    
    597000   296.23902      0.0054122779   3.2607722      734.97719     -49.240837      685.73635    
    598000   301.65937      0.0054122779   2.2481638      748.42522     -49.044737      699.38048    
    599000   307.53616      0.0054122779   3.2863752      763.00569     -49.530252      713.47543    
    600000   304.65749      0.0054122779   2.173461       755.86363     -46.982733      708.8809     
    601000   308.20767      0.0054122779   5.4306905      764.67173     -43.47711       721.19462    
    602000   309.11074      0.0054122779   3.2471438      766.91227     -44.915318      721.99695    
    603000   298.48438      0.0054122779   2.4802153      740.54796     -42.018508      698.52946    
    604000   300.72526      0.0054122779  -0.256022       746.10766     -41.102519      705.00514    
    605000   303.52337      0.0054122779   2.5394863      753.04986     -40.992939      712.05692    
    606000   303.44583      0.0054122779   3.1128395      752.85747     -42.608925      710.24854    
    607000   308.97983      0.0054122779   3.8852171      766.58748     -42.002707      724.58477    
    608000   296.6435       0.0054122779   3.2482601      735.98071     -43.931321      692.04939    
    609000   294.23634      0.0054122779   2.4716713      730.00847     -45.16391       684.84456    
    610000   310.82832      0.0054122779   2.8920565      771.17364     -44.765605      726.40803    
    611000   304.80525      0.0054122779   3.4292715      756.23024     -43.099103      713.13113    
    612000   288.71062      0.0054122779   1.7846055      716.29901     -40.467577      675.83144    
    613000   326.90546      0.0054122779   3.4708758      811.06146     -40.073107      770.98835    
    614000   292.8601       0.0054122779   5.8120406      726.59398     -40.646097      685.94789    
    615000   290.73095      0.0054122779   2.4425175      721.3115      -40.885164      680.42633    
    616000   302.89046      0.0054122779   2.5169789      751.47957     -42.147495      709.33207    
    617000   304.073        0.0054122779   6.6132382      754.41349     -41.178108      713.23538    
    618000   303.30722      0.0054122779   2.8809092      752.51358     -38.940798      713.57278    
    619000   301.9605       0.0054122779   2.0585195      749.17231     -40.393498      708.77881    
    620000   312.34214      0.0054122779   3.1977693      774.92947     -39.412804      735.51666    
    621000   294.34804      0.0054122779   3.1304436      730.28559     -40.279112      690.00648    
    622000   294.94718      0.0054122779   3.0688696      731.77209     -39.893004      691.87908    
    623000   300.31315      0.0054122779   1.4734395      745.0852      -39.273328      705.81187    
    624000   302.71905      0.0054122779   3.0098393      751.05432     -41.035418      710.0189     
    625000   292.85739      0.0054122779   3.3936445      726.58726     -43.810555      682.77671    
    626000   300.05749      0.0054122779   2.6744909      744.45089     -39.587468      704.86342    
    627000   299.1934       0.0054122779   3.0065549      742.30707     -38.722056      703.58501    
    628000   293.80319      0.0054122779   2.0030649      728.93381     -39.830186      689.10362    
    629000   303.98861      0.0054122779   3.0641786      754.20412     -40.133079      714.07104    
    630000   301.46876      0.0054122779   2.798864       747.9523      -41.218638      706.73366    
    631000   302.6276       0.0054122779   3.7878216      750.82741     -41.192864      709.63455    
    632000   298.12173      0.0054122779   1.7983703      739.64824     -34.99228       704.65596    
    633000   302.28398      0.0054122779   3.2203732      749.97488     -37.129171      712.84571    
    634000   308.2919       0.0054122779   4.8045348      764.88069     -40.915214      723.96548    
    635000   297.64251      0.0054122779   2.3353428      738.45926     -41.017493      697.44177    
    636000   301.3149       0.0054122779   3.3676901      747.57057     -40.545729      707.02484    
    637000   308.66554      0.0054122779   4.1475897      765.80773     -40.538142      725.26958    
    638000   299.34159      0.0054122779   2.2164012      742.67475     -43.766397      698.90835    
    639000   284.72274      0.0054122779   2.6528242      706.40496     -40.369392      666.03557    
    640000   307.79601      0.0054122779   3.2408678      763.65038     -46.429886      717.2205     
    641000   303.6252       0.0054122779   2.7056515      753.30248     -46.837423      706.46506    
    642000   302.74502      0.0054122779   2.5311163      751.11873     -45.820721      705.29801    
    643000   302.50377      0.0054122779   2.4473746      750.5202      -46.42502       704.09518    
    644000   297.69236      0.0054122779   2.9147167      738.58295     -45.154479      693.42847    
    645000   304.20453      0.0054122779   3.0320665      754.73982     -45.174441      709.56538    
    646000   292.61403      0.0054122779   1.2572071      725.98347     -47.031483      678.95198    
    647000   304.826        0.0054122779   3.4679783      756.2817      -46.384909      709.8968     
    648000   309.00706      0.0054122779   2.982868       766.65505     -42.053108      724.60194    
    649000   296.72124      0.0054122779   2.9852902      736.17357     -39.893213      696.28036    
    650000   281.86846      0.0054122779   2.7956801      699.32341     -38.306747      661.01666    
    651000   300.1384       0.0054122779   2.4082085      744.65163     -37.790736      706.8609     
    652000   312.01623      0.0054122779   3.054345       774.12086     -41.778792      732.34207    
    653000   297.86493      0.0054122779   5.1650944      739.01111     -39.952524      699.05858    
    654000   287.34858      0.0054122779   2.454899       712.91974     -46.983137      665.9366     
    655000   314.93272      0.0054122779   1.9993416      781.35677     -42.147626      739.20914    
    656000   302.8868       0.0054122779   3.0814947      751.4705      -40.754507      710.71599    
    657000   302.01548      0.0054122779   2.8820486      749.30872     -41.389425      707.9193     
    658000   296.56559      0.0054122779   2.9609675      735.78741     -40.862838      694.92457    
    659000   291.66138      0.0054122779   2.9847981      723.61992     -45.067462      678.55246    
    660000   296.07244      0.0054122779   1.9289261      734.56388     -41.721187      692.84269    
    661000   298.21883      0.0054122779   3.0899002      739.88915     -41.566602      698.32254    
    662000   302.41236      0.0054122779   4.2582275      750.2934      -40.544953      709.74844    
    663000   301.17027      0.0054122779   0.1445755      747.21174     -38.081684      709.13006    
    664000   292.43333      0.0054122779   1.2878913      725.53515     -37.857942      687.67721    
    665000   296.46256      0.0054122779   3.3751548      735.53177     -38.854955      696.67682    
    666000   301.30047      0.0054122779   5.7096528      747.53476     -41.548802      705.98596    
    667000   306.11613      0.0054122779   3.1635371      759.48257     -38.462314      721.02025    
    668000   286.55492      0.0054122779   2.4171465      710.95066     -41.343882      669.60678    
    669000   293.20228      0.0054122779   2.8610087      727.44294     -38.844569      688.59838    
    670000   305.86732      0.0054122779   2.878274       758.86526     -38.466715      720.39854    
    671000   295.17381      0.0054122779   2.6923979      732.33435     -36.145001      696.18935    
    672000   295.90432      0.0054122779   2.7721669      734.14678     -37.005628      697.14115    
    673000   302.52873      0.0054122779   3.1501308      750.58211     -37.318156      713.26396    
    674000   311.55575      0.0054122779   3.3787999      772.9784      -37.586959      735.39144    
    675000   294.84658      0.0054122779   3.5830244      731.5225      -35.571122      695.95137    
    676000   302.58513      0.0054122779  -0.13997305     750.72205     -37.966355      712.75569    
    677000   305.11165      0.0054122779   2.4843834      756.99042     -33.220286      723.77013    
    678000   300.20376      0.0054122779   4.033668       744.81381     -34.50963       710.30418    
    679000   298.08407      0.0054122779   4.0633411      739.5548      -35.876739      703.67806    
    680000   294.64138      0.0054122779   3.4167512      731.01339     -36.049343      694.96405    
    681000   305.49994      0.0054122779   0.61502245     757.95377     -35.673113      722.28065    
    682000   302.21668      0.0054122779   5.6779638      749.80792     -33.842507      715.96541    
    683000   286.99679      0.0054122779   0.62355972     712.04695     -32.538275      679.50867    
    684000   292.43456      0.0054122779   2.5652277      725.5382      -35.367839      690.17036    
    685000   311.10249      0.0054122779   2.697134       771.85386     -35.142771      736.71109    
    686000   309.2827       0.0054122779   4.5002181      767.3389      -32.149025      735.18987    
    687000   286.2948       0.0054122779   3.6144117      710.3053      -31.29623       679.00907    
    688000   295.68819      0.0054122779   1.8338969      733.61056     -32.023893      701.58667    
    689000   316.56874      0.0054122779   0.90867082     785.41576     -29.704187      755.71157    
    690000   302.10472      0.0054122779   4.0990804      749.53013     -29.264096      720.26603    
    691000   288.92476      0.0054122779   2.9983462      716.83029     -31.028079      685.80221    
    692000   296.2543       0.0054122779   2.480843       735.01508     -33.788918      701.22616    
    693000   323.82834      0.0054122779   4.2338318      803.42704     -33.683561      769.74348    
    694000   294.87867      0.0054122779   5.1663121      731.60211     -34.083168      697.51894    
    695000   288.96781      0.0054122779   2.757508       716.93711     -36.73983       680.19728    
    696000   313.32958      0.0054122779   2.8851693      777.37932     -31.939069      745.44025    
    697000   317.03068      0.0054122779   3.0163521      786.56185     -35.561876      750.99997    
    698000   303.95476      0.0054122779   2.0764321      754.12014     -36.875267      717.24487    
    699000   283.84558      0.0054122779   2.4588553      704.22872     -35.711258      668.51746    
    700000   294.73085      0.0054122779   3.6578464      731.23535     -40.679905      690.55545    
    701000   303.79933      0.0054122779   5.4953702      753.73451     -33.022263      720.71225    
    702000   290.65931      0.0054122779  -1.2580257      721.13376     -31.650233      689.48353    
    703000   297.99451      0.0054122779   3.9733787      739.3326      -34.092056      705.24054    
    704000   312.18743      0.0054122779   4.2105639      774.54561     -33.662141      740.88347    
    705000   316.82992      0.0054122779   2.6369258      786.06376     -29.0629        757.00086    
    706000   302.51654      0.0054122779  -0.92328205     750.55186     -32.355995      718.19587    
    707000   297.40535      0.0054122779   2.7345299      737.87087     -33.412266      704.45861    
    708000   303.07843      0.0054122779   5.8529721      751.94593     -28.450791      723.49514    
    709000   305.38922      0.0054122779   3.3820265      757.67906     -30.285145      727.39392    
    710000   314.95419      0.0054122779  -2.991551       781.41004     -26.371864      755.03817    
    711000   293.45025      0.0054122779   2.2077564      728.05816     -27.389465      700.6687     
    712000   291.62489      0.0054122779   3.8092594      723.52939     -27.703374      695.82602    
    713000   304.76365      0.0054122779   7.9510963      756.12701     -27.559724      728.56728    
    714000   305.59244      0.0054122779   5.833565       758.18326     -27.792522      730.39074    
    715000   296.32015      0.0054122779   1.0556092      735.17847     -25.586695      709.59178    
    716000   297.01149      0.0054122779  -0.042585315    736.8937      -24.834055      712.05964    
    717000   307.09142      0.0054122779   3.0534149      761.90227     -29.032839      732.86943    
    718000   300.85805      0.0054122779   3.7682527      746.43711     -26.312218      720.12489    
    719000   305.62097      0.0054122779   4.9165684      758.25404     -26.337833      731.91621    
    720000   305.13723      0.0054122779  -0.2317759      757.05388     -24.071486      732.9824     
    721000   292.67831      0.0054122779   2.9656768      726.14295     -22.713347      703.4296     
    722000   308.072        0.0054122779   3.3517338      764.33511     -26.063044      738.27207    
    723000   303.54634      0.0054122779   2.5209252      753.10684     -25.480169      727.62667    
    724000   298.09886      0.0054122779   3.1905128      739.59149     -25.86346       713.72803    
    725000   300.63705      0.0054122779   3.2628357      745.88881     -24.912143      720.97667    
    726000   299.87697      0.0054122779   2.2573843      744.00303     -23.872171      720.13086    
    727000   299.16972      0.0054122779   3.3465575      742.24833     -24.647148      717.60118    
    728000   301.41744      0.0054122779   2.7569817      747.82496     -25.739679      722.08529    
    729000   309.31471      0.0054122779   3.0188594      767.41832     -25.170115      742.2482     
    730000   291.76218      0.0054122779   4.3385944      723.87        -25.058248      698.81175    
    731000   286.69354      0.0054122779   2.7419414      711.29459     -28.773882      682.5207     
    732000   308.22161      0.0054122779   2.3544409      764.70632     -24.600016      740.1063     
    733000   302.61292      0.0054122779   3.7676098      750.79099     -27.519788      723.27121    
    734000   297.83879      0.0054122779   3.3139952      738.94625     -30.024857      708.92139    
    735000   305.0397       0.0054122779   3.5970355      756.8119      -27.773566      729.03833    
    736000   290.27721      0.0054122779   3.0433265      720.18575     -26.829299      693.35645    
    737000   288.34973      0.0054122779   2.8609128      715.40362     -29.506817      685.89681    
    738000   300.81421      0.0054122779   0.89651183     746.32835     -24.533322      721.79502    
    739000   308.11127      0.0054122779   4.3675858      764.43256     -21.423837      743.00873    
    740000   305.34324      0.0054122779   3.5348249      757.56499     -22.040122      735.52487    
    741000   300.08454      0.0054122779   4.5255054      744.51801     -24.44138       720.07663    
    742000   286.21379      0.0054122779   3.0773444      710.10429     -27.517942      682.58635    
    743000   308.3156       0.0054122779   2.9029148      764.9395      -29.15344       735.78606    
    744000   300.89227      0.0054122779   2.9530924      746.52202     -23.648227      722.8738     
    745000   295.40763      0.0054122779   3.2364875      732.91447     -23.678522      709.23594    
    746000   310.73046      0.0054122779   3.0318014      770.93084     -22.684365      748.24648    
    747000   294.43796      0.0054122779   2.8355129      730.5087      -19.65142       710.85728    
    748000   295.27523      0.0054122779   2.833601       732.58598     -20.850485      711.73549    
    749000   310.40347      0.0054122779   3.2016153      770.11956     -28.372793      741.74677    
    750000   311.1852       0.0054122779   1.5462866      772.05905     -25.754742      746.30431    
    751000   294.26568      0.0054122779   2.6545289      730.08127     -23.603377      706.4779     
    752000   302.34439      0.0054122779   3.0685385      750.12478     -24.700773      725.424      
    753000   301.42061      0.0054122779   3.5048043      747.83284     -23.141474      724.69137    
    754000   307.22077      0.0054122779   3.6379278      762.2232      -25.672229      736.55097    
    755000   296.47447      0.0054122779   1.9843453      735.56133     -26.380101      709.18123    
    756000   304.318        0.0054122779   5.0125035      755.02135     -27.963147      727.0582     
    757000   311.5925       0.0054122779   4.6185877      773.06957     -26.711505      746.35807    
    758000   292.44566      0.0054122779   1.2095546      725.56573     -26.816306      698.74943    
    759000   294.46386      0.0054122779   3.0696041      730.57294     -21.270859      709.30208    
    760000   299.2151       0.0054122779   4.7623377      742.36092     -21.59207       720.76885    
    761000   306.10261      0.0054122779   4.5688317      759.449       -24.754677      734.69433    
    762000   292.96572      0.0054122779  -0.32432627     726.85602     -27.164527      699.69149    
    763000   298.95305      0.0054122779   3.7560113      741.71076     -25.678466      716.0323     
    764000   324.48174      0.0054122779   3.6124852      805.04813     -22.121643      782.92649    
    765000   294.28706      0.0054122779   0.09681168     730.13432     -22.305468      707.82885    
    766000   287.91671      0.0054122779   0.86352934     714.3293      -22.906364      691.42293    
    767000   301.03027      0.0054122779   4.4562121      746.8644      -19.975681      726.88872    
    768000   306.69084      0.0054122779   4.0193354      760.90843     -22.955951      737.95247    
    769000   315.17202      0.0054122779   3.3574648      781.95047     -19.425588      762.52488    
    770000   298.05717      0.0054122779   2.7109711      739.48806     -21.766132      717.72193    
    771000   292.0941       0.0054122779   4.6648716      724.69352     -23.172377      701.52114    
    772000   311.54173      0.0054122779   3.1036095      772.94362     -23.216753      749.72687    
    773000   310.98198      0.0054122779   2.4521286      771.55486     -24.471152      747.0837     
    774000   311.69444      0.0054122779   0.59950939     773.32249     -26.007613      747.31488    
    775000   293.30006      0.0054122779   1.8433122      727.68554     -29.179153      698.50639    
    776000   293.62661      0.0054122779   2.7243302      728.4957      -29.933812      698.56189    
    777000   302.43453      0.0054122779   5.5997836      750.3484      -29.152686      721.19572    
    778000   306.57105      0.0054122779   0.61229916     760.61122     -28.674746      731.93648    
    779000   292.41809      0.0054122779   3.3205096      725.49734     -23.96472       701.53262    
    780000   295.94775      0.0054122779   3.8925573      734.25453     -25.312925      708.94161    
    781000   302.70004      0.0054122779   5.1589811      751.00715     -25.000094      726.00706    
    782000   306.62685      0.0054122779   4.7331962      760.74966     -22.673982      738.07568    
    783000   304.2399       0.0054122779   2.3792395      754.82758     -24.687345      730.14023    
    784000   295.4084       0.0054122779   2.1517863      732.91639     -24.907362      708.00902    
    785000   295.13854      0.0054122779   3.3716291      732.24685     -25.147385      707.09946    
    786000   313.71236      0.0054122779   6.6914376      778.32901     -24.596657      753.73235    
    787000   308.16086      0.0054122779   4.0551962      764.55558     -24.518019      740.03756    
    788000   301.89131      0.0054122779   1.2276701      749.00066     -27.234932      721.76573    
    789000   303.00054      0.0054122779   2.1931921      751.7527      -24.043675      727.70903    
    790000   303.61577      0.0054122779   2.6329936      753.27908     -25.65729       727.6218     
    791000   304.40021      0.0054122779   3.029538       755.22532     -27.737388      727.48793    
    792000   309.58334      0.0054122779   3.3561644      768.08479     -23.625154      744.45964    
    793000   293.86296      0.0054122779   0.099873301    729.08209     -25.450496      703.6316     
    794000   283.66428      0.0054122779   3.2106769      703.7789      -25.638934      678.13996    
    795000   304.95846      0.0054122779   3.1161082      756.61033     -26.695032      729.9153     
    796000   305.9461       0.0054122779   2.7231652      759.06071     -24.071615      734.98909    
    797000   299.56904      0.0054122779   3.0126267      743.23905     -26.48892       716.75013    
    798000   289.8029       0.0054122779   2.6758086      719.00897     -25.459955      693.54902    
    799000   297.33462      0.0054122779   2.9978872      737.69538     -23.536612      714.15877    
    800000   297.46322      0.0054122779   2.9868676      738.01445     -25.524252      712.4902     
    801000   293.02505      0.0054122779   3.2923203      727.00323     -22.285396      704.71784    
    802000   296.52959      0.0054122779   3.3136971      735.69809     -24.589064      711.10902    
    803000   303.95141      0.0054122779   2.6993908      754.11182     -24.343707      729.76811    
    804000   291.66958      0.0054122779   2.6607396      723.64028     -24.923656      698.71662    
    805000   299.79927      0.0054122779   2.6470482      743.81025     -24.910991      718.89926    
    806000   301.68272      0.0054122779   2.5741464      748.48313     -26.266406      722.21673    
    807000   296.16402      0.0054122779   3.0029043      734.79109     -24.157443      710.63364    
    808000   291.64194      0.0054122779   3.7010239      723.57169     -27.883553      695.68813    
    809000   306.89583      0.0054122779   2.861826       761.41702     -27.475531      733.94149    
    810000   312.42521      0.0054122779   3.1075377      775.13556     -29.190671      745.94489    
    811000   293.49708      0.0054122779   2.8681594      728.17435     -30.448067      697.72629    
    812000   288.41218      0.0054122779   2.8046663      715.55856     -29.229103      686.32946    
    813000   300.31681      0.0054122779   2.8553688      745.0943      -28.37909       716.71521    
    814000   309.12621      0.0054122779   2.9523757      766.95065     -29.298494      737.65216    
    815000   305.25093      0.0054122779   4.46916        757.33596     -29.139329      728.19663    
    816000   295.84383      0.0054122779   2.8896965      733.9967      -28.510921      705.48578    
    817000   290.65183      0.0054122779   1.967698       721.11519     -24.754357      696.36084    
    818000   315.48085      0.0054122779   1.1760532      782.71668     -27.943967      754.77272    
    819000   303.3243       0.0054122779   4.6124804      752.55595     -26.628559      725.92739    
    820000   297.46111      0.0054122779   4.9268163      738.00923     -28.407584      709.60164    
    821000   300.07117      0.0054122779   4.6509527      744.48484     -27.147996      717.33685    
    822000   297.24017      0.0054122779   1.5698543      737.46106     -29.167043      708.29402    
    823000   279.29157      0.0054122779  -1.8183902      692.93009     -29.093944      663.83615    
    824000   302.49084      0.0054122779   2.5729608      750.48811     -28.401868      722.08625    
    825000   302.19814      0.0054122779   4.7119243      749.76192     -24.93508       724.82684    
    826000   284.4631       0.0054122779  -0.79820481     705.7608      -27.181017      678.57979    
    827000   299.77554      0.0054122779   2.7835844      743.75137     -21.997072      721.75429    
    828000   307.14295      0.0054122779   4.2997693      762.03012     -25.685011      736.34511    
    829000   304.43706      0.0054122779   3.12002        755.31673     -22.967637      732.34909    
    830000   280.4328       0.0054122779   3.8956226      695.76152     -23.032373      672.72915    
    831000   283.98116      0.0054122779   2.6338257      704.56507     -22.640004      681.92507    
    832000   307.89004      0.0054122779   1.9368128      763.88367     -25.917709      737.96596    
    833000   302.98671      0.0054122779   9.9786697      751.71838     -26.275488      725.44289    
    834000   285.39943      0.0054122779   2.3099141      708.08386     -25.489156      682.59471    
    835000   295.00268      0.0054122779   1.2789677      731.90978     -24.811118      707.09866    
    836000   317.57122      0.0054122779   4.4774819      787.90295     -24.826324      763.07663    
    837000   288.79011      0.0054122779   8.8436678      716.49622     -23.613672      692.88255    
    838000   297.63104      0.0054122779   1.3389354      738.43081     -25.942689      712.48812    
    839000   313.18072      0.0054122779   3.0528617      777.01001     -24.917529      752.09248    
    840000   300.40294      0.0054122779   4.8059912      745.30798     -22.944722      722.36326    
    841000   284.17834      0.0054122779   2.0426943      705.05429     -25.114926      679.93936    
    842000   299.43821      0.0054122779   1.1325235      742.91446     -27.001759      715.9127     
    843000   310.57827      0.0054122779   3.0997812      770.55325     -29.015067      741.53819    
    844000   288.74672      0.0054122779   3.062024       716.38856     -30.021483      686.36708    
    845000   287.91858      0.0054122779   1.5088301      714.33394     -27.625553      686.70838    
    846000   300.82744      0.0054122779   1.3830398      746.36116     -25.480543      720.88062    
    847000   315.37014      0.0054122779   3.7287688      782.44202     -23.231182      759.21084    
    848000   301.77185      0.0054122779   4.0356456      748.70428     -23.942455      724.76182    
    849000   290.75597      0.0054122779   2.817345       721.37359     -25.221608      696.15198    
    850000   302.30655      0.0054122779   3.2436483      750.03088     -22.969335      727.06154    
    851000   314.0761       0.0054122779   3.4273542      779.23145     -25.527843      753.70361    
    852000   302.3641       0.0054122779   2.7145315      750.17367     -24.094919      726.07875    
    853000   296.37275      0.0054122779   1.6729287      735.30895     -23.645436      711.66352    
    854000   309.74446      0.0054122779   4.3596388      768.48455     -20.230458      748.2541     
    855000   301.17917      0.0054122779   3.8659663      747.23381     -20.061642      727.17217    
    856000   314.14         0.0054122779   2.7715919      779.39        -21.473588      757.91641    
    857000   294.58172      0.0054122779   2.6602108      730.86537     -21.767464      709.09791    
    858000   303.662        0.0054122779   3.5015833      753.39378     -21.477435      731.91635    
    859000   302.15384      0.0054122779   2.6151917      749.652       -19.990898      729.6611     
    860000   299.07353      0.0054122779   3.7034982      742.00967     -22.893136      719.11653    
    861000   299.21656      0.0054122779   2.962402       742.36453     -22.156579      720.20795    
    862000   305.44432      0.0054122779   1.9010911      757.81578     -20.588176      737.2276     
    863000   302.42661      0.0054122779   3.0580024      750.32875     -20.038299      730.29045    
    864000   284.71212      0.0054122779   2.370437       706.37863     -21.123337      685.25529    
    865000   291.83801      0.0054122779   2.8460651      724.05815     -20.184802      703.87334    
    866000   301.9069       0.0054122779   3.10606        749.03934     -19.332984      729.70636    
    867000   308.60795      0.0054122779   3.0548357      765.66482     -19.841018      745.8238     
    868000   301.22869      0.0054122779   2.8769529      747.3567      -22.562718      724.79398    
    869000   312.58214      0.0054122779   2.3823034      775.52491     -21.816535      753.70837    
    870000   295.56705      0.0054122779   2.8620333      733.31        -18.082176      715.22782    
    871000   297.73095      0.0054122779   3.9119387      738.6787      -18.117814      720.56088    
    872000   297.24991      0.0054122779   2.8853844      737.48521     -20.208736      717.27648    
    873000   295.65516      0.0054122779   3.4088338      733.52861     -17.227973      716.30064    
    874000   305.17792      0.0054122779   1.5244323      757.15482     -20.997159      736.15767    
    875000   303.28245      0.0054122779   4.2494286      752.45213     -19.380646      733.07148    
    876000   292.78341      0.0054122779   2.9802752      726.4037      -19.009303      707.3944     
    877000   314.00161      0.0054122779  -1.3685183      779.04665     -19.079106      759.96755    
    878000   303.69059      0.0054122779   3.6924638      753.46473     -19.910239      733.55449    
    879000   283.37473      0.0054122779   5.0358154      703.06051     -22.756315      680.30419    
    880000   294.41609      0.0054122779   3.4799502      730.45443     -19.866541      710.58789    
    881000   291.58771      0.0054122779   0.14833651     723.43714     -19.626857      703.81028    
    882000   294.97714      0.0054122779   2.5774418      731.84641     -19.652539      712.19387    
    883000   307.51362      0.0054122779   3.7698763      762.94976     -17.943231      745.00653    
    884000   299.5875       0.0054122779   4.9584106      743.28484     -18.777227      724.50762    
    885000   296.92169      0.0054122779   3.5586249      736.6709      -21.215272      715.45563    
    886000   295.7777       0.0054122779  -0.36601012     733.83262     -22.102721      711.7299     
    887000   294.51521      0.0054122779   3.5283572      730.70036     -21.851565      708.84879    
    888000   294.30242      0.0054122779   4.3955086      730.17241     -21.998663      708.17375    
    889000   294.90529      0.0054122779   1.6562994      731.66815     -22.462746      709.20541    
    890000   305.37957      0.0054122779   3.4369429      757.65513     -22.98677       734.66836    
    891000   298.34768      0.0054122779   5.578959       740.20882     -25.484535      714.72429    
    892000   300.65786      0.0054122779  -0.088294231    745.94045     -22.334881      723.60557    
    893000   298.40678      0.0054122779   2.5598017      740.35545     -22.688588      717.66686    
    894000   306.33824      0.0054122779   6.7793761      760.03362     -20.994275      739.03935    
    895000   301.40958      0.0054122779   6.7861565      747.80548     -20.14915       727.65633    
    896000   287.92299      0.0054122779   2.7138591      714.34487     -21.1969        693.14796    
    897000   297.74505      0.0054122779   1.8667194      738.71367     -25.011986      713.70169    
    898000   310.97486      0.0054122779   2.7982539      771.53719     -25.664629      745.87256    
    899000   298.03077      0.0054122779   5.0761721      739.42256     -25.954613      713.46794    
    900000   282.73298      0.0054122779   2.8247152      701.46831     -22.617826      678.85048    
    901000   294.20997      0.0054122779   2.9219925      729.94306     -24.350908      705.59215    
    902000   321.13173      0.0054122779   1.4297079      796.73666     -21.519749      775.21691    
    903000   306.14201      0.0054122779   4.1355352      759.54676     -21.92086       737.62591    
    904000   287.71509      0.0054122779   3.8838408      713.82906     -21.231778      692.59729    
    905000   286.06353      0.0054122779   1.6961303      709.7315      -19.063422      690.66808    
    906000   307.28637      0.0054122779   2.5322588      762.38596     -17.500114      744.88585    
    907000   313.15666      0.0054122779   3.0601661      776.9503      -17.89108       759.05922    
    908000   294.14215      0.0054122779   2.8675997      729.77479     -21.78743       707.98736    
    909000   288.79325      0.0054122779   2.779739       716.50403     -18.926813      697.57721    
    910000   306.91981      0.0054122779   1.7987509      761.47651     -16.493811      744.9827     
    911000   295.70876      0.0054122779   1.6829065      733.66158     -17.460747      716.20083    
    912000   304.10092      0.0054122779   5.9632444      754.48277     -19.179561      735.30321    
    913000   298.47463      0.0054122779   4.6686047      740.52378     -21.767129      718.75665    
    914000   307.09706      0.0054122779   2.6618657      761.91628     -23.135722      738.78056    
    915000   293.35837      0.0054122779   3.8155819      727.8302      -24.445152      703.38504    
    916000   295.34379      0.0054122779   3.8657256      732.75607     -18.947585      713.80849    
    917000   298.81479      0.0054122779   2.7139327      741.36773     -20.125445      721.24228    
    918000   297.47866      0.0054122779   0.2503768      738.05277     -18.082551      719.97021    
    919000   300.04994      0.0054122779   2.5810854      744.43217     -21.104579      723.32759    
    920000   310.2931       0.0054122779   4.8838745      769.84575     -19.359588      750.48616    
    921000   298.31087      0.0054122779   3.0510841      740.1175      -17.348358      722.76915    
    922000   290.13347      0.0054122779   2.6843547      719.82914     -23.985895      695.84324    
    923000   299.32333      0.0054122779   2.3909694      742.62943     -20.680614      721.94882    
    924000   314.77096      0.0054122779   3.14976        780.95542     -19.076845      761.87858    
    925000   299.06018      0.0054122779   3.5325791      741.97655     -19.63559       722.34096    
    926000   283.03693      0.0054122779   2.6620832      702.22243     -19.276216      682.94621    
    927000   301.0356       0.0054122779   2.7752859      746.87761     -17.650361      729.22725    
    928000   318.59105      0.0054122779   2.5011883      790.43319     -19.737123      770.69606    
    929000   303.57364      0.0054122779   3.887228       753.17457     -19.711163      733.4634     
    930000   290.2015       0.0054122779   3.430008       719.99793     -21.266313      698.73162    
    931000   290.28987      0.0054122779  -0.41993165     720.21718     -19.782692      700.43448    
    932000   314.02362      0.0054122779   2.3313132      779.10125     -18.484359      760.61689    
    933000   302.42785      0.0054122779   4.6191541      750.33184     -16.392872      733.93897    
    934000   277.41743      0.0054122779   3.8310985      688.2803      -16.3751        671.9052     
    935000   298.1266       0.0054122779   2.1549441      739.66032     -16.735455      722.92487    
    936000   320.16184      0.0054122779   2.1478304      794.33034     -17.797103      776.53324    
    937000   296.44173      0.0054122779   4.1449884      735.48011     -12.647277      722.83283    
    938000   300.64489      0.0054122779   3.2496546      745.90827     -16.059652      729.84861    
    939000   295.54844      0.0054122779   1.7729442      733.26382     -16.530503      716.73332    
    940000   300.59177      0.0054122779   1.4283384      745.77646     -17.679794      728.09667    
    941000   301.35493      0.0054122779   3.5135761      747.6699      -15.833763      731.83614    
    942000   307.92617      0.0054122779   3.429616       763.97333     -17.381827      746.5915     
    943000   300.07196      0.0054122779   2.9817303      744.4868      -19.752112      724.73469    
    944000   288.13537      0.0054122779   2.8361226      714.8718      -18.132351      696.73945    
    945000   312.10173      0.0054122779   2.7187477      774.333       -18.501488      755.83151    
    946000   330.19033      0.0054122779   3.7476613      819.2113      -19.107906      800.1034     
    947000   309.2706       0.0054122779   3.0316108      767.30888     -19.124697      748.18418    
    948000   301.79969      0.0054122779   1.2954806      748.77336     -18.747454      730.02591    
    949000   307.54528      0.0054122779   2.3455852      763.02831     -20.971185      742.05712    
    950000   299.34377      0.0054122779   3.2320802      742.68014     -22.46156       720.21858    
    951000   288.50015      0.0054122779   2.3503476      715.77682     -21.063036      694.71378    
    952000   306.58585      0.0054122779   2.5978803      760.64795     -22.786699      737.86125    
    953000   307.41437      0.0054122779   3.4323614      762.70353     -21.350923      741.3526     
    954000   290.37808      0.0054122779   4.200033       720.43601     -22.05172       698.38429    
    955000   303.23188      0.0054122779   1.556122       752.32664     -21.672159      730.65449    
    956000   305.00429      0.0054122779   2.5462126      756.72404     -20.859281      735.86476    
    957000   299.0903       0.0054122779   4.470696       742.05127     -19.192826      722.85844    
    958000   289.84289      0.0054122779   3.03398        719.10819     -20.516706      698.59149    
    959000   306.17887      0.0054122779   2.7787593      759.63821     -15.452538      744.18567    
    960000   301.82323      0.0054122779   3.2236013      748.83175     -20.970192      727.86156    
    961000   302.52578      0.0054122779   2.9763088      750.57481     -18.463061      732.11175    
    962000   295.88251      0.0054122779   2.2380384      734.09265     -16.361039      717.73161    
    963000   294.096        0.0054122779   2.8674805      729.66029     -17.929561      711.73073    
    964000   293.73156      0.0054122779   3.7282785      728.75611     -17.412795      711.34331    
    965000   311.8328       0.0054122779   2.9513201      773.66577     -19.057162      754.60861    
    966000   293.28978      0.0054122779   3.8697307      727.66004     -18.413915      709.24613    
    967000   292.63367      0.0054122779   1.3877626      726.0322      -18.166716      707.86549    
    968000   315.10687      0.0054122779   0.58528801     781.78882     -17.659798      764.12902    
    969000   309.28275      0.0054122779   4.0632241      767.33903     -17.217299      750.12173    
    970000   291.49629      0.0054122779   3.8541606      723.21034     -14.797375      708.41296    
    971000   289.72084      0.0054122779   4.0034921      718.80538     -15.507861      703.29752    
    972000   306.76635      0.0054122779   2.0396448      761.09578     -16.967088      744.12869    
    973000   311.7738       0.0054122779   3.0379165      773.5194      -14.918392      758.60101    
    974000   300.83804      0.0054122779   2.4562919      746.38747     -14.894689      731.49278    
    975000   287.91433      0.0054122779   2.8849583      714.32338     -14.224876      700.0985     
    976000   314.69431      0.0054122779   3.4514103      780.76525     -17.531934      763.23332    
    977000   311.40587      0.0054122779   3.1083616      772.60656     -18.199174      754.40739    
    978000   282.54579      0.0054122779   2.6844355      701.00389     -20.955025      680.04887    
    979000   294.61237      0.0054122779   2.9098697      730.94141     -22.180993      708.76042    
    980000   305.28575      0.0054122779   2.8996678      757.42237     -17.642697      739.77967    
    981000   310.89619      0.0054122779   1.7740325      771.34201     -18.075714      753.26629    
    982000   291.90677      0.0054122779   2.559965       724.22874     -18.918951      705.30979    
    983000   283.37085      0.0054122779   2.7629704      703.05089     -16.468168      686.58272    
    984000   318.05415      0.0054122779   3.0436487      789.10111     -20.224658      768.87646    
    985000   307.1975       0.0054122779   2.5340235      762.16548     -17.286439      744.87904    
    986000   291.7789       0.0054122779   2.8815523      723.91149     -16.694828      707.21666    
    987000   307.28294      0.0054122779   3.8139275      762.37744     -17.163229      745.21421    
    988000   314.49087      0.0054122779   4.5777781      780.26053     -18.014721      762.2458     
    989000   303.64712      0.0054122779   2.5668581      753.35688     -14.91384       738.44304    
    990000   296.08284      0.0054122779   2.9124037      734.5897      -19.284448      715.30525    
    991000   289.23302      0.0054122779   3.0010216      717.59508     -17.615605      699.97948    
    992000   305.0764       0.0054122779   3.3964378      756.90296     -18.046527      738.85643    
    993000   305.33248      0.0054122779   3.07535        757.53829     -15.271862      742.26643    
    994000   294.68751      0.0054122779   1.9289389      731.12782     -15.053117      716.07471    
    995000   292.36807      0.0054122779   1.4979774      725.37324     -17.270528      708.10271    
    996000   300.71324      0.0054122779   4.7929338      746.07785     -17.178022      728.89983    
    997000   311.70031      0.0054122779   4.7306903      773.33707     -17.852724      755.48434    
    998000   291.15625      0.0054122779   3.1888637      722.36668     -19.387029      702.97965    
    999000   304.97259      0.0054122779   6.8887873      756.64541     -16.651625      739.99379    
   1000000   307.33116      0.0054122779   2.3107233      762.49708     -16.172323      746.32476    
   1001000   283.92652      0.0054122779   2.7850364      704.42952     -16.237413      688.1921     
   1002000   305.48888      0.0054122779   4.2190173      757.92633     -18.088674      739.83765    
   1003000   308.52962      0.0054122779   2.2462525      765.47049     -18.308954      747.16153    
   1004000   284.38111      0.0054122779   3.177805       705.55738     -15.791614      689.76577    
   1005000   299.0356       0.0054122779   3.5830396      741.91556     -17.685633      724.22993    
   1006000   291.96388      0.0054122779   1.946737       724.37044     -18.223767      706.14667    
   1007000   296.38969      0.0054122779   1.096345       735.351       -18.099409      717.25159    
   1008000   299.62942      0.0054122779   2.3029849      743.38884     -14.287163      729.10168    
   1009000   291.57053      0.0054122779   1.9165807      723.39451     -15.415586      707.97892    
   1010000   303.83103      0.0054122779   3.1760891      753.81316     -13.543758      740.26941    
   1011000   304.52872      0.0054122779   3.4266265      755.54415     -14.959203      740.58495    
   1012000   294.96369      0.0054122779   1.7815611      731.81306     -14.828576      716.98448    
   1013000   300.80285      0.0054122779   2.719367       746.30017     -11.886649      734.41353    
   1014000   294.89099      0.0054122779   3.1348641      731.63267     -12.450124      719.18254    
   1015000   284.27846      0.0054122779   4.4782582      705.3027      -12.715358      692.58735    
   1016000   311.48089      0.0054122779   3.6291289      772.79266     -14.268903      758.52376    
   1017000   300.60284      0.0054122779   3.1971495      745.80392     -15.117689      730.68623    
   1018000   294.63406      0.0054122779   2.5205017      730.99523     -15.951366      715.04386    
   1019000   317.59955      0.0054122779   3.6701883      787.97323     -18.169307      769.80393    
   1020000   290.57263      0.0054122779   2.9611149      720.91871     -16.930602      703.98811    
   1021000   307.54979      0.0054122779   3.0538671      763.03951     -17.714915      745.32459    
   1022000   303.70084      0.0054122779   2.9437247      753.49014     -16.131858      737.35829    
   1023000   303.3009       0.0054122779   2.7268978      752.49789     -14.828056      737.66984    
   1024000   304.79882      0.0054122779   1.4106831      756.21428     -14.58279       741.63149    
   1025000   294.78446      0.0054122779   1.6870977      731.36837     -17.304394      714.06397    
   1026000   299.95235      0.0054122779   3.9231462      744.19004     -16.482551      727.70749    
   1027000   298.63162      0.0054122779   3.0505269      740.91328     -17.287031      723.62625    
   1028000   304.50572      0.0054122779   2.4075002      755.48707     -17.305254      738.18182    
   1029000   300.31572      0.0054122779   1.9238136      745.09158     -16.94721       728.14437    
   1030000   304.14628      0.0054122779   5.5037388      754.59529     -10.968411      743.62688    
   1031000   296.81898      0.0054122779   3.645267       736.41607     -15.584495      720.83158    
   1032000   305.60999      0.0054122779   3.7062492      758.2268      -14.111923      744.11488    
   1033000   312.99181      0.0054122779  -1.9102008      776.54131     -12.344716      764.19659    
   1034000   299.15573      0.0054122779   2.0559885      742.21362     -10.601697      731.61193    
   1035000   293.67853      0.0054122779   5.2780694      728.62453     -14.288165      714.33637    
   1036000   313.73352      0.0054122779   1.1373966      778.3815      -14.595638      763.78586    
   1037000   308.16064      0.0054122779  -5.6325602      764.55504     -15.912474      748.64257    
   1038000   285.23523      0.0054122779   3.9003255      707.67646     -15.321243      692.35521    
   1039000   295.7803       0.0054122779   3.5702023      733.83908     -13.140524      720.69855    
   1040000   304.47367      0.0054122779   4.0050698      755.40758     -14.678314      740.72926    
   1041000   303.15096      0.0054122779   3.0213831      752.12588     -13.573119      738.55276    
   1042000   302.42317      0.0054122779   4.6097868      750.32021     -12.77041       737.5498     
   1043000   295.48247      0.0054122779   3.3607012      733.10015     -15.06961       718.03054    
   1044000   302.05865      0.0054122779   1.4656824      749.41583     -11.921369      737.49446    
   1045000   295.0403       0.0054122779   1.9947288      732.00313     -15.367174      716.63595    
   1046000   296.01189      0.0054122779   3.7481081      734.41367     -13.453143      720.96053    
   1047000   318.60217      0.0054122779   10.105971      790.46078     -12.666321      777.79446    
   1048000   305.81532      0.0054122779  -0.39414256     758.73624     -14.885171      743.85107    
   1049000   294.95531      0.0054122779   3.5992775      731.79227     -14.111241      717.68103    
   1050000   291.15014      0.0054122779   6.504589       722.35153     -16.064691      706.28684    
   1051000   304.00048      0.0054122779   1.7511335      754.23358     -17.418526      736.81506    
   1052000   304.17181      0.0054122779  -1.5558799      754.65864     -15.38253       739.27611    
   1053000   300.23989      0.0054122779   3.0498534      744.90345     -15.149703      729.75375    
   1054000   296.5728       0.0054122779   8.3169615      735.80528     -16.479941      719.32534    
   1055000   313.08849      0.0054122779   5.1214698      776.78118     -14.870608      761.91057    
   1056000   307.48201      0.0054122779   2.7638799      762.87135     -13.472971      749.39838    
   1057000   300.38211      0.0054122779   1.3927578      745.25629     -14.805432      730.45086    
   1058000   283.72211      0.0054122779   4.2190396      703.92238     -15.224854      688.69753    
   1059000   303.93904      0.0054122779   7.6950238      754.08113     -14.865794      739.21534    
   1060000   312.97169      0.0054122779   3.419549       776.49139     -17.57184       758.91955    
   1061000   313.68911      0.0054122779   1.4202498      778.27134     -18.216215      760.05512    
   1062000   289.11766      0.0054122779   2.0092882      717.30888     -17.970062      699.33881    
   1063000   284.92406      0.0054122779   2.9972191      706.90445     -15.679881      691.22457    
   1064000   292.97674      0.0054122779   3.0244742      726.88336     -17.331487      709.55187    
   1065000   315.74615      0.0054122779   3.0170849      783.3749      -15.422468      767.95243    
   1066000   296.63222      0.0054122779   3.1045454      735.95271     -15.608144      720.34457    
   1067000   292.0331       0.0054122779   3.5900574      724.54217     -13.671148      710.87102    
   1068000   295.05605      0.0054122779   2.484701       732.04218     -16.827127      715.21506    
   1069000   311.77008      0.0054122779   2.9586272      773.51016     -14.704553      758.80561    
   1070000   308.19609      0.0054122779   7.2431288      764.643       -14.699893      749.9431     
   1071000   278.19247      0.0054122779   3.368064       690.20319     -14.110565      676.09263    
   1072000   296.26721      0.0054122779   0.45045422     735.0471      -12.037097      723.01001    
   1073000   313.45599      0.0054122779   3.3381897      777.69295     -12.919869      764.77308    
   1074000   304.62449      0.0054122779   4.7988547      755.78176     -15.009091      740.77267    
   1075000   284.24539      0.0054122779   2.8148299      705.22064     -13.401619      691.81902    
   1076000   296.89235      0.0054122779   1.7882765      736.5981      -14.464589      722.13351    
   1077000   312.74359      0.0054122779   2.3632365      775.92546     -15.425529      760.49993    
   1078000   295.09139      0.0054122779   3.2117696      732.12988     -15.386077      716.7438     
   1079000   287.57677      0.0054122779   2.9129846      713.4859      -12.8807        700.6052     
   1080000   310.66717      0.0054122779   2.8870121      770.7738      -11.597971      759.17583    
   1081000   318.50641      0.0054122779   3.1130626      790.22319     -11.850575      778.37261    
   1082000   296.13517      0.0054122779   2.9601587      734.71952     -9.0673889      725.65213    
   1083000   293.27712      0.0054122779   2.4314082      727.62861     -13.014079      714.61453    
   1084000   317.30266      0.0054122779   3.055806       787.23664     -12.209135      775.0275     
   1085000   300.52706      0.0054122779   2.57542        745.61592     -8.5945533      737.02137    
   1086000   293.55124      0.0054122779   3.2151912      728.30873     -10.953538      717.35519    
   1087000   310.30035      0.0054122779   3.3326137      769.86372     -10.318011      759.54571    
   1088000   306.05718      0.0054122779   2.3612716      759.33631     -10.294426      749.04189    
   1089000   299.77534      0.0054122779   2.7605924      743.75087     -9.7002681      734.05061    
   1090000   290.32581      0.0054122779   2.9941476      720.30634     -10.21726       710.08908    
   1091000   305.12229      0.0054122779   2.7874271      757.01682     -11.788398      745.22842    
   1092000   310.36921      0.0054122779   3.1601884      770.03455     -10.366954      759.6676     
   1093000   290.6259       0.0054122779   2.923704       721.05088     -14.035311      707.01557    
   1094000   287.89414      0.0054122779   2.8240475      714.27329     -13.941543      700.33175    
   1095000   314.22534      0.0054122779   3.3566304      779.60173     -15.809225      763.7925     
   1096000   302.69232      0.0054122779   2.9579538      750.98798     -12.925931      738.06205    
   1097000   293.48322      0.0054122779   3.0232711      728.13996     -12.361724      715.77824    
   1098000   295.26084      0.0054122779   3.781292       732.55029     -14.670338      717.87996    
   1099000   318.92308      0.0054122779   3.3211225      791.25696     -11.526007      779.73095    
   1100000   297.65899      0.0054122779   2.1175821      738.50017     -12.620445      725.87972    
   1101000   296.90673      0.0054122779   3.1821475      736.63378     -13.47707       723.15671    
   1102000   312.60008      0.0054122779   2.6623811      775.56942     -18.635534      756.93389    
   1103000   305.2144       0.0054122779   2.7254115      757.24535     -14.851031      742.39432    
   1104000   282.02942      0.0054122779   3.0190845      699.72277     -15.059675      684.66309    
   1105000   304.12616      0.0054122779   3.0235431      754.54538     -13.75739       740.78799    
   1106000   312.94152      0.0054122779   3.0962477      776.41654     -10.224298      766.19224    
   1107000   289.36127      0.0054122779   2.997196       717.91329     -11.391865      706.52142    
   1108000   294.32572      0.0054122779   1.5336528      730.23024     -10.748985      719.48125    
   1109000   308.29112      0.0054122779   3.2057949      764.87876     -10.898128      753.98063    
   1110000   304.27903      0.0054122779   3.5499124      754.92465     -10.608847      744.31581    
   1111000   295.35809      0.0054122779   1.6302022      732.79157     -11.019237      721.77233    
   1112000   302.99004      0.0054122779   2.3254727      751.72664     -10.431744      741.2949     
   1113000   301.17333      0.0054122779   3.3419648      747.21933     -12.122248      735.09708    
   1114000   301.20687      0.0054122779   4.8037715      747.30254     -10.446548      736.85599    
   1115000   293.11666      0.0054122779  -0.60232802     727.23052     -11.752238      715.47828    
   1116000   301.58069      0.0054122779   2.3734217      748.23        -12.718813      735.51119    
   1117000   309.80332      0.0054122779   4.7628325      768.63059     -10.810679      757.81991    
   1118000   302.95065      0.0054122779   3.2538434      751.62891     -12.734321      738.89459    
   1119000   283.13978      0.0054122779   1.3893286      702.4776      -6.3761755      696.10143    
   1120000   308.19637      0.0054122779   2.5432139      764.64369     -9.7889322      754.85476    
   1121000   304.27342      0.0054122779   4.1809315      754.91075     -11.883069      743.02768    
   1122000   291.2284       0.0054122779   2.8325579      722.54569     -13.26043       709.28526    
   1123000   304.44202      0.0054122779   2.829816       755.32903     -15.193508      740.13553    
   1124000   310.17887      0.0054122779   3.470323       769.56233     -16.318454      753.24387    
   1125000   286.00413      0.0054122779   4.1107642      709.58414     -16.664881      692.91926    
   1126000   298.27522      0.0054122779   2.293954       740.02905     -15.933133      724.09591    
   1127000   301.72189      0.0054122779   2.876438       748.58033     -14.82425       733.75608    
   1128000   303.04786      0.0054122779   3.7855104      751.87009     -12.525733      739.34436    
   1129000   303.89484      0.0054122779   3.9508199      753.97148     -13.288778      740.6827     
   1130000   294.33916      0.0054122779   2.4687601      730.26358     -12.888534      717.37504    
   1131000   307.71848      0.0054122779   3.0759876      763.45802     -12.146202      751.31182    
   1132000   311.03931      0.0054122779   4.6124189      771.69709     -12.398517      759.29857    
   1133000   291.07949      0.0054122779   6.2877796      722.17623     -12.324332      709.8519     
   1134000   290.79659      0.0054122779   3.9413093      721.47435     -12.001896      709.47246    
   1135000   301.2235       0.0054122779   2.2240663      747.3438      -11.905482      735.43832    
   1136000   302.04167      0.0054122779   2.3205435      749.37372     -12.1181        737.25562    
   1137000   309.9943       0.0054122779   3.2754133      769.10441     -11.378161      757.72625    
   1138000   325.14684      0.0054122779   3.6116376      806.69828     -12.127302      794.57098    
   1139000   301.32177      0.0054122779   2.9492458      747.58762     -12.649968      734.93765    
   1140000   292.99254      0.0054122779   1.2078639      726.92256     -13.120481      713.80208    
   1141000   299.17602      0.0054122779   2.5307135      742.26394     -13.128101      729.13584    
   1142000   305.01817      0.0054122779   3.1759345      756.7585      -12.517979      744.24052    
   1143000   312.04641      0.0054122779   3.7347639      774.19575     -13.443553      760.75219    
   1144000   285.7944       0.0054122779   2.3240345      709.06378     -12.10423       696.95955    
   1145000   297.47195      0.0054122779   2.4416822      738.03611     -14.711283      723.32483    
   1146000   320.21868      0.0054122779   4.9605318      794.47136     -16.388602      778.08276    
   1147000   305.15434      0.0054122779   3.0389319      757.09633     -16.797069      740.29926    
   1148000   279.59099      0.0054122779   2.2933961      693.67294     -14.833008      678.83994    
   1149000   302.88169      0.0054122779   3.233501       751.45781     -17.206105      734.2517     
   1150000   303.41479      0.0054122779   3.2918902      752.78046     -14.257692      738.52277    
   1151000   302.31329      0.0054122779   2.8507064      750.04761     -18.231908      731.8157     
   1152000   292.17661      0.0054122779   3.1938464      724.89823     -15.169865      709.72836    
   1153000   308.25389      0.0054122779   2.9804146      764.7864      -14.412283      750.37412    
   1154000   312.5992       0.0054122779   2.7479094      775.56723     -15.104672      760.46255    
   1155000   298.6424       0.0054122779   1.6963821      740.94002     -11.528685      729.41134    
   1156000   287.69772      0.0054122779   1.7560924      713.78597     -11.46592       702.32005    
   1157000   294.59579      0.0054122779   4.2900464      730.90027     -11.577756      719.32252    
   1158000   308.62557      0.0054122779   3.654876       765.70854     -12.489772      753.21877    
   1159000   295.37573      0.0054122779   1.9631741      732.83533     -13.669114      719.16622    
   1160000   302.85298      0.0054122779   2.8551383      751.38659     -15.584925      735.80166    
   1161000   302.62986      0.0054122779   2.9419002      750.83302     -14.264833      736.56819    
   1162000   296.96338      0.0054122779   2.9161146      736.77434     -13.454874      723.31947    
   1163000   307.40582      0.0054122779   3.0832159      762.68232     -12.154462      750.52786    
   1164000   303.04834      0.0054122779   3.1576041      751.87129     -12.892073      738.97922    
   1165000   290.55678      0.0054122779   2.9064904      720.87939     -14.811075      706.06831    
   1166000   297.56219      0.0054122779   1.6067727      738.25999     -15.118697      723.14129    
   1167000   306.99865      0.0054122779   3.4926771      761.67212     -16.370937      745.30118    
   1168000   308.64485      0.0054122779   3.1283597      765.75638     -16.757701      748.99867    
   1169000   301.20679      0.0054122779   3.2002197      747.30234     -14.683383      732.61896    
   1170000   293.78982      0.0054122779   2.8375163      728.90064     -12.975118      715.92552    
   1171000   294.87765      0.0054122779   2.9912969      731.59957     -13.716941      717.88263    
   1172000   313.86532      0.0054122779   3.0353847      778.70852     -14.69891       764.00961    
   1173000   308.17098      0.0054122779   3.3250181      764.5807      -15.678821      748.90188    
   1174000   298.01209      0.0054122779   2.9003565      739.37621     -15.038897      724.33731    
   1175000   289.65299      0.0054122779   2.9810013      718.63706     -15.03754       703.59952    
   1176000   299.38255      0.0054122779   4.5003506      742.77636     -13.53978       729.23658    
   1177000   304.61337      0.0054122779   2.9075071      755.75417     -13.638406      742.11577    
   1178000   295.6222       0.0054122779   2.7402405      733.44683     -13.195906      720.25092    
   1179000   304.75205      0.0054122779   1.2493143      756.09823     -13.898749      742.19948    
   1180000   304.04945      0.0054122779   3.9647744      754.35507     -14.151876      740.2032     
   1181000   305.99084      0.0054122779   3.3793905      759.1717      -13.599396      745.57231    
   1182000   305.44657      0.0054122779   4.1678524      757.82136     -12.602218      745.21914    
   1183000   296.75399      0.0054122779   1.1031225      736.25483     -13.334115      722.92072    
   1184000   296.09724      0.0054122779   1.7620614      734.62542     -11.467527      723.1579     
   1185000   299.43487      0.0054122779   4.1633145      742.90617     -12.256793      730.64938    
   1186000   308.93867      0.0054122779   4.8469159      766.48535     -11.707191      754.77816    
   1187000   293.28989      0.0054122779   1.087735       727.66029     -12.516115      715.14418    
   1188000   290.16364      0.0054122779   3.8374688      719.90399     -11.559134      708.34486    
   1189000   302.9681       0.0054122779   3.2365167      751.67221     -9.887996       741.78422    
   1190000   315.15614      0.0054122779   3.2611845      781.91108     -9.7602403      772.15084    
   1191000   312.76559      0.0054122779   2.0260805      775.98005     -9.4681066      766.51194    
   1192000   290.69959      0.0054122779   2.2292246      721.23371     -10.436915      710.79679    
   1193000   293.36461      0.0054122779   3.4754969      727.84568     -9.5094504      718.33623    
   1194000   316.49855      0.0054122779   5.4858976      785.24162     -7.9189715      777.32265    
   1195000   308.37146      0.0054122779   2.7256423      765.0781      -10.164903      754.91319    
   1196000   285.71134      0.0054122779   2.6768967      708.85771     -9.0727558      699.78496    
   1197000   295.686        0.0054122779   3.347541       733.60512     -8.9131841      724.69193    
   1198000   321.50416      0.0054122779   3.1060107      797.66067     -9.6657121      787.99496    
   1199000   310.08892      0.0054122779   2.6466589      769.33915     -10.075111      759.26404    
   1200000   290.88007      0.0054122779   2.9289161      721.68148     -10.579922      711.10155    
   1201000   288.76066      0.0054122779   3.4103968      716.42315     -10.241313      706.18183    
   1202000   301.77229      0.0054122779   3.3553186      748.70536     -10.299602      738.40576    
   1203000   307.45825      0.0054122779   1.8407955      762.8124      -10.261275      752.55112    
   1204000   292.17018      0.0054122779   2.8037684      724.88227     -12.469307      712.41296    
   1205000   290.45235      0.0054122779   3.5223324      720.62028     -12.782392      707.83789    
   1206000   302.46817      0.0054122779   3.7585371      750.43186     -12.464121      737.96774    
   1207000   306.16925      0.0054122779   2.3564433      759.61435     -15.990628      743.62372    
   1208000   300.57545      0.0054122779   2.3797084      745.73597     -14.827396      730.90857    
   1209000   286.99405      0.0054122779   3.4450765      712.04015     -14.486149      697.554      
   1210000   296.21864      0.0054122779   3.6956617      734.92662     -11.220499      723.70612    
   1211000   312.42072      0.0054122779   2.9386608      775.12443     -11.880282      763.24414    
   1212000   305.177        0.0054122779   2.1941912      757.15256     -14.6719        742.48066    
   1213000   282.75332      0.0054122779   2.80426        701.51878     -12.33185       689.18693    
   1214000   291.0381       0.0054122779   2.1722026      722.07354     -14.916617      707.15692    
   1215000   301.96323      0.0054122779   2.7605814      749.17909     -16.153026      733.02606    
   1216000   307.72689      0.0054122779   3.1910507      763.47889     -13.253317      750.22557    
   1217000   300.37297      0.0054122779   2.8970786      745.23363     -13.109834      732.12379    
   1218000   285.40373      0.0054122779   2.9418053      708.09453     -12.653324      695.4412     
   1219000   282.10772      0.0054122779   2.84044        699.91704     -12.066699      687.85034    
   1220000   315.40805      0.0054122779   3.9905103      782.53607     -12.663995      769.87207    
   1221000   301.26462      0.0054122779   2.8813153      747.44582     -14.552684      732.89313    
   1222000   283.24623      0.0054122779   3.3214291      702.74171     -11.958861      690.78285    
   1223000   307.65901      0.0054122779   2.0631517      763.31049     -14.955066      748.35542    
   1224000   306.02004      0.0054122779   3.2408749      759.24415     -14.231766      745.01239    
   1225000   301.03032      0.0054122779   3.2802692      746.86452     -16.477127      730.3874     
   1226000   298.61012      0.0054122779   3.5346887      740.85993     -13.322169      727.53776    
   1227000   301.10381      0.0054122779   2.3578261      747.04686     -13.171023      733.87584    
   1228000   300.30986      0.0054122779   2.4166722      745.07704     -14.970538      730.1065     
   1229000   299.55324      0.0054122779   3.2071896      743.19986     -15.81449       727.38537    
   1230000   295.48568      0.0054122779   2.9568666      733.10812     -12.11957       720.98855    
   1231000   298.66177      0.0054122779   3.2332725      740.98809     -15.127004      725.86108    
   1232000   301.05936      0.0054122779   2.5744083      746.93656     -16.29613       730.64043    
   1233000   297.40422      0.0054122779   3.6754566      737.86806     -10.767413      727.10065    
   1234000   290.7303       0.0054122779   2.4404297      721.3099      -10.381611      710.92829    
   1235000   320.07408      0.0054122779   1.9813985      794.11261     -12.37343       781.73918    
   1236000   302.60908      0.0054122779   3.4017714      750.78146     -11.180204      739.60126    
   1237000   288.09369      0.0054122779   2.8329835      714.76839     -10.109599      704.65879    
   1238000   304.17127      0.0054122779   2.9540481      754.65732     -13.022235      741.63508    
   1239000   304.34114      0.0054122779   5.3308196      755.07875     -11.966343      743.11241    
   1240000   297.02961      0.0054122779   1.6226655      736.93866     -11.793311      725.14535    
   1241000   304.74681      0.0054122779   3.1967622      756.08524     -12.889561      743.19568    
   1242000   303.81875      0.0054122779   3.1073214      753.7827      -12.145666      741.63703    
   1243000   290.52678      0.0054122779   5.2043271      720.80496     -14.304184      706.50078    
   1244000   301.96217      0.0054122779   1.0120453      749.17648     -13.969426      735.20705    
   1245000   305.66532      0.0054122779  -0.15733338     758.36409     -13.101933      745.26215    
   1246000   301.8858       0.0054122779   4.1126443      748.987       -12.188513      736.79849    
   1247000   305.79989      0.0054122779   3.6651694      758.69795     -11.24888       747.44907    
   1248000   298.29591      0.0054122779   3.3973217      740.08038     -13.173649      726.90673    
   1249000   307.1345       0.0054122779  -2.6472027      762.00917     -12.3089        749.70027    
   1250000   305.38561      0.0054122779   4.7549245      757.67011     -12.621902      745.04821    
   1251000   287.30541      0.0054122779   6.9085409      712.81265     -15.405634      697.40702    
   1252000   297.33809      0.0054122779   2.7351123      737.70399     -15.620527      722.08346    
   1253000   308.00656      0.0054122779   2.7642024      764.17278     -15.882944      748.28983    
   1254000   284.59934      0.0054122779   4.7243574      706.0988      -16.008401      690.0904     
   1255000   299.55635      0.0054122779   2.4241447      743.20755     -18.664429      724.54312    
   1256000   311.94552      0.0054122779   3.3225632      773.94542     -13.832831      760.11259    
   1257000   311.53354      0.0054122779   4.0871522      772.92331     -13.805239      759.11807    
   1258000   288.75255      0.0054122779   2.7360676      716.40304     -15.476077      700.92696    
   1259000   294.13413      0.0054122779   2.7868905      729.75488     -14.278099      715.47678    
   1260000   304.09298      0.0054122779   2.6367118      754.46308     -14.212785      740.25029    
   1261000   310.14458      0.0054122779   3.0669796      769.47726     -16.108909      753.36836    
   1262000   298.39308      0.0054122779   2.9684046      740.32146     -14.549703      725.77176    
   1263000   282.81366      0.0054122779   2.7481815      701.66847     -14.548349      687.12013    
   1264000   302.40979      0.0054122779   3.0210209      750.28703     -16.835249      733.45178    
   1265000   312.5557       0.0054122779   2.8003437      775.4593      -15.962396      759.4969     
   1266000   302.38398      0.0054122779   1.7839043      750.223       -16.379115      733.84389    
   1267000   291.92935      0.0054122779   3.3951005      724.28476     -17.870962      706.4138     
   1268000   295.62488      0.0054122779   3.6784033      733.45347     -16.946167      716.50731    
   1269000   300.98714      0.0054122779   3.2632684      746.75738     -16.832763      729.92462    
   1270000   310.13292      0.0054122779   2.1551603      769.44833     -16.763939      752.6844     
   1271000   289.97148      0.0054122779   1.0658161      719.42723     -16.846006      702.58123    
   1272000   294.17503      0.0054122779   5.1907758      729.85636     -17.928553      711.92781    
   1273000   313.18748      0.0054122779   2.4468575      777.02676     -17.506433      759.52033    
   1274000   298.32418      0.0054122779   2.6164187      740.15052     -15.430397      724.72013    
   1275000   295.32649      0.0054122779   2.2745559      732.71315     -16.837349      715.8758     
   1276000   304.01583      0.0054122779   3.3438726      754.27166     -18.504243      735.76742    
   1277000   319.79576      0.0054122779   3.8982069      793.42209     -19.507501      773.91459    
   1278000   290.73645      0.0054122779   2.0960894      721.32514     -19.161185      702.16396    
   1279000   296.42743      0.0054122779   3.1959503      735.44463     -16.568329      718.8763     
   1280000   301.41237      0.0054122779   3.2551854      747.81241     -17.651604      730.16081    
   1281000   317.09334      0.0054122779   2.616973       786.71732     -18.453061      768.26426    
   1282000   303.03446      0.0054122779   3.2204514      751.83686     -19.686313      732.15054    
   1283000   285.75379      0.0054122779   2.7003162      708.96303     -22.408762      686.55427    
   1284000   307.89057      0.0054122779   3.4547967      763.88498     -20.389173      743.49581    
   1285000   307.4425       0.0054122779   2.8475648      762.77332     -19.382125      743.39119    
   1286000   302.58761      0.0054122779   1.7665271      750.7282      -15.586695      735.14151    
   1287000   289.03886      0.0054122779   3.3004479      717.11337     -15.032031      702.08134    
   1288000   313.94908      0.0054122779   3.0274978      778.91632     -14.496469      764.41985    
   1289000   317.64517      0.0054122779   3.5203213      788.08642     -14.383483      773.70294    
   1290000   295.73071      0.0054122779   2.7512157      733.71603     -16.541901      717.17413    
   1291000   293.60611      0.0054122779   2.6840465      728.44485     -18.633778      709.81107    
   1292000   310.94676      0.0054122779   2.8372132      771.46747     -17.209474      754.258      
   1293000   312.66545      0.0054122779   3.6437583      775.7316      -12.999327      762.73227    
   1294000   300.78024      0.0054122779   4.1156619      746.24408     -11.822677      734.4214     
   1295000   282.34152      0.0054122779   2.0083552      700.49708     -12.97894       687.51814    
   1296000   300.27694      0.0054122779   1.7533165      744.99536     -14.693004      730.30235    
   1297000   308.82726      0.0054122779   2.1343195      766.20894     -11.772697      754.43624    
   1298000   311.63531      0.0054122779   3.1094887      773.17579     -14.131299      759.04449    
   1299000   294.30293      0.0054122779   3.9655478      730.17368     -14.71236       715.46132    
   1300000   296.65452      0.0054122779   2.2826377      736.00804     -11.120351      724.88769    
   1301000   322.37341      0.0054122779   3.298208       799.81731     -12.592593      787.22472    
   1302000   298.2174       0.0054122779   4.0666909      739.88559     -14.691402      725.19419    
   1303000   295.52121      0.0054122779   3.3424932      733.19627     -13.688082      719.50818    
   1304000   305.70878      0.0054122779   1.7646973      758.47191     -14.801738      743.67017    
   1305000   312.23008      0.0054122779   2.0117788      774.65144     -13.551941      761.0995     
   1306000   295.63553      0.0054122779   3.3107386      733.47991     -13.105367      720.37454    
   1307000   298.90226      0.0054122779   3.1287135      741.58475     -14.107919      727.47683    
   1308000   297.55476      0.0054122779   2.0704559      738.24156     -14.559018      723.68254    
   1309000   308.01432      0.0054122779   2.4597802      764.19202     -20.029818      744.1622     
   1310000   323.34021      0.0054122779   2.672277       802.21597     -20.289381      781.92659    
   1311000   300.90127      0.0054122779   4.2423485      746.54435     -19.585247      726.95911    
   1312000   290.26084      0.0054122779   3.4980134      720.14515     -18.759113      701.38604    
   1313000   303.11149      0.0054122779   2.9538938      752.02796     -16.116593      735.91137    
   1314000   305.79502      0.0054122779   2.2541538      758.68587     -13.670432      745.01544    
   1315000   294.31726      0.0054122779   3.3213049      730.20923     -13.729161      716.48007    
   1316000   295.10602      0.0054122779   3.2542055      732.16617     -14.734389      717.43178    
   1317000   304.39828      0.0054122779   3.0096575      755.22051     -15.039243      740.18127    
   1318000   304.63239      0.0054122779   4.0257978      755.80136     -17.037644      738.76371    
   1319000   297.42027      0.0054122779   1.7997983      737.90788     -14.790062      723.11782    
   1320000   291.21661      0.0054122779   1.9119085      722.51643     -15.948973      706.56746    
   1321000   294.74063      0.0054122779   1.8443925      731.25963     -14.11786       717.14177    
   1322000   291.861        0.0054122779   4.90707        724.11518     -11.217481      712.8977     
   1323000   307.6312       0.0054122779   3.2451259      763.24148     -12.537771      750.70371    
   1324000   302.57679      0.0054122779   2.0031354      750.70137     -15.058098      735.64327    
   1325000   287.17918      0.0054122779   6.4437105      712.49947     -15.301114      697.19836    
   1326000   299.99793      0.0054122779   3.1594782      744.30312     -9.371856       734.93127    
   1327000   298.5954       0.0054122779   0.42583371     740.82343     -10.57622       730.24721    
   1328000   306.9767       0.0054122779   2.8069359      761.61765     -9.8203965      751.79725    
   1329000   303.30289      0.0054122779   3.3677241      752.50282     -10.082795      742.42002    
   1330000   301.43178      0.0054122779   3.5922269      747.86055     -10.694873      737.16568    
   1331000   309.09683      0.0054122779   4.9346677      766.87775     -10.944641      755.93311    
   1332000   304.05207      0.0054122779   2.4064797      754.36156     -13.960288      740.40127    
   1333000   295.28758      0.0054122779   2.1119331      732.61664     -12.995774      719.62086    
   1334000   290.63873      0.0054122779   3.2605733      721.08271     -12.789448      708.29326    
   1335000   298.07261      0.0054122779   3.996331       739.52635     -12.940456      726.58589    
   1336000   308.70831      0.0054122779   2.5769365      765.91383     -12.614793      753.29903    
   1337000   305.59149      0.0054122779   2.5731515      758.18092     -13.110792      745.07013    
   1338000   290.96064      0.0054122779   4.2142041      721.88136     -13.369523      708.51184    
   1339000   303.31129      0.0054122779   4.8800401      752.52367     -10.648031      741.87564    
   1340000   310.30967      0.0054122779   1.8934828      769.88686     -14.866396      755.02046    
   1341000   284.35527      0.0054122779   2.2188097      705.49326     -12.327136      693.16612    
   1342000   287.78595      0.0054122779   4.103059       714.00487     -12.411344      701.59352    
   1343000   309.09284      0.0054122779   1.9035933      766.86784     -9.7208368      757.14701    
   1344000   298.48894      0.0054122779   2.258095       740.55928     -9.2471203      731.31216    
   1345000   292.57086      0.0054122779   4.3685978      725.87638     -9.8994748      715.97691    
   1346000   300.06239      0.0054122779   3.7088916      744.46305     -8.6796808      735.78337    
   1347000   297.86678      0.0054122779   0.42498724     739.01569     -11.115342      727.90035    
   1348000   297.79582      0.0054122779  -0.89482193     738.83963     -9.8139688      729.02567    
   1349000   292.46768      0.0054122779   2.3765062      725.62038     -11.933152      713.68723    
   1350000   288.8561       0.0054122779   2.1880917      716.65994     -10.657226      706.00271    
   1351000   308.56933      0.0054122779   7.9286355      765.56902     -9.0382041      756.53082    
   1352000   315.00806      0.0054122779   5.0282939      781.54369     -10.888047      770.65564    
   1353000   289.61887      0.0054122779   2.878667       718.55239     -12.255941      706.29645    
   1354000   297.86656      0.0054122779   1.7784553      739.01514     -13.878499      725.13664    
   1355000   306.47078      0.0054122779   5.4240476      760.36245     -13.124748      747.2377     
   1356000   312.56641      0.0054122779   6.4182259      775.48588     -13.45583       762.03005    
   1357000   295.91843      0.0054122779  -0.2789534      734.18178     -11.100027      723.08175    
   1358000   295.11974      0.0054122779   2.9907005      732.20021     -10.529934      721.67027    
   1359000   303.00477      0.0054122779   9.2468445      751.76319     -13.406054      738.35713    
   1360000   312.76772      0.0054122779   6.1275279      775.98534     -12.357389      763.62795    
   1361000   303.35974      0.0054122779  -1.2793088      752.64389     -13.731577      738.91231    
   1362000   292.27701      0.0054122779   3.2022647      725.14732     -12.434148      712.71317    
   1363000   310.0734       0.0054122779   4.6677884      769.30065     -13.868086      755.43256    
   1364000   311.30381      0.0054122779  -0.36604427     772.35333     -11.926513      760.42681    
   1365000   297.05807      0.0054122779  -1.5011383      737.00926     -10.809899      726.19936    
   1366000   292.7286       0.0054122779   3.9759029      726.26772     -10.593898      715.67382    
   1367000   309.77108      0.0054122779   4.639495       768.5506      -10.873426      757.67717    
   1368000   301.11182      0.0054122779   0.50472625     747.06673     -15.636514      731.43021    
   1369000   294.51503      0.0054122779   5.70514        730.6999      -14.513575      716.18633    
   1370000   299.75337      0.0054122779   6.492862       743.69637     -15.689781      728.00659    
   1371000   299.96694      0.0054122779   3.0802472      744.22625     -10.932581      733.29367    
   1372000   305.44475      0.0054122779  -1.2062308      757.81684     -14.254504      743.56234    
   1373000   302.2415       0.0054122779   3.3198769      749.8695      -13.313046      736.55645    
   1374000   316.92454      0.0054122779   4.2358786      786.29853     -15.739514      770.55902    
   1375000   295.26788      0.0054122779   0.2074292      732.56775     -15.635404      716.93234    
   1376000   297.75329      0.0054122779   3.5229374      738.73412     -15.921762      722.81235    
   1377000   310.58714      0.0054122779   4.0542112      770.57527     -12.581046      757.99422    
   1378000   299.17059      0.0054122779   2.7082349      742.25047     -11.89687       730.3536     
   1379000   290.63545      0.0054122779   2.9518778      721.07457     -8.8359547      712.23861    
   1380000   307.56865      0.0054122779   4.4057258      763.0863      -9.9801915      753.10611    
   1381000   309.98127      0.0054122779   3.4473624      769.07208     -10.77151       758.30057    
   1382000   291.27019      0.0054122779   3.6292869      722.64937     -11.246377      711.40299    
   1383000   286.10536      0.0054122779   2.9778354      709.83528     -11.335733      698.49955    
   1384000   298.37181      0.0054122779   2.8997655      740.26869     -11.873589      728.3951     
   1385000   310.18694      0.0054122779   2.9656169      769.58235     -11.485522      758.09683    
   1386000   295.32961      0.0054122779   3.0760526      732.7209      -10.266608      722.45429    
   1387000   303.0012       0.0054122779   3.4947314      751.75432     -12.167627      739.58669    
   1388000   297.75107      0.0054122779   4.5745846      738.72861     -14.618253      724.11036    
   1389000   304.05223      0.0054122779   2.4700345      754.36197     -15.332448      739.02953    
   1390000   311.16666      0.0054122779   3.0223971      772.01305     -14.71545       757.2976     
   1391000   296.97745      0.0054122779   4.0650948      736.80925     -15.090392      721.71885    
   1392000   287.36004      0.0054122779   2.9483255      712.94819     -15.220222      697.72797    
   1393000   303.53485      0.0054122779   2.0034046      753.07832     -15.381244      737.69708    
   1394000   308.15644      0.0054122779   3.5251757      764.54462     -14.495891      750.04873    
   1395000   300.49148      0.0054122779   2.8846402      745.52766     -15.610961      729.9167     
   1396000   304.87918      0.0054122779   3.1693729      756.41365     -10.927865      745.48579    
   1397000   298.50959      0.0054122779   3.0405023      740.61051     -10.958636      729.65187    
   1398000   307.73759      0.0054122779   3.369761       763.50543     -10.773272      752.73216    
   1399000   300.68493      0.0054122779   3.6662382      746.00761     -11.441768      734.56584    
   1400000   290.06685      0.0054122779   2.7023967      719.66386     -11.559038      708.10482    
   1401000   291.12933      0.0054122779   0.90952819     722.29989     -12.185445      710.11444    
   1402000   319.74993      0.0054122779   2.3946977      793.30838     -10.475268      782.83311    
   1403000   296.62074      0.0054122779   4.6974389      735.92422     -9.7021821      726.22204    
   1404000   302.55431      0.0054122779   0.6890038      750.64559     -11.738812      738.90677    
   1405000   305.75833      0.0054122779   2.8345412      758.59485     -11.734706      746.86014    
   1406000   303.46744      0.0054122779   4.2465647      752.91108     -9.0602018      743.85088    
   1407000   299.57294      0.0054122779   5.812967       743.24871     -7.8603297      735.38839    
   1408000   301.18796      0.0054122779   0.28496688     747.25564     -9.5679886      737.68765    
   1409000   303.1257       0.0054122779   1.9670881      752.06322     -9.4157458      742.64747    
   1410000   290.70239      0.0054122779   5.9647385      721.24065     -11.673404      709.56724    
   1411000   302.21523      0.0054122779   3.8452649      749.80433     -11.888162      737.91617    
   1412000   298.87569      0.0054122779   2.9062012      741.51882     -9.4171794      732.10164    
   1413000   289.7628       0.0054122779   2.8675763      718.9095      -8.939358       709.97014    
   1414000   322.92749      0.0054122779   4.6559184      801.192       -11.728917      789.46308    
   1415000   317.63715      0.0054122779   1.6815751      788.06652     -10.710896      777.35562    
   1416000   288.96794      0.0054122779   3.8770564      716.93742     -13.026478      703.91095    
   1417000   299.11911      0.0054122779   2.5687669      742.12275     -8.8480047      733.27475    
   1418000   305.5796       0.0054122779   2.9882657      758.15142     -9.7091972      748.44222    
   1419000   304.7757       0.0054122779   3.9347564      756.15691     -10.634272      745.52264    
   1420000   291.264        0.0054122779   3.1763055      722.63401     -13.040551      709.59346    
   1421000   295.36003      0.0054122779   2.9596039      732.79637     -14.640042      718.15633    
   1422000   311.7963       0.0054122779   1.3943538      773.57522     -12.669246      760.90597    
   1423000   309.2717       0.0054122779   6.0026944      767.31162     -11.186709      756.12491    
   1424000   291.84982      0.0054122779   3.541146       724.08746     -12.313684      711.77377    
   1425000   296.39967      0.0054122779   2.7245828      735.37576     -9.2937758      726.08198    
   1426000   313.00414      0.0054122779   3.0428776      776.5719      -12.594975      763.97692    
   1427000   308.38667      0.0054122779   3.4399649      765.11583     -13.781763      751.33407    
   1428000   294.92195      0.0054122779   2.9846109      731.7095      -13.185124      718.52437    
   1429000   298.74779      0.0054122779   3.3739626      741.2015      -12.186974      729.01453    
   1430000   305.92024      0.0054122779   3.1446508      758.99655     -9.6696376      749.32691    
   1431000   305.95308      0.0054122779   3.5885593      759.07802     -11.667967      747.41005    
   1432000   288.64474      0.0054122779   3.059189       716.13555     -11.784651      704.3509     
   1433000   301.20009      0.0054122779   3.0717141      747.28572     -10.037253      737.24846    
   1434000   306.86241      0.0054122779   2.7990574      761.33409     -13.608968      747.72512    
   1435000   303.06555      0.0054122779   3.1176782      751.91397     -13.38807       738.5259     
   1436000   296.82986      0.0054122779   2.9819777      736.44307     -15.073985      721.36908    
   1437000   292.00685      0.0054122779   3.4331325      724.47704     -15.252881      709.22416    
   1438000   303.98402      0.0054122779   3.0696186      754.19274     -12.695624      741.49711    
   1439000   298.8596       0.0054122779   3.4760287      741.4789      -13.227372      728.25153    
   1440000   291.63407      0.0054122779   2.6947184      723.55217     -11.359179      712.19299    
   1441000   298.59894      0.0054122779   2.1136739      740.83219     -15.2571        725.57509    
   1442000   312.36505      0.0054122779   3.0546304      774.98629     -16.33973       758.64656    
   1443000   303.18771      0.0054122779   1.5747854      752.21706     -12.714379      739.50268    
   1444000   287.61853      0.0054122779   3.1620948      713.58951     -9.2939704      704.29554    
   1445000   303.57455      0.0054122779   2.9009361      753.17682     -8.8623522      744.31446    
   1446000   302.91868      0.0054122779   3.1434455      751.54959     -11.518546      740.03104    
   1447000   303.04316      0.0054122779   3.0329832      751.85843     -9.4726058      742.38582    
   1448000   306.78001      0.0054122779   2.6073526      761.12965     -9.24396        751.88569    
   1449000   298.6155       0.0054122779   4.1631707      740.87328     -8.9332809      731.94       
   1450000   284.00752      0.0054122779   3.1694025      704.63049     -8.976481       695.654      
   1451000   305.75919      0.0054122779   2.3072292      758.59697     -9.0834095      749.51356    
   1452000   305.83813      0.0054122779   2.4797991      758.79283     -8.625127       750.1677     
   1453000   300.81304      0.0054122779   4.3629073      746.32544     -8.9537041      737.37174    
   1454000   298.72696      0.0054122779   3.8299492      741.14982     -12.158457      728.99136    
   1455000   296.34534      0.0054122779   3.169458       735.24095     -11.723711      723.51724    
   1456000   292.48551      0.0054122779   1.3380391      725.6646      -10.277888      715.38671    
   1457000   297.86647      0.0054122779   2.9462788      739.01493     -10.713135      728.3018     
   1458000   306.74983      0.0054122779   2.6852642      761.05479     -11.742855      749.31194    
   1459000   301.68438      0.0054122779   2.7850924      748.48727     -13.047851      735.43942    
   1460000   307.21885      0.0054122779   2.9220724      762.21843     -9.252397       752.96603    
   1461000   299.76719      0.0054122779   4.5427202      743.73065     -12.705886      731.02477    
   1462000   300.46671      0.0054122779   2.7402584      745.46619     -12.286345      733.17985    
   1463000   304.2909       0.0054122779   2.345426       754.95412     -12.932582      742.02154    
   1464000   302.89776      0.0054122779   3.2655823      751.4977      -12.973041      738.52465    
   1465000   296.08449      0.0054122779   3.4800713      734.59379     -12.538537      722.05525    
   1466000   297.11206      0.0054122779   2.9304434      737.14321     -12.788846      724.35436    
   1467000   318.84056      0.0054122779   3.2697673      791.05221     -13.30478       777.74743    
   1468000   300.58955      0.0054122779   3.6783877      745.77097     -14.585348      731.18562    
   1469000   297.98663      0.0054122779   3.4103043      739.31305     -14.962812      724.35024    
   1470000   286.10137      0.0054122779   1.7788759      709.82539     -18.20289       691.6225     
   1471000   305.95953      0.0054122779   2.4244436      759.09402     -17.214647      741.87938    
   1472000   295.42418      0.0054122779   0.6173896      732.95554     -14.294121      718.66142    
   1473000   290.0858       0.0054122779   2.7241749      719.71087     -11.587269      708.1236     
   1474000   305.76962      0.0054122779   3.4614843      758.62285     -11.489052      747.1338     
   1475000   298.59602      0.0054122779   2.8695444      740.82495     -11.303232      729.52171    
   1476000   294.74744      0.0054122779   2.467383       731.27652     -13.881486      717.39503    
   1477000   316.97222      0.0054122779   3.6762714      786.41681     -13.798882      772.61793    
   1478000   298.3481       0.0054122779   3.3457557      740.20986     -13.403151      726.80671    
   1479000   297.21842      0.0054122779   2.844181       737.40709     -13.91444       723.49265    
   1480000   306.09634      0.0054122779   2.7050964      759.43346     -13.37476       746.0587     
   1481000   298.81829      0.0054122779   2.2072088      741.3764      -13.749022      727.62738    
   1482000   293.02691      0.0054122779   2.708889       727.00784     -12.770457      714.23739    
   1483000   290.82378      0.0054122779   3.0244808      721.5418      -12.98635       708.55545    
   1484000   301.37921      0.0054122779   3.0747241      747.73013     -13.061743      734.66839    
   1485000   307.6106       0.0054122779   2.93294        763.19037     -11.046429      752.14394    
   1486000   296.03394      0.0054122779   2.9622383      734.46835     -9.7937135      724.67464    
   1487000   295.35298      0.0054122779   2.4841222      732.77889     -12.311088      720.46781    
   1488000   300.85406      0.0054122779   3.1069537      746.42722     -12.590034      733.83719    
   1489000   303.52107      0.0054122779   3.1721666      753.04413     -13.183462      739.86067    
   1490000   304.99327      0.0054122779   3.2373886      756.69672     -11.945692      744.75103    
   1491000   301.8199       0.0054122779   2.2763362      748.82349     -10.306391      738.5171     
   1492000   288.15555      0.0054122779   1.0244221      714.92187     -10.807093      704.11478    
   1493000   296.41064      0.0054122779   3.4385956      735.40297     -10.889202      724.51377    
   1494000   316.28684      0.0054122779   2.1863997      784.71636     -11.113131      773.60323    
   1495000   307.06197      0.0054122779   1.2578052      761.82921     -11.078625      750.75059    
   1496000   296.95044      0.0054122779   0.14112057     736.74222     -9.7917174      726.9505     
   1497000   290.02064      0.0054122779   3.4874034      719.5492      -9.8501337      709.69907    
   1498000   300.7309       0.0054122779   5.6395241      746.12164     -9.3423366      736.77931    
   1499000   307.69019      0.0054122779   4.3445391      763.38785     -11.947561      751.44029    
   1500000   307.90771      0.0054122779   3.0274631      763.92752     -9.8975067      754.03002    
   1501000   299.34999      0.0054122779   1.0708039      742.69558     -9.5896664      733.10591    
   1502000   287.58524      0.0054122779   2.3960934      713.5069      -11.496202      702.0107     
   1503000   290.03295      0.0054122779   4.675556       719.57973     -8.9428961      710.63684    
   1504000   306.38485      0.0054122779   3.2635969      760.14926     -9.0928809      751.05638    
   1505000   308.22552      0.0054122779   2.1644472      764.71601     -13.143424      751.57259    
   1506000   291.86375      0.0054122779   3.6591023      724.12202     -12.128549      711.99347    
   1507000   298.67092      0.0054122779   3.2682195      741.01079     -11.276378      729.73442    
   1508000   306.3429       0.0054122779   1.7438718      760.04518     -8.5142696      751.53091    
   1509000   302.35613      0.0054122779   1.9662506      750.15388     -8.1750991      741.97878    
   1510000   290.19642      0.0054122779   3.2270678      719.98532     -9.2519004      710.73342    
   1511000   304.44059      0.0054122779   4.5287455      755.3255      -11.355088      743.97041    
   1512000   300.0389       0.0054122779   0.98146165     744.40478     -9.8824717      734.5223     
   1513000   283.71762      0.0054122779   1.8875646      703.91123     -12.159011      691.75222    
   1514000   300.58431      0.0054122779   4.0365835      745.75795     -12.974654      732.78329    
   1515000   309.14342      0.0054122779   3.2654011      766.99334     -13.719383      753.27395    
   1516000   295.98973      0.0054122779   2.0612293      734.35869     -12.772915      721.58577    
   1517000   294.87308      0.0054122779   4.1833614      731.58823     -11.902002      719.68623    
   1518000   307.0607       0.0054122779   2.4207358      761.82607     -11.593668      750.2324     
   1519000   309.56516      0.0054122779   2.5942003      768.0397      -11.165284      756.87441    
   1520000   291.71821      0.0054122779   2.8230815      723.76091     -13.39051       710.3704     
   1521000   289.75755      0.0054122779   2.8920888      718.89648     -12.933636      705.96284    
   1522000   310.22765      0.0054122779   3.1924056      769.68335     -14.101965      755.58139    
   1523000   307.61014      0.0054122779   2.9691757      763.18923     -11.975256      751.21398    
   1524000   298.83649      0.0054122779   2.7078312      741.42158     -13.176031      728.24555    
   1525000   281.26429      0.0054122779   2.8897148      697.82445     -14.299061      683.52539    
   1526000   314.98133      0.0054122779   3.0202161      781.47736     -13.930227      767.54714    
   1527000   301.66055      0.0054122779   2.7049547      748.42814     -13.302442      735.1257     
   1528000   297.82061      0.0054122779   2.6774079      738.90113     -12.260849      726.64028    
   1529000   308.54341      0.0054122779   3.1081529      765.5047      -13.865533      751.63917    
   1530000   307.87513      0.0054122779   3.1513214      763.84669     -14.357732      749.48896    
   1531000   300.04856      0.0054122779   3.3187186      744.42875     -13.631844      730.7969     
   1532000   302.14968      0.0054122779   2.3278856      749.64168     -12.564006      737.07767    
   1533000   299.44965      0.0054122779   3.2265301      742.94285     -9.9436144      732.99923    
   1534000   322.00198      0.0054122779   3.3845802      798.8958      -10.993965      787.90183    
   1535000   295.86143      0.0054122779   2.3404212      734.04037     -12.229851      721.81052    
   1536000   292.11588      0.0054122779   3.4434496      724.74756     -12.900088      711.84747    
   1537000   310.68242      0.0054122779   2.9716052      770.81165     -15.105036      755.70661    
   1538000   304.493        0.0054122779   2.4977363      755.45552     -13.28856       742.16696    
   1539000   290.5977       0.0054122779   1.9052111      720.98091     -12.740692      708.24022    
   1540000   291.44002      0.0054122779   3.2002072      723.07072     -10.047291      713.02343    
   1541000   318.77991      0.0054122779   4.829493       790.90174     -12.362418      778.53932    
   1542000   298.87275      0.0054122779   1.4420267      741.51154     -10.557454      730.95409    
   1543000   279.9975       0.0054122779   3.498335       694.68151     -9.0400506      685.64146    
   1544000   309.67708      0.0054122779   4.0678488      768.31738     -9.6795096      758.63787    
   1545000   302.03217      0.0054122779   3.7932405      749.35013     -14.508398      734.84174    
   1546000   295.46152      0.0054122779  -2.1155676      733.04819     -10.717215      722.33097    
   1547000   273.76796      0.0054122779   1.7990242      679.22587     -10.437569      668.7883     
   1548000   299.17341      0.0054122779   2.8930108      742.25748     -10.797231      731.46025    
   1549000   312.6433       0.0054122779   3.2397636      775.67666     -9.711594       765.96506    
   1550000   300.42304      0.0054122779   2.9813461      745.35784     -8.5356663      736.82217    
   1551000   301.90215      0.0054122779   3.1172206      749.02756     -7.1391114      741.88845    
   1552000   296.51228      0.0054122779   3.0228945      735.65513     -8.4476656      727.20747    
   1553000   301.70807      0.0054122779   2.8926041      748.54605     -7.7380351      740.80801    
   1554000   305.32328      0.0054122779   3.2253167      757.51546     -7.0795955      750.43587    
   1555000   302.57563      0.0054122779   3.1498127      750.69847     -7.9190364      742.77944    
   1556000   283.87035      0.0054122779   2.550729       704.29016     -9.0564646      695.23369    
   1557000   293.10352      0.0054122779   1.6917311      727.19792     -9.8468636      717.35105    
   1558000   308.60902      0.0054122779   3.2526741      765.6675      -9.8794584      755.78804    
   1559000   294.83607      0.0054122779   4.3877436      731.49641     -12.007212      719.4892     
   1560000   289.55953      0.0054122779   2.7538705      718.40517     -10.255574      708.14959    
   1561000   294.37038      0.0054122779   2.5853926      730.34102     -9.3464699      720.99455    
   1562000   305.98559      0.0054122779   2.9240074      759.15867     -8.7419501      750.41672    
   1563000   318.57352      0.0054122779   2.7323392      790.38968     -9.5689025      780.82078    
   1564000   303.68944      0.0054122779   3.5246186      753.46188     -9.7521896      743.70969    
   1565000   284.89942      0.0054122779   3.3343444      706.8433      -8.3304524      698.51285    
   1566000   302.53197      0.0054122779   2.7280359      750.59015     -7.3833181      743.20683    
   1567000   308.61197      0.0054122779   3.9220094      765.6748      -10.630348      755.04445    
   1568000   291.48264      0.0054122779   3.4234849      723.17647     -10.296115      712.88035    
   1569000   297.48531      0.0054122779   2.0759431      738.06926     -9.4788856      728.59038    
   1570000   321.91354      0.0054122779   6.0759767      798.67636     -8.0237621      790.6526     
   1571000   309.93803      0.0054122779   6.5689584      768.96478     -8.4195832      760.5452     
   1572000   286.68004      0.0054122779   2.226509       711.26109     -9.2949632      701.96613    
   1573000   298.6846       0.0054122779   2.6747076      741.04472     -10.99298       730.05175    
   1574000   308.97928      0.0054122779   3.2901631      766.58612     -10.14686       756.43926    
   1575000   298.3653       0.0054122779   5.8421828      740.25253     -11.732727      728.5198     
   1576000   296.78321      0.0054122779   3.0728126      736.32733     -10.716017      725.61131    
   1577000   314.0085       0.0054122779   0.61926398     779.06375     -12.979774      766.08397    
   1578000   309.78053      0.0054122779   4.7175353      768.57403     -11.002167      757.57186    
   1579000   293.36847      0.0054122779   6.259007       727.85527     -11.852128      716.00314    
   1580000   294.33543      0.0054122779   2.5632031      730.25432     -10.245291      720.00903    
   1581000   303.3911       0.0054122779   1.9288778      752.72167     -12.238285      740.48339    
   1582000   301.95998      0.0054122779   2.2224939      749.17104     -13.290226      735.88082    
   1583000   307.43769      0.0054122779   0.61146028     762.76139     -14.105749      748.65564    
   1584000   304.68592      0.0054122779   6.8717748      755.93418     -14.546773      741.3874     
   1585000   306.49457      0.0054122779   2.7918677      760.42148     -13.048446      747.37303    
   1586000   297.92512      0.0054122779   3.1609706      739.16043     -16.349688      722.81074    
   1587000   300.23726      0.0054122779   2.5367145      744.89693     -17.380073      727.51685    
   1588000   312.64833      0.0054122779   1.7064745      775.68912     -12.683471      763.00565    
   1589000   312.88793      0.0054122779   3.0429457      776.28358     -12.385996      763.89758    
   1590000   295.64512      0.0054122779   3.3224028      733.5037      -8.5203469      724.98335    
   1591000   282.02602      0.0054122779   2.9070417      699.71434     -10.892626      688.82171    
   1592000   293.6329       0.0054122779   2.8674274      728.51133     -11.899241      716.61209    
   1593000   297.5117       0.0054122779   2.99161        738.13474     -12.216683      725.91805    
   1594000   308.93358      0.0054122779   2.9898137      766.47273     -10.38453       756.08821    
   1595000   294.25106      0.0054122779   3.1158941      730.04499     -10.902934      719.14206    
   1596000   283.03234      0.0054122779   2.7638566      702.21103     -11.392747      690.81828    
   1597000   294.0623       0.0054122779   2.874073       729.57667     -10.752475      718.8242     
   1598000   314.01708      0.0054122779   3.8680828      779.08502     -10.122405      768.96261    
   1599000   302.79776      0.0054122779   2.7951129      751.24958     -11.899951      739.34963    
   1600000   292.83102      0.0054122779   2.7418787      726.52182     -11.080288      715.44153    
   1601000   303.68294      0.0054122779   2.1667382      753.44574     -10.635263      742.81048    
   1602000   312.11989      0.0054122779   3.0977364      774.37806     -10.841383      763.53667    
   1603000   294.22587      0.0054122779   2.8153022      729.9825      -11.108667      718.87383    
   1604000   301.32519      0.0054122779   2.8987564      747.59609     -12.181265      735.41483    
   1605000   302.93863      0.0054122779   3.9047337      751.59909     -14.395109      737.20398    
   1606000   300.77703      0.0054122779   3.0743782      746.23609     -12.639855      733.59624    
   1607000   289.0814       0.0054122779   2.269238       717.21892     -13.856469      703.36245    
   1608000   283.92459      0.0054122779   3.7562956      704.42473     -9.9654545      694.45928    
   1609000   305.25787      0.0054122779   1.3995211      757.3532      -12.701544      744.65165    
   1610000   311.55374      0.0054122779   3.572737       772.97341     -9.3458459      763.62757    
   1611000   288.2452       0.0054122779   2.7522038      715.14428     -9.7162193      705.42806    
   1612000   296.02224      0.0054122779   2.6497879      734.43933     -10.223695      724.21564    
   1613000   309.54641      0.0054122779   2.7063194      767.99317     -10.25111       757.74206    
   1614000   307.26479      0.0054122779   6.2444576      762.33241     -7.9932247      754.33918    
   1615000   286.22699      0.0054122779   3.3920163      710.13704     -9.7513099      700.38573    
   1616000   302.00065      0.0054122779   1.6564537      749.27193     -9.4339057      739.83803    
   1617000   308.32408      0.0054122779   3.8428229      764.96055     -11.303987      753.65656    
   1618000   308.50373      0.0054122779   4.3584919      765.40626     -11.333631      754.07263    
   1619000   285.79912      0.0054122779   2.125679       709.0755      -10.627283      698.44822    
   1620000   296.42206      0.0054122779   1.9654349      735.43131     -9.9822544      725.44905    
   1621000   305.1557       0.0054122779   2.9645452      757.0997      -10.49807       746.60163    
   1622000   310.27966      0.0054122779   6.4286018      769.81238     -9.4394781      760.3729     
   1623000   288.1746       0.0054122779   2.3125715      714.96913     -9.2329806      705.73615    
   1624000   302.16468      0.0054122779   1.5758653      749.67891     -12.364871      737.31404    
   1625000   311.75566      0.0054122779   3.911371       773.47439     -13.535364      759.93902    
   1626000   295.64226      0.0054122779   4.3200369      733.49661     -12.536889      720.95972    
   1627000   285.7899       0.0054122779   2.9384977      709.05263     -13.066771      695.98586    
   1628000   308.5219       0.0054122779   2.5720219      765.45133     -11.17164       754.27969    
   1629000   303.86343      0.0054122779   3.1643656      753.89355     -11.080959      742.81259    
   1630000   288.77408      0.0054122779   2.8427967      716.45644     -11.217027      705.23942    
   1631000   296.95958      0.0054122779   2.7372343      736.76491     -10.680121      726.08479    
   1632000   315.41637      0.0054122779   3.1567041      782.55671     -11.808914      770.7478     
   1633000   298.10084      0.0054122779   2.9680843      739.5964      -12.076008      727.52039    
   1634000   300.10046      0.0054122779   3.4687337      744.5575      -10.138699      734.4188     
   1635000   302.10579      0.0054122779   3.0578269      749.53278     -12.313891      737.21889    
   1636000   301.61817      0.0054122779   3.1365739      748.323       -7.2767674      741.04623    
   1637000   308.13738      0.0054122779   2.7717059      764.49734     -10.627013      753.87033    
   1638000   291.22535      0.0054122779   2.6620427      722.53813     -9.7806173      712.75751    
   1639000   288.74244      0.0054122779   2.4039714      716.37796     -11.239095      705.13887    
   1640000   305.74143      0.0054122779   3.0188533      758.55292     -10.904189      747.64873    
   1641000   306.10493      0.0054122779   2.9833068      759.45478     -9.3018286      750.15295    
   1642000   289.55163      0.0054122779   3.3374468      718.38557     -10.101901      708.28367    
   1643000   290.95007      0.0054122779   3.7501953      721.85513     -9.6672696      712.18787    
   1644000   310.227        0.0054122779   3.4324982      769.68173     -8.8792129      760.80252    
   1645000   302.94285      0.0054122779  -1.2544015      751.60955     -8.184509       743.42504    
   1646000   281.87282      0.0054122779  -0.2933148      699.33424     -6.6644218      692.66982    
   1647000   303.8884       0.0054122779   3.677876       753.95549     -9.3220153      744.63348    
   1648000   317.12807      0.0054122779   2.7196789      786.80348     -10.773858      776.02962    
   1649000   301.09794      0.0054122779  -1.6960341      747.03228     -6.750403       740.28188    
   1650000   295.06581      0.0054122779   2.222069       732.0664      -9.9293407      722.13706    
   1651000   287.78234      0.0054122779   7.6417         713.99591     -9.7302665      704.26564    
   1652000   312.82666      0.0054122779   4.0155042      776.13156     -10.106925      766.02464    
   1653000   305.45775      0.0054122779   2.1550154      757.8491      -7.9159145      749.93319    
   1654000   294.92794      0.0054122779   0.94107606     731.72435     -8.817667       722.90668    
   1655000   297.34485      0.0054122779   2.9647364      737.72077     -9.6734598      728.04731    
   1656000   311.16844      0.0054122779   9.94359        772.01749     -8.0440826      763.97341    
   1657000   304.43534      0.0054122779   2.0736597      755.31246     -6.6871402      748.62532    
   1658000   301.66363      0.0054122779  -1.1915033      748.43579     -6.2399062      742.19588    
   1659000   287.36581      0.0054122779   1.6023224      712.96248     -8.4887437      704.47374    
   1660000   304.71981      0.0054122779   5.9509219      756.01825     -7.7858633      748.23238    
   1661000   307.28856      0.0054122779   2.8261028      762.39139     -9.457283       752.93411    
   1662000   295.67123      0.0054122779   0.89837154     733.56847     -9.9540805      723.61438    
   1663000   292.06245      0.0054122779   1.2079939      724.615       -10.200829      714.41417    
   1664000   306.5002       0.0054122779   4.8827597      760.43544     -12.288679      748.14676    
   1665000   296.21185      0.0054122779   5.7455375      734.90977     -11.630372      723.2794     
   1666000   297.14931      0.0054122779   2.8961         737.23564     -9.7826871      727.45295    
   1667000   303.26174      0.0054122779   1.1741263      752.40073     -7.408361       744.99236    
   1668000   292.58129      0.0054122779   4.8455846      725.90226     -9.4088717      716.49339    
   1669000   299.26869      0.0054122779   4.4199133      742.49386     -9.116777       733.37709    
   1670000   308.65458      0.0054122779  -0.87368097     765.78052     -9.9656678      755.81486    
   1671000   291.39476      0.0054122779   3.1467782      722.95844     -11.581565      711.37688    
   1672000   298.05822      0.0054122779   3.9681268      739.49067     -14.190623      725.30004    
   1673000   302.73189      0.0054122779   0.94427817     751.08617     -15.432978      735.65319    
   1674000   298.29308      0.0054122779   1.8921484      740.07335     -15.414696      724.65866    
   1675000   298.00161      0.0054122779   3.7857895      739.35021     -11.283482      728.06673    
   1676000   305.01465      0.0054122779   3.1113494      756.74975     -18.058291      738.69146    
   1677000   303.3874       0.0054122779   2.0808001      752.7125      -15.847101      736.8654     
   1678000   304.99058      0.0054122779   1.2615911      756.69003     -14.863768      741.82626    
   1679000   303.24723      0.0054122779   3.4535042      752.36473     -15.179801      737.18493    
   1680000   301.70397      0.0054122779   2.9356313      748.53587     -12.251886      736.28398    
   1681000   297.46928      0.0054122779   3.1357367      738.02948     -12.782431      725.24705    
   1682000   298.82445      0.0054122779   2.7192102      741.39169     -9.9509742      731.44072    
   1683000   301.85413      0.0054122779   1.9004616      748.90841     -7.6544222      741.25398    
   1684000   306.49919      0.0054122779   2.9232068      760.43293     -7.2050231      753.2279     
   1685000   305.16584      0.0054122779   3.9757097      757.12487     -8.2886862      748.83618    
   1686000   304.79398      0.0054122779   3.0331019      756.20227     -8.6830677      747.5192     
   1687000   293.39781      0.0054122779   2.6359822      727.92805     -9.0243094      718.90374    
   1688000   303.61534      0.0054122779   3.1819696      753.27803     -8.5239194      744.75411    
   1689000   306.17634      0.0054122779   2.7754631      759.63194     -9.0861887      750.54575    
   1690000   285.95657      0.0054122779   2.1613844      709.46614     -9.5857333      699.88041    
   1691000   293.34727      0.0054122779   3.6158897      727.80266     -13.336878      714.46578    
   1692000   306.03199      0.0054122779   6.3604686      759.2738      -10.530738      748.74307    
   1693000   313.965        0.0054122779   0.482864       778.95581     -11.031533      767.92428    
   1694000   287.55776      0.0054122779   3.4966296      713.43872     -13.325319      700.1134     
   1695000   285.02805      0.0054122779   4.7002704      707.16245     -10.520028      696.64242    
   1696000   292.00599      0.0054122779   5.2855009      724.47492     -11.55736       712.91756    
   1697000   312.12622      0.0054122779   1.6225659      774.39377     -12.509797      761.88397    
   1698000   296.31401      0.0054122779   3.2987269      735.16322     -11.166245      723.99697    
   1699000   290.28402      0.0054122779   7.222816       720.20267     -10.470613      709.73205    
   1700000   302.71887      0.0054122779   2.0383287      751.05387     -8.6660032      742.38786    
   1701000   306.01497      0.0054122779   0.78880098     759.23156     -8.8962754      750.33529    
   1702000   292.66747      0.0054122779   3.7861969      726.11607     -8.8151515      717.30092    
   1703000   304.95291      0.0054122779   5.4751531      756.59658     -8.8698397      747.72675    
   1704000   300.04676      0.0054122779   2.5750633      744.42428     -10.716062      733.70822    
   1705000   300.78867      0.0054122779   1.0218497      746.26499     -10.506951      735.75804    
   1706000   300.50181      0.0054122779   4.2092046      745.55328     -12.987034      732.56624    
   1707000   303.23411      0.0054122779   2.0913766      752.33217     -12.727353      739.60482    
   1708000   300.48887      0.0054122779   1.9157129      745.52117     -10.938196      734.58298    
   1709000   292.53757      0.0054122779   1.2301446      725.79379     -9.9429855      715.8508     
   1710000   294.54708      0.0054122779   4.527679       730.77942     -9.8510402      720.92838    
   1711000   301.49363      0.0054122779   0.34412583     748.01402     -10.670842      737.34317    
   1712000   301.2034       0.0054122779   2.7601739      747.29393     -12.991475      734.30245    
   1713000   296.68754      0.0054122779   4.6547278      736.08997     -13.953895      722.13607    
   1714000   305.03427      0.0054122779   2.5894523      756.79843     -12.672765      744.12566    
   1715000   296.8047       0.0054122779   1.5271117      736.38065     -10.055996      726.32465    
   1716000   305.01817      0.0054122779   4.5424733      756.75848     -11.365071      745.39341    
   1717000   309.22684      0.0054122779   4.5232198      767.20032     -9.9413165      757.259      
   1718000   294.17404      0.0054122779   1.9654651      729.8539      -10.911893      718.942      
   1719000   292.1102       0.0054122779  -0.31288096     724.73345     -7.0880639      717.64538    
   1720000   301.99955      0.0054122779   3.9905332      749.26921     -9.2441042      740.0251     
   1721000   310.38233      0.0054122779   4.5986808      770.06711     -11.541968      758.52514    
   1722000   301.91912      0.0054122779   2.6987837      749.06966     -11.050781      738.01888    
   1723000   311.21885      0.0054122779   0.10939211     772.14255     -13.82211       758.32044    
   1724000   307.24925      0.0054122779   2.913923       762.29385     -11.664124      750.62973    
   1725000   294.25869      0.0054122779   3.6989957      730.06392     -9.8223864      720.24154    
   1726000   310.83837      0.0054122779   2.6620628      771.19858     -10.896003      760.30257    
   1727000   304.11153      0.0054122779   3.1357928      754.50909     -9.6708497      744.83824    
   1728000   287.54267      0.0054122779   2.9210883      713.40129     -10.116446      703.28485    
   1729000   296.18976      0.0054122779   2.132929       734.85497     -9.9495265      724.90544    
   1730000   320.29998      0.0054122779   2.5807308      794.67308     -11.360836      783.31225    
   1731000   301.90153      0.0054122779   5.1161754      749.02603     -12.293751      736.73228    
   1732000   282.96986      0.0054122779   1.9258276      702.05602     -10.901588      691.15443    
   1733000   309.05683      0.0054122779   2.2419281      766.77852     -13.994269      752.78425    
   1734000   302.52545      0.0054122779   3.0922342      750.57397     -11.631874      738.9421     
   1735000   299.3048       0.0054122779   5.4921861      742.58345     -10.627981      731.95547    
   1736000   302.65727      0.0054122779  -1.4489708      750.90103     -11.096918      739.80411    
   1737000   302.90724      0.0054122779   5.2933054      751.52121     -6.8156968      744.70552    
   1738000   284.88228      0.0054122779   6.1633955      706.80078     -7.6007625      699.20002    
   1739000   297.64057      0.0054122779   0.25242454     738.45446     -8.104873       730.34959    
   1740000   308.33223      0.0054122779   1.2460142      764.98076     -6.9207001      758.06005    
   1741000   324.65722      0.0054122779   2.2933126      805.48351     -6.558127       798.92539    
   1742000   302.03359      0.0054122779   5.4598558      749.35366     -10.123363      739.2303     
   1743000   286.14871      0.0054122779   5.4426124      709.94284     -8.0949433      701.8479     
   1744000   293.02658      0.0054122779   2.3836284      727.00703     -10.562516      716.44451    
   1745000   311.88051      0.0054122779   2.8374072      773.78414     -7.3207644      766.46338    
   1746000   294.69431      0.0054122779   8.0238218      731.1447      -11.940569      719.20413    
   1747000   286.71281      0.0054122779   4.4581626      711.34237     -8.8886189      702.45376    
   1748000   310.39159      0.0054122779   2.6125131      770.0901      -9.2042694      760.88583    
   1749000   315.53504      0.0054122779   0.1679933      782.85114     -11.514798      771.33634    
   1750000   301.52599      0.0054122779   3.3587406      748.0943      -13.854316      734.23999    
   1751000   303.101        0.0054122779   4.1646787      752.00195     -14.102781      737.89916    
   1752000   291.40766      0.0054122779   3.9961044      722.99044     -14.029748      708.96069    
   1753000   289.93812      0.0054122779   2.7710862      719.34448     -12.081094      707.26338    
   1754000   306.05221      0.0054122779   3.3662774      759.32396     -13.334521      745.98944    
   1755000   309.29563      0.0054122779   3.9404606      767.37098     -11.666459      755.70453    
   1756000   299.0596       0.0054122779   3.3300301      741.97511     -12.800882      729.17423    
   1757000   298.72316      0.0054122779   2.8926218      741.1404      -14.322317      726.81808    
   1758000   297.57368      0.0054122779   3.6726401      738.28851     -10.418209      727.8703     
   1759000   309.09326      0.0054122779   3.0309934      766.86889     -12.605131      754.26376    
   1760000   305.51319      0.0054122779   2.8390092      757.98665     -13.6699        744.31675    
   1761000   292.23307      0.0054122779   2.872281       725.0383      -12.84925       712.18905    
   1762000   296.0312       0.0054122779   3.1436847      734.46157     -8.7630765      725.69849    
   1763000   315.52822      0.0054122779   1.0105823      782.83421     -9.187558       773.64665    
   1764000   304.90748      0.0054122779   3.660665       756.48385     -9.6250057      746.85885    
   1765000   282.01808      0.0054122779   3.120197       699.69463     -9.8352731      689.85935    
   1766000   309.92795      0.0054122779   0.70661309     768.9398      -9.2191841      759.72061    
   1767000   308.84342      0.0054122779   2.1719293      766.24903     -13.264605      752.98443    
   1768000   305.9659       0.0054122779   4.4305816      759.10982     -9.90222        749.2076     
   1769000   297.1663       0.0054122779   3.1749676      737.27779     -8.4793399      728.79845    
   1770000   305.73793      0.0054122779   2.7761516      758.54424     -9.5011552      749.04309    
   1771000   302.80859      0.0054122779   3.0834083      751.27647     -10.081853      741.19461    
   1772000   296.62179      0.0054122779   2.9964232      735.92685     -12.920994      723.00585    
   1773000   300.73513      0.0054122779   2.6941751      746.13214     -11.291735      734.8404     
   1774000   301.11486      0.0054122779   2.9310616      747.07428     -10.969638      736.10464    
   1775000   306.13419      0.0054122779   2.6963898      759.52737     -10.668105      748.85927    
   1776000   301.43995      0.0054122779   3.0662838      747.88082     -11.030721      736.8501     
   1777000   289.4499       0.0054122779   3.2467515      718.13319     -8.9624645      709.17073    
   1778000   296.22519      0.0054122779   3.4269151      734.94287     -10.408978      724.53389    
   1779000   298.21459      0.0054122779   3.0432833      739.87861     -9.6623475      730.21626    
   1780000   302.10936      0.0054122779   2.6068523      749.54165     -8.121797       741.41985    
   1781000   309.62887      0.0054122779   2.6887966      768.19776     -10.450578      757.74718    
   1782000   309.50873      0.0054122779   5.236531       767.89968     -9.2539666      758.64572    
   1783000   307.87316      0.0054122779   2.655238       763.84179     -11.250912      752.59088    
   1784000   294.38538      0.0054122779  -0.94638142     730.37824     -9.8048878      720.57335    
   1785000   303.04815      0.0054122779   3.071205       751.87081     -11.723794      740.14702    
   1786000   311.25243      0.0054122779   4.379159       772.22586     -10.817548      761.40831    
   1787000   302.54773      0.0054122779   4.2951789      750.62927     -11.180965      739.4483     
   1788000   299.65416      0.0054122779  -0.72727906     743.45023     -9.0635753      734.38666    
   1789000   304.33065      0.0054122779   3.0678667      755.05274     -8.9500053      746.10273    
   1790000   306.10309      0.0054122779   4.5228158      759.45021     -12.060263      747.38994    
   1791000   302.81017      0.0054122779   3.150091       751.28037     -12.394727      738.88564    
   1792000   294.89957      0.0054122779   2.9431988      731.65396     -13.020262      718.6337     
   1793000   305.54755      0.0054122779   2.9242359      758.07189     -9.8235751      748.24831    
   1794000   294.27082      0.0054122779   2.8597104      730.09403     -9.8199762      720.27405    
   1795000   300.27824      0.0054122779   3.7559049      744.9986      -9.2661206      735.73248    
   1796000   308.1044       0.0054122779   3.2613774      764.4155      -8.5397442      755.87576    
   1797000   293.46938      0.0054122779   2.520958       728.10561     -10.495039      717.61057    
   1798000   303.04109      0.0054122779   2.8669709      751.85329     -10.515887      741.33741    
   1799000   300.70482      0.0054122779   3.7135814      746.05694     -8.1732419      737.88369    
   1800000   310.87559      0.0054122779   1.9701516      771.2909      -7.0853843      764.20552    
   1801000   285.80665      0.0054122779   2.3998457      709.09419     -9.9010403      699.19315    
   1802000   296.34016      0.0054122779   4.7117345      735.22812     -9.8121754      725.41594    
   1803000   300.22603      0.0054122779   3.328186       744.86906     -9.9270865      734.94197    
   1804000   313.52451      0.0054122779   4.4399095      777.86295     -11.393285      766.46966    
   1805000   302.80914      0.0054122779   1.3562496      751.27783     -10.089952      741.18788    
   1806000   294.68623      0.0054122779  -0.09647929     731.12465     -10.470454      720.6542     
   1807000   303.02654      0.0054122779   4.6527032      751.81719     -7.2274228      744.58977    
   1808000   316.53354      0.0054122779   2.2270898      785.32843     -8.1841694      777.14426    
   1809000   301.33324      0.0054122779  -0.49559066     747.61608     -9.239052       738.37702    
   1810000   281.31587      0.0054122779   1.1709917      697.95244     -7.6507626      690.30167    
   1811000   303.36267      0.0054122779   4.6465517      752.65114     -8.5615766      744.08956    
   1812000   302.12249      0.0054122779   8.1979409      749.57423     -9.8852078      739.68902    
   1813000   312.83069      0.0054122779   5.3203667      776.14158     -10.796219      765.34536    
   1814000   292.95087      0.0054122779   1.4515779      726.81919     -13.82038       712.99881    
   1815000   295.80782      0.0054122779   1.2274184      733.90735     -13.325162      720.58219    
   1816000   294.28582      0.0054122779   2.8380374      730.13123     -11.261868      718.86937    
   1817000   302.94528      0.0054122779   6.6186874      751.61558     -14.098714      737.51687    
   1818000   302.35861      0.0054122779   2.6034735      750.16004     -14.42886       735.73118    
   1819000   300.87504      0.0054122779   1.7102817      746.47926     -13.959876      732.51939    
   1820000   300.91792      0.0054122779   2.9336551      746.58565     -15.337491      731.24816    
   1821000   292.41739      0.0054122779   3.6578486      725.49562     -15.479748      710.01587    
   1822000   298.49942      0.0054122779   4.7597175      740.5853      -15.107341      725.47796    
   1823000   303.49871      0.0054122779   2.9571273      752.98867     -12.408731      740.57994    
   1824000   297.59676      0.0054122779   2.1151206      738.34576     -9.9719489      728.37381    
   1825000   298.01126      0.0054122779   4.4053464      739.37416     -12.298211      727.07595    
   1826000   309.50307      0.0054122779   2.9205048      767.88564     -10.68148       757.20416    
   1827000   313.09981      0.0054122779   2.8113273      776.80925     -12.088866      764.72039    
   1828000   310.01033      0.0054122779   4.5839591      769.14417     -11.191172      757.953      
   1829000   289.73362      0.0054122779   2.640888       718.8371      -9.4545705      709.38253    
   1830000   289.33308      0.0054122779   2.4869188      717.84334     -11.023045      706.82029    
   1831000   303.69817      0.0054122779   3.2640465      753.48352     -13.797764      739.68576    
   1832000   299.56016      0.0054122779   2.9791053      743.21702     -12.907956      730.30906    
   1833000   285.35422      0.0054122779   2.4649702      707.97168     -12.398068      695.57362    
   1834000   309.88099      0.0054122779   2.3739766      768.82328     -10.738972      758.08431    
   1835000   313.70018      0.0054122779   4.1374774      778.29879     -10.484755      767.81403    
   1836000   282.39693      0.0054122779   4.3094211      700.63457     -8.9342009      691.70037    
   1837000   298.7866       0.0054122779   1.9427465      741.29779     -13.854073      727.44372    
   1838000   308.02898      0.0054122779   2.3105023      764.2284      -12.26575       751.96265    
   1839000   310.8223       0.0054122779   7.8703713      771.15869     -12.404683      758.75401    
   1840000   293.53062      0.0054122779   3.5368625      728.25756     -12.106947      716.15061    
   1841000   298.28868      0.0054122779   3.1914955      740.06245     -13.528065      726.53438    
   1842000   309.10363      0.0054122779   1.477806       766.89462     -15.792312      751.10231    
   1843000   304.11668      0.0054122779   1.1956741      754.52187     -13.662254      740.85961    
   1844000   297.77489      0.0054122779   3.1100104      738.78771     -14.982876      723.80483    
   1845000   305.24231      0.0054122779   2.6945633      757.31459     -12.206577      745.10802    
   1846000   303.91324      0.0054122779   1.4011902      754.01713     -11.013141      743.00399    
   1847000   294.04523      0.0054122779   4.1719669      729.53433     -12.589134      716.94519    
   1848000   295.63171      0.0054122779   2.2015318      733.47041     -15.945816      717.5246     
   1849000   308.57085      0.0054122779   0.1178547      765.57279     -11.673394      753.8994     
   1850000   302.63018      0.0054122779   5.8729415      750.83381     -12.856567      737.97725    
   1851000   298.8961       0.0054122779   2.3003334      741.56945     -10.598071      730.97138    
   1852000   313.33182      0.0054122779   3.1058424      777.38487     -10.440153      766.94472    
   1853000   308.51439      0.0054122779   3.598433       765.4327      -11.764715      753.66798    
   1854000   295.94678      0.0054122779   3.012662       734.25213     -10.047177      724.20495    
   1855000   289.07512      0.0054122779   3.1020608      717.20334     -11.430657      705.77268    
   1856000   296.12076      0.0054122779   4.8356625      734.68377     -11.062934      723.62084    
   1857000   311.76362      0.0054122779   2.9368896      773.49413     -12.652966      760.84116    
   1858000   293.89309      0.0054122779   0.82032794     729.15687     -10.846477      718.31039    
   1859000   292.40298      0.0054122779   3.9358352      725.45985     -12.85026       712.60959    
   1860000   302.40203      0.0054122779   3.8924035      750.26776     -11.187453      739.08031    
   1861000   323.20802      0.0054122779   1.7351361      801.88802     -7.2347381      794.65328    
   1862000   289.98338      0.0054122779   1.779986       719.45675     -6.6295443      712.82721    
   1863000   303.03389      0.0054122779   3.5082582      751.83543     -7.3373955      744.49803    
   1864000   316.85691      0.0054122779   2.7967699      786.13074     -6.9778035      779.15293    
   1865000   289.30333      0.0054122779   2.7484618      717.76953     -7.5220076      710.24752    
   1866000   280.60499      0.0054122779   2.8382406      696.18873     -7.6473928      688.54133    
   1867000   295.30014      0.0054122779   3.0539817      732.64777     -8.7396564      723.90812    
   1868000   312.24597      0.0054122779   3.5104978      774.69085     -8.0473561      766.6435     
   1869000   303.52284      0.0054122779   2.9322646      753.04853     -10.829971      742.21856    
   1870000   298.49271      0.0054122779   1.3082686      740.56865     -12.506648      728.062      
   1871000   297.79457      0.0054122779   3.4340939      738.83653     -11.501445      727.33509    
   1872000   292.11372      0.0054122779   4.2552408      724.74219     -9.7868486      714.95534    
   1873000   311.49542      0.0054122779   2.7101822      772.82872     -9.7895636      763.03915    
   1874000   295.56924      0.0054122779   2.6984763      733.31542     -6.4857471      726.82968    
   1875000   300.22589      0.0054122779   3.7043254      744.8687      -6.639007       738.2297     
   1876000   306.25559      0.0054122779   3.4095171      759.82855     -8.145531       751.68302    
   1877000   296.50067      0.0054122779   2.8731001      735.62633     -7.9340381      727.69229    
   1878000   293.41065      0.0054122779   3.0996589      727.95992     -12.068599      715.89132    
   1879000   303.8636       0.0054122779   2.872767       753.89396     -9.871688       744.02228    
   1880000   312.85632      0.0054122779   3.2625608      776.20515     -12.209486      763.99566    
   1881000   293.68645      0.0054122779   3.4209833      728.64417     -10.027441      718.61673    
   1882000   288.13419      0.0054122779   6.8808477      714.86886     -10.194552      704.67431    
   1883000   301.23166      0.0054122779   3.5197893      747.36406     -9.8061043      737.55796    
   1884000   287.44459      0.0054122779   2.3287693      713.15794     -8.1379754      705.01997    
   1885000   308.52814      0.0054122779   2.1985622      765.46681     -6.0151986      759.45162    
   1886000   313.39887      0.0054122779   3.7554405      777.55124     -9.1748207      768.37642    
   1887000   288.35569      0.0054122779   2.9060083      715.41842     -7.6614523      707.75697    
   1888000   291.57707      0.0054122779   2.940954       723.41074     -6.6499431      716.7608     
   1889000   306.21365      0.0054122779   2.181943       759.72452     -7.375856       752.34866    
   1890000   310.7997       0.0054122779   3.1258094      771.10262     -8.8788735      762.22375    
   1891000   297.8877       0.0054122779   3.3517939      739.0676      -9.2984819      729.76912    
   1892000   289.1881       0.0054122779   2.9201275      717.48365     -9.1114664      708.37219    
   1893000   299.04999      0.0054122779   2.991543       741.95127     -8.0905556      733.86071    
   1894000   298.58531      0.0054122779   2.9452645      740.79839     -9.0516022      731.74679    
   1895000   308.82928      0.0054122779   3.1788435      766.21395     -10.749314      755.46464    
   1896000   306.61701      0.0054122779   3.9088997      760.72525     -8.4841098      752.24114    
   1897000   298.08677      0.0054122779   2.6319928      739.5615      -7.6869799      731.87452    
   1898000   294.95657      0.0054122779   1.6306571      731.79537     -9.5798257      722.21555    
   1899000   291.01606      0.0054122779   2.9106957      722.01886     -10.376635      711.64223    
   1900000   310.38539      0.0054122779   3.1037041      770.0747      -6.5028406      763.57186    
   1901000   296.04014      0.0054122779   3.0750222      734.48375     -9.0164069      725.46734    
   1902000   293.83492      0.0054122779  -0.7291101      729.01254     -8.6307574      720.38179    
   1903000   302.71605      0.0054122779   4.459379       751.04686     -7.4628464      743.58401    
   1904000   292.41191      0.0054122779   1.8238558      725.48201     -11.474725      714.00729    
   1905000   294.81032      0.0054122779  -0.1349722      731.43253     -10.930942      720.50159    
   1906000   305.0426       0.0054122779   1.6937383      756.81911     -11.23194       745.58717    
   1907000   316.45302      0.0054122779   3.2249486      785.12865     -12.747816      772.38084    
   1908000   308.90207      0.0054122779   5.2690899      766.39455     -11.018456      755.3761     
   1909000   296.18798      0.0054122779   3.0100832      734.85054     -8.4862565      726.36428    
   1910000   298.92108      0.0054122779   2.7634723      741.63143     -11.565522      730.06591    
   1911000   302.41068      0.0054122779   0.3712561      750.28924     -7.8590724      742.43017    
   1912000   311.03261      0.0054122779   6.2878917      771.68049     -8.7887593      762.89173    
   1913000   285.74814      0.0054122779   3.7036526      708.949       -9.2006523      699.74835    
   1914000   293.92613      0.0054122779   0.70986969     729.23884     -9.7397917      719.49905    
   1915000   314.05508      0.0054122779   2.8916068      779.17932     -10.708364      768.47096    
   1916000   301.60847      0.0054122779   3.0539518      748.29894     -10.269701      738.02924    
   1917000   292.54773      0.0054122779   5.9671806      725.81898     -7.0622774      718.7567     
   1918000   301.75613      0.0054122779   2.4987066      748.66527     -7.2319727      741.43329    
   1919000   305.21467      0.0054122779   0.079286488    757.24602     -7.0450757      750.20094    
   1920000   300.3247       0.0054122779   3.2041112      745.11386     -9.0008411      736.11302    
   1921000   292.65075      0.0054122779   3.0530181      726.07457     -7.2497193      718.82485    
   1922000   302.61677      0.0054122779   3.5279689      750.80054     -7.0329364      743.7676     
   1923000   289.66376      0.0054122779   2.7935162      718.66377     -6.3665702      712.2972     
   1924000   304.4847       0.0054122779   3.2080879      755.43493     -8.7275811      746.70735    
   1925000   295.61635      0.0054122779   3.7787967      733.4323      -5.7380911      727.69421    
   1926000   299.89194      0.0054122779   3.3788471      744.04018     -6.6784738      737.36171    
   1927000   305.10644      0.0054122779   2.820178       756.97748     -7.5984251      749.37905    
   1928000   305.26174      0.0054122779   2.8219621      757.36279     -8.4375484      748.92524    
   1929000   294.53031      0.0054122779   4.8850181      730.73781     -9.7171404      721.02067    
   1930000   283.27512      0.0054122779   2.9326302      702.81339     -6.8829664      695.93042    
   1931000   310.12596      0.0054122779   2.4547815      769.43106     -7.756213       761.67485    
   1932000   300.03805      0.0054122779   3.8557208      744.40267     -9.1616954      735.24098    
   1933000   278.62277      0.0054122779   2.2669996      691.27077     -7.3139228      683.95685    
   1934000   297.22033      0.0054122779   2.5520222      737.41183     -12.448804      724.96302    
   1935000   309.79929      0.0054122779   3.325221       768.62058     -11.013737      757.60684    
   1936000   299.07291      0.0054122779   4.2609601      742.00813     -10.544498      731.46363    
   1937000   285.51843      0.0054122779   2.5122532      708.3791      -9.2416884      699.13741    
   1938000   303.07618      0.0054122779   2.3001474      751.94035     -9.3942723      742.54607    
   1939000   314.83471      0.0054122779   3.0668885      781.11359     -8.7113149      772.40227    
   1940000   304.422        0.0054122779   3.7306651      755.27938     -7.4227366      747.85664    
   1941000   286.22112      0.0054122779   2.8335276      710.12248     -6.791453       703.33103    
   1942000   292.30767      0.0054122779   2.7412192      725.22338     -6.9423393      718.28104    
   1943000   305.003        0.0054122779   2.9902985      756.72085     -6.2027948      750.51805    
   1944000   302.58809      0.0054122779   2.7605287      750.72938     -7.350156       743.37923    
   1945000   299.88932      0.0054122779   3.8556376      744.03367     -6.621222       737.41245    
   1946000   288.46803      0.0054122779   3.0235076      715.69712     -6.6503464      709.04678    
   1947000   300.54324      0.0054122779   1.7395852      745.65605     -6.0902601      739.56579    
   1948000   308.67871      0.0054122779   3.1264862      765.8404      -6.2651497      759.57525    
   1949000   297.52582      0.0054122779   3.1806317      738.16976     -7.8309778      730.33878    
   1950000   285.84588      0.0054122779   2.3436359      709.1915      -7.6066114      701.58489    
   1951000   305.41534      0.0054122779   3.2584263      757.74388     -6.1651748      751.57871    
   1952000   304.77448      0.0054122779   2.7702993      756.15389     -8.3012106      747.85268    
   1953000   296.3501       0.0054122779   0.90443072     735.25277     -5.6732712      729.5795     
   1954000   299.32527      0.0054122779   3.0003386      742.63424     -7.5017992      735.13244    
   1955000   293.58346      0.0054122779   4.1498879      728.38866     -4.9946167      723.39404    
   1956000   297.63248      0.0054122779   3.050984       738.43439     -5.3608096      733.07358    
   1957000   296.40295      0.0054122779   2.8915302      735.38388     -5.08501        730.29887    
   1958000   301.7511       0.0054122779   2.6413988      748.6528      -6.8631243      741.78968    
   1959000   307.91635      0.0054122779   3.6625032      763.94895     -5.5064835      758.44246    
   1960000   287.71254      0.0054122779   4.4313375      713.82274     -7.2244293      706.59831    
   1961000   300.88105      0.0054122779   2.8106797      746.49417     -6.5909406      739.90323    
   1962000   294.90549      0.0054122779   2.0982989      731.66865     -8.4310988      723.23755    
   1963000   302.21527      0.0054122779   2.7768896      749.80441     -8.9508048      740.8536     
   1964000   300.5779       0.0054122779   4.7134137      745.74206     -9.436427       736.30564    
   1965000   295.26331      0.0054122779   3.87879        732.55641     -6.8508145      725.7056     
   1966000   293.89763      0.0054122779   1.9975559      729.16812     -9.2141279      719.95399    
   1967000   308.04288      0.0054122779   2.8974867      764.26287     -7.7329212      756.52994    
   1968000   294.72554      0.0054122779   7.280124       731.22218     -5.1957611      726.02642    
   1969000   296.38072      0.0054122779   1.2162805      735.32874     -6.0862171      729.24252    
   1970000   305.82311      0.0054122779   1.9989161      758.75557     -7.7762053      750.97937    
   1971000   312.28856      0.0054122779   4.1023615      774.79654     -7.9926172      766.80392    
   1972000   291.8613       0.0054122779   3.556508       724.11594     -11.13302       712.98292    
   1973000   289.73121      0.0054122779   2.1426751      718.83112     -6.708932       712.12219    
   1974000   295.22758      0.0054122779   2.3605022      732.46777     -10.191286      722.27649    
   1975000   313.83104      0.0054122779   4.8169029      778.62346     -7.8053891      770.81808    
   1976000   297.14814      0.0054122779   3.0492087      737.23272     -9.5647505      727.66797    
   1977000   285.38017      0.0054122779   2.3215428      708.03607     -10.262925      697.77314    
   1978000   303.80576      0.0054122779   3.0260654      753.75047     -11.357351      742.39312    
   1979000   306.00097      0.0054122779   2.9941905      759.19685     -12.209232      746.98762    
   1980000   293.75316      0.0054122779   2.7371182      728.80969     -10.646616      718.16308    
   1981000   297.0848       0.0054122779   2.7466919      737.07557     -8.8604131      728.21515    
   1982000   282.43589      0.0054122779   1.6861152      700.73123     -9.8410712      690.89015    
   1983000   299.25547      0.0054122779   2.7625221      742.46108     -12.7885        729.67258    
   1984000   304.1574       0.0054122779   2.8849397      754.62289     -10.670345      743.95255    
   1985000   304.23912      0.0054122779   2.9370301      754.82565     -8.6083059      746.21734    
   1986000   299.29077      0.0054122779   2.8527838      742.54865     -6.811873       735.73678    
   1987000   291.46513      0.0054122779   2.7398416      723.13303     -8.345753       714.78727    
   1988000   297.27787      0.0054122779   2.9809139      737.55459     -6.2727082      731.28188    
   1989000   323.13628      0.0054122779   2.7892301      801.71003     -6.5815079      795.12852    
   1990000   287.79228      0.0054122779   2.9665929      714.02058     -6.8199295      707.20065    
   1991000   295.29082      0.0054122779   2.8240407      732.62467     -6.3047074      726.31996    
   1992000   306.164        0.0054122779   2.9558415      759.60133     -6.3732506      753.22808    
   1993000   311.81739      0.0054122779   3.5459324      773.62753     -8.4963675      765.13117    
   1994000   293.21375      0.0054122779   2.8511366      727.4714      -7.8743975      719.597      
   1995000   311.74393      0.0054122779   3.7515456      773.44529     -10.194238      763.25106    
   1996000   313.80409      0.0054122779   2.9043307      778.55659     -10.334799      768.2218     
   1997000   287.80653      0.0054122779   2.4256632      714.05592     -9.4941783      704.56174    
   1998000   288.57034      0.0054122779   3.3319015      715.95098     -9.4376004      706.51338    
   1999000   315.74026      0.0054122779   3.4696801      783.3603      -5.0826141      778.27769    
   2000000   298.82476      0.0054122779   3.1682491      741.39247     -9.93779        731.45468    
   2001000   296.78302      0.0054122779   3.119858       736.32686     -9.5014833      726.82538    
   2002000   292.32184      0.0054122779   2.3087606      725.25854     -7.3644359      717.89411    
   2003000   311.76927      0.0054122779   2.8120432      773.50816     -8.9875681      764.52059    
   2004000   304.01096      0.0054122779   4.3554589      754.25957     -8.7163254      745.54325    
   2005000   294.68313      0.0054122779   3.6342082      731.11697     -10.898347      720.21862    
   2006000   283.15746      0.0054122779   2.9931577      702.52146     -9.8580587      692.6634     
   2007000   299.93001      0.0054122779   2.9526714      744.13462     -8.0588136      736.0758     
   2008000   315.84073      0.0054122779   3.1546934      783.60956     -11.226238      772.38332    
   2009000   302.76769      0.0054122779   3.6382092      751.17497     -12.256884      738.91809    
   2010000   296.56113      0.0054122779   2.7246211      735.77635     -9.5823626      726.19399    
   2011000   286.85994      0.0054122779   2.6375396      711.70741     -12.652569      699.05484    
   2012000   304.56679      0.0054122779   3.1728321      755.63861     -9.3216964      746.31692    
   2013000   306.54455      0.0054122779   1.8894521      760.54548     -10.518694      750.02678    
   2014000   290.35148      0.0054122779   3.2091727      720.37002     -8.5243016      711.84572    
   2015000   301.89728      0.0054122779   4.7500028      749.01548     -11.569323      737.44615    
   2016000   321.64141      0.0054122779   1.5621195      798.0012      -10.295004      787.7062     
   2017000   307.22754      0.0054122779  -1.1216446      762.24        -8.8391471      753.40085    
   2018000   296.15236      0.0054122779   3.1848267      734.76218     -12.944162      721.81802    
   2019000   298.05905      0.0054122779   8.0947015      739.49272     -11.995328      727.49739    
   2020000   305.28971      0.0054122779   2.5648986      757.43218     -10.067504      747.36467    
   2021000   306.55903      0.0054122779   1.5820828      760.58141     -12.068392      748.51302    
   2022000   291.30588      0.0054122779   4.3773373      722.73793     -8.2853966      714.45253    
   2023000   295.35277      0.0054122779   3.4077557      732.77836     -6.7918338      725.98653    
   2024000   299.26204      0.0054122779   2.7115188      742.47738     -7.1248484      735.35253    
   2025000   293.43262      0.0054122779   2.8091253      728.01443     -5.1677343      722.84669    
   2026000   304.68993      0.0054122779   2.4721068      755.9441      -6.8717088      749.0724     
   2027000   309.94395      0.0054122779   3.3967649      768.97948     -8.993007       759.98647    
   2028000   299.88002      0.0054122779   5.815996       744.0106      -11.186397      732.8242     
   2029000   292.29602      0.0054122779   2.0517198      725.19449     -8.1032111      717.09128    
   2030000   309.34843      0.0054122779   2.6595914      767.50198     -7.6057633      759.89621    
   2031000   305.31055      0.0054122779   4.1462209      757.4839      -6.2628731      751.22102    
   2032000   289.77069      0.0054122779   3.1895827      718.92908     -9.3644337      709.56464    
   2033000   293.2773       0.0054122779   2.1571064      727.62906     -12.272667      715.3564     
   2034000   297.1469       0.0054122779   1.6741098      737.22965     -10.286025      726.94363    
   2035000   312.98355      0.0054122779   5.2227328      776.5208      -7.1852157      769.33559    
   2036000   303.48535      0.0054122779   5.5124255      752.95553     -8.5753708      744.38016    
   2037000   293.38625      0.0054122779   1.3639486      727.89937     -10.52413       717.37524    
   2038000   319.12078      0.0054122779   5.3730767      791.74746     -9.2918848      782.45558    
   2039000   302.5625       0.0054122779   3.9413533      750.6659      -8.2036963      742.46221    
   2040000   299.83398      0.0054122779   0.15440912     743.89637     -6.2737826      737.62259    
   2041000   309.0885       0.0054122779   2.8018919      766.85709     -6.2606666      760.59642    
   2042000   296.14532      0.0054122779   3.6913468      734.7447      -6.7131758      728.03153    
   2043000   290.59041      0.0054122779   2.8150939      720.96281     -7.4983074      713.4645     
   2044000   304.93561      0.0054122779   2.505178       756.55366     -11.701978      744.85168    
   2045000   313.75509      0.0054122779   2.9700313      778.43503     -9.3418972      769.09314    
   2046000   294.20456      0.0054122779   3.2516134      729.92963     -8.5749077      721.35473    
   2047000   290.09827      0.0054122779   2.3511456      719.7418      -6.0522551      713.68954    
   2048000   307.2312       0.0054122779   3.4870689      762.24907     -8.5695103      753.67956    
   2049000   290.5734       0.0054122779   3.3760943      720.92061     -8.6469489      712.27366    
   2050000   295.08918      0.0054122779   3.188303       732.12439     -9.1059564      723.01844    
   2051000   306.56808      0.0054122779   1.1079554      760.60387     -7.8701125      752.73376    
   2052000   293.16165      0.0054122779   10.596389      727.34214     -8.5651853      718.77696    
   2053000   291.6865       0.0054122779   3.7769333      723.68225     -8.9766827      714.70557    
   2054000   296.1075       0.0054122779  -1.1547614      734.65087     -8.3380992      726.31277    
   2055000   304.66083      0.0054122779   2.5392555      755.87191     -7.670505       748.2014     
   2056000   304.66647      0.0054122779   3.4637674      755.8859      -7.9532868      747.93262    
   2057000   284.9049       0.0054122779   5.1047589      706.85691     -7.4982417      699.35867    
   2058000   292.92017      0.0054122779   0.71621906     726.74303     -8.0268037      718.71622    
   2059000   308.06401      0.0054122779   0.99559695     764.31529     -7.6957378      756.61955    
   2060000   303.81182      0.0054122779   3.1516035      753.76551     -10.455365      743.31014    
   2061000   296.34645      0.0054122779   3.3694742      735.24372     -10.058768      725.18495    
   2062000   304.1839       0.0054122779   4.1296999      754.68864     -10.47846       744.21018    
   2063000   294.75142      0.0054122779   1.0917362      731.2864      -10.133         721.1534     
   2064000   292.99446      0.0054122779   2.0388644      726.92733     -8.6537912      718.27353    
   2065000   311.59973      0.0054122779   1.8853343      773.08751     -9.4496018      763.63791    
   2066000   307.94495      0.0054122779   4.3570128      764.01991     -10.26546       753.75445    
   2067000   274.84347      0.0054122779   3.1546205      681.89422     -10.003096      671.89113    
   2068000   297.54421      0.0054122779   2.2109163      738.2154      -9.0045705      729.21083    
   2069000   311.40757      0.0054122779   1.8287011      772.61075     -6.3708858      766.23987    
   2070000   303.34788      0.0054122779   4.0294149      752.61446     -6.9150193      745.69944    
   2071000   288.74174      0.0054122779   0.26885622     716.37621     -6.3082074      710.06801    
   2072000   299.36093      0.0054122779   0.66499518     742.72271     -7.0336785      735.68903    
   2073000   303.89501      0.0054122779   3.2894959      753.97189     -7.830446       746.14144    
   2074000   316.27923      0.0054122779   4.8812501      784.6975      -8.7223231      775.97517    
   2075000   290.4093       0.0054122779   2.8336097      720.51348     -6.6123462      713.90113    
   2076000   307.10232      0.0054122779   2.6552707      761.92932     -7.550607       754.37871    
   2077000   312.09746      0.0054122779   3.3634075      774.32241     -8.1114683      766.21094    
   2078000   300.05227      0.0054122779   3.0654354      744.43794     -5.1030311      739.33491    
   2079000   291.75332      0.0054122779   2.8480732      723.84802     -5.0945886      718.75343    
   2080000   301.58837      0.0054122779   3.2355385      748.24905     -6.3627079      741.88634    
   2081000   303.58058      0.0054122779  -1.150836       753.19179     -7.6758531      745.51594    
   2082000   299.27416      0.0054122779   2.627674       742.50743     -5.7565915      736.75084    
   2083000   293.18077      0.0054122779   5.4118742      727.38957     -9.0619416      718.32763    
   2084000   307.98297      0.0054122779   3.3323272      764.11424     -8.2115812      755.90266    
   2085000   312.12562      0.0054122779   3.271363       774.39226     -10.181385      764.21088    
   2086000   283.21153      0.0054122779   2.5285442      702.65561     -9.8254944      692.83012    
   2087000   292.41428      0.0054122779   3.2397295      725.48789     -13.244884      712.24301    
   2088000   299.35109      0.0054122779   3.394276       742.69831     -12.488041      730.21027    
   2089000   308.84875      0.0054122779   2.8922831      766.26227     -12.906666      753.3556     
   2090000   297.43069      0.0054122779   0.038591128    737.93374     -15.594117      722.33963    
   2091000   290.67284      0.0054122779   4.5338615      721.16733     -14.099465      707.06786    
   2092000   308.6198       0.0054122779   3.943733       765.69424     -12.799383      752.89486    
   2093000   302.40297      0.0054122779   1.7262293      750.27009     -10.287236      739.98286    
   2094000   299.21679      0.0054122779   4.7336647      742.3651      -11.864927      730.50018    
   2095000   302.89893      0.0054122779   2.5853444      751.5006      -10.128262      741.37234    
   2096000   289.65087      0.0054122779   2.5814081      718.6318      -11.305381      707.32642    
   2097000   306.30479      0.0054122779   2.2294183      759.95062     -10.147156      749.80346    
   2098000   308.16523      0.0054122779   3.155476       764.56644     -10.154048      754.41239    
   2099000   295.17616      0.0054122779   3.441136       732.3402      -8.8675444      723.47266    
   2100000   295.37939      0.0054122779   2.8567081      732.8444      -9.1089728      723.73543    
   2101000   300.16853      0.0054122779   2.5997446      744.7264      -8.7993412      735.92706    
   2102000   297.09684      0.0054122779   3.6189624      737.10544     -9.5878968      727.51755    
   2103000   308.58845      0.0054122779   4.2281429      765.61646     -8.4536685      757.16279    
   2104000   293.20207      0.0054122779   4.0477373      727.44242     -9.9412678      717.50115    
   2105000   296.6771       0.0054122779   3.0814692      736.06407     -9.5612619      726.50281    
   2106000   315.86669      0.0054122779   0.82760863     783.67397     -9.8271167      773.84685    
   2107000   303.11007      0.0054122779   3.5784788      752.02445     -11.340553      740.6839     
   2108000   283.11368      0.0054122779   4.9863463      702.41286     -11.214363      691.19849    
   2109000   302.19777      0.0054122779   2.1406485      749.76099     -11.535099      738.22589    
   2110000   310.18025      0.0054122779   2.1837531      769.56576     -11.965548      757.60021    
   2111000   308.35718      0.0054122779   6.9128654      765.04266     -9.6653328      755.37733    
   2112000   290.54228      0.0054122779   3.3342214      720.84341     -8.2462819      712.59712    
   2113000   305.19292      0.0054122779   1.3253759      757.19204     -8.5493125      748.64273    
   2114000   312.77958      0.0054122779   0.21989773     776.01477     -10.270599      765.74417    
   2115000   302.03669      0.0054122779   5.1025709      749.36136     -12.767544      736.59382    
   2116000   285.23108      0.0054122779   2.6624444      707.66618     -11.240193      696.42599    
   2117000   302.44711      0.0054122779   0.97944512     750.3796      -8.8210477      741.55856    
   2118000   309.14608      0.0054122779   0.63008227     766.99995     -10.459289      756.54066    
   2119000   309.47368      0.0054122779   1.6705429      767.81273     -8.2554525      759.55727    
   2120000   295.96401      0.0054122779   3.9029513      734.29487     -10.216306      724.07856    
   2121000   287.4264       0.0054122779   2.4160045      713.11283     -10.692906      702.41992    
   2122000   303.42507      0.0054122779  -0.51263073     752.80595     -10.237507      742.56844    
   2123000   301.59806      0.0054122779   4.0570946      748.27309     -10.599877      737.67322    
   2124000   294.41661      0.0054122779   6.0653622      730.45572     -11.216471      719.23924    
   2125000   302.26732      0.0054122779   2.46553        749.93355     -9.347714       740.58583    
   2126000   297.82364      0.0054122779   1.4709961      738.90867     -9.0489605      729.85971    
   2127000   303.7953       0.0054122779   2.4039315      753.72451     -10.425509      743.29901    
   2128000   288.77905      0.0054122779   3.2190881      716.46879     -9.7026747      706.76612    
   2129000   299.87741      0.0054122779   3.9414379      744.00411     -7.6200895      736.38402    
   2130000   289.81206      0.0054122779   1.6489711      719.03171     -10.399527      708.63218    
   2131000   294.52672      0.0054122779   2.3445848      730.72892     -7.5657151      723.1632     
   2132000   311.56026      0.0054122779   2.6560377      772.98959     -8.1063272      764.88326    
   2133000   293.04899      0.0054122779   2.6118127      727.06262     -6.052995       721.00963    
   2134000   307.44515      0.0054122779   2.9507763      762.77989     -7.5574886      755.2224     
   2135000   307.49364      0.0054122779   4.4813425      762.9002      -8.8492281      754.05098    
   2136000   296.88963      0.0054122779   1.90925        736.59135     -7.7952406      728.79611    
   2137000   286.31112      0.0054122779   3.1215421      710.34577     -8.1681606      702.17761    
   2138000   315.77118      0.0054122779   3.5403216      783.437       -8.7507596      774.68624    
   2139000   307.12592      0.0054122779   1.8035278      761.98786     -8.1700589      753.8178     
   2140000   305.2073       0.0054122779   2.6646248      757.22774     -10.260666      746.96707    
   2141000   287.29755      0.0054122779   3.0676927      712.79315     -10.370504      702.42264    
   2142000   306.13541      0.0054122779   3.1889737      759.53039     -8.5152145      751.01518    
   2143000   303.89752      0.0054122779   1.1840811      753.97813     -10.059273      743.91885    
   2144000   297.72367      0.0054122779   3.2919771      738.66064     -10.009525      728.65111    
   2145000   299.60866      0.0054122779   4.8650153      743.33734     -8.1993231      735.13801    
   2146000   308.52075      0.0054122779   4.0771975      765.44848     -8.5650148      756.88347    
   2147000   307.60013      0.0054122779  -0.39138597     763.1644      -10.354102      752.8103     
   2148000   299.17203      0.0054122779   3.4518225      742.25405     -9.674001       732.58005    
   2149000   303.42838      0.0054122779   3.1363481      752.81417     -8.9395052      743.87467    
   2150000   298.54621      0.0054122779   1.5620402      740.70137     -9.6363995      731.06497    
   2151000   304.93907      0.0054122779   4.2554228      756.56223     -7.7734374      748.78879    
   2152000   303.58036      0.0054122779   5.1243509      753.19125     -8.130434       745.06082    
   2153000   310.07971      0.0054122779  -2.8680359      769.31631     -6.6865836      762.62973    
   2154000   296.1814       0.0054122779   3.3005284      734.83422     -5.9425324      728.89168    
   2155000   283.98917      0.0054122779   6.6620712      704.58496     -6.2900086      698.29495    
   2156000   295.08271      0.0054122779   3.1996852      732.10834     -5.4632405      726.6451     
   2157000   300.31715      0.0054122779  -4.8223667      745.09513     -6.6470818      738.44805    
   2158000   299.95812      0.0054122779   4.9969067      744.20437     -7.81377        736.3906     
   2159000   297.11944      0.0054122779   6.3329342      737.16153     -8.5829499      728.57858    
   2160000   299.99616      0.0054122779   6.9484524      744.29875     -11.724856      732.5739     
   2161000   303.83088      0.0054122779   3.3875607      753.8128      -10.390479      743.42232    
   2162000   304.63184      0.0054122779  -0.55661569     755.79999     -12.077193      743.7228     
   2163000   287.51633      0.0054122779   3.981947       713.33595     -12.294625      701.04132    
   2164000   294.48917      0.0054122779   4.8477988      730.63574     -11.281904      719.35383    
   2165000   293.06664      0.0054122779   6.2917855      727.1064      -9.8541123      717.25229    
   2166000   303.40439      0.0054122779   4.4204102      752.75466     -9.4604925      743.29416    
   2167000   324.23002      0.0054122779  -0.042187139    804.42362     -9.5811251      794.84249    
   2168000   297.86668      0.0054122779  -0.055651523    739.01544     -10.910378      728.10506    
   2169000   280.67919      0.0054122779   4.722959       696.37281     -9.3016426      687.07117    
   2170000   297.92546      0.0054122779   8.069286       739.16127     -10.152762      729.00851    
   2171000   305.10237      0.0054122779   3.0483009      756.96738     -8.9086457      748.05873    
   2172000   304.68505      0.0054122779   3.4749814      755.932       -8.9855298      746.94647    
   2173000   299.88127      0.0054122779  -2.6722355      744.0137      -10.754159      733.25954    
   2174000   284.99746      0.0054122779   2.9857019      707.08657     -8.8463227      698.24024    
   2175000   306.37191      0.0054122779   3.6320326      760.11714     -8.9209528      751.19619    
   2176000   315.50712      0.0054122779   2.8893342      782.78186     -8.1004507      774.68141    
   2177000   299.10108      0.0054122779   3.4450097      742.07803     -7.6341859      734.44384    
   2178000   292.83803      0.0054122779   2.9725188      726.53922     -11.062379      715.47684    
   2179000   282.13268      0.0054122779   3.0353938      699.97895     -10.988202      688.99075    
   2180000   321.9192       0.0054122779   3.1158374      798.69042     -11.228006      787.46241    
   2181000   308.58374      0.0054122779   2.6500035      765.60477     -10.800606      754.80416    
   2182000   294.15381      0.0054122779   2.9479884      729.80372     -11.96012       717.8436     
   2183000   301.88824      0.0054122779   3.9219483      748.99304     -12.893234      736.09981    
   2184000   309.32954      0.0054122779   3.0099574      767.45512     -13.883589      753.57153    
   2185000   301.5419       0.0054122779   2.8209295      748.13376     -11.601854      736.53191    
   2186000   299.58398      0.0054122779   2.8442705      743.2761      -11.987811      731.28829    
   2187000   296.88615      0.0054122779   3.6753459      736.58273     -7.9913681      728.59136    
   2188000   310.37652      0.0054122779   2.7280199      770.05269     -9.4318193      760.62087    
   2189000   303.70777      0.0054122779   3.1404384      753.50734     -10.185918      743.32142    
   2190000   297.31497      0.0054122779   2.9278521      737.64663     -10.751832      726.89479    
   2191000   303.51275      0.0054122779   3.0641092      753.0235      -10.376929      742.64657    
   2192000   279.79121      0.0054122779   1.7599228      694.1697      -8.4893355      685.68037    
   2193000   303.63016      0.0054122779   2.1082669      753.31481     -11.315735      741.99907    
   2194000   304.1862       0.0054122779   0.44742525     754.69434     -10.509603      744.18473    
   2195000   309.86177      0.0054122779   2.6005291      768.7756      -10.377047      758.39856    
   2196000   302.96385      0.0054122779   3.4508039      751.66166     -12.630476      739.03119    
   2197000   296.1536       0.0054122779   2.2865498      734.76523     -12.079698      722.68554    
   2198000   291.02097      0.0054122779   2.7112175      722.03105     -11.509089      710.52196    
   2199000   306.30549      0.0054122779   3.2153419      759.95237     -10.222673      749.7297     
   2200000   297.89787      0.0054122779   0.81284219     739.09282     -14.42558       724.66724    
   2201000   289.83738      0.0054122779   2.9849699      719.09452     -11.369045      707.72548    
   2202000   308.55579      0.0054122779   3.1068349      765.53541     -8.8522859      756.68313    
   2203000   295.07283      0.0054122779   3.6460192      732.08382     -11.046038      721.03778    
   2204000   293.05039      0.0054122779   3.1243228      727.0661      -12.525638      714.54046    
   2205000   306.06131      0.0054122779  -0.16136036     759.34655     -10.534104      748.81245    
   2206000   295.66962      0.0054122779   4.8590401      733.56448     -11.550257      722.01422    
   2207000   286.65164      0.0054122779   4.7287796      711.19061     -10.188576      701.00204    
   2208000   297.71365      0.0054122779   2.368593       738.63576     -10.623562      728.0122     
   2209000   312.62171      0.0054122779   1.0198323      775.62307     -9.007211       766.61586    
   2210000   308.32455      0.0054122779   3.3731883      764.9617      -11.179433      753.78227    
   2211000   296.82002      0.0054122779   5.1910413      736.41866     -11.448448      724.97021    
   2212000   304.07081      0.0054122779   0.49605732     754.40805     -10.6885        743.71955    
   2213000   304.99641      0.0054122779   2.7069485      756.7045      -10.333501      746.371      
   2214000   295.11599      0.0054122779   5.2661862      732.19092     -9.1361408      723.05478    
   2215000   285.94222      0.0054122779   2.5321124      709.43052     -10.792607      698.63791    
   2216000   314.04367      0.0054122779   1.0926735      779.15101     -12.349859      766.80115    
   2217000   316.50306      0.0054122779   3.7265123      785.25281     -13.638508      771.6143     
   2218000   289.06251      0.0054122779   3.2607499      717.17207     -13.270356      703.90171    
   2219000   290.38039      0.0054122779   2.7277791      720.44175     -12.987394      707.45436    
   2220000   296.14983      0.0054122779   2.5262838      734.75589     -13.208056      721.54783    
   2221000   314.13112      0.0054122779   3.1820628      779.36798     -11.358416      768.00956    
   2222000   310.53718      0.0054122779   3.0833165      770.45131     -11.506876      758.94444    
   2223000   303.88548      0.0054122779   1.9687792      753.94824     -12.152523      741.79572    
   2224000   289.33421      0.0054122779   2.9048465      717.84615     -9.8388911      708.00726    
   2225000   309.02346      0.0054122779   4.4824639      766.69572     -10.783475      755.91225    
   2226000   302.58078      0.0054122779   1.8889011      750.71127     -6.9284161      743.78285    
   2227000   297.76391      0.0054122779   3.1290955      738.76047     -10.451967      728.30851    
   2228000   298.92538      0.0054122779   3.171842       741.6421      -10.750854      730.89125    
   2229000   311.49424      0.0054122779   3.128381       772.82579     -9.4932536      763.33254    
   2230000   304.08813      0.0054122779   2.5169796      754.45103     -9.6954724      744.75556    
   2231000   286.48354      0.0054122779   2.9480781      710.77355     -7.0901699      703.68338    
   2232000   306.75497      0.0054122779   3.6199007      761.06755     -10.636101      750.43145    
   2233000   313.34054      0.0054122779   3.0269073      777.40652     -9.3350625      768.07145    
   2234000   307.34208      0.0054122779   2.1706191      762.52416     -11.555796      750.96837    
   2235000   292.87266      0.0054122779   2.9807273      726.62513     -10.763942      715.86119    
   2236000   291.51488      0.0054122779   2.8437145      723.25645     -11.448875      711.80757    
   2237000   308.5933       0.0054122779   2.3857885      765.62849     -11.755987      753.8725     
   2238000   301.55128      0.0054122779   4.0658462      748.15703     -8.2812946      739.87573    
   2239000   295.90901      0.0054122779   1.5216081      734.15841     -8.6183008      725.54011    
   2240000   302.24149      0.0054122779   2.4470509      749.86948     -10.614265      739.25521    
   2241000   304.0853       0.0054122779   3.4971112      754.44402     -10.36741       744.07661    
   2242000   293.55355      0.0054122779   2.8496448      728.31446     -10.090089      718.22437    
   2243000   300.02259      0.0054122779   2.680494       744.3643      -10.414733      733.94957    
   2244000   310.5831       0.0054122779   3.1883316      770.56523     -9.5738069      760.99142    
   2245000   301.10785      0.0054122779   2.095492       747.05687     -11.527798      735.52908    
   2246000   292.73711      0.0054122779   2.7837796      726.28884     -7.6970532      718.59179    
   2247000   307.03696      0.0054122779   3.6327031      761.76717     -9.5505132      752.21665    
   2248000   315.79519      0.0054122779   3.4064232      783.49657     -11.739192      771.75738    
   2249000   288.09741      0.0054122779   2.3385336      714.77761     -10.861314      703.9163     
   2250000   286.33556      0.0054122779   2.6144767      710.40641     -12.432537      697.97387    
   2251000   305.11759      0.0054122779   4.0662266      757.00516     -13.2412        743.76396    
   2252000   306.80301      0.0054122779   2.8766353      761.18674     -9.4806876      751.70605    
   2253000   290.20922      0.0054122779   1.8032192      720.01708     -7.8439181      712.17316    
   2254000   292.20193      0.0054122779   3.4353046      724.96105     -7.7839017      717.17715    
   2255000   311.71025      0.0054122779   4.0243248      773.36171     -11.775588      761.58612    
   2256000   313.40928      0.0054122779   0.54792011     777.57706     -12.682503      764.89456    
   2257000   300.34308      0.0054122779   3.4598446      745.15947     -8.3720581      736.78741    
   2258000   300.04101      0.0054122779   3.1365344      744.41002     -13.72729       730.68273    
   2259000   297.3206       0.0054122779   0.47332749     737.66061     -12.982242      724.67837    
   2260000   299.36228      0.0054122779   2.7143141      742.72606     -10.721965      732.0041     
   2261000   299.535        0.0054122779   4.2726531      743.1546      -10.144034      733.01057    
   2262000   306.44264      0.0054122779   3.9718941      760.29263     -9.7469495      750.54568    
   2263000   309.12681      0.0054122779   0.87193647     766.95213     -9.3896103      757.56252    
   2264000   301.33754      0.0054122779   2.3585423      747.62675     -10.825797      736.80096    
   2265000   288.84902      0.0054122779   4.1543272      716.64238     -11.917909      704.72447    
   2266000   299.17509      0.0054122779   4.5033293      742.26166     -12.052559      730.2091     
   2267000   305.8567       0.0054122779   1.9778708      758.83891     -9.4351905      749.40372    
   2268000   297.15212      0.0054122779   0.022349463    737.24259     -10.047819      727.19477    
   2269000   302.80091      0.0054122779   4.5647583      751.2574      -10.050719      741.20669    
   2270000   312.9821       0.0054122779   4.0310314      776.51723     -10.390643      766.12658    
   2271000   292.88394      0.0054122779   1.9136038      726.65313     -10.323416      716.32971    
   2272000   290.16826      0.0054122779   4.8968103      719.91545     -9.2354023      710.68005    
   2273000   315.38287      0.0054122779   3.22919        782.47359     -10.843805      771.62978    
   2274000   301.23394      0.0054122779  -0.75529394     747.36971     -9.206013       738.1637     
   2275000   288.18861      0.0054122779   2.7340799      715.00389     -7.9400917      707.0638     
   2276000   297.88754      0.0054122779   5.0660777      739.06721     -10.779323      728.28789    
   2277000   308.44177      0.0054122779   2.6315392      765.25253     -11.086146      754.16638    
   2278000   287.54285      0.0054122779   1.5145661      713.40173     -11.00397       702.39776    
   2279000   294.42281      0.0054122779   4.3391835      730.47112     -11.480712      718.99041    
   2280000   315.56052      0.0054122779   3.9448412      782.91434     -13.515058      769.39928    
   2281000   300.6969       0.0054122779   5.6350997      746.03731     -11.732988      734.30432    
   2282000   304.33047      0.0054122779   5.8655088      755.0523      -11.718699      743.3336     
   2283000   312.62293      0.0054122779   2.1940549      775.62612     -10.126361      765.49975    
   2284000   305.44698      0.0054122779  -0.32955234     757.82238     -10.614177      747.20821    
   2285000   290.89022      0.0054122779   3.2041546      721.70666     -8.6935613      713.01309    
   2286000   295.40896      0.0054122779   4.0426013      732.91778     -10.431849      722.48593    
   2287000   315.74395      0.0054122779   4.4181513      783.36944     -12.693378      770.67606    
   2288000   313.74665      0.0054122779   2.026413       778.41408     -14.328422      764.08566    
   2289000   295.95624      0.0054122779   1.7743504      734.27559     -10.59952       723.67607    
   2290000   297.07275      0.0054122779   3.2091958      737.04567     -7.8108594      729.23481    
   2291000   301.59476      0.0054122779   3.182601       748.26493     -9.6671366      738.59779    
   2292000   296.72945      0.0054122779   3.1113434      736.19394     -9.3049006      726.88903    
   2293000   300.67191      0.0054122779   3.0602545      745.97529     -6.6576715      739.31762    
   2294000   301.89559      0.0054122779   2.9876337      749.01128     -6.778449       742.23283    
   2295000   311.41994      0.0054122779   3.1827069      772.64146     -9.8224532      762.81901    
   2296000   307.48498      0.0054122779   3.1059044      762.87872     -9.8520977      753.02663    
   2297000   310.04597      0.0054122779   5.893738       769.2326      -10.168526      759.06407    
   2298000   287.33153      0.0054122779   3.3081099      712.87746     -7.5676463      705.30981    
   2299000   288.99239      0.0054122779   2.5187393      716.99809     -9.3658545      707.63223    
   2300000   301.6674       0.0054122779   1.531355       748.44513     -8.8586761      739.58645    
   2301000   319.25461      0.0054122779   6.6571695      792.0795      -11.015082      781.06441    
   2302000   316.10138      0.0054122779   0.33610443     784.25623     -11.990476      772.26576    
   2303000   293.84151      0.0054122779   4.380745       729.02888     -9.9941452      719.03474    
   2304000   295.85504      0.0054122779   1.0561782      734.02451     -11.073989      722.95052    
   2305000   318.77084      0.0054122779   1.0462556      790.87924     -9.8965426      780.9827     
   2306000   303.75715      0.0054122779   4.0880515      753.62986     -10.686934      742.94292    
   2307000   291.04755      0.0054122779   1.9630843      722.097       -11.8628        710.23419    
   2308000   296.59457      0.0054122779   1.4588781      735.8593      -10.938787      724.92051    
   2309000   314.21144      0.0054122779   3.2516163      779.56725     -11.693894      767.87335    
   2310000   280.62281      0.0054122779   2.6441682      696.23293     -10.036146      686.19679    
   2311000   294.03079      0.0054122779   3.4876932      729.49848     -8.8629881      720.6355     
   2312000   303.19884      0.0054122779   1.4795925      752.24467     -9.6100161      742.63466    
   2313000   288.5411       0.0054122779   1.8899577      715.87842     -8.1018318      707.77659    
   2314000   313.86497      0.0054122779   4.3658912      778.70765     -8.8388142      769.86884    
   2315000   300.25063      0.0054122779   1.0909818      744.93009     -9.0678421      735.86225    
   2316000   285.31824      0.0054122779   2.9489677      707.88243     -8.2443017      699.63813    
   2317000   306.85396      0.0054122779   3.2641191      761.31312     -9.3051438      752.00798    
   2318000   312.63835      0.0054122779   2.9086346      775.66436     -9.2336524      766.43071    
   2319000   295.85796      0.0054122779   2.8001699      734.03175     -8.2365631      725.79519    
   2320000   296.26384      0.0054122779   1.7238302      735.03876     -6.9512096      728.08755    
   2321000   306.12142      0.0054122779   7.2697671      759.49567     -10.9519        748.54377    
   2322000   298.48793      0.0054122779   2.5415101      740.55678     -11.60758       728.9492     
   2323000   297.74934      0.0054122779   2.6238126      738.72432     -10.70875       728.01557    
   2324000   299.01487      0.0054122779   2.9819919      741.86414     -9.1253312      732.73881    
   2325000   309.53359      0.0054122779   3.4055963      767.96136     -9.2661841      758.69518    
   2326000   293.619        0.0054122779   1.483385       728.47684     -10.692586      717.78426    
   2327000   291.59575      0.0054122779   2.3220291      723.45709     -9.5829696      713.87412    
   2328000   291.88507      0.0054122779   2.8901544      724.17489     -7.9629658      716.21193    
   2329000   319.68207      0.0054122779   3.6615209      793.14003     -11.366438      781.77359    
   2330000   305.58335      0.0054122779   2.8135622      758.16073     -12.39051       745.77022    
   2331000   285.22845      0.0054122779   2.7318748      707.65965     -11.601321      696.05833    
   2332000   302.52232      0.0054122779   2.4190365      750.56622     -12.051329      738.51489    
   2333000   300.82728      0.0054122779   2.6897786      746.36078     -9.4618953      736.89888    
   2334000   288.76962      0.0054122779   3.8210181      716.44538     -10.997678      705.4477     
   2335000   306.11156      0.0054122779   3.243783       759.47122     -6.4903251      752.9809     
   2336000   311.46937      0.0054122779   3.3462074      772.76409     -7.1163082      765.64778    
   2337000   299.04733      0.0054122779   3.281668       741.94467     -7.1815025      734.76317    
   2338000   290.13801      0.0054122779   2.7717344      719.84039     -6.9478167      712.89257    
   2339000   295.98673      0.0054122779   3.6452355      734.35123     -8.6068045      725.74443    
   2340000   310.84752      0.0054122779   3.0920516      771.22127     -10.197383      761.02389    
   2341000   304.69643      0.0054122779   2.1717293      755.96025     -9.0340025      746.92625    
   2342000   287.99501      0.0054122779   3.1834582      714.52356     -9.9781687      704.54539    
   2343000   290.99386      0.0054122779   4.0334838      721.9638      -10.038279      711.92552    
   2344000   301.6413       0.0054122779   2.755524       748.38037     -9.6772242      738.70314    
   2345000   306.52773      0.0054122779   2.8009627      760.50374     -10.446403      750.05733    
   2346000   284.34484      0.0054122779   2.7886231      705.46739     -9.1704257      696.29696    
   2347000   298.07248      0.0054122779   2.9186043      739.52603     -8.845274       730.68075    
   2348000   308.8417       0.0054122779   3.0354037      766.24478     -8.6961739      757.5486     
   2349000   305.75914      0.0054122779   3.1131317      758.59685     -6.9009839      751.69587    
   2350000   297.05583      0.0054122779   3.1827482      737.0037      -5.6086318      731.39507    
   2351000   294.6482       0.0054122779   3.4414976      731.0303      -6.5381589      724.49214    
   2352000   300.24255      0.0054122779   3.1631336      744.91005     -7.3937948      737.51625    
   2353000   324.32697      0.0054122779   3.3207719      804.66416     -5.0378706      799.62629    
   2354000   295.05223      0.0054122779   2.8171916      732.03272     -7.6340221      724.3987     
   2355000   295.6351       0.0054122779   3.0817853      733.47883     -6.8467907      726.63204    
   2356000   318.09409      0.0054122779   4.2201065      789.20021     -7.9163428      781.28387    
   2357000   316.43618      0.0054122779   3.9129189      785.08689     -4.2111296      780.87576    
   2358000   292.68436      0.0054122779   0.44030057     726.15797     -7.2476735      718.91029    
   2359000   294.80808      0.0054122779   1.8079907      731.42698     -7.7963316      723.63065    
   2360000   292.26275      0.0054122779   6.6854295      725.11194     -7.7915293      717.32041    
   2361000   281.377        0.0054122779   1.2258065      698.1041      -6.5728489      691.53125    
   2362000   291.86638      0.0054122779   3.924989       724.12853     -7.5975086      716.53102    
   2363000   312.97854      0.0054122779   4.7855035      776.50838     -8.0285664      768.47981    
   2364000   317.25121      0.0054122779   2.5778866      787.109       -8.6366218      778.47238    
   2365000   295.7256       0.0054122779   2.4021549      733.70336     -7.7463339      725.95703    
   2366000   288.11409      0.0054122779   2.9087386      714.81901     -8.2270172      706.59199    
   2367000   296.90241      0.0054122779   3.4101973      736.62307     -6.112574       730.51049    
   2368000   310.51016      0.0054122779   4.499946       770.38426     -7.1385598      763.2457     
   2369000   297.19615      0.0054122779   0.26955783     737.35184     -7.841548       729.51029    
   2370000   291.91263      0.0054122779   3.0239737      724.24327     -10.77477       713.4685     
   2371000   297.50358      0.0054122779   5.3300416      738.11459     -10.63721       727.47738    
   2372000   304.57684      0.0054122779   3.0938452      755.66354     -12.215171      743.44837    
   2373000   320.46871      0.0054122779   2.605225       795.09169     -11.28874       783.80295    
   2374000   298.06506      0.0054122779   3.1037616      739.50763     -12.971556      726.53607    
   2375000   286.62806      0.0054122779   2.8004776      711.13213     -10.73425       700.39787    
   2376000   299.82954      0.0054122779   2.6231686      743.88536     -8.9392203      734.94614    
   2377000   308.02068      0.0054122779   3.0832434      764.20779     -9.5847851      754.62301    
   2378000   293.15977      0.0054122779   2.9261863      727.33747     -12.218759      715.11872    
   2379000   283.51119      0.0054122779   2.7924193      703.39907     -11.696151      691.70292    
   2380000   303.70784      0.0054122779   3.146772       753.50752     -10.800932      742.70659    
   2381000   317.31188      0.0054122779   2.5460344      787.25952     -11.770347      775.48917    
   2382000   305.20334      0.0054122779   3.4011685      757.21791     -8.3246939      748.89321    
   2383000   286.0762       0.0054122779   2.7800658      709.76294     -8.0464175      701.71652    
   2384000   304.1574       0.0054122779   3.0636511      754.62288     -6.869223       747.75366    
   2385000   307.11578      0.0054122779   3.0360453      761.96272     -8.1103712      753.85234    
   2386000   282.44324      0.0054122779   2.6436448      700.74946     -7.04761        693.70185    
   2387000   299.8141       0.0054122779   2.8242972      743.84703     -7.8042139      736.04282    
   2388000   302.48601      0.0054122779   2.4022993      750.47613     -9.7538261      740.7223     
   2389000   298.81855      0.0054122779   3.0249522      741.37706     -8.5298149      732.84724    
   2390000   303.28101      0.0054122779   3.120658       752.44854     -7.2559078      745.19263    
   2391000   298.1084       0.0054122779   2.6839889      739.61515     -7.7848143      731.83034    
   2392000   292.48015      0.0054122779   2.8567098      725.65132     -9.1664447      716.48487    
   2393000   307.3041       0.0054122779   3.1911162      762.42995     -9.0350697      753.39488    
   2394000   304.16281      0.0054122779   2.6210148      754.63632     -11.911876      742.72445    
   2395000   297.97562      0.0054122779   3.2409835      739.28572     -11.190701      728.09502    
   2396000   298.48167      0.0054122779   3.2734883      740.54125     -8.1066875      732.43456    
   2397000   312.95593      0.0054122779   2.6343914      776.45228     -10.846113      765.60617    
   2398000   300.89021      0.0054122779   1.7885476      746.5169      -9.8673068      736.64959    
   2399000   278.68549      0.0054122779   3.142123       691.42639     -7.9824978      683.44389    
   2400000   307.61385      0.0054122779   3.9541773      763.19844     -6.5007228      756.69772    
   2401000   319.92065      0.0054122779   1.6501157      793.73194     -6.8621097      786.86983    
   2402000   293.19191      0.0054122779   0.42901652     727.4172      -9.9176324      717.49957    
   2403000   290.14983      0.0054122779   4.6164299      719.86974     -9.0006824      710.86905    
   2404000   300.67625      0.0054122779   3.2861195      745.98607     -10.96883       735.01724    
   2405000   314.07496      0.0054122779   2.7234802      779.22862     -14.490406      764.73822    
   2406000   292.94759      0.0054122779   1.8461412      726.81104     -12.426091      714.38495    
   2407000   294.97351      0.0054122779   3.27222        731.83741     -9.6149801      722.22243    
   2408000   307.65879      0.0054122779   4.3016281      763.30993     -8.8294377      754.48049    
   2409000   319.1854       0.0054122779   1.6530176      791.90777     -7.9750449      783.93273    
   2410000   289.86955      0.0054122779   2.7785879      719.17435     -8.2744346      710.89992    
   2411000   294.26558      0.0054122779   1.8778695      730.08101     -9.88266        720.19835    
   2412000   305.26587      0.0054122779   2.6375713      757.37303     -12.208799      745.16423    
   2413000   306.69763      0.0054122779   3.0699305      760.92527     -12.697375      748.22789    
   2414000   296.93105      0.0054122779   2.8547262      736.69413     -8.4497331      728.24439    
   2415000   288.85981      0.0054122779   2.2880573      716.66915     -9.5145496      707.15461    
   2416000   300.65058      0.0054122779   1.3849728      745.92239     -8.5271727      737.39521    
   2417000   305.62833      0.0054122779   3.083478       758.27231     -7.8874341      750.38487    
   2418000   294.73031      0.0054122779   4.6551471      731.23403     -7.7405582      723.49347    
   2419000   291.88614      0.0054122779   2.2554398      724.17755     -7.5649662      716.61258    
   2420000   316.30289      0.0054122779   0.80070492     784.75619     -5.7133898      779.0428     
   2421000   305.59809      0.0054122779   4.3093025      758.19728     -6.5315285      751.66575    
   2422000   292.92298      0.0054122779   2.0623961      726.74999     -7.021797       719.72819    
   2423000   300.58366      0.0054122779   0.25646541     745.75634     -4.2958434      741.4605     
   2424000   303.3628       0.0054122779   0.53334744     752.65147     -5.3123825      747.33909    
   2425000   309.41138      0.0054122779   3.9966124      767.65815     -7.6097142      760.04844    
   2426000   285.2221       0.0054122779   1.9360622      707.64389     -7.251096       700.39279    
   2427000   294.78085      0.0054122779   1.8965473      731.35941     -6.6884076      724.671      
   2428000   312.37134      0.0054122779   2.8383609      775.00191     -5.482423       769.51949    
   2429000   309.52084      0.0054122779   3.7398676      767.92974     -7.2326889      760.69705    
   2430000   301.70016      0.0054122779   3.1313633      748.52642     -7.86216        740.66426    
   2431000   287.54734      0.0054122779   2.9200511      713.41288     -9.6364529      703.77643    
   2432000   290.40041      0.0054122779   0.078362089    720.49142     -8.732918       711.7585     
   2433000   303.46276      0.0054122779   2.9303283      752.89947     -6.5372824      746.36219    
   2434000   290.36962      0.0054122779   1.936296       720.41502     -6.5823677      713.83265    
   2435000   299.50356      0.0054122779   2.7008702      743.07658     -8.40889        734.66769    
   2436000   300.19336      0.0054122779   3.729387       744.788       -9.2567598      735.53125    
   2437000   282.68219      0.0054122779   2.4624948      701.3423      -8.5033739      692.83892    
   2438000   295.82516      0.0054122779   3.0607423      733.95037     -5.123897       728.82647    
   2439000   300.19924      0.0054122779   3.5235205      744.80259     -5.4706471      739.33194    
   2440000   296.82264      0.0054122779   2.1025103      736.42515     -5.0167674      731.40838    
   2441000   301.48778      0.0054122779   2.9265173      747.99949     -5.7401526      742.25934    
   2442000   303.7488       0.0054122779   3.0793693      753.60914     -4.8602945      748.74884    
   2443000   301.94148      0.0054122779   3.0113028      749.12514     -5.3764497      743.74869    
   2444000   300.29172      0.0054122779   3.3753429      745.03205     -4.0078713      741.02418    
   2445000   282.92094      0.0054122779   3.3840873      701.93466     -5.5582398      696.37642    
   2446000   300.56509      0.0054122779   2.3312149      745.71028     -5.6980942      740.01218    
   2447000   320.56846      0.0054122779   2.7863113      795.33918     -6.7108964      788.62828    
   2448000   310.30937      0.0054122779   3.169397       769.8861      -5.5875073      764.29859    
   2449000   287.5808       0.0054122779   2.25666        713.4959      -4.875909       708.61999    
   2450000   299.33022      0.0054122779   3.10246        742.64652     -4.5539376      738.09259    
   2451000   303.1279       0.0054122779   2.9868494      752.06867     -3.5782557      748.49041    
   2452000   295.55603      0.0054122779   2.9836316      733.28267     -4.5291743      728.75349    
   2453000   295.66326      0.0054122779   4.7958431      733.5487      -7.6791434      725.86956    
   2454000   305.56721      0.0054122779   2.307909       758.12067     -9.6117799      748.50889    
   2455000   311.55193      0.0054122779   3.3818376      772.96892     -6.5226892      766.44623    
   2456000   283.60369      0.0054122779   4.0195488      703.62858     -10.268843      693.35974    
   2457000   304.7611       0.0054122779   2.6596866      756.12069     -7.7575673      748.36312    
   2458000   307.54319      0.0054122779   2.8613292      763.02314     -7.4527456      755.57039    
   2459000   301.35464      0.0054122779   3.0995707      747.66918     -8.4952066      739.17397    
   2460000   298.53366      0.0054122779   3.5199258      740.67023     -9.1096581      731.56057    
   2461000   291.40548      0.0054122779   2.4518438      722.98502     -6.2077902      716.77723    
   2462000   306.13282      0.0054122779   2.8370798      759.52397     -6.8958141      752.62816    
   2463000   293.33577      0.0054122779   3.1744625      727.77413     -8.6038803      719.17025    
   2464000   294.82461      0.0054122779   2.9229106      731.46799     -8.6163114      722.85168    
   2465000   298.33878      0.0054122779   2.7631755      740.18675     -9.3482168      730.83853    
   2466000   297.90898      0.0054122779   3.1049779      739.12038     -9.753983       729.3664     
   2467000   306.58864      0.0054122779   3.3127173      760.65488     -8.5385826      752.11629    
   2468000   291.87531      0.0054122779   3.131973       724.15068     -9.9766514      714.17403    
   2469000   287.17754      0.0054122779   2.6208299      712.49539     -11.152004      701.34338    
   2470000   309.83462      0.0054122779   2.6594277      768.70824     -9.9624961      758.74574    
   2471000   303.19278      0.0054122779   3.3004599      752.22965     -9.6076141      742.62204    
   2472000   288.80381      0.0054122779   1.3536423      716.53021     -9.4877138      707.0425     
   2473000   299.48581      0.0054122779   3.0465362      743.03255     -6.6370962      736.39545    
   2474000   306.4036       0.0054122779   3.5997576      760.19578     -4.9381961      755.25759    
   2475000   300.28954      0.0054122779   2.2451765      745.02662     -5.3722134      739.6544     
   2476000   300.73733      0.0054122779   2.4247679      746.13762     -7.337555       738.80006    
   2477000   306.86795      0.0054122779   3.5138417      761.34783     -8.1263383      753.22149    
   2478000   300.03505      0.0054122779   4.8472391      744.39523     -7.0260935      737.36913    
   2479000   294.5637       0.0054122779   1.988775       730.82066     -7.9229149      722.89775    
   2480000   324.79124      0.0054122779   1.1947277      805.81601     -8.1996747      797.61633    
   2481000   305.25409      0.0054122779   4.3385308      757.34382     -6.3002378      751.04358    
   2482000   298.5735       0.0054122779   2.409165       740.76908     -4.3911392      736.37794    
   2483000   311.89868      0.0054122779   2.2479689      773.82923     -6.6847255      767.14451    
   2484000   292.42294      0.0054122779   4.3374989      725.50938     -8.1096083      717.39977    
   2485000   289.723        0.0054122779  -0.31147699     718.81076     -5.7779436      713.03281    
   2486000   312.9648       0.0054122779   1.8193611      776.47428     -5.9242659      770.55002    
   2487000   308.62882      0.0054122779   3.860355       765.71661     -6.3946868      759.32192    
   2488000   290.72937      0.0054122779   3.2429182      721.30759     -6.5422988      714.76529    
   2489000   293.28153      0.0054122779   2.2326166      727.63956     -6.4815131      721.15805    
   2490000   307.33299      0.0054122779   4.0266819      762.50162     -7.9443512      754.55726    
   2491000   290.68875      0.0054122779   2.8645429      721.20679     -7.6641479      713.54264    
   2492000   305.45835      0.0054122779   1.7981013      757.8506      -11.40397       746.44663    
   2493000   301.91331      0.0054122779   2.9108598      749.05524     -10.564754      738.49049    
   2494000   299.48857      0.0054122779   4.4662231      743.0394      -12.363593      730.6758     
   2495000   299.50844      0.0054122779   3.3783269      743.0887      -11.442583      731.64612    
   2496000   296.92918      0.0054122779   2.6445683      736.68948     -11.172941      725.51654    
   2497000   310.93156      0.0054122779   3.2445496      771.42978     -9.8925321      761.53725    
   2498000   294.05133      0.0054122779   3.1054361      729.54946     -10.045146      719.50431    
   2499000   286.21738      0.0054122779   2.4131205      710.11321     -6.6134561      703.49975    
   2500000   309.74451      0.0054122779   2.9503334      768.48467     -7.1906131      761.29406    
   2501000   303.06101      0.0054122779   3.1274738      751.90271     -9.8125727      742.09013    
   2502000   300.29589      0.0054122779   2.5168486      745.04238     -8.9578671      736.08451    
   2503000   293.75899      0.0054122779   2.459401       728.82415     -7.2686316      721.55552    
   2504000   304.37992      0.0054122779   3.0479645      755.17497     -7.5495832      747.62539    
   2505000   296.47022      0.0054122779   2.4958685      735.55078     -5.0538955      730.49688    
   2506000   280.64643      0.0054122779   3.656018       696.29153     -7.5454247      688.7461     
   2507000   303.36818      0.0054122779   3.1930275      752.66482     -8.0325393      744.63228    
   2508000   298.40138      0.0054122779   1.2052884      740.34205     -7.7093729      732.63268    
   2509000   296.01028      0.0054122779   3.7613867      734.40967     -9.4798783      724.92979    
   2510000   303.95796      0.0054122779   2.6779761      754.12807     -8.56842        745.55965    
   2511000   309.70222      0.0054122779   2.0770746      768.37975     -8.454248       759.9255     
   2512000   301.95424      0.0054122779   2.5862166      749.15679     -9.2220798      739.93471    
   2513000   298.228        0.0054122779   3.1844712      739.91188     -10.193528      729.71836    
   2514000   296.22913      0.0054122779   3.9094421      734.95263     -10.970392      723.98224    
   2515000   297.40789      0.0054122779   2.8998857      737.87717     -10.27766       727.59951    
   2516000   307.80734      0.0054122779   0.7877876      763.6785      -8.6345389      755.04396    
   2517000   296.66009      0.0054122779   4.6071968      736.02187     -9.9962977      726.02557    
   2518000   288.21843      0.0054122779   3.3773038      715.07787     -8.2756595      706.80221    
   2519000   301.59823      0.0054122779   1.0799891      748.27352     -7.3168468      740.95667    
   2520000   296.36594      0.0054122779   2.0724437      735.29206     -9.824729       725.46734    
   2521000   303.15176      0.0054122779   3.3381847      752.12788     -10.581755      741.54613    
   2522000   306.6265       0.0054122779   2.2022207      760.7488      -11.012213      749.73659    
   2523000   297.42066      0.0054122779   1.1555951      737.90884     -12.719851      725.18899    
   2524000   295.25894      0.0054122779   1.8977435      732.54556     -11.994598      720.55096    
   2525000   301.62772      0.0054122779   8.1311343      748.3467      -12.332559      736.01414    
   2526000   305.82098      0.0054122779   2.5282906      758.75028     -10.887133      747.86315    
   2527000   295.8543       0.0054122779   2.200972       734.02268     -11.852673      722.17001    
   2528000   298.67924      0.0054122779   3.5729116      741.03143     -10.914781      730.11665    
   2529000   301.3069       0.0054122779   3.1771901      747.55071     -10.247035      737.30368    
   2530000   302.63909      0.0054122779   2.8989946      750.85592     -11.608986      739.24694    
   2531000   300.57858      0.0054122779   2.0826339      745.74374     -10.186526      735.55721    
   2532000   299.10798      0.0054122779   2.4097319      742.09515     -13.563435      728.53172    
   2533000   302.69345      0.0054122779   4.0325423      750.99079     -10.650726      740.34006    
   2534000   296.35831      0.0054122779   3.2857137      735.27314     -12.994283      722.27886    
   2535000   305.45864      0.0054122779   2.8886289      757.85131     -9.6824953      748.16882    
   2536000   297.93773      0.0054122779   0.26873525     739.19172     -8.7306128      730.4611     
   2537000   299.38873      0.0054122779   6.2386865      742.79168     -8.8082876      733.98339    
   2538000   300.27677      0.0054122779   3.248623       744.99494     -10.198208      734.79673    
   2539000   313.29718      0.0054122779  -0.11329488     777.29894     -12.056519      765.24242    
   2540000   285.25792      0.0054122779   2.5606135      707.73277     -11.049808      696.68296    
   2541000   287.63936      0.0054122779   4.4149356      713.64119     -11.619826      702.02136    
   2542000   310.07351      0.0054122779   3.5203145      769.30093     -11.724641      757.57629    
   2543000   304.97492      0.0054122779   7.4556582      756.65117     -11.569343      745.08183    
   2544000   296.20555      0.0054122779   0.77467781     734.89415     -11.888506      723.00564    
   2545000   298.08388      0.0054122779   2.9131461      739.55431     -9.1785207      730.37579    
   2546000   295.64121      0.0054122779   4.7354723      733.494       -9.1423985      724.3516     
   2547000   306.58734      0.0054122779   7.2091855      760.65165     -8.8528625      751.79879    
   2548000   309.00908      0.0054122779   3.0499443      766.66004     -8.1479835      758.51205    
   2549000   298.48624      0.0054122779   1.250294       740.5526      -9.0320035      731.52059    
   2550000   296.35617      0.0054122779   2.4259616      735.26782     -8.578872       726.68895    
   2551000   295.40181      0.0054122779   3.3214603      732.90003     -8.6711535      724.22888    
   2552000   298.67673      0.0054122779   3.0116018      741.0252      -10.211911      730.81329    
   2553000   290.202        0.0054122779   4.1493345      719.99917     -11.544143      708.45503    
   2554000   294.06499      0.0054122779   2.8290979      729.58334     -11.181471      718.40187    
   2555000   304.27723      0.0054122779   1.8855997      754.9202      -11.82046       743.09974    
   2556000   311.83577      0.0054122779   3.1623612      773.67315     -12.116765      761.55639    
   2557000   301.33723      0.0054122779   3.7555486      747.62599     -12.787022      734.83896    
   2558000   288.87005      0.0054122779   3.0358521      716.69454     -12.951835      703.74271    
   2559000   285.46592      0.0054122779   2.6132724      708.24882     -9.351188       698.89764    
   2560000   317.30179      0.0054122779   2.790168       787.23449     -10.736355      776.49813    
   2561000   305.50818      0.0054122779   3.1101308      757.97421     -10.243195      747.73101    
   2562000   283.00947      0.0054122779   2.5807422      702.15429     -8.8923347      693.26196    
   2563000   283.44769      0.0054122779   4.1535181      703.24154     -8.8493145      694.39222    
   2564000   304.5718       0.0054122779   3.2535463      755.65103     -10.701786      744.94925    
   2565000   302.87995      0.0054122779   1.6944319      751.45351     -11.044999      740.40851    
   2566000   306.30518      0.0054122779   3.3113802      759.9516      -12.512492      747.43911    
   2567000   296.45647      0.0054122779   3.2890248      735.51666     -8.5685479      726.94812    
   2568000   304.74669      0.0054122779   3.1671884      756.08494     -8.5535105      747.53143    
   2569000   299.85225      0.0054122779   2.5296258      743.94171     -11.566291      732.37542    
   2570000   312.1252       0.0054122779   5.9276395      774.39124     -9.8822324      764.509      
   2571000   294.37682      0.0054122779   2.4783829      730.357       -12.321212      718.03579    
   2572000   294.35417      0.0054122779   1.9311361      730.3008      -12.401671      717.89913    
   2573000   302.85326      0.0054122779   5.8927047      751.3873      -9.602854       741.78444    
   2574000   302.77238      0.0054122779   2.4264265      751.18662     -11.172953      740.01366    
   2575000   293.83714      0.0054122779   1.1971837      729.01805     -10.647673      718.37037    
   2576000   309.87387      0.0054122779   3.4493684      768.80562     -11.886401      756.91922    
   2577000   303.28148      0.0054122779   3.5988992      752.44971     -9.0475317      743.40218    
   2578000   303.00081      0.0054122779   3.1329118      751.75337     -11.145998      740.60738    
   2579000   292.826        0.0054122779   2.9303138      726.50938     -7.5910347      718.91834    
   2580000   307.48698      0.0054122779   2.6135567      762.88368     -7.2313496      755.65233    
   2581000   298.35247      0.0054122779   4.683734       740.22071     -6.9277422      733.29296    
   2582000   293.34866      0.0054122779   2.9536828      727.80611     -7.120212       720.6859     
   2583000   297.33767      0.0054122779   2.5859018      737.70296     -7.4332361      730.26973    
   2584000   302.99694      0.0054122779   2.025645       751.74376     -8.5698392      743.17392    
   2585000   309.89272      0.0054122779   2.6686948      768.85238     -9.6694209      759.18295    
   2586000   291.51304      0.0054122779   6.0012937      723.25188     -8.7766562      714.47522    
   2587000   290.16391      0.0054122779   2.384827       719.90466     -8.2024201      711.70224    
   2588000   310.44581      0.0054122779   2.3728217      770.22461     -9.0209721      761.20364    
   2589000   308.89342      0.0054122779   3.1917462      766.3731      -6.145528       760.22757    
   2590000   306.58285      0.0054122779   6.1341698      760.6405      -8.631052       752.00944    
   2591000   291.3249       0.0054122779   3.5455517      722.7851      -9.1097735      713.67533    
   2592000   285.20929      0.0054122779   3.1145274      707.61211     -7.0392447      700.57287    
   2593000   312.36983      0.0054122779   3.0736962      774.99816     -7.9346128      767.06355    
   2594000   309.22408      0.0054122779   3.246083       767.19346     -5.5654983      761.62796    
   2595000   289.75547      0.0054122779   2.6730821      718.89132     -6.7522809      712.13904    
   2596000   289.40208      0.0054122779   3.0871894      718.01453     -3.8722614      714.14227    
   2597000   283.60987      0.0054122779   3.7718866      703.64391     -6.5537054      697.0902     
   2598000   311.17175      0.0054122779   3.1088626      772.02568     -5.7385289      766.28715    
   2599000   299.01517      0.0054122779   2.022364       741.86487     -8.4188409      733.44603    
   2600000   294.48508      0.0054122779   3.0614187      730.62561     -6.5941347      724.03148    
   2601000   297.17156      0.0054122779   3.4539932      737.29083     -8.5291009      728.76173    
   2602000   318.76276      0.0054122779   3.4248166      790.85919     -6.7505186      784.10867    
   2603000   292.51349      0.0054122779   2.8078399      725.73403     -7.8918678      717.84216    
   2604000   283.89273      0.0054122779   2.2971578      704.3457      -9.7990649      694.54663    
   2605000   312.08592      0.0054122779   2.5050665      774.29378     -9.0758437      765.21793    
   2606000   298.7353       0.0054122779   5.044289       741.1705      -11.262006      729.9085     
   2607000   273.05138      0.0054122779   2.4958061      677.448       -10.000209      667.44779    
   2608000   292.48256      0.0054122779   2.0008296      725.65728     -9.5407352      716.11655    
   2609000   303.58061      0.0054122779   2.5800437      753.19186     -9.7558292      743.43603    
   2610000   314.50935      0.0054122779   4.6274782      780.30637     -8.8837487      771.42262    
   2611000   292.03293      0.0054122779   4.2973164      724.54175     -8.5381931      716.00356    
   2612000   302.54474      0.0054122779   2.9969626      750.62185     -10.111936      740.50991    
   2613000   308.46841      0.0054122779  -0.96337433     765.31863     -9.4042624      755.91437    
   2614000   306.09189      0.0054122779   2.0395069      759.42243     -10.39459       749.02783    
   2615000   318.12769      0.0054122779   4.5520234      789.28356     -12.668347      776.61522    
   2616000   298.96097      0.0054122779   3.2083978      741.73042     -9.1279389      732.60248    
   2617000   304.03793      0.0054122779   2.8548667      754.32649     -9.52597        744.80052    
   2618000   297.17685      0.0054122779   1.6955478      737.30396     -9.7511439      727.55282    
   2619000   312.30216      0.0054122779   2.3053668      774.83027     -9.9353634      764.8949     
   2620000   289.6049       0.0054122779   5.4420645      718.51774     -9.2788954      709.23884    
   2621000   297.29921      0.0054122779   1.0350424      737.60754     -9.3739942      728.23354    
   2622000   304.44182      0.0054122779  -0.57042115     755.32856     -7.3664107      747.96215    
   2623000   303.86419      0.0054122779   4.9929706      753.89542     -5.4223918      748.47303    
   2624000   291.83773      0.0054122779   6.1899576      724.05744     -6.2102332      717.84721    
   2625000   302.3828       0.0054122779   4.2479411      750.22007     -9.6790976      740.54098    
   2626000   294.8169       0.0054122779   2.7282967      731.44884     -9.0055496      722.44329    
   2627000   295.83939      0.0054122779   2.3209118      733.98568     -9.1342834      724.8514     
   2628000   295.30754      0.0054122779   3.4825214      732.66614     -9.0662948      723.59985    
   2629000   306.13741      0.0054122779   3.2739583      759.53534     -11.75467       747.78067    
   2630000   310.60043      0.0054122779   0.00096792147  770.60822     -9.3394063      761.26881    
   2631000   300.15519      0.0054122779   3.0853992      744.6933      -8.4380145      736.25529    
   2632000   302.98379      0.0054122779   3.2377665      751.71114     -8.3836459      743.3275     
   2633000   302.6963       0.0054122779   3.4252099      750.99787     -8.2467779      742.75109    
   2634000   295.13559      0.0054122779   2.497475       732.23955     -9.6769871      722.56256    
   2635000   293.37121      0.0054122779   2.3615296      727.86205     -8.4092809      719.45277    
   2636000   298.80523      0.0054122779   2.7168147      741.34401     -7.6069465      733.73707    
   2637000   304.35514      0.0054122779   4.3384291      755.1135      -6.4141909      748.69931    
   2638000   302.49653      0.0054122779   3.0924614      750.50222     -6.1784704      744.32375    
   2639000   294.22596      0.0054122779   1.7001165      729.98271     -8.6936997      721.28901    
   2640000   309.60669      0.0054122779   4.1826834      768.14273     -5.5049846      762.63774    
   2641000   307.22951      0.0054122779   3.9060272      762.24489     -5.4050385      756.83985    
   2642000   286.58187      0.0054122779   2.540028       711.01753     -7.6569676      703.36056    
   2643000   310.81795      0.0054122779   2.2222761      771.14789     -7.5250189      763.62287    
   2644000   310.19244      0.0054122779   3.0767308      769.59601     -7.527109       762.0689     
   2645000   299.75939      0.0054122779   3.6967105      743.71131     -6.1513352      737.55997    
   2646000   286.03337      0.0054122779   2.9451385      709.65667     -5.5184306      704.13824    
   2647000   283.80117      0.0054122779   2.268428       704.11852     -6.0402231      698.0783     
   2648000   288.98014      0.0054122779   0.9069298      716.9677      -6.0610173      710.90668    
   2649000   307.73553      0.0054122779   2.9376173      763.50033     -6.160035       757.3403     
   2650000   294.28685      0.0054122779   3.8587686      730.13379     -6.7694748      723.36431    
   2651000   276.31828      0.0054122779   2.3611493      685.55328     -9.8842846      675.66899    
   2652000   312.89004      0.0054122779   1.8300254      776.28881     -9.6101495      766.67866    
   2653000   308.49053      0.0054122779   3.7052993      765.37352     -7.9966597      757.37686    
   2654000   276.30383      0.0054122779   2.680454       685.51741     -8.822937       676.69447    
   2655000   295.45331      0.0054122779   1.2006444      733.02781     -9.1721163      723.8557     
   2656000   302.92833      0.0054122779   3.8181115      751.57353     -13.394494      738.17903    
   2657000   300.38374      0.0054122779   2.766523       745.26033     -10.115257      735.14508    
   2658000   302.73874      0.0054122779   1.962193       751.10315     -11.40588       739.69727    
   2659000   299.55075      0.0054122779   1.9861655      743.19367     -10.952997      732.24067    
   2660000   296.15659      0.0054122779   3.0596142      734.77267     -9.9371666      724.83551    
   2661000   295.21446      0.0054122779   4.8009891      732.43522     -10.687471      721.74775    
   2662000   308.39796      0.0054122779   2.0761444      765.14385     -10.150814      754.99304    
   2663000   300.57456      0.0054122779   2.8628743      745.73376     -8.1094498      737.62431    
   2664000   296.59581      0.0054122779   4.9668126      735.86239     -8.5257666      727.33662    
   2665000   289.51123      0.0054122779   2.5669392      718.28534     -10.505227      707.78011    
   2666000   303.72695      0.0054122779   2.3299234      753.55494     -7.8265298      745.72841    
   2667000   300.5603       0.0054122779   3.383913       745.6984      -8.4413794      737.25702    
   2668000   302.53878      0.0054122779   4.3860777      750.60705     -10.553961      740.05309    
   2669000   300.71099      0.0054122779   2.3157441      746.07226     -10.136997      735.93526    
   2670000   297.60349      0.0054122779   1.7587913      738.36246     -9.2305073      729.13196    
   2671000   299.63765      0.0054122779   3.4491346      743.40926     -9.0347016      734.37456    
   2672000   306.53893      0.0054122779   3.0432816      760.53153     -8.5589453      751.97259    
   2673000   292.08544      0.0054122779   2.0654724      724.67202     -8.3257508      716.34627    
   2674000   304.9711       0.0054122779   3.0591354      756.6417      -11.08017       745.56153    
   2675000   305.40499      0.0054122779   2.9684348      757.7182      -8.5833879      749.13481    
   2676000   301.1163       0.0054122779   2.7688239      747.07785     -11.753598      735.32425    
   2677000   302.44559      0.0054122779   3.0228138      750.37585     -8.756935       741.61892    
   2678000   301.38119      0.0054122779   3.1240487      747.73504     -7.9766768      739.75837    
   2679000   295.44817      0.0054122779   3.1284255      733.01505     -10.534967      722.48009    
   2680000   300.23056      0.0054122779   2.6360906      744.8803      -10.378632      734.50167    
   2681000   296.60168      0.0054122779   2.776844       735.87694     -7.1393467      728.73759    
   2682000   282.50778      0.0054122779   2.1925462      700.9096      -8.9725407      691.93706    
   2683000   305.72403      0.0054122779   2.1736278      758.50975     -8.0640354      750.44571    
   2684000   307.07984      0.0054122779   3.2493371      761.87354     -9.9537246      751.91981    
   2685000   289.59952      0.0054122779   3.1581258      718.50438     -8.5410346      709.96335    
   2686000   277.0572       0.0054122779   1.5913997      687.38655     -10.205292      677.18126    
   2687000   298.67153      0.0054122779   1.7149852      741.01231     -10.23946       730.77285    
   2688000   307.75879      0.0054122779   2.9373326      763.55804     -8.0736087      755.48443    
   2689000   304.07225      0.0054122779   3.1705716      754.41162     -10.192853      744.21877    
   2690000   289.8032       0.0054122779   3.1355187      719.00973     -11.201175      707.80856    
   2691000   295.03608      0.0054122779   2.8944438      731.99264     -8.3236579      723.66898    
   2692000   311.06265      0.0054122779   2.7477671      771.755       -9.4933275      762.26168    
   2693000   306.84133      0.0054122779   3.3503179      761.2818      -8.6421158      752.63969    
   2694000   283.80777      0.0054122779   3.4149992      704.1349      -7.5551295      696.57978    
   2695000   299.4927       0.0054122779   2.6585384      743.04964     -11.720287      731.32935    
   2696000   313.12424      0.0054122779   3.7278602      776.86987     -8.7069369      768.16294    
   2697000   298.78099      0.0054122779   3.124016       741.28388     -6.905226       734.37866    
   2698000   286.78113      0.0054122779   3.0589329      711.51188     -7.2921226      704.21976    
   2699000   296.85022      0.0054122779   2.704544       736.49357     -8.023203       728.47037    
   2700000   310.2469       0.0054122779   3.7793654      769.73112     -9.7121426      760.01898    
   2701000   295.86827      0.0054122779   3.2472408      734.05733     -9.0706386      724.98669    
   2702000   304.10854      0.0054122779   2.7060064      754.50167     -7.5920951      746.90958    
   2703000   301.41587      0.0054122779   3.0247345      747.82108     -9.739152       738.08193    
   2704000   297.95691      0.0054122779   3.2535281      739.23931     -10.205041      729.03427    
   2705000   287.21771      0.0054122779   2.7180137      712.59506     -11.425815      701.16925    
   2706000   288.60889      0.0054122779   2.4048454      716.0466      -9.3021225      706.74448    
   2707000   296.82779      0.0054122779   2.8701858      736.43793     -10.307179      726.13075    
   2708000   319.85174      0.0054122779   3.2641521      793.56099     -10.601988      782.95901    
   2709000   300.84869      0.0054122779   3.0670252      746.4139      -8.6980497      737.71585    
   2710000   290.49989      0.0054122779   3.3828998      720.73824     -8.6864833      712.05176    
   2711000   281.35685      0.0054122779   2.275036       698.0541      -8.9400225      689.11408    
   2712000   312.03753      0.0054122779   2.9025574      774.17371     -10.99674       763.17697    
   2713000   302.52663      0.0054122779   4.8930686      750.57691     -10.035584      740.54132    
   2714000   290.72943      0.0054122779   3.0897634      721.30774     -8.3685316      712.93921    
   2715000   301.34379      0.0054122779   1.3773137      747.64224     -8.1435373      739.4987     
   2716000   307.39401      0.0054122779   3.9604011      762.65302     -11.85302       750.8        
   2717000   293.28114      0.0054122779   2.5530023      727.6386      -12.426161      715.21244    
   2718000   298.77016      0.0054122779   0.87012244     741.257       -7.7769099      733.48009    
   2719000   302.60942      0.0054122779   3.2384627      750.78232     -8.5558388      742.22648    
   2720000   302.56235      0.0054122779   4.0838894      750.66552     -6.3542816      744.31124    
   2721000   299.57675      0.0054122779   2.9463711      743.25817     -6.5853832      736.67279    
   2722000   297.23606      0.0054122779   2.3464136      737.45087     -5.3317121      732.11916    
   2723000   316.30193      0.0054122779   1.2749568      784.75382     -4.7565735      779.99724    
   2724000   300.77681      0.0054122779   3.942367       746.23556     -4.2052745      742.03029    
   2725000   302.23051      0.0054122779   2.6235623      749.84222     -5.3405942      744.50162    
   2726000   295.6564       0.0054122779   0.63012318     733.53168     -5.4712204      728.06046    
   2727000   306.17648      0.0054122779   5.3484208      759.63229     -6.714399       752.91789    
   2728000   294.65362      0.0054122779   6.8494841      731.04375     -5.3397935      725.70396    
   2729000   298.30924      0.0054122779   1.6340188      740.11344     -6.0507472      734.0627     
   2730000   291.83389      0.0054122779   2.1919577      724.04792     -4.8074215      719.2405     
   2731000   309.86804      0.0054122779   2.7081816      768.79115     -6.400831       762.39032    
   2732000   305.66749      0.0054122779   3.7663765      758.36947     -3.9016523      754.46782    
   2733000   295.24637      0.0054122779   4.178902       732.51439     -6.632415       725.88198    
   2734000   296.34824      0.0054122779   2.4775044      735.24816     -6.7251918      728.52296    
   2735000   292.66261      0.0054122779   1.9096011      726.104       -7.1467703      718.95723    
   2736000   300.41782      0.0054122779   2.2546702      745.3449      -8.8149492      736.52995    
   2737000   313.84372      0.0054122779   2.1001363      778.65492     -7.2297077      771.42521    
   2738000   304.06372      0.0054122779   3.9840351      754.39047     -6.4306256      747.95984    
   2739000   292.42125      0.0054122779   3.628623       725.50519     -7.6458162      717.85938    
   2740000   291.29348      0.0054122779   1.2984154      722.70715     -8.2148754      714.49227    
   2741000   307.09867      0.0054122779   2.7047061      761.92028     -8.6464373      753.27384    
   2742000   307.09857      0.0054122779   3.639229       761.92003     -6.7841269      755.1359     
   2743000   280.67816      0.0054122779   2.5048552      696.37024     -8.565202       687.80504    
   2744000   282.13778      0.0054122779   2.3956447      699.99161     -9.0907907      690.90082    
   2745000   305.76876      0.0054122779   3.1241         758.62073     -6.9553482      751.66538    
   2746000   306.24077      0.0054122779   1.232628       759.79179     -10.184464      749.60733    
   2747000   294.86608      0.0054122779   3.292216       731.57087     -12.113827      719.45704    
   2748000   293.23001      0.0054122779   3.2392146      727.51173     -15.441553      712.07018    
   2749000   312.04757      0.0054122779   2.9544426      774.19861     -11.53423       762.66438    
   2750000   301.41369      0.0054122779   1.974911       747.81568     -10.197142      737.61854    
   2751000   292.89808      0.0054122779   2.8760335      726.68822     -10.742042      715.94618    
   2752000   299.01795      0.0054122779   3.0006415      741.87177     -7.6549102      734.21686    
   2753000   303.12717      0.0054122779   2.5363035      752.06686     -10.238656      741.8282     
   2754000   301.05308      0.0054122779   2.8997353      746.92099     -9.2021157      737.71887    
   2755000   297.89767      0.0054122779   2.9220649      739.09232     -7.586736       731.50559    
   2756000   301.34502      0.0054122779   2.8822309      747.64531     -11.931952      735.71336    
   2757000   306.36433      0.0054122779   2.9547378      760.09834     -13.881434      746.2169     
   2758000   296.34712      0.0054122779   2.9432287      735.24538     -14.269876      720.9755     
   2759000   302.39046      0.0054122779   3.0942208      750.23907     -13.111744      737.12733    
   2760000   304.83096      0.0054122779   2.9164961      756.294       -14.54493       741.74907    
   2761000   296.21332      0.0054122779   3.0421289      734.91342     -12.998719      721.9147     
   2762000   301.1506       0.0054122779   2.8638093      747.16293     -13.573162      733.58977    
   2763000   299.75992      0.0054122779   2.7932224      743.71262     -10.658071      733.05455    
   2764000   298.5569       0.0054122779   2.2049919      740.72789     -10.608609      730.11928    
   2765000   305.79298      0.0054122779   5.7039499      758.68081     -10.190015      748.49079    
   2766000   314.44674      0.0054122779   4.2150977      780.15104     -12.161816      767.98922    
   2767000   294.31776      0.0054122779   2.2924026      730.21048     -7.7747481      722.43574    
   2768000   304.52146      0.0054122779   4.3637604      755.52613     -9.5818412      745.94429    
   2769000   301.22337      0.0054122779   2.9106524      747.34348     -8.4734813      738.87       
   2770000   295.47259      0.0054122779   1.3803997      733.07563     -6.938028       726.1376     
   2771000   292.66393      0.0054122779   3.3442926      726.10729     -4.1188075      721.98848    
   2772000   311.03972      0.0054122779   2.6575805      771.69813     -7.4844747      764.21365    
   2773000   309.20077      0.0054122779   3.3612949      767.13564     -3.1388027      763.99683    
   2774000   293.63212      0.0054122779   2.877283       728.50937     -6.0989421      722.41043    
   2775000   303.35347      0.0054122779   3.1257737      752.62831     -7.0204313      745.60788    
   2776000   299.71301      0.0054122779   1.3423096      743.59624     -8.3215092      735.27473    
   2777000   296.74084      0.0054122779   3.0013432      736.22219     -6.6238105      729.59838    
   2778000   300.81271      0.0054122779   3.1735063      746.32462     -8.6662912      737.65832    
   2779000   307.99252      0.0054122779   3.0328913      764.13793     -10.935338      753.20259    
   2780000   306.23062      0.0054122779   2.7291137      759.76661     -8.2153714      751.55123    
   2781000   286.00982      0.0054122779   2.8720867      709.59824     -9.029126       700.56912    
   2782000   303.22879      0.0054122779   7.4166281      752.31899     -10.783381      741.53561    
   2783000   298.7447       0.0054122779   1.4899692      741.19384     -8.2593823      732.93446    
   2784000   304.04622      0.0054122779  -1.4249811      754.34705     -8.5106357      745.83642    
   2785000   300.15102      0.0054122779   3.7527011      744.68295     -9.5146642      735.16828    
   2786000   308.4956       0.0054122779   5.549114       765.38608     -6.9537473      758.43233    
   2787000   301.16108      0.0054122779   2.5456669      747.18894     -8.0213273      739.16761    
   2788000   288.65137      0.0054122779   0.68524938     716.152       -12.453372      703.69863    
   2789000   297.10841      0.0054122779   3.1262268      737.13414     -11.054251      726.07989    
   2790000   305.24488      0.0054122779   7.147915       757.32096     -10.102015      747.21895    
   2791000   306.35707      0.0054122779   3.7695091      760.08035     -7.9930885      752.08726    
   2792000   307.81057      0.0054122779   2.6025862      763.6865      -10.711359      752.97514    
   2793000   313.54797      0.0054122779   1.1296474      777.92115     -8.0653277      769.85582    
   2794000   300.20185      0.0054122779  -0.40127826     744.80906     -11.727195      733.08186    
   2795000   285.47525      0.0054122779   7.3743244      708.27197     -12.227898      696.04408    
   2796000   297.29134      0.0054122779   4.1519964      737.58801     -8.7552582      728.83275    
   2797000   305.25364      0.0054122779   1.7798687      757.34269     -9.0886412      748.25405    
   2798000   287.1473       0.0054122779  -3.0577285      712.42036     -6.325332       706.09503    
   2799000   300.31122      0.0054122779   7.7850385      745.08041     -6.0568332      739.02358    
   2800000   303.0963       0.0054122779   9.5549409      751.99027     -7.1066441      744.88362    
   2801000   303.08409      0.0054122779  -0.053873189    751.95998     -6.7292316      745.23075    
   2802000   292.97593      0.0054122779   6.5512361      726.88135     -8.254131       718.62722    
   2803000   300.59934      0.0054122779   5.0231308      745.79525     -7.7427172      738.05253    
   2804000   304.13766      0.0054122779  -4.6957158      754.57391     -6.3768372      748.19708    
   2805000   298.46627      0.0054122779   1.9664902      740.50305     -7.4341277      733.06892    
   2806000   299.98314      0.0054122779   6.7314421      744.26644     -9.207467       735.05898    
   2807000   324.69871      0.0054122779   5.1630125      805.58646     -8.1531084      797.43335    
   2808000   299.65142      0.0054122779   0.66114916     743.44343     -5.3293905      738.11404    
   2809000   296.4303       0.0054122779  -1.1274385      735.45174     -8.2470325      727.20471    
   2810000   299.69076      0.0054122779   4.6487735      743.54104     -7.7276374      735.8134     
   2811000   306.67764      0.0054122779   5.2553375      760.87567     -7.8847405      752.99093    
   2812000   304.66057      0.0054122779  -2.2301276      755.87128     -9.274325       746.59695    
   2813000   301.56633      0.0054122779  -6.0419127      748.19439     -11.075771      737.11861    
   2814000   297.42003      0.0054122779   2.9669933      737.90729     -11.881554      726.02573    
   2815000   282.6506       0.0054122779   5.43313        701.26394     -12.620005      688.64393    
   2816000   302.41316      0.0054122779   4.3461985      750.2954      -10.828278      739.46712    
   2817000   288.1581       0.0054122779  -3.7310107      714.92818     -10.155483      704.7727     
   2818000   305.58248      0.0054122779   4.3363094      758.15857     -10.36964       747.78893    
   2819000   316.70241      0.0054122779   9.2709368      785.74742     -10.199102      775.54832    
   2820000   302.7939       0.0054122779  -0.25005267     751.24002     -9.2450043      741.99502    
   2821000   293.68233      0.0054122779  -0.82429248     728.63394     -11.933044      716.7009     
   2822000   303.83413      0.0054122779   3.9429637      753.82085     -12.416026      741.40483    
   2823000   320.20483      0.0054122779   3.248647       794.43701     -12.908957      781.52805    
   2824000   295.96616      0.0054122779   2.5839337      734.3002      -11.291981      723.00822    
   2825000   293.50428      0.0054122779   4.3257082      728.1922      -13.042676      715.14953    
   2826000   305.46753      0.0054122779   2.7025909      757.87336     -11.443466      746.42989    
   2827000   298.22445      0.0054122779   2.4719423      739.90307     -10.121085      729.78199    
   2828000   299.31159      0.0054122779   3.0523556      742.60029     -11.18068       731.41961    
   2829000   300.06827      0.0054122779   2.949774       744.47765     -11.038602      733.43905    
   2830000   297.57359      0.0054122779   2.4505175      738.28829     -10.477205      727.81108    
   2831000   301.67033      0.0054122779   4.0670598      748.45242     -8.6292176      739.8232     
   2832000   313.52472      0.0054122779   2.1040091      777.86347     -8.9974827      768.86598    
   2833000   292.69399      0.0054122779   2.6263687      726.18187     -9.6387143      716.54315    
   2834000   315.48195      0.0054122779   3.0717753      782.71942     -9.0883215      773.6311     
   2835000   299.53362      0.0054122779   2.8147102      743.15117     -8.519528       734.63164    
   2836000   300.99438      0.0054122779   3.0416521      746.77536     -7.9476571      738.8277     
   2837000   302.63991      0.0054122779   2.9749794      750.85797     -6.5149434      744.34303    
   2838000   298.95274      0.0054122779   2.3068611      741.70998     -7.5113896      734.19859    
   2839000   286.25849      0.0054122779   2.8381881      710.21521     -6.0332122      704.182      
   2840000   303.41466      0.0054122779   2.8322171      752.78014     -7.2323684      745.54777    
   2841000   318.31987      0.0054122779   3.4714803      789.76036     -8.0685933      781.69177    
   2842000   301.81348      0.0054122779   3.017693       748.80757     -9.7848929      739.02268    
   2843000   286.6631       0.0054122779   2.9277022      711.21905     -9.277937       701.94111    
   2844000   295.35745      0.0054122779   3.0199383      732.78997     -8.8317393      723.95823    
   2845000   306.40745      0.0054122779   2.833545       760.20534     -6.2839708      753.92137    
   2846000   302.13274      0.0054122779   2.8851767      749.59966     -9.1970116      740.40265    
   2847000   289.51313      0.0054122779   2.8190294      718.29005     -8.9638836      709.32617    
   2848000   279.62822      0.0054122779   2.9097884      693.76532     -11.528366      682.23696    
   2849000   310.40758      0.0054122779   2.9757144      770.12975     -10.877971      759.25178    
   2850000   294.93584      0.0054122779   3.2882599      731.74395     -12.288558      719.45539    
   2851000   300.11984      0.0054122779   2.1079961      744.6056      -14.652087      729.95351    
   2852000   293.58677      0.0054122779   3.0911274      728.39686     -13.369997      715.02686    
   2853000   303.57831      0.0054122779   2.9108574      753.18614     -13.095295      740.09085    
   2854000   319.22197      0.0054122779   3.2616546      791.99851     -11.600792      780.39772    
   2855000   293.12308      0.0054122779   3.4097667      727.24643     -12.413895      714.83254    
   2856000   290.64384      0.0054122779   1.4828156      721.09538     -13.330761      707.76461    
   2857000   300.18864      0.0054122779   3.4021093      744.77628     -15.468951      729.30733    
   2858000   297.11802      0.0054122779   3.0620886      737.15799     -15.750674      721.40731    
   2859000   302.0546       0.0054122779   2.927935       749.40578     -13.510677      735.8951     
   2860000   296.82459      0.0054122779   2.7829941      736.42999     -16.05709       720.3729     
   2861000   307.22607      0.0054122779   3.0147978      762.23634     -13.261831      748.97451    
   2862000   325.43081      0.0054122779   3.4981774      807.40282     -11.47308       795.92974    
   2863000   300.34885      0.0054122779   3.8175659      745.17377     -7.5808867      737.59288    
   2864000   284.89939      0.0054122779   3.0910798      706.84325     -6.3567558      700.48649    
   2865000   302.40352      0.0054122779   0.70554231     750.27146     -6.1144116      744.15705    
   2866000   312.88615      0.0054122779   2.3974997      776.27915     -6.2450595      770.03409    
   2867000   304.02355      0.0054122779   3.5497562      754.29081     -5.0663825      749.22443    
   2868000   294.36842      0.0054122779   2.8179542      730.33617     -5.2712464      725.06492    
   2869000   279.28661      0.0054122779   2.9043476      692.91778     -8.7464696      684.17131    
   2870000   297.39324      0.0054122779   2.3281617      737.84084     -8.0816995      729.75914    
   2871000   314.25517      0.0054122779   4.1550799      779.67573     -8.7996043      770.87613    
   2872000   300.1552       0.0054122779   3.6530948      744.69331     -8.7874252      735.90589    
   2873000   291.61274      0.0054122779   1.3702645      723.49925     -5.1973921      718.30186    
   2874000   291.49079      0.0054122779   1.8820554      723.19669     -6.9989478      716.19774    
   2875000   304.6376       0.0054122779   3.4161834      755.81428     -7.2973106      748.51697    
   2876000   301.68663      0.0054122779   3.1799487      748.49284     -6.6579094      741.83493    
   2877000   298.86191      0.0054122779   2.9371298      741.48464     -8.1938758      733.29076    
   2878000   292.48875      0.0054122779   3.0224106      725.67266     -6.3250173      719.34764    
   2879000   301.51288      0.0054122779   3.0038823      748.06176     -9.090259       738.9715     
   2880000   308.80941      0.0054122779   1.8026286      766.16465     -9.2856422      756.87901    
   2881000   297.86592      0.0054122779   3.0451693      739.01356     -9.0125518      730.001      
   2882000   301.22263      0.0054122779   4.9121284      747.34165     -9.0234934      738.31815    
   2883000   301.0844       0.0054122779   2.9685409      746.99871     -10.32707       736.67164    
   2884000   304.04656      0.0054122779   1.8114278      754.3479      -7.8557028      746.4922     
   2885000   293.92516      0.0054122779   2.15484        729.23642     -7.4196352      721.81679    
   2886000   291.36811      0.0054122779   3.1649508      722.89232     -7.2802855      715.61203    
   2887000   309.77482      0.0054122779   3.390223       768.55988     -6.9326269      761.62725    
   2888000   315.86188      0.0054122779   3.1832995      783.66204     -10.000421      773.66162    
   2889000   298.96797      0.0054122779   1.9043305      741.74777     -10.104283      731.64349    
   2890000   297.64244      0.0054122779   2.5928915      738.45909     -10.879334      727.57976    
   2891000   302.06714      0.0054122779   3.8104316      749.4369      -9.0508173      740.38608    
   2892000   298.43794      0.0054122779   4.7573547      740.43276     -9.5345257      730.89823    
   2893000   301.533        0.0054122779   2.9931432      748.11168     -7.9198823      740.1918     
   2894000   301.25834      0.0054122779   2.2047214      747.43025     -11.183235      736.24702    
   2895000   299.55513      0.0054122779   2.6118669      743.20454     -11.946482      731.25806    
   2896000   289.70823      0.0054122779   4.7412563      718.77412     -11.265855      707.50826    
   2897000   302.41914      0.0054122779   5.7044087      750.31021     -11.805684      738.50453    
   2898000   316.97194      0.0054122779   1.8669296      786.41611     -7.2255122      779.1906     
   2899000   300.91483      0.0054122779   1.3744958      746.57799     -6.9908426      739.58715    
   2900000   286.95954      0.0054122779   2.9154562      711.95454     -8.8612403      703.0933     
   2901000   305.46647      0.0054122779   3.5897102      757.87074     -9.0343249      748.83642    
   2902000   309.14351      0.0054122779   2.6883494      766.99357     -9.1430911      757.85048    
   2903000   277.64598      0.0054122779   1.9475092      688.84734     -9.3984629      679.44887    
   2904000   301.77327      0.0054122779   3.2506787      748.70781     -9.7217648      738.98605    
   2905000   320.839        0.0054122779   2.6406361      796.0104      -11.085916      784.92448    
   2906000   289.33762      0.0054122779   2.9057326      717.85462     -9.0004328      708.85418    
   2907000   298.91468      0.0054122779   3.6118235      741.61556     -9.7635669      731.85199    
   2908000   310.02593      0.0054122779   2.9663452      769.18288     -9.8915492      759.29133    
   2909000   294.69215      0.0054122779   3.1362853      731.13935     -7.8629589      723.2764     
   2910000   288.95527      0.0054122779   2.0879294      716.90598     -8.8604903      708.04549    
   2911000   307.5579       0.0054122779   1.9859356      763.05963     -7.350156       755.70948    
   2912000   304.04223      0.0054122779   2.5650785      754.33715     -9.2106084      745.12654    
   2913000   287.84311      0.0054122779   3.3380084      714.14669     -9.5139705      704.63272    
   2914000   278.86598      0.0054122779   2.7598986      691.87419     -9.1212229      682.75297    
   2915000   293.66061      0.0054122779   2.7970473      728.58007     -10.308111      718.27196    
   2916000   293.81633      0.0054122779   2.855032       728.96641     -8.2003455      720.76606    
   2917000   299.51957      0.0054122779   3.591277       743.1163      -8.7396626      734.37664    
   2918000   305.81346      0.0054122779   3.0352665      758.73162     -9.7845779      748.94704    
   2919000   296.38267      0.0054122779   2.831328       735.33358     -5.8977545      729.43583    
   2920000   295.08789      0.0054122779   2.2858076      732.12118     -8.0808431      724.04034    
   2921000   317.41101      0.0054122779   3.7194849      787.50545     -7.7063224      779.79913    
   2922000   300.28346      0.0054122779   4.2333648      745.01155     -7.5380609      737.47349    
   2923000   290.12988      0.0054122779   2.0136587      719.82022     -9.1746262      710.6456     
   2924000   283.36927      0.0054122779   2.2482412      703.04697     -7.8494697      695.1975     
   2925000   305.77171      0.0054122779   2.9649361      758.62805     -10.518769      748.10928    
   2926000   300.74772      0.0054122779   2.6434564      746.16339     -11.638851      734.52454    
   2927000   306.76887      0.0054122779   3.0744734      761.10202     -10.049648      751.05238    
   2928000   299.53135      0.0054122779   2.5926101      743.14553     -8.1070543      735.03848    
   2929000   305.60044      0.0054122779   2.7538687      758.20312     -9.0542179      749.1489     
   2930000   299.44489      0.0054122779   3.4182525      742.93103     -7.7859088      735.14512    
   2931000   297.42534      0.0054122779   2.9049743      737.92046     -5.7303952      732.19006    
   2932000   293.72226      0.0054122779   3.0942716      728.73303     -5.3095298      723.4235     
   2933000   300.43184      0.0054122779   2.9621446      745.37968     -6.3219159      739.05777    
   2934000   301.10463      0.0054122779   2.9506703      747.04888     -5.8388028      741.21007    
   2935000   286.59772      0.0054122779   2.9741532      711.05685     -6.1339262      704.92292    
   2936000   299.58599      0.0054122779   2.9229681      743.2811      -7.5884288      735.69267    
   2937000   306.09035      0.0054122779   3.2732379      759.41861     -6.6997664      752.71884    
   2938000   305.77466      0.0054122779   3.1684416      758.63536     -7.6915284      750.94383    
   2939000   294.30484      0.0054122779   1.604371       730.17841     -7.8358209      722.34259    
   2940000   298.4519       0.0054122779   1.9324567      740.46739     -8.3731099      732.09428    
   2941000   304.03528      0.0054122779   3.0119239      754.31991     -10.179424      744.14049    
   2942000   299.85048      0.0054122779   4.3384633      743.93732     -11.626705      732.31061    
   2943000   295.60464      0.0054122779   1.2463811      733.40327     -9.7360352      723.66724    
   2944000   287.90481      0.0054122779   0.14243513     714.29977     -10.554188      703.74559    
   2945000   303.78658      0.0054122779   3.574274       753.70288     -10.337258      743.36562    
   2946000   287.56226      0.0054122779   3.6520405      713.44988     -11.937296      701.51259    
   2947000   299.42862      0.0054122779   2.0449754      742.89066     -10.695541      732.19512    
   2948000   298.40938      0.0054122779   2.7329846      740.3619      -11.709839      728.65206    
   2949000   305.14846      0.0054122779   4.8966526      757.08173     -10.56251       746.51922    
   2950000   308.74212      0.0054122779   3.1641703      765.99771     -8.4482251      757.54949    
   2951000   285.60838      0.0054122779   2.3472311      708.60225     -7.2179603      701.38429    
   2952000   297.2055       0.0054122779   2.4152368      737.37503     -9.2111352      728.1639     
   2953000   299.96075      0.0054122779   2.9804923      744.21089     -9.1275291      735.08336    
   2954000   300.62789      0.0054122779   2.4679413      745.86608     -7.3862892      738.4798     
   2955000   291.47654      0.0054122779   2.8786902      723.16133     -8.1867104      714.97461    
   2956000   305.68055      0.0054122779   3.1486192      758.40187     -8.0006188      750.40125    
   2957000   304.6756       0.0054122779   2.9526316      755.90855     -8.6281602      747.28039    
   2958000   295.55583      0.0054122779   3.4790111      733.28217     -9.10399        724.17818    
   2959000   290.63008      0.0054122779   3.1086348      721.06123     -9.5622699      711.49896    
   2960000   304.43469      0.0054122779   2.921407       755.31086     -12.09995       743.21091    
   2961000   305.13217      0.0054122779   0.56616402     757.04132     -9.5516383      747.48968    
   2962000   309.56687      0.0054122779   3.4030644      768.04394     -10.335509      757.70843    
   2963000   288.98985      0.0054122779   4.8982082      716.99178     -10.225413      706.76637    
   2964000   286.37289      0.0054122779  -1.9655497      710.49902     -7.0471813      703.45184    
   2965000   316.97789      0.0054122779   2.1128936      786.43087     -8.3371837      778.09369    
   2966000   298.84514      0.0054122779   5.7633223      741.44302     -6.7655561      734.67747    
   2967000   289.33149      0.0054122779   4.2565509      717.8394      -10.05204       707.78736    
   2968000   290.9699       0.0054122779   3.0625878      721.90434     -9.1253865      712.77895    
   2969000   305.44088      0.0054122779  -1.223571       757.80724     -7.6559317      750.15131    
   2970000   308.63122      0.0054122779   5.0531737      765.72257     -8.4400808      757.28249    
   2971000   292.49202      0.0054122779   3.0876573      725.68075     -8.6563851      717.02437    
   2972000   297.75514      0.0054122779   2.7466057      738.7387      -7.2621457      731.47655    
   2973000   314.12291      0.0054122779   2.4708183      779.3476      -7.3350593      772.01254    
   2974000   308.61404      0.0054122779   3.3836959      765.67995     -9.1674175      756.51253    
   2975000   287.30008      0.0054122779   4.2703708      712.79943     -9.4951343      703.3043     
   2976000   285.16189      0.0054122779   2.4296572      707.49451     -8.4542092      699.0403     
   2977000   314.58868      0.0054122779   2.6301671      780.50319     -5.5456539      774.95753    
   2978000   319.35612      0.0054122779   3.8432451      792.33135     -6.8353381      785.49601    
   2979000   290.36551      0.0054122779   2.8518118      720.40483     -7.9454531      712.45938    
   2980000   280.75897      0.0054122779   3.521832       696.57074     -9.0698101      687.50093    
   2981000   299.86538      0.0054122779   2.7846483      743.97426     -6.561044       737.41322    
   2982000   315.13591      0.0054122779   4.9977803      781.86087     -9.4713264      772.38954    
   2983000   319.7592       0.0054122779   3.9093342      793.33139     -10.50723       782.82416    
   2984000   298.45218      0.0054122779   3.0606899      740.4681      -7.9088247      732.55927    
   2985000   299.81675      0.0054122779   2.596834       743.85361     -11.290504      732.56311    
   2986000   300.18476      0.0054122779   2.6583362      744.76666     -12.444239      732.32242    
   2987000   303.66008      0.0054122779   2.9244951      753.38902     -10.269806      743.11922    
   2988000   290.1515       0.0054122779   3.9535422      719.87388     -11.239982      708.6339     
   2989000   300.19061      0.0054122779   3.2085409      744.78118     -13.086358      731.69482    
   2990000   290.76886      0.0054122779   1.8243085      721.40555     -10.573855      710.8317     
   2991000   301.59848      0.0054122779   3.3632633      748.27414     -8.2288044      740.04534    
   2992000   300.72189      0.0054122779   4.2186356      746.0993      -8.8605913      737.23871    
   2993000   299.65482      0.0054122779   3.1410522      743.45187     -8.9606037      734.49127    
   2994000   313.71839      0.0054122779   3.6278513      778.34397     -10.782422      767.56155    
   2995000   304.13807      0.0054122779   3.0479979      754.57494     -8.4638126      746.11113    
   2996000   301.90133      0.0054122779   2.1004317      749.02551     -9.9055024      739.12001    
   2997000   309.06046      0.0054122779   2.6066558      766.78751     -10.421654      756.36586    
   2998000   290.11903      0.0054122779   3.7077365      719.7933      -10.541835      709.25146    
   2999000   294.38495      0.0054122779   2.0426407      730.37718     -11.914853      718.46233    
   3000000   322.39355      0.0054122779   2.9647637      799.86728     -10.929311      788.93797    
   3001000   306.67436      0.0054122779   2.9823299      760.86754     -10.341562      750.52598    
   3002000   294.52012      0.0054122779   2.7907801      730.71253     -9.8019585      720.91058    
   3003000   298.28065      0.0054122779   3.2975921      740.04251     -5.7675242      734.27499    
   3004000   306.84334      0.0054122779   2.8055298      761.28677     -9.0728169      752.21396    
   3005000   298.49269      0.0054122779   2.7392483      740.5686      -10.186889      730.38171    
   3006000   311.92095      0.0054122779   4.6523117      773.88449     -7.7782415      766.10625    
   3007000   300.81557      0.0054122779   2.4842657      746.33173     -7.9761521      738.35558    
   3008000   301.45659      0.0054122779   1.293854       747.92211     -10.198512      737.7236     
   3009000   294.39203      0.0054122779   2.6476572      730.39474     -8.9597397      721.435      
   3010000   297.72629      0.0054122779   3.5161689      738.66713     -10.272896      728.39424    
   3011000   293.92028      0.0054122779   3.9195421      729.22431     -13.937185      715.28712    
   3012000   321.18253      0.0054122779   1.734504       796.86271     -11.409977      785.45273    
   3013000   304.1695       0.0054122779   2.1205047      754.65291     -8.6045696      746.04835    
   3014000   287.86329      0.0054122779   4.9718204      714.19675     -9.4647815      704.73197    
   3015000   308.30379      0.0054122779   4.0014093      764.9102      -12.270977      752.63922    
   3016000   320.312        0.0054122779   4.3579869      794.7029      -9.6318359      785.07107    
   3017000   303.07158      0.0054122779   1.177684       751.92896     -10.938836      740.99012    
   3018000   293.82353      0.0054122779   2.1702874      728.98429     -8.6583029      720.32599    
   3019000   287.77748      0.0054122779   4.2819024      713.98387     -7.4266495      706.55722    
   3020000   308.70677      0.0054122779   6.2321835      765.91001     -5.5047146      760.40529    
   3021000   306.96429      0.0054122779   1.8874266      761.58686     -7.7688959      753.81796    
   3022000   290.92793      0.0054122779   2.2580013      721.80022     -10.077579      711.72264    
   3023000   295.07389      0.0054122779   5.6088606      732.08645     -8.6588859      723.42757    
   3024000   306.38352      0.0054122779   2.8596451      760.14596     -9.5456399      750.60032    
   3025000   300.13439      0.0054122779   0.61476885     744.64168     -7.7170133      736.92467    
   3026000   290.82384      0.0054122779   0.018633162    721.54196     -10.483444      711.05851    
   3027000   284.9474       0.0054122779   3.8396606      706.96236     -9.8096466      697.15271    
   3028000   305.01084      0.0054122779   5.6760211      756.74031     -9.76618        746.97413    
   3029000   319.01145      0.0054122779   1.3705313      791.47621     -7.5873552      783.88885    
   3030000   289.20716      0.0054122779   1.551431       717.53094     -6.6354452      710.89549    
   3031000   294.40085      0.0054122779   5.7784908      730.41662     -6.9389065      723.47772    
   3032000   315.16238      0.0054122779   3.0013325      781.92655     -11.469211      770.45734    
   3033000   296.98542      0.0054122779   0.021664246    736.82902     -12.655188      724.17384    
   3034000   295.74263      0.0054122779   4.3986389      733.74561     -8.5267465      725.21886    
   3035000   320.40621      0.0054122779   3.7978038      794.93663     -9.1517489      785.78489    
   3036000   295.46453      0.0054122779   1.3807017      733.05565     -10.422197      722.63346    
   3037000   295.01334      0.0054122779   5.5676708      731.93624     -12.304815      719.63142    
   3038000   307.25183      0.0054122779   3.736062       762.30025     -12.841759      749.45849    
   3039000   308.8406       0.0054122779   1.3471072      766.24205     -14.745691      751.49636    
   3040000   296.09445      0.0054122779   2.9389278      734.6185      -11.604485      723.01401    
   3041000   295.42976      0.0054122779   4.3131156      732.96938     -10.493855      722.47553    
   3042000   317.37139      0.0054122779   3.8659934      787.40718     -7.3428925      780.06428    
   3043000   286.03803      0.0054122779   0.83224921     709.66823     -9.6666555      700.00157    
   3044000   285.54014      0.0054122779   4.2428607      708.43296     -8.3920163      700.04094    
   3045000   306.45621      0.0054122779   3.6153339      760.32631     -9.2209251      751.10538    
   3046000   303.36418      0.0054122779   3.1508216      752.6549      -7.5088264      745.14607    
   3047000   298.38685      0.0054122779   3.1195748      740.306       -5.1429095      735.16309    
   3048000   303.40652      0.0054122779   2.3360802      752.75995     -8.4483593      744.31159    
   3049000   300.29002      0.0054122779   2.6541745      745.02783     -6.4558065      738.57202    
   3050000   305.81866      0.0054122779   3.9204384      758.74453     -10.859132      747.8854     
   3051000   306.12224      0.0054122779   1.8802228      759.4977      -8.0141335      751.48357    
   3052000   292.09152      0.0054122779   2.4394459      724.68712     -9.9465442      714.74058    
   3053000   306.46301      0.0054122779   5.2397615      760.34319     -6.8342548      753.50893    
   3054000   311.25876      0.0054122779   2.7799376      772.24156     -10.481779      761.75978    
   3055000   292.26509      0.0054122779   3.0115453      725.11773     -9.6948638      715.42287    
   3056000   296.47783      0.0054122779   2.8551122      735.56967     -9.7759165      725.79376    
   3057000   314.09459      0.0054122779   5.2485681      779.27733     -8.2952668      770.98206    
   3058000   309.42027      0.0054122779   3.249981       767.68021     -10.756706      756.92351    
   3059000   300.77811      0.0054122779   2.6654495      746.23879     -11.805519      734.43327    
   3060000   289.39704      0.0054122779   2.8021598      718.00204     -12.789394      705.21264    
   3061000   294.99792      0.0054122779   2.8073224      731.89796     -13.059495      718.83847    
   3062000   297.58804      0.0054122779   2.9314989      738.32412     -11.351627      726.97249    
   3063000   296.95495      0.0054122779   4.5541852      736.7534      -8.2369383      728.51647    
   3064000   296.95219      0.0054122779   2.170175       736.74656     -8.194983       728.55158    
   3065000   295.44228      0.0054122779   2.8189662      733.00044     -9.1275339      723.8729     
   3066000   301.76405      0.0054122779   3.3899         748.68494     -9.6118845      739.07305    
   3067000   309.05514      0.0054122779   3.1720687      766.77431     -8.5082769      758.26603    
   3068000   294.84278      0.0054122779   1.7154038      731.51305     -7.1314286      724.38163    
   3069000   283.18514      0.0054122779   2.6848824      702.59014     -9.6120715      692.97807    
   3070000   298.27199      0.0054122779   3.762622       740.02102     -9.5009097      730.52011    
   3071000   315.17736      0.0054122779   3.4655321      781.96371     -9.0228663      772.94085    
   3072000   301.9813       0.0054122779   0.52570578     749.22393     -6.8899511      742.33398    
   3073000   297.43984      0.0054122779   4.9807156      737.95644     -7.2830615      730.67338    
   3074000   306.61296      0.0054122779   3.1533641      760.7152      -8.8400804      751.87512    
   3075000   294.65775      0.0054122779   1.8987772      731.054       -9.0331297      722.02087    
   3076000   289.95173      0.0054122779   2.6459708      719.37823     -10.000007      709.37823    
   3077000   302.86236      0.0054122779   2.8325306      751.40986     -8.9888276      742.42103    
   3078000   286.49785      0.0054122779   3.9225198      710.80907     -7.7539504      703.05512    
   3079000   303.23662      0.0054122779   3.1404382      752.33842     -7.4993211      744.8391     
   3080000   312.3836       0.0054122779   4.1868298      775.03232     -7.0943075      767.93801    
   3081000   302.33339      0.0054122779   3.1193071      750.09747     -6.5343797      743.56309    
   3082000   291.31113      0.0054122779   3.047651       722.75094     -6.694936       716.056      
   3083000   298.57332      0.0054122779   2.2126665      740.76865     -9.1558344      731.61281    
   3084000   299.32112      0.0054122779   2.8285728      742.62395     -7.7381698      734.88578    
   3085000   324.79757      0.0054122779   4.0122146      805.83173     -7.9034008      797.92833    
   3086000   298.59976      0.0054122779   3.0816509      740.83423     -5.9566028      734.87763    
   3087000   297.38884      0.0054122779   1.5640513      737.8299      -5.0203545      732.80954    
   3088000   296.22403      0.0054122779   3.193414       734.93998     -6.1538825      728.7861     
   3089000   295.55566      0.0054122779   3.2682466      733.28174     -7.4159257      725.86582    
   3090000   298.54855      0.0054122779   3.1574252      740.70719     -6.6782564      734.02893    
   3091000   299.31751      0.0054122779   1.9461376      742.615       -6.2775246      736.33747    
   3092000   300.42933      0.0054122779   3.1014275      745.37345     -5.1817335      740.19172    
   3093000   313.41585      0.0054122779   2.5667993      777.59337     -5.6645243      771.92885    
   3094000   294.18189      0.0054122779   2.9887211      729.87337     -4.3269601      725.54641    
   3095000   290.4401       0.0054122779   3.1395919      720.5899      -4.7880598      715.80184    
   3096000   304.84043      0.0054122779   3.0658959      756.31751     -4.7891837      751.52832    
   3097000   313.54656      0.0054122779   2.8249205      777.91765     -5.6978832      772.21976    
   3098000   291.77637      0.0054122779   2.8756804      723.90521     -5.5556587      718.34955    
   3099000   303.41261      0.0054122779   3.9038538      752.77504     -9.7138852      743.06115    
   3100000   316.31918      0.0054122779   3.7333523      784.79661     -10.278246      774.51837    
   3101000   301.06529      0.0054122779   3.9275977      746.95129     -10.019712      736.93158    
   3102000   288.35744      0.0054122779   3.2448828      715.42274     -11.10965       704.31309    
   3103000   302.00431      0.0054122779   0.27610807     749.28102     -10.344685      738.93634    
   3104000   314.7151       0.0054122779   3.8352101      780.81683     -11.277978      769.53885    
   3105000   299.89698      0.0054122779   2.7393023      744.05267     -11.43907       732.6136     
   3106000   299.75363      0.0054122779   2.2137973      743.69701     -8.2381357      735.45888    
   3107000   303.90409      0.0054122779   4.5590498      753.99443     -10.39321       743.60122    
   3108000   297.82346      0.0054122779   5.0266837      738.90821     -10.097582      728.81062    
   3109000   295.03699      0.0054122779   3.4063329      731.99491     -7.1148868      724.88002    
   3110000   297.24437      0.0054122779   2.5176297      737.47147     -7.7388254      729.73264    
   3111000   307.74073      0.0054122779   2.6961217      763.51325     -7.0019179      756.51133    
   3112000   301.11659      0.0054122779   3.4637474      747.07857     -6.5518928      740.52667    
   3113000   292.87556      0.0054122779   2.8230729      726.63233     -7.4175086      719.21482    
   3114000   303.05464      0.0054122779   3.0120327      751.88691     -11.189199      740.69771    
   3115000   307.62411      0.0054122779   2.9348474      763.22391     -7.6437275      755.58018    
   3116000   302.77774      0.0054122779   2.884602       751.19991     -6.7234264      744.47648    
   3117000   295.85811      0.0054122779   2.9160018      734.03211     -7.1799874      726.85213    
   3118000   297.15728      0.0054122779   4.0215835      737.2554      -5.6471421      731.60825    
   3119000   309.40392      0.0054122779   3.4843931      767.63964     -4.4391833      763.20046    
   3120000   320.82036      0.0054122779   3.249359       795.96416     -5.9732109      789.99095    
   3121000   293.10474      0.0054122779   3.7213322      727.20095     -10.24678       716.95417    
   3122000   294.24232      0.0054122779   2.4681722      730.0233      -7.5665864      722.45671    
   3123000   305.172        0.0054122779   3.0618213      757.14014     -6.4602837      750.67985    
   3124000   313.01276      0.0054122779   3.5303017      776.59327     -4.8928877      771.70039    
   3125000   304.66799      0.0054122779   3.1919809      755.88968     -7.2877211      748.60196    
   3126000   281.40158      0.0054122779   2.6807568      698.16507     -8.0563449      690.10872    
   3127000   311.1104       0.0054122779   2.6272094      771.87348     -6.9398027      764.93368    
   3128000   307.0508       0.0054122779   3.2341167      761.8015      -6.3785057      755.42299    
   3129000   288.30551      0.0054122779   3.4700841      715.29391     -6.057605       709.23631    
   3130000   295.48512      0.0054122779   2.5018655      733.10674     -9.2926004      723.81414    
   3131000   300.7846       0.0054122779   2.7891968      746.25489     -8.1267203      738.12817    
   3132000   313.19775      0.0054122779   2.9109905      777.05224     -6.771453       770.28079    
   3133000   301.75425      0.0054122779   3.8599587      748.6606      -8.5674641      740.09314    
   3134000   281.2186       0.0054122779   2.5296669      697.71109     -6.9454553      690.76564    
   3135000   298.71694      0.0054122779   2.1855361      741.12496     -7.3846012      733.74035    
   3136000   321.86254      0.0054122779   3.5996439      798.54983     -7.9021883      790.64764    
   3137000   304.05284      0.0054122779   4.9172646      754.36348     -7.8449677      746.51851    
   3138000   291.15124      0.0054122779   4.1178819      722.35426     -9.7798709      712.57439    
   3139000   281.41925      0.0054122779   2.0036877      698.20893     -4.7508031      693.45813    
   3140000   292.37812      0.0054122779   2.2595521      725.39819     -7.760339       717.63785    
   3141000   295.97757      0.0054122779   3.0002306      734.32851     -4.9575668      729.37094    
   3142000   301.14795      0.0054122779   3.1518178      747.15637     -6.5918941      740.56448    
   3143000   304.57946      0.0054122779   3.19138        755.67004     -6.3239965      749.34604    
   3144000   298.13041      0.0054122779   2.9764693      739.66976     -5.8421042      733.82766    
   3145000   286.73583      0.0054122779   4.5062872      711.39951     -4.7303489      706.66916    
   3146000   307.34758      0.0054122779   3.6929295      762.53782     -4.9723526      757.56546    
   3147000   313.74058      0.0054122779   2.1795453      778.39902     -5.222968       773.17605    
   3148000   290.2785       0.0054122779   2.9599633      720.18896     -7.2009363      712.98802    
   3149000   302.39444      0.0054122779   3.5081052      750.24893     -5.1382623      745.11067    
   3150000   310.10161      0.0054122779   3.1479319      769.37063     -6.5718732      762.79876    
   3151000   293.43674      0.0054122779   2.7412361      728.02463     -6.0400113      721.98462    
   3152000   295.27597      0.0054122779   2.1765139      732.58782     -8.9673027      723.62052    
   3153000   303.87454      0.0054122779   4.3281293      753.92111     -6.8931636      747.02795    
   3154000   309.11597      0.0054122779   6.5230434      766.92523     -6.3632717      760.56196    
   3155000   304.08667      0.0054122779   2.1995681      754.44741     -5.487642       748.95977    
   3156000   310.28015      0.0054122779   3.1292928      769.8136      -6.9570029      762.85659    
   3157000   287.39544      0.0054122779   3.6469581      713.036       -7.7686342      705.26736    
   3158000   300.35665      0.0054122779   2.0356588      745.19314     -6.3167027      738.87644    
   3159000   306.3887       0.0054122779   2.8222545      760.15881     -6.9388457      753.21997    
   3160000   304.14134      0.0054122779   3.0145495      754.58304     -7.1373503      747.44569    
   3161000   285.3557       0.0054122779   3.483783       707.97536     -7.9265604      700.0488     
   3162000   291.11269      0.0054122779   2.8277644      722.2586      -6.7895402      715.46906    
   3163000   319.45154      0.0054122779   1.3636102      792.56808     -7.0200392      785.54805    
   3164000   301.07599      0.0054122779   3.2008173      746.97782     -6.8027847      740.17503    
   3165000   289.43241      0.0054122779   2.955634       718.0898      -6.7899352      711.29986    
   3166000   301.78684      0.0054122779   2.9795612      748.74148     -6.8447563      741.89672    
   3167000   282.7351       0.0054122779   2.9685622      701.47358     -7.915588       693.558      
   3168000   310.8436       0.0054122779   2.9107994      771.21153     -8.173261       763.03827    
   3169000   307.20244      0.0054122779   5.8905417      762.17772     -6.5676033      755.61012    
   3170000   288.30099      0.0054122779   2.3420058      715.28269     -5.3797765      709.90291    
   3171000   305.7004       0.0054122779   0.86919643     758.45111     -9.8183415      748.63277    
   3172000   308.49982      0.0054122779   2.23989        765.39657     -8.9758475      756.42072    
   3173000   300.57233      0.0054122779   3.522549       745.72823     -10.587176      735.14105    
   3174000   291.38821      0.0054122779   2.8570279      722.94218     -11.556492      711.38569    
   3175000   305.25516      0.0054122779   2.8264095      757.34646     -10.958266      746.38819    
   3176000   311.73076      0.0054122779   2.2575209      773.41262     -9.0681963      764.34442    
   3177000   305.16248      0.0054122779   3.4070037      757.11651     -11.111815      746.0047     
   3178000   286.80611      0.0054122779   3.2001526      711.57386     -11.390606      700.18326    
   3179000   304.05695      0.0054122779   2.3095223      754.37367     -11.41059       742.96308    
   3180000   309.93349      0.0054122779   2.5576616      768.95353     -12.905655      756.04787    
   3181000   303.1725       0.0054122779   3.0986362      752.17934     -10.917124      741.26222    
   3182000   307.46316      0.0054122779   2.7670658      762.82458     -11.283819      751.54076    
   3183000   296.95355      0.0054122779   2.9203627      736.74994     -11.774142      724.9758     
   3184000   307.97354      0.0054122779   3.4041717      764.09084     -8.6353884      755.45546    
   3185000   305.18839      0.0054122779   2.2476981      757.1808      -9.4874753      747.69333    
   3186000   292.51492      0.0054122779   0.98503838     725.73759     -8.3250409      717.41255    
   3187000   298.49937      0.0054122779   4.8389222      740.58516     -6.5454603      734.0397     
   3188000   309.67184      0.0054122779   2.8565958      768.30438     -6.4396317      761.86475    
   3189000   300.74744      0.0054122779   1.0281946      746.16269     -9.4017523      736.76094    
   3190000   275.71102      0.0054122779   4.1870887      684.04665     -10.004546      674.0421     
   3191000   289.00026      0.0054122779   2.7869318      717.01762     -10.542249      706.47537    
   3192000   307.94505      0.0054122779   4.5104623      764.02016     -9.6060302      754.41413    
   3193000   294.92632      0.0054122779   0.23977975     731.72032     -11.904739      719.81558    
   3194000   272.76817      0.0054122779   7.9919139      676.74535     -8.443034       668.30231    
   3195000   310.54491      0.0054122779   8.178475       770.47048     -8.0141263      762.45635    
   3196000   329.50317      0.0054122779   0.64718785     817.50644     -7.973511       809.53293    
   3197000   294.69551      0.0054122779   1.3876709      731.14769     -6.7767391      724.37095    
   3198000   284.25991      0.0054122779   2.3050544      705.25668     -5.5166424      699.74004    
   3199000   301.93988      0.0054122779   7.0539858      749.12116     -10.748071      738.37309    
   3200000   308.16282      0.0054122779   1.3498892      764.56046     -8.2942551      756.2662     
   3201000   303.84475      0.0054122779   2.1441778      753.84721     -6.131182       747.71603    
   3202000   300.65174      0.0054122779   3.495305       745.92525     -8.0763617      737.84889    
   3203000   291.36141      0.0054122779   3.3155168      722.87568     -9.3815474      713.49413    
   3204000   305.06211      0.0054122779   6.5026796      756.86749     -10.03839       746.8291     
   3205000   308.22586      0.0054122779   4.8167058      764.71686     -7.1371524      757.57971    
   3206000   293.17037      0.0054122779   1.1787789      727.36377     -5.1862056      722.17756    
   3207000   283.2502       0.0054122779   6.639915       702.75154     -6.0743321      696.67721    
   3208000   305.82092      0.0054122779   3.8004774      758.75014     -8.1353584      750.61478    
   3209000   305.30242      0.0054122779   0.8238108      757.46371     -7.3301266      750.13358    
   3210000   292.6488       0.0054122779   2.9529264      726.06974     -8.2339782      717.83576    
   3211000   288.19551      0.0054122779   7.5636428      715.02101     -9.8085151      705.21249    
   3212000   306.39536      0.0054122779   5.0449584      760.17533     -9.3784128      750.79692    
   3213000   317.12305      0.0054122779   2.9285684      786.79103     -8.8416608      777.94937    
   3214000   292.07722      0.0054122779   1.4762932      724.65164     -9.0150313      715.63661    
   3215000   295.25027      0.0054122779   7.0150947      732.52406     -8.2635011      724.26056    
   3216000   313.63406      0.0054122779   7.75351        778.13475     -7.3150435      770.81971    
   3217000   300.15736      0.0054122779  -3.3497657      744.69869     -7.3508477      737.34784    
   3218000   292.31684      0.0054122779   3.7072099      725.24614     -7.3897356      717.85641    
   3219000   305.91019      0.0054122779   6.6990456      758.97162     -5.6860135      753.28561    
   3220000   302.9898       0.0054122779   2.5372102      751.72605     -7.3369911      744.38906    
   3221000   302.66784      0.0054122779   0.90599273     750.92726     -7.5423713      743.38489    
   3222000   284.52555      0.0054122779   11.494796      705.91572     -6.4202541      699.49547    
   3223000   321.83712      0.0054122779   7.4538514      798.48677     -5.9918734      792.4949     
   3224000   310.96245      0.0054122779  -4.4339305      771.50642     -5.8367457      765.66967    
   3225000   291.136        0.0054122779  -2.1525999      722.31643     -7.2392154      715.07721    
   3226000   287.99293      0.0054122779   3.3508875      714.5184      -8.7665922      705.7518     
   3227000   304.30005      0.0054122779   10.637398      754.9768      -9.5113023      745.4655     
   3228000   307.05892      0.0054122779   7.2907509      761.82164     -8.5564086      753.26524    
   3229000   307.85868      0.0054122779   3.1644368      763.80588     -8.2654272      755.54045    
   3230000   295.86401      0.0054122779  -3.1951399      734.04677     -7.6730399      726.37373    
   3231000   295.29476      0.0054122779   1.5807975      732.63445     -7.6367299      724.99772    
   3232000   303.77938      0.0054122779   10.36989       753.68501     -10.578285      743.10672    
   3233000   297.54532      0.0054122779   5.3083787      738.21813     -7.3241235      730.89401    
   3234000   311.87651      0.0054122779   0.73411523     773.77423     -11.030087      762.74414    
   3235000   305.34053      0.0054122779  -3.6038288      757.55826     -9.3183573      748.23991    
   3236000   290.91599      0.0054122779   0.072649395    721.77059     -7.4972535      714.27333    
   3237000   297.57191      0.0054122779   8.7800081      738.28411     -8.6305599      729.65355    
   3238000   306.13654      0.0054122779   3.0645561      759.53319     -7.819028       751.71417    
   3239000   296.44188      0.0054122779   0.46028127     735.48047     -6.987167       728.4933     
   3240000   296.93568      0.0054122779   5.713893       736.70561     -7.8220361      728.88358    
   3241000   315.59677      0.0054122779   8.8506945      783.00428     -9.0377851      773.9665     
   3242000   298.21592      0.0054122779   2.2143247      739.88191     -8.9282761      730.95363    
   3243000   291.26405      0.0054122779   1.955603       722.63413     -8.0298878      714.60424    
   3244000   303.08149      0.0054122779   5.283985       751.95354     -8.0076492      743.94589    
   3245000   292.03646      0.0054122779   6.4440412      724.55051     -7.5526186      716.99789    
   3246000   304.70895      0.0054122779   3.2849808      755.9913      -5.1055961      750.88571    
   3247000   307.33595      0.0054122779  -1.026468       762.50897     -7.0635372      755.44543    
   3248000   285.10947      0.0054122779   3.4145691      707.36445     -11.812582      695.55187    
   3249000   291.597        0.0054122779   3.944173       723.46018     -12.000663      711.45952    
   3250000   302.27799      0.0054122779   8.0459192      749.96003     -10.575392      739.38464    
   3251000   311.72596      0.0054122779   2.1574096      773.4007      -11.56589       761.83481    
   3252000   305.87105      0.0054122779  -0.9601586      758.87452     -11.454599      747.41992    
   3253000   294.41653      0.0054122779   3.8971152      730.45552     -7.5684461      722.88708    
   3254000   299.79867      0.0054122779   6.0845835      743.80878     -8.2621149      735.54666    
   3255000   310.27851      0.0054122779   2.4191831      769.80953     -6.4572574      763.35228    
   3256000   304.5093       0.0054122779   1.0856134      755.49597     -8.0699076      747.42606    
   3257000   299.38373      0.0054122779   3.7412047      742.7793      -8.4653534      734.31395    
   3258000   298.77807      0.0054122779   3.5206702      741.27663     -6.4783966      734.79823    
   3259000   309.59589      0.0054122779   1.449213       768.11593     -6.2442615      761.87167    
   3260000   303.95878      0.0054122779   2.5090288      754.1301      -7.3326647      746.79744    
   3261000   304.13059      0.0054122779   5.0074         754.55638     -8.6773038      745.87907    
   3262000   296.6284       0.0054122779   2.3555648      735.94324     -7.1414859      728.80175    
   3263000   300.50544      0.0054122779   1.2675023      745.56227     -7.5264253      738.03585    
   3264000   302.86424      0.0054122779   2.7730947      751.41454     -7.3524891      744.06205    
   3265000   307.5097       0.0054122779   4.4098783      762.94005     -6.5917139      756.34834    
   3266000   301.07295      0.0054122779   2.4251918      746.97029     -7.5963802      739.37391    
   3267000   300.27158      0.0054122779   2.573798       744.98207     -7.6885965      737.29348    
   3268000   294.90491      0.0054122779   3.3057364      731.66722     -8.0676945      723.59953    
   3269000   306.85046      0.0054122779   3.3909499      761.30445     -7.471558       753.8329     
   3270000   299.55691      0.0054122779   2.6305335      743.20895     -6.1747055      737.03424    
   3271000   280.66199      0.0054122779   3.2315561      696.33013     -12.09153       684.2386     
   3272000   307.14226      0.0054122779   2.6825646      762.02842     -10.843099      751.18532    
   3273000   304.13653      0.0054122779   3.9335848      754.57112     -11.93213       742.63899    
   3274000   297.67126      0.0054122779   3.1667571      738.53061     -10.60367       727.92694    
   3275000   289.77782      0.0054122779   1.8861792      718.94675     -7.9087455      711.03801    
   3276000   304.31198      0.0054122779   3.0999965      755.00642     -8.5395546      746.46687    
   3277000   320.83331      0.0054122779   4.1103877      795.99629     -11.230017      784.76627    
   3278000   288.21423      0.0054122779   2.6895602      715.06746     -8.0709172      706.99654    
   3279000   287.43447      0.0054122779   3.2199028      713.13284     -7.5187285      705.61412    
   3280000   306.46176      0.0054122779   3.1950669      760.34008     -8.0403618      752.29972    
   3281000   300.05967      0.0054122779   3.0400437      744.4563      -8.7941696      735.66213    
   3282000   288.42468      0.0054122779   2.7866274      715.58958     -8.58913        707.00045    
   3283000   294.76299      0.0054122779   2.6540124      731.3151      -9.430999       721.8841     
   3284000   309.82295      0.0054122779   3.9718856      768.67927     -8.2149323      760.46434    
   3285000   304.1484       0.0054122779   2.8650715      754.60056     -12.09131       742.50925    
   3286000   290.08261      0.0054122779   2.7545402      719.70296     -9.5805668      710.1224     
   3287000   293.03103      0.0054122779   3.0623483      727.01806     -9.5898538      717.42821    
   3288000   299.81706      0.0054122779   3.1638885      743.85438     -7.85336        736.00102    
   3289000   305.08072      0.0054122779   4.2605887      756.91367     -10.143513      746.77015    
   3290000   295.75139      0.0054122779   3.0003123      733.76736     -13.732408      720.03495    
   3291000   291.55732      0.0054122779  -0.44076627     723.36174     -11.961102      711.40064    
   3292000   298.427        0.0054122779   2.9857407      740.4056      -11.953987      728.45162    
   3293000   316.76241      0.0054122779   4.7736884      785.89627     -12.065572      773.8307     
   3294000   307.93515      0.0054122779   10.667682      763.9956      -9.5609544      754.43464    
   3295000   295.08624      0.0054122779   2.3911354      732.1171      -7.6781554      724.43894    
   3296000   309.54392      0.0054122779  -0.20165466     767.98701     -10.521374      757.46563    
   3297000   298.82875      0.0054122779   4.7648416      741.40236     -8.7385153      732.66385    
   3298000   285.58021      0.0054122779   0.58157998     708.53238     -5.9780345      702.55434    
   3299000   307.8931       0.0054122779  -0.35685829     763.89127     -7.7568363      756.13444    
   3300000   304.54821      0.0054122779   4.1363555      755.59251     -6.9174764      748.67503    
   3301000   292.54309      0.0054122779   4.8571534      725.80748     -9.5468026      716.26067    
   3302000   290.46982      0.0054122779   3.1362087      720.66363     -9.7565368      710.9071     
   3303000   303.58394      0.0054122779   2.8541678      753.20012     -10.405111      742.79501    
   3304000   307.94197      0.0054122779   1.4262502      764.01252     -10.550708      753.46181    
   3305000   309.53554      0.0054122779   0.36806551     767.9662      -9.1617654      758.80443    
   3306000   303.31913      0.0054122779   4.037982       752.54312     -8.8436876      743.69943    
   3307000   289.67864      0.0054122779   7.2742093      718.70069     -10.587298      708.11339    
   3308000   299.22568      0.0054122779   1.4602828      742.38716     -8.9004519      733.48671    
   3309000   315.77763      0.0054122779   5.61325        783.45299     -9.4325486      774.02044    
   3310000   301.81787      0.0054122779   4.2827549      748.81846     -9.0106059      739.80786    
   3311000   291.18339      0.0054122779   2.9129713      722.43402     -9.3417647      713.09225    
   3312000   298.49089      0.0054122779   2.776284       740.56413     -7.3921354      733.17199    
   3313000   321.4463       0.0054122779   2.0266718      797.51713     -10.718195      786.79894    
   3314000   294.30001      0.0054122779   6.8401079      730.16644     -9.3123201      720.85412    
   3315000   288.78196      0.0054122779   1.4831736      716.47601     -7.9677918      708.50821    
   3316000   308.30138      0.0054122779   1.1808818      764.90423     -10.343585      754.56064    
   3317000   311.55054      0.0054122779   12.309726      772.96549     -8.4890253      764.47646    
   3318000   290.57117      0.0054122779   3.8539342      720.91509     -7.9514044      712.96368    
   3319000   294.15215      0.0054122779  -1.5131142      729.79958     -7.8660705      721.93351    
   3320000   301.66505      0.0054122779  -0.32078261     748.4393      -8.2415471      740.19775    
   3321000   310.502        0.0054122779   3.6655254      770.36401     -8.320386       762.04363    
   3322000   292.81771      0.0054122779   5.9229274      726.48881     -8.2232678      718.26554    
   3323000   290.6239       0.0054122779  -3.8942731      721.0459      -7.4966248      713.54927    
   3324000   298.64559      0.0054122779   0.80379704     740.94795     -7.2190725      733.72888    
   3325000   319.23126      0.0054122779   6.0938876      792.02154     -8.3284259      783.69312    
   3326000   303.16649      0.0054122779   4.1241701      752.16442     -6.931407       745.23301    
   3327000   290.68204      0.0054122779   1.3234829      721.19017     -9.9138029      711.27636    
   3328000   294.25016      0.0054122779   0.67429191     730.04277     -9.0477929      720.99497    
   3329000   303.98129      0.0054122779   4.2820228      754.18596     -8.3064233      745.87954    
   3330000   301.48637      0.0054122779   8.7959468      747.99599     -9.4743883      738.5216     
   3331000   305.33586      0.0054122779   3.1850318      757.54668     -9.8244535      747.72223    
   3332000   291.80297      0.0054122779  -0.42407812     723.97122     -12.480886      711.49033    
   3333000   306.13732      0.0054122779   1.8550902      759.53513     -8.0862259      751.4489     
   3334000   304.59636      0.0054122779   10.780738      755.71197     -7.0943466      748.61762    
   3335000   295.63493      0.0054122779   1.5018727      733.47842     -8.102796       725.37562    
   3336000   299.36708      0.0054122779   2.7648467      742.73797     -7.9829655      734.75501    
   3337000   314.46558      0.0054122779   6.6364856      780.19777     -6.7722505      773.42552    
   3338000   303.988        0.0054122779   5.2602295      754.20262     -6.1219254      748.08069    
   3339000   288.68455      0.0054122779   2.4436471      716.23434     -4.6025291      711.63181    
   3340000   303.65622      0.0054122779   1.2347668      753.37945     -8.7664735      744.61298    
   3341000   310.97421      0.0054122779   3.6044238      771.5356      -6.0318305      765.50377    
   3342000   300.0769       0.0054122779   3.4749492      744.49906     -6.2139044      738.28515    
   3343000   287.36094      0.0054122779   4.3612228      712.95041     -8.8891925      704.06122    
   3344000   296.44709      0.0054122779   1.7590736      735.49341     -6.404044       729.08936    
   3345000   313.66395      0.0054122779   3.1852578      778.20889     -6.7758651      771.43303    
   3346000   299.87841      0.0054122779   3.8924856      744.0066      -4.7161712      739.29043    
   3347000   283.64428      0.0054122779   2.5638666      703.72927     -4.5939386      699.13533    
   3348000   307.99201      0.0054122779  -1.5447801      764.13667     -6.8987469      757.23793    
   3349000   308.42977      0.0054122779   6.4184434      765.22276     -8.150656       757.07211    
   3350000   290.2426       0.0054122779   2.0809637      720.09988     -7.7876849      712.3122     
   3351000   299.5201       0.0054122779   2.1117411      743.11761     -8.4818556      734.63576    
   3352000   307.22572      0.0054122779   3.204177       762.23549     -9.1732662      753.06222    
   3353000   300.8463       0.0054122779   4.5519695      746.40797     -10.651457      735.75651    
   3354000   294.72011      0.0054122779  -4.3096719      731.20873     -9.6742702      721.53446    
   3355000   303.89156      0.0054122779   4.2292445      753.96335     -9.8276914      744.13565    
   3356000   310.6971       0.0054122779   6.087487       770.84808     -10.662508      760.18557    
   3357000   298.02118      0.0054122779   2.9651494      739.39876     -8.5925857      730.80618    
   3358000   299.31993      0.0054122779  -1.9282413      742.621       -9.6379982      732.983      
   3359000   309.35635      0.0054122779   6.3040582      767.52163     -9.404175       758.11746    
   3360000   286.9339       0.0054122779   2.3543923      711.89092     -10.263281      701.62764    
   3361000   301.5983       0.0054122779  -1.331833       748.27369     -8.9155893      739.3581     
   3362000   292.97509      0.0054122779   5.360051       726.87926     -6.1802243      720.69904    
   3363000   291.28704      0.0054122779   3.7340149      722.69118     -8.5694227      714.12176    
   3364000   318.31327      0.0054122779   0.25173063     789.74399     -7.3699151      782.37408    
   3365000   302.09492      0.0054122779   4.421615       749.50582     -7.6841798      741.82164    
   3366000   283.95638      0.0054122779   5.3570605      704.5036      -8.8853575      695.61825    
   3367000   306.00563      0.0054122779   2.5145251      759.2084      -7.7970608      751.41134    
   3368000   301.2696       0.0054122779  -3.3964644      747.45819     -8.7667985      738.69139    
   3369000   303.47471      0.0054122779   5.7106115      752.92913     -8.7493027      744.17983    
   3370000   297.45257      0.0054122779   2.478831       737.98803     -9.6113688      728.37666    
   3371000   306.4384       0.0054122779   0.09455011     760.28212     -10.345387      749.93673    
   3372000   316.30626      0.0054122779  -1.5893857      784.76455     -6.1169003      778.64765    
   3373000   299.14097      0.0054122779   5.5398552      742.177       -9.2866182      732.89038    
   3374000   291.9616       0.0054122779   3.9863973      724.36478     -8.6229176      715.74186    
   3375000   289.93071      0.0054122779   2.6886642      719.32608     -9.1858958      710.14019    
   3376000   309.14098      0.0054122779   1.6664555      766.98729     -10.289879      756.69741    
   3377000   301.17983      0.0054122779   4.7929925      747.23546     -9.225428       738.01003    
   3378000   285.95704      0.0054122779   4.0724151      709.46729     -8.4980122      700.96928    
   3379000   297.55737      0.0054122779   2.9233994      738.24804     -8.1394273      730.10861    
   3380000   306.55675      0.0054122779   3.4525559      760.57574     -6.1306758      754.44506    
   3381000   306.00888      0.0054122779   2.9161219      759.21646     -8.8241404      750.39231    
   3382000   298.43864      0.0054122779   2.9291964      740.43448     -7.8036254      732.63086    
   3383000   284.66694      0.0054122779   2.4166987      706.26654     -6.7364422      699.53009    
   3384000   306.05199      0.0054122779   4.5092275      759.32343     -7.4989919      751.82443    
   3385000   309.22669      0.0054122779   1.5051668      767.19995     -6.0755083      761.12444    
   3386000   293.63983      0.0054122779   1.112768       728.52851     -5.7687927      722.75971    
   3387000   281.24169      0.0054122779   2.2257205      697.76838     -6.3360125      691.43236    
   3388000   299.818        0.0054122779   6.9655119      743.85672     -7.4851097      736.37161    
   3389000   313.54655      0.0054122779   5.6177468      777.91763     -6.7671143      771.15052    
   3390000   307.6878       0.0054122779   3.3135082      763.38191     -7.6707321      755.71118    
   3391000   290.23041      0.0054122779  -0.31133721     720.06964     -12.027092      708.04255    
   3392000   286.45876      0.0054122779   2.7151612      710.71209     -14.412773      696.29932    
   3393000   303.23751      0.0054122779   3.128651       752.34062     -15.176864      737.16375    
   3394000   308.98294      0.0054122779   4.9021528      766.59519     -13.830544      752.76464    
   3395000   293.70874      0.0054122779   2.7399655      728.69949     -8.7706208      719.92887    
   3396000   299.95466      0.0054122779   2.7050509      744.19577     -7.1681378      737.02763    
   3397000   291.93721      0.0054122779   2.4217788      724.30427     -10.538922      713.76535    
   3398000   291.8539       0.0054122779   3.223346       724.09758     -11.272464      712.82512    
   3399000   310.88211      0.0054122779   3.0685435      771.30708     -11.247947      760.05914    
   3400000   292.17145      0.0054122779   1.6081109      724.88543     -12.108099      712.77733    
   3401000   293.64087      0.0054122779   3.585454       728.53109     -10.037194      718.4939     
   3402000   318.26595      0.0054122779   2.4847908      789.62659     -13.457412      776.16918    
   3403000   299.57522      0.0054122779   2.6142105      743.25438     -11.317114      731.93727    
   3404000   293.79242      0.0054122779   2.6108151      728.90709     -9.9024067      719.00468    
   3405000   285.56804      0.0054122779   3.7238613      708.50217     -9.2913043      699.21086    
   3406000   300.43517      0.0054122779   2.9662148      745.38793     -8.4647231      736.92321    
   3407000   306.11375      0.0054122779   2.3823568      759.47664     -11.321212      748.15543    
   3408000   289.72946      0.0054122779   4.058785       718.82678     -12.320821      706.50596    
   3409000   298.01999      0.0054122779   3.3917562      739.39581     -9.71183        729.68398    
   3410000   300.1728       0.0054122779   2.9580456      744.737       -11.725863      733.01114    
   3411000   295.92369      0.0054122779   1.2079243      734.19484     -11.758927      722.43591    
   3412000   301.36545      0.0054122779   2.9688611      747.69598     -8.2033618      739.49261    
   3413000   321.36939      0.0054122779   4.0470993      797.32632     -8.3249337      789.00138    
   3414000   295.56841      0.0054122779   2.4855062      733.31336     -8.8573473      724.45602    
   3415000   283.37626      0.0054122779   3.8281975      703.0643      -6.6292266      696.43508    
   3416000   323.03434      0.0054122779   6.9936346      801.4571      -10.387438      791.06967    
   3417000   308.18822      0.0054122779   3.9452936      764.62348     -10.131143      754.49234    
   3418000   291.42892      0.0054122779   0.79852248     723.04319     -9.744304       713.29889    
   3419000   299.23241      0.0054122779   3.3283318      742.40386     -7.4608494      734.94301    
   3420000   291.89997      0.0054122779   5.0478674      724.21187     -8.4554413      715.75643    
   3421000   300.94839      0.0054122779   5.3789265      746.66125     -8.8400404      737.82121    
   3422000   305.13279      0.0054122779   2.4559292      757.04287     -10.315346      746.72752    
   3423000   296.11679      0.0054122779   2.3199251      734.67391     -10.898015      723.77589    
   3424000   289.84026      0.0054122779   4.3913856      719.10168     -9.1593197      709.94236    
   3425000   301.18122      0.0054122779   4.4792297      747.2389      -8.543049       738.69585    
   3426000   309.40139      0.0054122779   1.9547006      767.63337     -9.7808306      757.85254    
   3427000   299.36963      0.0054122779   1.8176433      742.7443      -8.5826129      734.16168    
   3428000   302.61758      0.0054122779   5.3051101      750.80256     -8.9339424      741.86862    
   3429000   303.47338      0.0054122779   0.23830882     752.92581     -8.9814831      743.94433    
   3430000   286.42113      0.0054122779   2.0921197      710.61873     -6.3594876      704.25924    
   3431000   300.93765      0.0054122779   14.06465       746.63461     -7.0278576      739.60675    
   3432000   312.9858       0.0054122779   5.2165072      776.5264      -5.4283071      771.0981     
   3433000   297.84071      0.0054122779  -1.4003626      738.951       -7.5090864      731.44191    
   3434000   297.97169      0.0054122779   2.5192186      739.27599     -7.5366039      731.73938    
   3435000   305.5656       0.0054122779   4.3818959      758.11668     -7.093453       751.02322    
   3436000   307.23277      0.0054122779   2.7492174      762.25297     -7.2569754      754.99599    
   3437000   297.70048      0.0054122779  -0.10835788     738.6031      -7.6378849      730.96522    
   3438000   295.04336      0.0054122779   3.4872988      732.01071     -8.2574738      723.75323    
   3439000   324.40353      0.0054122779   7.8786149      804.85411     -10.890273      793.96384    
   3440000   305.3748       0.0054122779   1.0735483      757.64329     -11.95194       745.69135    
   3441000   290.83223      0.0054122779   1.6064968      721.56279     -10.855323      710.70746    
   3442000   295.92456      0.0054122779   1.5076571      734.197       -10.479996      723.717      
   3443000   296.76475      0.0054122779   7.4454524      736.28153     -10.984962      725.29657    
   3444000   301.75522      0.0054122779   3.390144       748.66302     -6.8467687      741.81625    
   3445000   297.48138      0.0054122779  -0.37690317     738.05952     -7.0532208      731.0063     
   3446000   291.69205      0.0054122779   6.6279414      723.69602     -7.9090697      715.78695    
   3447000   307.05997      0.0054122779   4.7462186      761.82426     -9.828827       751.99543    
   3448000   301.91813      0.0054122779  -4.2284295      749.0672      -8.344406       740.72279    
   3449000   286.05431      0.0054122779  -0.21910048     709.70862     -8.5555408      701.15308    
   3450000   294.72259      0.0054122779   4.1759187      731.21487     -7.5694037      723.64547    
   3451000   312.44068      0.0054122779   4.8125629      775.17393     -6.4518797      768.72205    
   3452000   289.44466      0.0054122779  -0.57465696     718.12017     -7.3750713      710.7451     
   3453000   290.82995      0.0054122779   7.0266585      721.55711     -7.9868615      713.57025    
   3454000   300.42095      0.0054122779   7.5303943      745.35267     -6.5484175      738.80425    
   3455000   308.86149      0.0054122779   6.32022        766.29387     -9.0559091      757.23797    
   3456000   303.70326      0.0054122779   1.3255469      753.49615     -8.4498558      745.0463     
   3457000   289.59121      0.0054122779   2.9683836      718.48378     -6.2660301      712.21775    
   3458000   313.20951      0.0054122779   4.0164463      777.08143     -7.6159848      769.46544    
   3459000   316.23042      0.0054122779   2.843644       784.57638     -7.9615115      776.61487    
   3460000   301.45358      0.0054122779   1.7337708      747.91464     -6.4688785      741.44576    
   3461000   298.21883      0.0054122779   2.937584       739.88913     -8.7094217      731.17971    
   3462000   298.87978      0.0054122779   3.9753489      741.52898     -11.283049      730.24593    
   3463000   308.09926      0.0054122779   1.6831821      764.40276     -6.3508834      758.05188    
   3464000   298.51539      0.0054122779   1.360279       740.62491     -8.0417929      732.58312    
   3465000   296.81863      0.0054122779   4.701116       736.41521     -8.918108       727.4971     
   3466000   303.4692       0.0054122779   2.947218       752.91545     -6.6581285      746.25732    
   3467000   301.85449      0.0054122779   1.7323854      748.9093      -6.0863449      742.82295    
   3468000   299.66014      0.0054122779   1.8187533      743.46506     -7.7368769      735.72818    
   3469000   288.94842      0.0054122779   4.664752       716.88898     -5.7833124      711.10567    
   3470000   309.39352      0.0054122779   4.7229314      767.61385     -5.8019796      761.81187    
   3471000   318.3812       0.0054122779   3.4795122      789.91253     -7.5649329      782.3476     
   3472000   298.71746      0.0054122779  -0.78397354     741.12626     -7.5626759      733.56359    
   3473000   285.93486      0.0054122779   2.5353223      709.41227     -4.4686271      704.94364    
   3474000   290.75005      0.0054122779   5.2564837      721.35888     -6.6664343      714.69245    
   3475000   312.39765      0.0054122779   2.7018797      775.06719     -7.3579469      767.70924    
   3476000   315.34344      0.0054122779   3.0635469      782.37577     -6.6000233      775.77575    
   3477000   298.0249       0.0054122779   2.9217589      739.40798     -5.8952183      733.51276    
   3478000   297.91151      0.0054122779   2.9937705      739.12666     -7.1459708      731.98069    
   3479000   303.63141      0.0054122779   2.8027509      753.3179      -7.4714942      745.84641    
   3480000   297.5784       0.0054122779   3.2318144      738.30022     -8.5904575      729.70976    
   3481000   294.14797      0.0054122779   4.6967623      729.78922     -6.4604394      723.32878    
   3482000   298.04465      0.0054122779   3.3272777      739.457       -6.9254687      732.53153    
   3483000   301.53861      0.0054122779   2.6221723      748.12561     -6.7784037      741.3472     
   3484000   304.69682      0.0054122779   2.9420054      755.96121     -8.589047       747.37216    
   3485000   295.50333      0.0054122779   3.8089728      733.1519      -8.0014244      725.15047    
   3486000   309.35348      0.0054122779   3.7560597      767.5145      -11.48951       756.02499    
   3487000   308.99713      0.0054122779   2.0066859      766.6304      -9.7129172      756.91748    
   3488000   300.29142      0.0054122779   2.8157678      745.03129     -9.0071652      736.02412    
   3489000   293.47957      0.0054122779   3.2235521      728.1309      -10.457713      717.67319    
   3490000   308.99035      0.0054122779   4.9202189      766.61357     -12.515867      754.09771    
   3491000   314.77756      0.0054122779   1.0436389      780.97181     -8.0806303      772.89118    
   3492000   286.62173      0.0054122779   2.6910678      711.11642     -10.912867      700.20356    
   3493000   293.12646      0.0054122779   2.5894311      727.25483     -9.4310191      717.82381    
   3494000   313.57487      0.0054122779   2.4598328      777.98791     -7.1889219      770.79898    
   3495000   301.01091      0.0054122779   4.4385258      746.81637     -5.351601       741.46477    
   3496000   284.87917      0.0054122779   1.933346       706.79306     -8.4120734      698.38099    
   3497000   284.96256      0.0054122779   1.7112934      706.99996     -9.5622073      697.43775    
   3498000   306.69889      0.0054122779   2.080074       760.9284      -8.2617777      752.66662    
   3499000   297.57166      0.0054122779   6.6516418      738.28349     -7.014564       731.26893    
   3500000   284.89303      0.0054122779   1.4321468      706.82745     -8.3424712      698.48498    
   3501000   311.09705      0.0054122779   0.11677701     771.84035     -12.123205      759.71715    
   3502000   312.83789      0.0054122779   4.7318513      776.15944     -8.6982531      767.46119    
   3503000   289.78944      0.0054122779   6.9865534      718.9756      -9.0064844      709.96911    
   3504000   297.11577      0.0054122779   4.3622461      737.15242     -7.3342701      729.81815    
   3505000   292.44683      0.0054122779   2.5137635      725.56865     -7.0670049      718.50164    
   3506000   293.08329      0.0054122779   1.1581381      727.14772     -6.7745439      720.37317    
   3507000   303.64043      0.0054122779   8.2427483      753.34028     -9.3038413      744.03644    
   3508000   297.58776      0.0054122779   2.3015962      738.32345     -9.8280095      728.49544    
   3509000   302.92385      0.0054122779   2.0369629      751.56243     -9.016161       742.54627    
   3510000   303.60643      0.0054122779   6.9148678      753.25593     -6.2678976      746.98803    
   3511000   304.6416       0.0054122779   3.1911512      755.82421     -9.2840468      746.54017    
   3512000   301.48644      0.0054122779   2.6530778      747.99617     -8.0875176      739.90866    
   3513000   286.05822      0.0054122779   1.1557288      709.71832     -8.7154637      701.00286    
   3514000   319.71091      0.0054122779   1.4217133      793.21159     -8.3412972      784.87029    
   3515000   309.20027      0.0054122779   5.8560523      767.1344      -7.244523       759.88988    
   3516000   295.85788      0.0054122779   5.5233289      734.03154     -9.8547059      724.17684    
   3517000   294.01786      0.0054122779   1.9737193      729.46642     -10.531549      718.93487    
   3518000   312.12543      0.0054122779   0.68534196     774.3918      -9.9708262      764.42097    
   3519000   306.20433      0.0054122779   4.1039789      759.70138     -9.5146492      750.18673    
   3520000   288.93741      0.0054122779   4.2347916      716.86169     -8.7352825      708.1264     
   3521000   298.74762      0.0054122779   1.0774186      741.20107     -8.2309135      732.97016    
   3522000   324.11296      0.0054122779   1.7157902      804.13318     -7.4448475      796.68833    
   3523000   304.48939      0.0054122779   5.7572228      755.44658     -10.725469      744.72111    
   3524000   293.4152       0.0054122779   0.039629131    727.97121     -10.190718      717.78049    
   3525000   300.64083      0.0054122779   3.1017952      745.8982      -8.4109564      737.48724    
   3526000   306.33692      0.0054122779   3.7650023      760.03033     -9.6274645      750.40287    
   3527000   293.07496      0.0054122779   5.2887823      727.12706     -8.7526167      718.37444    
   3528000   295.16014      0.0054122779   2.7183745      732.30044     -8.3078508      723.99259    
   3529000   290.8436       0.0054122779   2.914849       721.591       -8.409867       713.18113    
   3530000   296.20349      0.0054122779   4.0179443      734.88903     -6.598579       728.29046    
   3531000   300.03498      0.0054122779   5.702611       744.39505     -8.5950929      735.79996    
   3532000   295.04366      0.0054122779   3.5461666      732.01145     -9.2374386      722.77401    
   3533000   288.99285      0.0054122779   2.6492993      716.99923     -11.51295       705.48628    
   3534000   298.01863      0.0054122779   2.7640417      739.39243     -14.516602      724.87582    
   3535000   308.22209      0.0054122779   3.7196409      764.7075      -14.13658       750.57092    
   3536000   304.39539      0.0054122779   3.1277408      755.21335     -11.957215      743.25614    
   3537000   291.94568      0.0054122779   2.6942379      724.32529     -9.9429434      714.38234    
   3538000   287.50822      0.0054122779   2.3941949      713.31582     -10.455066      702.86075    
   3539000   297.79252      0.0054122779   3.3680181      738.83146     -7.81534        731.01612    
   3540000   308.16385      0.0054122779   3.4672133      764.56301     -6.4520896      758.11092    
   3541000   301.00058      0.0054122779   2.8813955      746.79074     -8.3503297      738.44041    
   3542000   292.47288      0.0054122779   3.1348539      725.63328     -6.8707214      718.76256    
   3543000   290.44723      0.0054122779   3.032028       720.60759     -8.5863999      712.02119    
   3544000   296.82728      0.0054122779   3.1535533      736.43665     -7.3413097      729.09534    
   3545000   309.92886      0.0054122779   3.1318478      768.94204     -7.8397266      761.10231    
   3546000   309.60828      0.0054122779   3.4237999      768.14668     -8.571411       759.57526    
   3547000   287.8316       0.0054122779   3.056342       714.11814     -7.4643702      706.65377    
   3548000   294.45595      0.0054122779   2.9291727      730.55334     -4.4756698      726.07767    
   3549000   299.89756      0.0054122779   2.7239652      744.05411     -7.7918005      736.26231    
   3550000   322.68797      0.0054122779   3.3518953      800.59775     -6.3622857      794.23546    
   3551000   296.83423      0.0054122779   3.0518256      736.45392     -8.9099366      727.54398    
   3552000   277.25773      0.0054122779   1.9307173      687.88407     -9.5380986      678.34598    
   3553000   306.26204      0.0054122779   1.0960342      759.84456     -10.389975      749.45459    
   3554000   312.64113      0.0054122779   3.4975313      775.67125     -9.7774266      765.89383    
   3555000   303.03937      0.0054122779   3.7471656      751.84902     -6.9203241      744.9287     
   3556000   297.5854       0.0054122779   3.2281932      738.31757     -5.7205696      732.597      
   3557000   288.60488      0.0054122779   2.6144458      716.03666     -5.3846056      710.65205    
   3558000   298.6264       0.0054122779   2.3022416      740.90034     -7.4161079      733.48423    
   3559000   314.88864      0.0054122779   1.1760456      781.2474      -5.668669       775.57873    
   3560000   303.56343      0.0054122779   3.0380981      753.14925     -7.2263738      745.92287    
   3561000   289.98996      0.0054122779   3.0896106      719.47309     -6.6155626      712.85752    
   3562000   290.77753      0.0054122779   2.9560967      721.42707     -5.6205138      715.80655    
   3563000   308.03241      0.0054122779   3.1591777      764.2369      -6.0877351      758.14916    
   3564000   299.40494      0.0054122779   3.011493       742.83192     -7.2039293      735.62799    
   3565000   307.8515       0.0054122779   3.3828385      763.78806     -6.8563153      756.93174    
   3566000   292.12953      0.0054122779   2.6751952      724.78142     -8.1310742      716.65035    
   3567000   306.23754      0.0054122779   3.9690771      759.78377     -6.7467131      753.03705    
   3568000   300.6919       0.0054122779   3.3630335      746.02489     -8.1305121      737.89438    
   3569000   299.98884      0.0054122779   3.116222       744.28059     -5.0105957      739.26999    
   3570000   309.58671      0.0054122779   3.0289512      768.09316     -7.3109967      760.78216    
   3571000   296.45314      0.0054122779   2.5654564      735.50842     -7.5620497      727.94637    
   3572000   277.24178      0.0054122779   3.1349782      687.8445      -8.2978553      679.54665    
   3573000   306.28914      0.0054122779   3.3684695      759.91181     -9.9867837      749.92502    
   3574000   295.49766      0.0054122779   3.2200096      733.13784     -3.1750303      729.96281    
   3575000   308.60423      0.0054122779   3.4179082      765.6556      -4.3281777      761.32742    
   3576000   304.7363       0.0054122779   2.8024504      756.05915     -10.705067      745.35409    
   3577000   294.34547      0.0054122779   2.8019448      730.27924     -7.7002522      722.57898    
   3578000   299.66726      0.0054122779   3.7813024      743.48274     -9.5715211      733.91122    
   3579000   301.37315      0.0054122779   3.2327694      747.7151      -9.8333866      737.88172    
   3580000   287.42806      0.0054122779   3.0698866      713.11694     -9.9871787      703.12976    
   3581000   299.10943      0.0054122779   2.5813278      742.09873     -7.7224782      734.37625    
   3582000   301.55302      0.0054122779   2.9231127      748.16135     -9.6406933      738.52066    
   3583000   298.89299      0.0054122779   4.0516452      741.56174     -10.181256      731.38048    
   3584000   291.71536      0.0054122779   1.5304682      723.75384     -9.1657402      714.5881     
   3585000   315.90588      0.0054122779   2.3117597      783.7712      -6.2598276      777.51137    
   3586000   310.48764      0.0054122779   4.1298379      770.32839     -7.8705467      762.45784    
   3587000   293.52606      0.0054122779   3.4672044      728.24625     -7.2791838      720.96707    
   3588000   295.58775      0.0054122779   1.3279646      733.36137     -7.2665684      726.0948     
   3589000   309.51643      0.0054122779   2.260639       767.91881     -9.4208756      758.49793    
   3590000   318.61047      0.0054122779   4.2243862      790.48135     -7.1819336      783.29942    
   3591000   295.95183      0.0054122779   4.931254       734.26464     -10.449637      723.815      
   3592000   291.85145      0.0054122779   2.5452715      724.0915      -7.7758951      716.3156     
   3593000   292.08695      0.0054122779   2.6235451      724.67577     -5.318307       719.35747    
   3594000   308.4099       0.0054122779   3.2153495      765.17347     -7.396042       757.77743    
   3595000   298.27609      0.0054122779   2.9124028      740.0312      -8.789326       731.24188    
   3596000   313.29694      0.0054122779   2.2865856      777.29833     -8.252196       769.04614    
   3597000   298.82968      0.0054122779   3.4578856      741.40468     -8.0973501      733.30733    
   3598000   288.40968      0.0054122779   2.7587393      715.55237     -9.7033449      705.84902    
   3599000   296.05283      0.0054122779   2.4526427      734.51523     -8.0908551      726.42437    
   3600000   304.88317      0.0054122779   2.9712135      756.42354     -12.939232      743.4843     
   3601000   305.74141      0.0054122779   2.3010901      758.55287     -11.847552      746.70532    
   3602000   305.71785      0.0054122779   3.9716798      758.49442     -11.210236      747.28418    
   3603000   294.26703      0.0054122779   2.8572798      730.08461     -11.016191      719.06842    
   3604000   292.57996      0.0054122779   2.0322139      725.89896     -9.7379227      716.16103    
   3605000   287.94504      0.0054122779   1.3692621      714.39957     -10.156305      704.24326    
   3606000   307.0829       0.0054122779   3.82504        761.88113     -7.0899772      754.79116    
   3607000   303.99577      0.0054122779   6.389815       754.22189     -5.7987141      748.42317    
   3608000   299.16032      0.0054122779   3.7878495      742.22499     -8.7451996      733.47979    
   3609000   291.12383      0.0054122779   2.9341398      722.28623     -7.8982613      714.38797    
   3610000   303.18657      0.0054122779   1.7709076      752.21424     -9.7354098      742.47883    
   3611000   316.64556      0.0054122779   5.5004334      785.60637     -8.3218136      777.28456    
   3612000   300.08187      0.0054122779   4.1500302      744.5114      -7.7741696      736.73723    
   3613000   291.77966      0.0054122779   3.2001095      723.91337     -8.8127757      715.10059    
   3614000   294.20963      0.0054122779   2.5560574      729.94219     -7.3456258      722.59656    
   3615000   317.7277       0.0054122779   2.7217048      788.29118     -8.441025       779.85015    
   3616000   305.30039      0.0054122779   3.1491044      757.45867     -8.5593182      748.89936    
   3617000   282.35263      0.0054122779   2.9743497      700.52465     -9.0128336      691.51182    
   3618000   305.01651      0.0054122779   3.4628532      756.75438     -9.2148586      747.53952    
   3619000   309.42118      0.0054122779   3.1902266      767.68247     -9.7861156      757.89635    
   3620000   303.94015      0.0054122779   3.105523       754.08388     -4.9998194      749.08406    
   3621000   301.56884      0.0054122779   2.8873198      748.20061     -4.4820332      743.71857    
   3622000   298.49182      0.0054122779   2.7887632      740.56644     -6.3430126      734.22343    
   3623000   301.85301      0.0054122779   3.1851695      748.90563     -4.962492       743.94313    
   3624000   295.46152      0.0054122779   2.9320106      733.04818     -6.922352       726.12583    
   3625000   299.94524      0.0054122779   3.0992651      744.17242     -6.1699238      738.0025     
   3626000   305.68694      0.0054122779   3.0092259      758.41772     -7.4320365      750.98568    
   3627000   296.71138      0.0054122779   2.2258949      736.14911     -7.1357637      729.01335    
   3628000   285.40568      0.0054122779   4.5378899      708.09935     -9.1323279      698.96702    
   3629000   310.30516      0.0054122779   3.3123509      769.87566     -9.5743673      760.30129    
   3630000   303.61788      0.0054122779   1.3324249      753.28432     -7.9697391      745.31458    
   3631000   295.23384      0.0054122779   3.8180054      732.48329     -6.5000278      725.98326    
   3632000   297.20109      0.0054122779   3.3341064      737.36409     -7.9478558      729.41623    
   3633000   300.73986      0.0054122779   2.1264711      746.14389     -7.1954575      738.94844    
   3634000   301.39315      0.0054122779   2.8922818      747.76471     -6.0345834      741.73012    
   3635000   304.1206       0.0054122779   3.3643716      754.53159     -5.2803653      749.25122    
   3636000   308.70234      0.0054122779   3.1613267      765.89901     -5.1427073      760.75631    
   3637000   301.55118      0.0054122779   2.5636746      748.15679     -6.5652801      741.59151    
   3638000   297.79014      0.0054122779   2.9611693      738.82554     -7.8605576      730.96498    
   3639000   305.01019      0.0054122779   1.8531234      756.73868     -8.3321932      748.40649    
   3640000   303.31897      0.0054122779   2.9025341      752.54273     -6.3049         746.23783    
   3641000   290.04508      0.0054122779   3.2389716      719.60983     -7.474221       712.13561    
   3642000   303.07751      0.0054122779   2.4218998      751.94365     -7.8140986      744.12955    
   3643000   307.75626      0.0054122779   1.1902988      763.55178     -7.8844055      755.66737    
   3644000   301.31082      0.0054122779   3.3103143      747.56044     -6.5883584      740.97208    
   3645000   302.07397      0.0054122779   3.9330183      749.45385     -3.7736899      745.68016    
   3646000   308.94304      0.0054122779   3.0360248      766.49621     -5.2563954      761.23981    
   3647000   302.08371      0.0054122779   2.2626759      749.47801     -6.4558841      743.02213    
   3648000   294.95641      0.0054122779   2.6467789      731.79498     -7.3325659      724.46242    
   3649000   300.11623      0.0054122779   4.4798163      744.59664     -6.2142208      738.38242    
   3650000   301.53484      0.0054122779   3.29738        748.11624     -5.8996929      742.21655    
   3651000   288.63627      0.0054122779   3.0492442      716.11454     -8.2107327      707.90381    
   3652000   301.21734      0.0054122779   2.1998908      747.32852     -7.3213863      740.00713    
   3653000   320.61348      0.0054122779   3.390551       795.45088     -9.0718802      786.379      
   3654000   300.46691      0.0054122779   3.710668       745.4667      -10.664763      734.80193    
   3655000   285.87719      0.0054122779   2.5994085      709.26919     -9.5323452      699.73684    
   3656000   306.3015       0.0054122779   1.9095756      759.94247     -8.3613557      751.58112    
   3657000   303.73883      0.0054122779   3.516612       753.58441     -9.3596648      744.22475    
   3658000   293.12804      0.0054122779   2.797943       727.25874     -9.2062465      718.05249    
   3659000   300.31577      0.0054122779   2.9849535      745.09172     -10.083413      735.0083     
   3660000   300.7643       0.0054122779   2.6823551      746.20452     -9.6311419      736.57338    
   3661000   305.57475      0.0054122779   3.0335339      758.13939     -10.526832      747.61256    
   3662000   291.58497      0.0054122779   3.9272034      723.43035     -9.0424493      714.3879     
   3663000   302.58958      0.0054122779   2.578882       750.73308     -10.361764      740.37132    
   3664000   316.60166      0.0054122779   2.7817123      785.49744     -9.6054116      775.89202    
   3665000   300.5605       0.0054122779   4.1801758      745.69888     -7.6042875      738.09459    
   3666000   278.58797      0.0054122779   1.5441993      691.18443     -7.3749011      683.80953    
   3667000   304.05236      0.0054122779   1.3448152      754.36229     -8.3363541      746.02594    
   3668000   312.8271       0.0054122779   1.6735652      776.13266     -8.8310332      767.30163    
   3669000   296.24868      0.0054122779   4.5602536      735.00113     -8.1754239      726.82571    
   3670000   284.61268      0.0054122779   2.7450898      706.13191     -6.4229318      699.70898    
   3671000   314.69467      0.0054122779   2.8055779      780.76615     -8.8509013      771.91525    
   3672000   312.30992      0.0054122779   3.1921705      774.84952     -8.8775159      765.972      
   3673000   288.94479      0.0054122779   2.9410839      716.87998     -8.960714       707.91927    
   3674000   296.69657      0.0054122779   3.0230807      736.11238     -10.93574       725.17664    
   3675000   305.48379      0.0054122779   3.0086679      757.9137      -11.497016      746.41669    
   3676000   290.29304      0.0054122779   3.2007457      720.22503     -9.6627668      710.56227    
   3677000   296.54961      0.0054122779   2.6934672      735.74776     -7.0332019      728.71456    
   3678000   300.20649      0.0054122779   4.2343351      744.82057     -8.2338125      736.58676    
   3679000   299.75063      0.0054122779   2.7984671      743.68958     -12.005532      731.68405    
   3680000   298.96227      0.0054122779   1.9843674      741.73363     -9.5937385      732.13989    
   3681000   295.76547      0.0054122779   4.8451694      733.80229     -10.382854      723.41944    
   3682000   294.42661      0.0054122779   3.6688968      730.48054     -10.915233      719.56531    
   3683000   302.96655      0.0054122779   3.1933503      751.66837     -7.4927385      744.17563    
   3684000   307.49097      0.0054122779   2.7365095      762.89357     -8.2307223      754.66285    
   3685000   287.51878      0.0054122779   3.4985312      713.34202     -8.2560171      705.086      
   3686000   307.46979      0.0054122779   3.4019042      762.84101     -9.6261154      753.2149     
   3687000   293.47701      0.0054122779   2.1071004      728.12455     -8.693868       719.43068    
   3688000   303.53638      0.0054122779   4.2154786      753.08212     -7.9664083      745.11571    
   3689000   307.58027      0.0054122779   2.8724674      763.11514     -8.1206303      754.99451    
   3690000   293.47284      0.0054122779   2.468416       728.11421     -7.9406959      720.17351    
   3691000   297.28758      0.0054122779   1.7992262      737.57867     -8.0569511      729.52172    
   3692000   287.39137      0.0054122779   3.2654552      713.02592     -7.9769358      705.04898    
   3693000   312.49805      0.0054122779   3.416201       775.31626     -9.2102452      766.10602    
   3694000   303.66376      0.0054122779   2.938645       753.39817     -11.98886       741.40931    
   3695000   289.59043      0.0054122779   2.2276105      718.48185     -8.979525       709.50232    
   3696000   301.16615      0.0054122779   2.5621188      747.20153     -9.3757894      737.82574    
   3697000   307.70922      0.0054122779   3.3191797      763.43506     -8.7923577      754.6427     
   3698000   292.0711       0.0054122779   3.0912618      724.63644     -8.680776       715.95567    
   3699000   295.9176       0.0054122779   2.8294212      734.17973     -8.4244783      725.75525    
   3700000   291.18541      0.0054122779   1.6968095      722.43902     -8.4712148      713.96781    
   3701000   307.07474      0.0054122779   2.9994483      761.8609      -7.5800572      754.28085    
   3702000   297.71881      0.0054122779   3.0021465      738.64859     -8.5930587      730.05553    
   3703000   297.69839      0.0054122779   2.9517068      738.5979      -9.0840452      729.51386    
   3704000   313.96556      0.0054122779   3.4192468      778.9572      -7.4377764      771.51942    
   3705000   307.32335      0.0054122779   2.2251123      762.47771     -11.819323      750.65839    
   3706000   291.07243      0.0054122779   2.3048626      722.15872     -10.400507      711.75822    
   3707000   281.11221      0.0054122779   2.8005188      697.44715     -8.3708708      689.07628    
   3708000   310.80083      0.0054122779   3.6502491      771.10543     -10.467659      760.63777    
   3709000   306.47172      0.0054122779   3.2267403      760.36478     -11.17596       749.18882    
   3710000   293.28313      0.0054122779   2.5752684      727.64353     -10.927567      716.71596    
   3711000   286.76014      0.0054122779   2.8987883      711.45981     -10.282859      701.17696    
   3712000   312.82142      0.0054122779   3.9378406      776.11857     -11.623871      764.4947     
   3713000   323.93154      0.0054122779   4.1668432      803.68308     -13.108414      790.57467    
   3714000   286.59131      0.0054122779   2.2298313      711.04094     -13.158482      697.88245    
   3715000   292.14225      0.0054122779   4.1311345      724.81298     -12.625372      712.1876     
   3716000   297.07351      0.0054122779   3.6677422      737.04757     -13.582467      723.4651     
   3717000   319.01167      0.0054122779   3.193195       791.47674     -9.1198026      782.35694    
   3718000   291.28642      0.0054122779   2.5859765      722.68965     -12.980476      709.70917    
   3719000   296.39844      0.0054122779   3.2991938      735.3727      -11.489458      723.88325    
   3720000   308.7614       0.0054122779   3.6214079      766.04556     -9.0845767      756.96098    
   3721000   310.7817       0.0054122779   0.07755901     771.05797     -10.859225      760.19874    
   3722000   293.661        0.0054122779   2.9744745      728.58105     -9.5921269      718.98892    
   3723000   309.36112      0.0054122779   4.7707473      767.53347     -9.369945       758.16352    
   3724000   302.48743      0.0054122779   5.9888778      750.47964     -8.4642587      742.01538    
   3725000   297.60121      0.0054122779   2.2462528      738.35681     -9.1325975      729.22421    
   3726000   303.26227      0.0054122779   2.4711927      752.40204     -9.3076575      743.09438    
   3727000   296.47485      0.0054122779   0.70619738     735.56229     -8.9339244      726.62836    
   3728000   288.1576       0.0054122779   3.7530672      714.92695     -7.1046334      707.82232    
   3729000   309.98659      0.0054122779   3.125763       769.08527     -6.4894051      762.59587    
   3730000   299.40275      0.0054122779   1.9597466      742.82648     -6.6451657      736.18131    
   3731000   294.60421      0.0054122779   2.1138967      730.92117     -5.8575038      725.06366    
   3732000   306.71149      0.0054122779   4.6092902      760.95966     -6.2649713      754.69469    
   3733000   308.18897      0.0054122779   4.5168144      764.62533     -5.6866177      758.93871    
   3734000   295.46215      0.0054122779   2.6528263      733.04973     -6.9354666      726.11427    
   3735000   296.66289      0.0054122779   1.1171792      736.02881     -8.33883        727.68998    
   3736000   295.43794      0.0054122779   3.5477833      732.98967     -8.1567852      724.83289    
   3737000   298.4269       0.0054122779   4.4508271      740.40536     -10.58597       729.81939    
   3738000   307.90216      0.0054122779   4.0387476      763.91376     -11.002171      752.91158    
   3739000   304.41028      0.0054122779   1.668987       755.2503      -10.192579      745.05772    
   3740000   288.48401      0.0054122779   3.2279206      715.73678     -11.057596      704.67918    
   3741000   307.87435      0.0054122779   3.1874886      763.84474     -11.717377      752.12736    
   3742000   301.40808      0.0054122779   2.9590317      747.80175     -10.562696      737.23905    
   3743000   293.48686      0.0054122779   1.7948616      728.14899     -10.188023      717.96097    
   3744000   296.09091      0.0054122779   2.8170497      734.6097      -6.9893276      727.62038    
   3745000   305.7698       0.0054122779   3.4832952      758.62329     -8.5001231      750.12317    
   3746000   315.73034      0.0054122779   3.1176874      783.33567     -11.103732      772.23194    
   3747000   291.98381      0.0054122779   2.3433143      724.41987     -11.515712      712.90416    
   3748000   289.87406      0.0054122779   2.8561104      719.18554     -13.833194      705.35234    
   3749000   305.63981      0.0054122779   3.1868789      758.30079     -12.78927       745.51152    
   3750000   299.57024      0.0054122779   3.1364429      743.24201     -11.452545      731.78947    
   3751000   302.91083      0.0054122779   2.7775423      751.53013     -8.8917747      742.63836    
   3752000   290.22785      0.0054122779   2.5431594      720.06328     -10.281613      709.78167    
   3753000   306.66491      0.0054122779   2.745236       760.84409     -12.268462      748.57563    
   3754000   301.97019      0.0054122779   3.0288872      749.19636     -11.669405      737.52696    
   3755000   287.81903      0.0054122779   2.9328315      714.08696     -10.383027      703.70393    
   3756000   289.57541      0.0054122779   3.2078612      718.44456     -10.051787      708.39278    
   3757000   314.99805      0.0054122779   4.9413958      781.51886     -10.144095      771.37476    
   3758000   314.88406      0.0054122779   3.2285196      781.23603     -11.256206      769.97982    
   3759000   301.42261      0.0054122779   1.5877735      747.8378      -11.666392      736.17141    
   3760000   287.75206      0.0054122779   1.6973603      713.92079     -10.411862      703.50893    
   3761000   307.60011      0.0054122779   5.052785       763.16435     -11.247026      751.91732    
   3762000   310.22392      0.0054122779   3.1899262      769.6741      -10.144009      759.53009    
   3763000   302.15214      0.0054122779   2.9097884      749.6478      -8.7376923      740.91011    
   3764000   289.42532      0.0054122779   2.7690891      718.0722      -9.7258002      708.3464     
   3765000   307.90213      0.0054122779   5.6029593      763.91367     -9.9641743      753.9495     
   3766000   308.62326      0.0054122779   3.7864166      765.70283     -11.752818      753.95001    
   3767000   294.81116      0.0054122779   1.4819803      731.43461     -8.6912408      722.74337    
   3768000   304.42898      0.0054122779   3.5601439      755.29668     -7.9917545      747.30493    
   3769000   310.65649      0.0054122779   3.1222835      770.74732     -9.5564115      761.19091    
   3770000   301.86971      0.0054122779   0.71460905     748.94708     -9.499977       739.4471     
   3771000   294.85985      0.0054122779   2.9298181      731.55541     -12.439262      719.11614    
   3772000   304.85035      0.0054122779   3.2416125      756.34212     -11.346886      744.99524    
   3773000   312.49601      0.0054122779   3.1752628      775.31122     -12.834648      762.47657    
   3774000   297.06991      0.0054122779   2.4628251      737.03865     -12.164942      724.87371    
   3775000   296.93095      0.0054122779   2.796459       736.69387     -13.517709      723.17616    
   3776000   300.58398      0.0054122779   3.278455       745.75713     -15.181936      730.5752     
   3777000   304.07289      0.0054122779   4.6324095      754.41323     -14.234183      740.17905    
   3778000   302.50606      0.0054122779   1.7119359      750.52586     -12.563679      737.96218    
   3779000   294.58062      0.0054122779   2.3222471      730.86263     -8.6751493      722.18748    
   3780000   303.85056      0.0054122779   3.0317622      753.8616      -6.5480708      747.31353    
   3781000   300.69108      0.0054122779   3.4364188      746.02287     -5.5707123      740.45215    
   3782000   301.64713      0.0054122779   3.8641058      748.39484     -8.139484       740.25536    
   3783000   301.12506      0.0054122779   1.8674209      747.09957     -8.5746319      738.52493    
   3784000   295.07439      0.0054122779   3.0762486      732.08768     -10.626289      721.4614     
   3785000   297.13049      0.0054122779   4.2227602      737.18894     -7.4593215      729.72962    
   3786000   306.51046      0.0054122779   4.4417323      760.46089     -5.3959475      755.06494    
   3787000   304.25835      0.0054122779   2.6186413      754.87335     -10.688092      744.18525    
   3788000   298.96453      0.0054122779   2.1947657      741.73924     -7.3074039      734.43183    
   3789000   291.51917      0.0054122779   3.0294793      723.26709     -9.6488433      713.61824    
   3790000   312.22268      0.0054122779   3.5654041      774.63306     -11.608419      763.02465    
   3791000   305.74554      0.0054122779   3.0176096      758.56311     -12.064663      746.49845    
   3792000   296.80526      0.0054122779   2.8334573      736.38203     -10.716402      725.66563    
   3793000   300.97871      0.0054122779   3.3861252      746.73647     -8.9384699      737.798      
   3794000   301.15463      0.0054122779   3.8887154      747.17293     -10.219323      736.95361    
   3795000   308.09666      0.0054122779   4.3155236      764.39631     -8.0672284      756.32908    
   3796000   304.61889      0.0054122779   4.7051309      755.76785     -4.9119387      750.85591    
   3797000   296.50335      0.0054122779   2.1983986      735.63298     -9.5070726      726.12591    
   3798000   318.11489      0.0054122779   2.2162147      789.25181     -10.359186      778.89262    
   3799000   304.40713      0.0054122779   3.3026187      755.24249     -7.8437312      747.39876    
   3800000   293.18842      0.0054122779   3.5687475      727.40856     -9.0557512      718.35281    
   3801000   288.96135      0.0054122779   2.5271234      716.92106     -8.3711766      708.54989    
   3802000   307.25018      0.0054122779   2.1695545      762.29617     -6.6162551      755.67992    
   3803000   307.6036       0.0054122779   2.4480711      763.173       -7.426677       755.74633    
   3804000   292.18025      0.0054122779   3.707761       724.90725     -9.5340143      715.37323    
   3805000   289.8681       0.0054122779   2.5180324      719.17075     -12.080795      707.08995    
   3806000   307.93487      0.0054122779   1.5958231      763.9949      -9.3223853      754.67252    
   3807000   310.34995      0.0054122779   3.4512659      769.98678     -7.6261797      762.3606     
   3808000   296.22632      0.0054122779   3.2570073      734.94567     -7.698263       727.24741    
   3809000   295.90567      0.0054122779   2.7294467      734.15014     -14.754132      719.396      
   3810000   312.15864      0.0054122779   2.7666282      774.47419     -12.183892      762.2903     
   3811000   307.22593      0.0054122779   3.881904       762.236       -9.6981741      752.53783    
   3812000   291.65795      0.0054122779   3.5235891      723.61141     -9.0069453      714.60447    
   3813000   295.99859      0.0054122779   2.9647897      734.38066     -9.7713287      724.60933    
   3814000   309.25645      0.0054122779   2.440745       767.27377     -11.567641      755.70613    
   3815000   326.11599      0.0054122779   5.4699666      809.10277     -9.1588994      799.94387    
   3816000   298.02119      0.0054122779   7.3962451      739.39878     -12.362906      727.03587    
   3817000   286.5473       0.0054122779   2.3877608      710.93176     -10.376543      700.55522    
   3818000   297.05589      0.0054122779   2.3384636      737.00385     -8.1897099      728.81414    
   3819000   316.82766      0.0054122779   0.94383552     786.05816     -8.7424566      777.3157     
   3820000   313.21783      0.0054122779   2.2895659      777.10206     -8.0461973      769.05586    
   3821000   292.17792      0.0054122779   3.457493       724.90148     -8.7648568      716.13662    
   3822000   285.47576      0.0054122779   2.1281364      708.27323     -8.9857933      699.28743    
   3823000   306.0354       0.0054122779   2.9804442      759.28227     -7.6335509      751.64872    
   3824000   301.36814      0.0054122779   2.4616851      747.70266     -9.0875584      738.61511    
   3825000   295.56603      0.0054122779   2.8030214      733.30747     -11.48468       721.82279    
   3826000   302.46281      0.0054122779   3.3382595      750.41858     -11.594198      738.82438    
   3827000   302.4171       0.0054122779   2.8579077      750.30516     -8.9946354      741.31052    
   3828000   303.4024       0.0054122779   2.6340123      752.74972     -11.468689      741.28103    
   3829000   294.05157      0.0054122779   2.7478315      729.55004     -10.431149      719.11889    
   3830000   274.9733       0.0054122779   5.3875981      682.21634     -11.986242      670.23009    
   3831000   302.67781      0.0054122779   3.3351921      750.95198     -9.1206856      741.8313     
   3832000   314.62612      0.0054122779   2.6036851      780.59607     -10.089505      770.50656    
   3833000   300.577        0.0054122779   2.6531952      745.73983     -10.029764      735.71007    
   3834000   289.3424       0.0054122779   3.0300903      717.86647     -9.3876665      708.4788     
   3835000   302.98145      0.0054122779   4.1868778      751.70533     -10.708486      740.99684    
   3836000   311.18042      0.0054122779   2.0551176      772.04719     -12.673336      759.37385    
   3837000   284.74029      0.0054122779   3.2032562      706.4485      -13.179325      693.26918    
   3838000   293.70601      0.0054122779   3.7556138      728.6927      -11.987414      716.70529    
   3839000   320.91772      0.0054122779   3.2252349      796.20572     -10.801213      785.40451    
   3840000   300.89318      0.0054122779   2.8381439      746.52427     -10.348027      736.17624    
   3841000   280.57979      0.0054122779   1.8490818      696.12619     -8.8406949      687.28549    
   3842000   293.81225      0.0054122779   4.2120023      728.9563      -6.91491        722.04139    
   3843000   309.00719      0.0054122779   2.6710606      766.65535     -9.6180138      757.03733    
   3844000   298.41387      0.0054122779   0.90337316     740.37304     -9.3958726      730.97717    
   3845000   293.81107      0.0054122779   2.909638       728.95337     -8.3079368      720.64543    
   3846000   312.2534       0.0054122779   6.2309826      774.7093      -7.6121766      767.09712    
   3847000   311.99681      0.0054122779   3.3411804      774.07269     -8.3742906      765.6984     
   3848000   309.12149      0.0054122779   2.1374244      766.93893     -9.2667412      757.67219    
   3849000   298.06422      0.0054122779   2.7086127      739.50555     -12.048795      727.45675    
   3850000   297.4356       0.0054122779   2.6635163      737.94592     -13.725027      724.2209     
   3851000   305.59074      0.0054122779   2.824794       758.17906     -12.406509      745.77255    
   3852000   311.23705      0.0054122779   2.9693756      772.18771     -13.039798      759.14791    
   3853000   302.70661      0.0054122779   2.8663753      751.02345     -10.724097      740.29935    
   3854000   284.47414      0.0054122779   2.7910375      705.78818     -9.9070784      695.8811     
   3855000   294.68373      0.0054122779   3.4539923      731.11847     -9.3663426      721.75212    
   3856000   304.38087      0.0054122779   3.7534465      755.17732     -9.7697366      745.40759    
   3857000   298.08153      0.0054122779   2.7434912      739.5485      -10.969729      728.57877    
   3858000   293.37052      0.0054122779   3.1188059      727.86035     -8.8185167      719.04184    
   3859000   292.74848      0.0054122779   4.6385443      726.31704     -13.235136      713.08191    
   3860000   311.79278      0.0054122779   1.6474425      773.56648     -9.9195487      763.64694    
   3861000   298.02721      0.0054122779   2.2783875      739.41373     -12.636312      726.77742    
   3862000   297.54272      0.0054122779   3.4576659      738.21169     -11.385727      726.82596    
   3863000   301.74338      0.0054122779   3.8472801      748.63363     -9.5566855      739.07695    
   3864000   307.1416       0.0054122779   0.56466039     762.02677     -10.201599      751.82517    
   3865000   299.42721      0.0054122779   3.0987822      742.88716     -11.227755      731.65941    
   3866000   299.88243      0.0054122779   4.2292217      744.01658     -10.322749      733.69383    
   3867000   306.56455      0.0054122779   3.5828384      760.5951      -10.515043      750.08006    
   3868000   296.41297      0.0054122779   0.35559961     735.40875     -10.992766      724.41599    
   3869000   298.46922      0.0054122779   3.9776762      740.51036     -11.860127      728.65023    
   3870000   310.84752      0.0054122779   3.4703906      771.22127     -11.91869       759.30258    
   3871000   301.18109      0.0054122779   1.4218767      747.23859     -14.635553      732.60303    
   3872000   300.27828      0.0054122779   2.9323099      744.9987      -15.096372      729.90232    
   3873000   300.81366      0.0054122779   2.5477759      746.32697     -13.887655      732.43932    
   3874000   300.99251      0.0054122779   0.19668592     746.77073     -15.196666      731.57406    
   3875000   293.42055      0.0054122779   2.7420124      727.98448     -12.235099      715.74938    
   3876000   301.76098      0.0054122779   3.5233007      748.6773      -12.947419      735.72988    
   3877000   291.49917      0.0054122779   3.4888205      723.21748     -13.701232      709.51624    
   3878000   302.06495      0.0054122779   1.1748075      749.43146     -13.023348      736.40812    
   3879000   300.25889      0.0054122779   0.99258272     744.95058     -11.452525      733.49805    
   3880000   318.73729      0.0054122779   3.9640294      790.796       -12.628216      778.16778    
   3881000   295.34923      0.0054122779   3.6535023      732.76957     -9.9220244      722.84755    
   3882000   297.52387      0.0054122779   2.1165353      738.16493     -12.434644      725.73029    
   3883000   300.15531      0.0054122779   0.51521004     744.69359     -11.956287      732.7373     
   3884000   301.92221      0.0054122779   1.779381       749.07733     -12.817062      736.26027    
   3885000   304.38111      0.0054122779   4.7300858      755.17792     -12.468813      742.70911    
   3886000   300.91126      0.0054122779   3.3964679      746.56912     -12.492774      734.07635    
   3887000   302.12394      0.0054122779   2.8936155      749.57783     -11.765535      737.81229    
   3888000   298.18088      0.0054122779   1.3829773      739.79497     -12.664709      727.13026    
   3889000   307.43035      0.0054122779   4.652765       762.74318     -11.457481      751.2857     
   3890000   302.28475      0.0054122779   4.3038418      749.97679     -13.275021      736.70177    
   3891000   301.79965      0.0054122779  -0.41460965     748.77326     -13.262959      735.5103     
   3892000   298.42461      0.0054122779   3.1276118      740.39967     -14.716755      725.68292    
   3893000   294.27046      0.0054122779   4.3349844      730.09313     -15.712074      714.38106    
   3894000   293.03093      0.0054122779   3.0326229      727.01782     -15.925226      711.09259    
   3895000   313.78739      0.0054122779   2.983504       778.51515     -15.050062      763.46509    
   3896000   309.20246      0.0054122779   3.0511467      767.13982     -17.569473      749.57035    
   3897000   296.60091      0.0054122779   3.6148433      735.87504     -17.387528      718.48752    
   3898000   290.16633      0.0054122779   3.9583397      719.91066     -13.875344      706.03532    
   3899000   293.14997      0.0054122779   5.6289056      727.31315     -16.569715      710.74343    
   3900000   304.30155      0.0054122779   1.1141866      754.98054     -18.696875      736.28366    
   3901000   300.09424      0.0054122779   3.8006646      744.54208     -13.653593      730.88849    
   3902000   301.7644       0.0054122779   3.6459306      748.6858      -12.326201      736.3596     
   3903000   286.64377      0.0054122779   3.3068034      711.1711      -9.5301884      701.64091    
   3904000   295.01412      0.0054122779   2.8857296      731.93817     -10.505927      721.43224    
   3905000   296.60244      0.0054122779   1.9148888      735.87884     -12.737904      723.14093    
   3906000   309.67934      0.0054122779   3.208102       768.32298     -11.543965      756.77901    
   3907000   298.72342      0.0054122779   2.8648441      741.14105     -13.60356       727.53749    
   3908000   297.25209      0.0054122779   3.0124833      737.49062     -15.184658      722.30596    
   3909000   306.69088      0.0054122779   2.626069       760.90853     -13.77739       747.13114    
   3910000   304.68368      0.0054122779   2.655758       755.92862     -13.777377      742.15124    
   3911000   301.67636      0.0054122779   3.5788413      748.46737     -11.285763      737.18161    
   3912000   304.25785      0.0054122779   3.04483        754.87211     -11.653175      743.21894    
   3913000   299.05702      0.0054122779   2.9608282      741.96871     -11.35693       730.61178    
   3914000   301.94384      0.0054122779   3.2701805      749.13098     -11.676417      737.45456    
   3915000   297.87315      0.0054122779   3.0637908      739.03151     -11.596412      727.4351     
   3916000   296.64249      0.0054122779   2.8410046      735.97819     -14.265133      721.71306    
   3917000   307.37763      0.0054122779   3.0617024      762.61237     -13.13393       749.47844    
   3918000   304.41503      0.0054122779   3.0854653      755.26207     -11.897355      743.36472    
   3919000   293.84236      0.0054122779   1.5464623      729.03099     -13.862972      715.16802    
   3920000   288.42901      0.0054122779   3.8737158      715.60034     -14.183202      701.41713    
   3921000   295.4303       0.0054122779   6.2037378      732.97073     -10.262346      722.70838    
   3922000   317.33162      0.0054122779   3.2078269      787.30851     -7.645306       779.6632     
   3923000   306.56008      0.0054122779   1.3011577      760.58402     -9.6604085      750.92361    
   3924000   286.50747      0.0054122779   0.55742862     710.83293     -9.7621822      701.07074    
   3925000   293.18576      0.0054122779   5.0060175      727.40194     -11.611412      715.79053    
   3926000   304.98735      0.0054122779   3.2407539      756.68202     -9.7231825      746.95884    
   3927000   303.45863      0.0054122779   2.6175858      752.88922     -9.5612965      743.32793    
   3928000   298.34408      0.0054122779   4.5231828      740.19988     -9.9467511      730.25313    
   3929000   288.90355      0.0054122779   6.3928966      716.77766     -12.082002      704.69566    
   3930000   309.53667      0.0054122779   3.7450296      767.96902     -12.850504      755.11851    
   3931000   312.14298      0.0054122779  -4.5787774      774.43534     -13.688297      760.74704    
   3932000   288.78197      0.0054122779   4.393859       716.47603     -12.265929      704.2101     
   3933000   292.36833      0.0054122779   5.4142042      725.37388     -10.883262      714.49061    
   3934000   306.01262      0.0054122779  -1.0907036      759.22574     -9.0476319      750.1781     
   3935000   295.43064      0.0054122779   4.6382439      732.97156     -9.5753143      723.39624    
   3936000   293.14743      0.0054122779   8.123329       727.30686     -10.645307      716.66155    
   3937000   318.20398      0.0054122779   2.6471921      789.47285     -9.4104428      780.06241    
   3938000   305.83726      0.0054122779   1.912925       758.79067     -9.5942444      749.19643    
   3939000   294.27888      0.0054122779   3.4434531      730.11402     -7.3181397      722.79588    
   3940000   299.3019       0.0054122779   3.8274849      742.57626     -10.762545      731.81372    
   3941000   310.72587      0.0054122779   3.4439526      770.91946     -6.6666515      764.25281    
   3942000   299.30918      0.0054122779   0.29207605     742.59433     -10.739998      731.85433    
   3943000   290.77341      0.0054122779   2.9743224      721.41685     -9.5009097      711.91594    
   3944000   303.61083      0.0054122779   5.7371067      753.26685     -8.1703552      745.09649    
   3945000   305.20106      0.0054122779   4.8569318      757.21224     -7.7685116      749.44372    
   3946000   303.61828      0.0054122779  -2.5208967      753.28531     -6.4499471      746.83537    
   3947000   296.56666      0.0054122779   3.2361623      735.79006     -9.1493601      726.6407     
   3948000   303.99793      0.0054122779   5.7735737      754.22726     -11.800822      742.42643    
   3949000   305.78522      0.0054122779  -1.2661614      758.66157     -10.578586      748.08299    
   3950000   300.13976      0.0054122779   2.5155286      744.65501     -8.5180144      736.137      
   3951000   297.69167      0.0054122779   1.8682119      738.58124     -8.9750189      729.60622    
   3952000   298.25648      0.0054122779   3.6319686      739.98254     -6.3637237      733.61881    
   3953000   300.56525      0.0054122779   4.0360961      745.71067     -9.1656335      736.54504    
   3954000   298.22022      0.0054122779   0.49908583     739.89257     -6.8532137      733.03936    
   3955000   303.10014      0.0054122779   2.9480751      751.99981     -7.0619331      744.93788    
   3956000   292.93226      0.0054122779   3.2175478      726.77302     -8.4915914      718.28143    
   3957000   292.39609      0.0054122779   2.960135       725.44275     -6.2745417      719.16821    
   3958000   307.27267      0.0054122779   3.0675717      762.35197     -7.2038151      755.14816    
   3959000   312.92873      0.0054122779   2.8944451      776.3848      -6.4850184      769.89979    
   3960000   293.84703      0.0054122779   2.6632768      729.04257     -6.3101099      722.73246    
   3961000   277.66004      0.0054122779   4.1148384      688.8822      -6.9365101      681.94569    
   3962000   301.73379      0.0054122779   5.0248245      748.60985     -7.5634223      741.04642    
   3963000   305.94403      0.0054122779   2.6550678      759.05558     -9.1180357      749.93755    
   3964000   301.773        0.0054122779   2.8516163      748.70712     -9.4941517      739.21297    
   3965000   297.14245      0.0054122779   3.4588367      737.2186      -9.4809534      727.73765    
   3966000   317.19852      0.0054122779   4.1330321      786.97828     -10.806208      776.17208    
   3967000   304.69185      0.0054122779   2.5812471      755.94888     -9.9163332      746.03255    
   3968000   283.4831       0.0054122779   2.1328061      703.32938     -10.70846       692.62092    
   3969000   291.82666      0.0054122779   3.7241264      724.03        -10.582075      713.44792    
   3970000   309.54683      0.0054122779   4.0783005      767.99421     -12.671233      755.32298    
   3971000   302.28057      0.0054122779   3.0270368      749.96642     -9.7198209      740.2466     
   3972000   297.39845      0.0054122779   2.3284935      737.85375     -5.9317066      731.92204    
   3973000   297.97673      0.0054122779   1.5472542      739.28847     -7.0565167      732.23196    
   3974000   307.02297      0.0054122779   5.2786792      761.73245     -7.2080635      754.52439    
   3975000   300.22698      0.0054122779   3.0632542      744.87141     -6.7725425      738.09887    
   3976000   301.20495      0.0054122779   2.1261645      747.29779     -5.928612       741.36918    
   3977000   300.02629      0.0054122779   3.1416623      744.37351     -7.7014262      736.67208    
   3978000   301.99367      0.0054122779   3.584501       749.25462     -6.2574028      742.99721    
   3979000   307.17897      0.0054122779   2.9245576      762.1195      -7.5264688      754.59303    
   3980000   288.22515      0.0054122779   2.8624204      715.09454     -8.4839246      706.61061    
   3981000   290.5838       0.0054122779   2.8317039      720.94641     -7.9385577      713.00785    
   3982000   311.22696      0.0054122779   2.4673181      772.16268     -6.0198797      766.1428     
   3983000   314.0542       0.0054122779   3.2918249      779.17713     -7.1481478      772.02898    
   3984000   291.52012      0.0054122779   3.5237312      723.26945     -10.549192      712.72026    
   3985000   291.99631      0.0054122779   1.6221069      724.4509      -8.7881164      715.66279    
   3986000   303.62722      0.0054122779   3.1221585      753.3075      -7.5914957      745.716      
   3987000   309.40383      0.0054122779   3.2005181      767.63944     -8.7858986      758.85354    
   3988000   296.15732      0.0054122779   3.0660477      734.77447     -8.7426144      726.03186    
   3989000   292.27006      0.0054122779   3.219186       725.13008     -5.6210757      719.509      
   3990000   302.88351      0.0054122779  -1.0676084      751.46234     -6.9953102      744.46703    
   3991000   313.11382      0.0054122779   2.578698       776.84401     -12.850228      763.99378    
   3992000   297.38849      0.0054122779   2.8274736      737.82905     -13.178269      724.65078    
   3993000   284.37868      0.0054122779   3.7316238      705.55134     -13.210299      692.34104    
   3994000   281.97197      0.0054122779   0.1264876      699.58022     -13.108012      686.47221    
   3995000   310.04191      0.0054122779   1.7662281      769.22252     -12.668678      756.55384    
   3996000   310.55022      0.0054122779   3.6184267      770.48365     -9.2292575      761.25439    
   3997000   303.09589      0.0054122779   5.8905567      751.98926     -11.107625      740.88164    
   3998000   301.63992      0.0054122779   6.2434217      748.37696     -9.3064933      739.07047    
   3999000   297.73226      0.0054122779   2.6653787      738.68195     -10.221055      728.46089    
   4000000   293.65264      0.0054122779   1.406758       728.5603      -9.4524562      719.10784    
Loop time of 19886.5 on 1 procs for 4000000 steps with 1500 atoms

Performance: 4.345 ns/day, 5.524 hours/ns, 201.142 timesteps/s, 301.713 katom-step/s
99.3% CPU use with 1 MPI tasks x 1 OpenMP threads

MPI task timing breakdown:
Section |  min time  |  avg time  |  max time  |%varavg| %total
---------------------------------------------------------------
Pair    | 1063.5     | 1063.5     | 1063.5     |   0.0 |  5.35
Bond    | 191.94     | 191.94     | 191.94     |   0.0 |  0.97
Kspace  | 17638      | 17638      | 17638      |   0.0 | 88.70
Neigh   | 0.067836   | 0.067836   | 0.067836   |   0.0 |  0.00
Comm    | 51.397     | 51.397     | 51.397     |   0.0 |  0.26
Output  | 0.14312    | 0.14312    | 0.14312    |   0.0 |  0.00
Modify  | 911.41     | 911.41     | 911.41     |   0.0 |  4.58
Other   |            | 29.53      |            |       |  0.15

Nlocal:           1500 ave        1500 max        1500 min
Histogram: 1 0 0 0 0 0 0 0 0 0
Nghost:            753 ave         753 max         753 min
Histogram: 1 0 0 0 0 0 0 0 0 0
Neighs:              0 ave           0 max           0 min
Histogram: 1 0 0 0 0 0 0 0 0 0

Total # of neighbors = 0
Ave neighs/atom = 0
Ave special neighs/atom = 2
Neighbor list builds = 22149
Dangerous builds = 0
write_data	last_conf.data pair ij
System init for write_data ...
PPPM initialization ...
  using 12-bit tables for long-range coulomb (src/kspace.cpp:342)
  G vector (1/distance) = 0.15699891
  grid = 36 36 36
  stencil order = 5
  estimated absolute RMS force accuracy = 0.028458409
  estimated relative force accuracy = 8.5701652e-05
  using double precision FFTW3
  3d grid and FFT values/proc = 68921 46656
Generated 1 of 1 mixed pair_coeff terms from arithmetic mixing rule
Total wall time: 5:31:26
