LAMMPS (29 Aug 2024 - Update 1)
  using 1 OpenMP thread(s) per MPI task
package gpu 1 gpuID 0
# GCMC for CO2 molecular fluid, rigid/small/nvt dynamics
# Rigid CO2 TraPPE model
# [Potoff and J.I. Siepmann, Vapor-liquid equilibria of
# mixtures containing alkanes, carbon dioxide and
# nitrogen AIChE J., 47,1676-1682 (2001)].

# global model settings

units           real
atom_style      full
boundary        p p p
pair_style      lj/cut/coul/long  12
pair_modify     mix arithmetic shift yes
kspace_style    pppm 1.0e-4
bond_style      harmonic
angle_style     harmonic
neigh_modify    one 4000

# box, start molecules on simple cubic lattice
region          mbox block 0 ${lbox} 0 ${lbox} 0 ${lbox} units box
region          mbox block 0 97 0 ${lbox} 0 ${lbox} units box
region          mbox block 0 97 0 97 0 ${lbox} units box
region          mbox block 0 97 0 97 0 97 units box
create_box      2 mbox                                       bond/types 1                                angle/types 1                               extra/bond/per/atom 2                       extra/angle/per/atom 1                      extra/special/per/atom 2
Created orthogonal box = (0 0 0) to (97 97 97)
  1 by 1 by 1 MPI processor grid
molecule        co2mol ../CO2.txt
Read molecule template co2mol:
# CO2 molecule file. TraPPE model.
  1 molecules
  0 fragments
  3 atoms with max type 2
  2 bonds with max type 1
  1 angles with max type 1
  0 dihedrals with max type 0
  0 impropers with max type 0
create_atoms   	0 random ${nmols} 34578 mbox mol co2mol 464563 overlap 1.2
create_atoms   	0 random 500 34578 mbox mol co2mol 464563 overlap 1.2
Created 1500 atoms
  using lattice units in orthogonal box = (0 0 0) to (97 97 97)
  create_atoms CPU = 0.014 seconds

# rigid CO2 TraPPE model

pair_coeff      1   1  0.053649   2.800
pair_coeff      2   2  0.156973   3.050
bond_coeff      1       0       1.16
angle_coeff     1       0       180

# masses

mass 1 12.0107
mass 2 15.9994

write_data init_conf.data  pair ij
System init for write_data ...
PPPM initialization ...
  using 12-bit tables for long-range coulomb (src/kspace.cpp:342)
  G vector (1/distance) = 0.17795223
  grid = 24 24 24
  stencil order = 5
  estimated absolute RMS force accuracy = 0.028170818
  estimated relative force accuracy = 8.483558e-05
  using double precision FFTW3
  3d grid and FFT values/proc = 24389 13824
Generated 1 of 1 mixed pair_coeff terms from arithmetic mixing rule

# MD settings

group           co2 type 1 2
1500 atoms in group co2
velocity       	all create 300 54654
timestep        0.25

# rigid constraints with thermostat
fix             myrigidnvt co2 rigid/nvt molecule temp 300 300 $(100*dt)
fix             myrigidnvt co2 rigid/nvt molecule temp 300 300 25
  500 rigid bodies with 1500 atoms

thermo 1000
thermo_style custom step temp density press ke pe etotal


variable    mvol equal vol
variable    mden equal density
variable	mtmp equal temp
variable    mpre equal press

fix mydat all ave/time 1 4000 4000 v_mtmp v_mden v_mpre file statistics.dat ## every 1ps

run 8000000 ## 1ns

CITE-CITE-CITE-CITE-CITE-CITE-CITE-CITE-CITE-CITE-CITE-CITE-CITE

Your simulation uses code contributions which should be cited:

- GPU package (short-range, long-range and three-body potentials): doi:10.1016/j.cpc.2010.12.021, doi:10.1016/j.cpc.2011.10.012, doi:10.1016/j.cpc.2013.08.002, doi:10.1016/j.commatsci.2014.10.068, doi:10.1016/j.cpc.2016.10.020, doi:10.3233/APC200086

@Article{Brown11,
 author = {W. M. Brown and P. Wang and S. J. Plimpton and A. N. Tharrington},
 title = {Implementing Molecular Dynamics on Hybrid High Performance Computers---Short Range Forces},
 journal = {Comput.\ Phys.\ Commun.},
 year =    2011,
 volume =  182,
 pages =   {898--911},
 doi =     {10.1016/j.cpc.2010.12.021}
}

@Article{Brown12,
 author = {W. M. Brown and A. Kohlmeyer and S. J. Plimpton and A. N. Tharrington},
 title = {Implementing Molecular Dynamics on Hybrid High Performance Computers - Particle-Particle Particle-Mesh},
 journal = {Comput.\ Phys.\ Commun.},
 year =    2012,
 volume =  183,
 doi =     {10.1016/j.cpc.2011.10.012},
 pages =   {449--459}
}

@Article{Brown13,
 author = {W. M. Brown and Y. Masako},
 title = {Implementing Molecular Dynamics on Hybrid High Performance Computers---Three-Body Potentials},
 journal = {Comput.\ Phys.\ Commun.},
 year =    2013,
 volume =  184,
 pages =   {2785--2793},
 doi =     {10.1016/j.cpc.2013.08.002},
}

@Article{Trung15,
 author = {T. D. Nguyen and S. J. Plimpton},
 title = {Accelerating Dissipative Particle Dynamics Simulations for Soft Matter Systems},
 journal = {Comput.\ Mater.\ Sci.},
 year =    2015,
 doi =     {10.1016/j.commatsci.2014.10.068},
 volume =  100,
 pages =   {173--180}
}

@Article{Trung17,
 author = {T. D. Nguyen},
 title = {{GPU}-Accelerated {T}ersoff Potentials for Massively Parallel
    Molecular Dynamics Simulations},
 journal = {Comput.\ Phys.\ Commun.},
 year =    2017,
 doi =     {10.1016/j.cpc.2016.10.020},
 volume =  212,
 pages =   {113--122}
}

@inproceedings{Nikolskiy19,
 author = {V. Nikolskiy and V. Stegailov},
 title = {{GPU} Acceleration of Four-Site Water Models in {LAMMPS}},
 booktitle = {Proceedings of the International Conference on Parallel
    Computing (ParCo 2019), Prague, Czech Republic},
 doi =     {10.3233/APC200086},
 year =    2019
}

CITE-CITE-CITE-CITE-CITE-CITE-CITE-CITE-CITE-CITE-CITE-CITE-CITE

PPPM initialization ...
  using 12-bit tables for long-range coulomb (src/kspace.cpp:342)
  G vector (1/distance) = 0.17795223
  grid = 24 24 24
  stencil order = 5
  estimated absolute RMS force accuracy = 0.028170818
  estimated relative force accuracy = 8.483558e-05
  using double precision FFTW3
  3d grid and FFT values/proc = 24389 13824
Generated 1 of 1 mixed pair_coeff terms from arithmetic mixing rule
Per MPI rank memory allocation (min/avg/max) = 9.612 | 9.612 | 9.612 Mbytes
   Step          Temp         Density         Press          KinEng         PotEng         TotEng    
         0   305.66621      0.040035964   -1364.4574      758.3663       25429.47       26187.836    
      1000   310.59242      0.040035964    13.870861      770.58836     -51.428374      719.15999    
      2000   308.79517      0.040035964    24.44169       766.12933     -74.495226      691.6341     
      3000   301.5175       0.040035964    22.311884      748.07322     -85.131389      662.94183    
      4000   294.22714      0.040035964    21.207078      729.98565     -88.904113      641.08154    
      5000   294.61252      0.040035964    24.358369      730.94177     -102.07938      628.86239    
      6000   310.26849      0.040035964    20.1251        769.78469     -108.01437      661.77032    
      7000   299.82102      0.040035964    19.170295      743.86422     -112.01676      631.84746    
      8000   307.49513      0.040035964    31.002579      762.90388     -120.57961      642.32427    
      9000   299.47139      0.040035964    19.771247      742.99677     -130.16839      612.82838    
     10000   315.12291      0.040035964    18.450216      781.82863     -128.63651      653.19212    
     11000   308.49656      0.040035964    19.628303      765.38847     -128.26817      637.1203     
     12000   289.48019      0.040035964    24.454007      718.20833     -138.3627       579.84562    
     13000   298.41585      0.040035964    26.560411      740.37795     -135.607        604.77095    
     14000   302.69447      0.040035964    24.001725      750.99334     -142.88692      608.10641    
     15000   303.03481      0.040035964    19.620164      751.83771     -149.55773      602.27999    
     16000   297.1851       0.040035964    14.222702      737.32442     -151.81328      585.51114    
     17000   301.7837       0.040035964    19.976318      748.73368     -157.66678      591.0669     
     18000   297.8068       0.040035964    20.976317      738.86689     -156.94676      581.92013    
     19000   298.1629       0.040035964    21.521731      739.75038     -165.92819      573.82219    
     20000   304.12733      0.040035964    28.283503      754.5483      -165.8607       588.6876     
     21000   314.32963      0.040035964    25.68362       779.86048     -164.82985      615.03064    
     22000   297.39506      0.040035964    23.350844      737.84533     -166.50008      571.34525    
     23000   295.79955      0.040035964    14.09712       733.88683     -176.62604      557.2608     
     24000   304.89411      0.040035964    33.457494      756.4507      -177.0888       579.3619     
     25000   299.2872       0.040035964    5.6679278      742.5398      -181.02332      561.51648    
     26000   286.66619      0.040035964    21.030428      711.22672     -179.41104      531.81568    
     27000   294.78951      0.040035964    23.504739      731.3809      -164.20764      567.17325    
     28000   309.81332      0.040035964    17.879949      768.65539     -171.72079      596.9346     
     29000   301.14155      0.040035964    14.623096      747.14048     -176.87436      570.26612    
     30000   301.88402      0.040035964    18.528445      748.98257     -172.9567       576.02587    
     31000   298.08443      0.040035964    25.251801      739.5557      -168.62774      570.92796    
     32000   303.19487      0.040035964    14.056519      752.23482     -175.02515      577.20967    
     33000   295.01321      0.040035964    11.936325      731.93591     -181.17854      550.75736    
     34000   295.58981      0.040035964    24.614823      733.36647     -181.18497      552.1815     
     35000   294.42778      0.040035964    9.5404118      730.48345     -180.27826      550.20518    
     36000   304.4512       0.040035964    16.253255      755.35182     -182.58728      572.76454    
     37000   309.31337      0.040035964    17.279496      767.41499     -182.41996      584.99502    
     38000   306.84068      0.040035964    20.044042      761.28018     -188.45344      572.82674    
     39000   297.78218      0.040035964    18.62775       738.80581     -194.98934      543.81646    
     40000   305.33912      0.040035964    27.567124      757.55477     -190.35321      567.20156    
     41000   314.07995      0.040035964    23.411785      779.24102     -185.0785       594.16252    
     42000   291.65397      0.040035964    8.6098265      723.60155     -178.68102      544.92053    
     43000   296.88922      0.040035964    16.818005      736.59035     -177.24683      559.34352    
     44000   305.43899      0.040035964    12.026949      757.80254     -179.81487      577.98767    
     45000   307.37776      0.040035964    16.315878      762.6127      -183.35739      579.25531    
     46000   300.81412      0.040035964    24.139181      746.32812     -184.00759      562.32053    
     47000   297.30702      0.040035964    17.663855      737.6269      -179.67301      557.9539     
     48000   310.72937      0.040035964    22.955205      770.92813     -178.32567      592.60246    
     49000   303.50428      0.040035964    19.023903      753.00248     -175.21291      577.78957    
     50000   303.85243      0.040035964    21.919427      753.86626     -177.74674      576.11952    
     51000   322.31822      0.040035964    23.175138      799.68039     -179.79066      619.88973    
     52000   291.5258       0.040035964    23.893551      723.28355     -170.92248      552.36107    
     53000   293.18804      0.040035964    19.463925      727.4076      -172.00335      555.40425    
     54000   305.65624      0.040035964    26.318505      758.34156     -161.79226      596.5493     
     55000   287.1504       0.040035964    22.59054       712.42805     -169.51643      542.91162    
     56000   284.82195      0.040035964    18.756643      706.65112     -177.47433      529.17679    
     57000   309.4062       0.040035964    16.966498      767.64532     -173.73991      593.9054     
     58000   305.03011      0.040035964    21.118958      756.78811     -166.93698      589.85113    
     59000   293.48777      0.040035964    54.622141      728.15124     -161.29962      566.85161    
     60000   296.73479      0.040035964    8.0799319      736.20719     -166.41677      569.79042    
     61000   310.87227      0.040035964    19.946926      771.28268     -168.97185      602.31083    
     62000   300.65011      0.040035964    15.793118      745.9212      -166.81936      579.10185    
     63000   303.49945      0.040035964    9.3566174      752.99051     -172.62297      580.36754    
     64000   299.48589      0.040035964    18.594449      743.03274     -170.19365      572.83909    
     65000   297.37226      0.040035964    39.699322      737.78877     -172.72385      565.06492    
     66000   299.55094      0.040035964    12.966511      743.19414     -182.8599       560.33425    
     67000   298.28583      0.040035964    27.605208      740.05538     -181.08081      558.97456    
     68000   298.07683      0.040035964    20.289795      739.53683     -178.00779      561.52904    
     69000   312.59052      0.040035964    15.05844       775.54569     -185.65343      589.89227    
     70000   302.87129      0.040035964    16.349301      751.43202     -181.07826      570.35377    
     71000   294.81739      0.040035964    34.922149      731.45007     -182.63292      548.81715    
     72000   296.63119      0.040035964    11.925025      735.95015     -177.90657      558.04357    
     73000   316.0835       0.040035964   -2.8680984      784.21187     -168.93941      615.27247    
     74000   306.17258      0.040035964    59.833414      759.62261     -167.89425      591.72837    
     75000   295.75397      0.040035964    74.222513      733.77376     -170.32381      563.44994    
     76000   297.41447      0.040035964    4.8082283      737.89349     -166.33097      571.56252    
     77000   314.82979      0.040035964    9.8293715      781.10138     -168.22378      612.87761    
     78000   301.79863      0.040035964    21.149594      748.77073     -165.55876      583.21196    
     79000   302.42276      0.040035964    45.558727      750.31921     -153.98138      596.33783    
     80000   290.37849      0.040035964    20.765571      720.43705     -155.67939      564.75766    
     81000   307.40597      0.040035964   -31.244647      762.68268     -162.24891      600.43377    
     82000   309.28713      0.040035964    33.400909      767.3499      -148.09912      619.25078    
     83000   299.01856      0.040035964    36.065231      741.87328     -149.38319      592.49009    
     84000   288.57264      0.040035964    29.847304      715.95666     -143.07078      572.88589    
     85000   304.42057      0.040035964   -9.8296644      755.27583     -156.96651      598.30932    
     86000   316.13753      0.040035964    15.736889      784.34594     -147.0889       637.25703    
     87000   308.66739      0.040035964    24.529779      765.8123      -151.10663      614.70567    
     88000   290.95668      0.040035964    22.437008      721.87154     -146.88434      574.98719    
     89000   306.51562      0.040035964    16.149407      760.4737      -148.31859      612.15511    
     90000   307.81287      0.040035964    16.600016      763.69221     -140.8826       622.80961    
     91000   294.57175      0.040035964    22.369742      730.84062     -149.253        581.58762    
     92000   286.4537       0.040035964    21.053428      710.69953     -147.43929      563.26024    
     93000   307.81976      0.040035964    12.830999      763.70932     -136.90936      626.79996    
     94000   313.17211      0.040035964    31.985383      776.98864     -139.94186      637.04678    
     95000   284.15028      0.040035964    29.400004      704.98467     -134.67955      570.30512    
     96000   297.89025      0.040035964    17.250304      739.07393     -138.16059      600.91334    
     97000   310.43433      0.040035964    14.012615      770.19613     -138.97322      631.22291    
     98000   310.32854      0.040035964    18.156532      769.93366     -140.25869      629.67498    
     99000   302.73592      0.040035964    19.740951      751.09616     -139.86399      611.23218    
    100000   297.22942      0.040035964    18.538822      737.43439     -134.60487      602.82952    
    101000   303.33664      0.040035964    20.009819      752.58657     -142.97499      609.61159    
    102000   283.44559      0.040035964    10.538253      703.23633     -136.20338      567.03294    
    103000   293.24035      0.040035964    26.104903      727.53738     -140.04987      587.48752    
    104000   322.01758      0.040035964    20.661284      798.93448     -149.45053      649.48395    
    105000   298.24231      0.040035964    22.535442      739.94738     -134.71825      605.22913    
    106000   284.70879      0.040035964    15.242579      706.37034     -138.08302      568.28733    
    107000   303.70222      0.040035964    24.982299      753.49358     -127.25872      626.23486    
    108000   292.2361       0.040035964    18.829493      725.04583     -134.36751      590.67831    
    109000   293.39441      0.040035964    18.672365      727.91961     -133.75363      594.16598    
    110000   309.57563      0.040035964    18.526627      768.06568     -126.18971      641.87598    
    111000   299.47517      0.040035964    18.390743      743.00615     -129.21409      613.79206    
    112000   287.20624      0.040035964    19.986339      712.5666      -129.96289      582.6037     
    113000   297.1724       0.040035964    21.124548      737.29291     -127.98108      609.31183    
    114000   319.7526       0.040035964    14.322276      793.31501     -125.58977      667.72524    
    115000   294.93198      0.040035964    17.730428      731.73438     -114.92748      616.8069     
    116000   292.99808      0.040035964    30.011902      726.93631     -120.49607      606.44024    
    117000   302.84335      0.040035964    18.660514      751.3627      -118.51911      632.84359    
    118000   291.55922      0.040035964    14.25064       723.36646     -121.9364       601.43006    
    119000   291.17567      0.040035964    29.515456      722.41487     -121.93792      600.47695    
    120000   300.32727      0.040035964    31.828393      745.12023     -120.04068      625.07955    
    121000   297.52552      0.040035964    21.912943      738.16902     -106.15736      632.01166    
    122000   314.50988      0.040035964   -22.037705      780.30767     -108.06727      672.2404     
    123000   298.81389      0.040035964    15.729409      741.3655      -105.39981      635.96569    
    124000   302.2259       0.040035964    36.135187      749.83078     -104.86723      644.96355    
    125000   283.71684      0.040035964   -13.764139      703.9093      -114.92984      588.97946    
    126000   290.49481      0.040035964    26.321028      720.72562     -111.86159      608.86403    
    127000   304.81039      0.040035964    20.018013      756.24298     -103.59988      652.64309    
    128000   307.11917      0.040035964    42.861467      761.97113     -112.74056      649.23057    
    129000   295.09181      0.040035964    13.042735      732.13092     -116.09183      616.03909    
    130000   302.59211      0.040035964    26.139629      750.73936     -122.81379      627.92557    
    131000   310.3845       0.040035964    20.696155      770.0725      -121.72003      648.35247    
    132000   294.02273      0.040035964    8.0677263      729.47851     -118.71975      610.75876    
    133000   294.49052      0.040035964    20.387004      730.6391      -112.81941      617.81969    
    134000   306.76951      0.040035964    28.316734      761.10361     -116.96624      644.13737    
    135000   307.24238      0.040035964    20.983269      762.27681     -122.39982      639.87699    
    136000   296.51197      0.040035964    5.52493        735.65438     -114.88911      620.76527    
    137000   296.8949       0.040035964    22.264073      736.60443     -111.93086      624.67358    
    138000   324.37975      0.040035964    21.786026      804.79511     -107.77005      697.02506    
    139000   301.18683      0.040035964    21.850138      747.25282     -106.26458      640.98824    
    140000   281.89455      0.040035964    18.34439       699.38816     -108.38669      591.00147    
    141000   300.61766      0.040035964    19.536681      745.8407      -106.2979       639.5428     
    142000   302.70781      0.040035964    20.162678      751.02642     -108.5979       642.42851    
    143000   299.92216      0.040035964    21.693123      744.11514     -106.83849      637.27664    
    144000   296.0805       0.040035964    20.681985      734.58388     -102.04394      632.53993    
    145000   284.85345      0.040035964    4.670801       706.72927     -105.65734      601.07193    
    146000   308.48019      0.040035964    15.564357      765.34786     -98.291551      667.05631    
    147000   298.23207      0.040035964    18.491975      739.92198     -105.04712      634.87486    
    148000   300.42089      0.040035964    20.619868      745.35252     -101.12616      644.22636    
    149000   302.47751      0.040035964    16.966545      750.45505     -109.94521      640.50984    
    150000   293.45817      0.040035964    17.025663      728.07782     -100.77522      627.3026     
    151000   301.00998      0.040035964    31.187524      746.81407     -107.00847      639.8056     
    152000   298.05696      0.040035964    18.605638      739.48755     -101.4098       638.07775    
    153000   303.23728      0.040035964    17.811944      752.34005     -107.99294      644.34711    
    154000   303.90068      0.040035964    18.718142      753.98595     -103.81714      650.16882    
    155000   298.70384      0.040035964    19.469782      741.09247     -105.7227       635.36977    
    156000   307.87829      0.040035964    19.455281      763.85451     -103.64307      660.21144    
    157000   287.10437      0.040035964    30.307491      712.31385     -92.975079      619.33877    
    158000   292.37839      0.040035964    12.609372      725.39886     -101.53443      623.86443    
    159000   301.28664      0.040035964    19.898459      747.50046     -104.57601      642.92446    
    160000   306.88923      0.040035964    7.7308467      761.40064     -101.78026      659.62038    
    161000   299.06716      0.040035964    24.325809      741.99388     -96.301276      645.6926     
    162000   297.84707      0.040035964    21.591349      738.9668      -95.013929      643.95287    
    163000   309.31569      0.040035964    14.626248      767.42076     -91.480502      675.94026    
    164000   307.95374      0.040035964    21.353146      764.04171     -91.210714      672.83099    
    165000   290.50402      0.040035964    19.945845      720.74847     -90.066104      630.68237    
    166000   297.41499      0.040035964    19.548914      737.89478     -88.027463      649.86731    
    167000   322.5247       0.040035964    20.433344      800.19267     -82.491608      717.70107    
    168000   293.44555      0.040035964    16.174875      728.0465      -84.150158      643.89635    
    169000   288.10194      0.040035964    22.417206      714.78887     -88.845818      625.94305    
    170000   310.19641      0.040035964    26.917705      769.60584     -80.422729      689.18311    
    171000   306.32074      0.040035964    17.762929      759.9902      -85.820525      674.16968    
    172000   282.01077      0.040035964    18.813714      699.6765      -87.519737      612.15677    
    173000   304.65072      0.040035964    25.111415      755.84683     -86.41289       669.43394    
    174000   305.18178      0.040035964    7.6831457      757.1644      -86.36112       670.80328    
    175000   297.65978      0.040035964   -6.505577       738.50213     -92.732697      645.76943    
    176000   289.53396      0.040035964    20.171341      718.34173     -83.17674       635.16499    
    177000   287.67082      0.040035964    49.303965      713.71923     -79.982757      633.73648    
    178000   323.64303      0.040035964    22.096369      802.96728     -83.54699       719.42029    
    179000   309.88526      0.040035964    14.755868      768.83388     -83.240585      685.59329    
    180000   283.43305      0.040035964    15.948756      703.20521     -76.533884      626.67133    
    181000   282.99325      0.040035964    25.63874       702.11406     -85.4341        616.67996    
    182000   309.77954      0.040035964    29.083356      768.57159     -83.773735      684.79785    
    183000   308.59825      0.040035964    7.6969885      765.64075     -84.527844      681.11291    
    184000   295.39036      0.040035964    21.022706      732.87162     -76.664193      656.20743    
    185000   306.25154      0.040035964    31.513806      759.81851     -84.335581      675.48293    
    186000   310.55735      0.040035964    20.829581      770.50133     -86.901121      683.60021    
    187000   298.35935      0.040035964    19.696422      740.23778     -80.108454      660.12932    
    188000   292.96619      0.040035964    20.592871      726.8572      -81.792097      645.0651     
    189000   297.51282      0.040035964    22.660678      738.1375      -82.056872      656.08063    
    190000   317.54958      0.040035964    19.597988      787.84926     -89.082442      698.76682    
    191000   295.35169      0.040035964    13.169551      732.77569     -86.576482      646.19921    
    192000   292.66614      0.040035964    22.555338      726.11275     -83.211708      642.90104    
    193000   321.92563      0.040035964    22.127038      798.70637     -86.966631      711.73974    
    194000   301.63939      0.040035964    15.982698      748.37564     -82.380914      665.99472    
    195000   283.23684      0.040035964    18.306455      702.7184      -86.925388      615.79301    
    196000   296.65381      0.040035964    19.355092      736.00628     -88.943914      647.06236    
    197000   311.46606      0.040035964    26.069835      772.75588     -87.799922      684.95596    
    198000   307.58101      0.040035964    18.027856      763.11696     -86.746143      676.37082    
    199000   284.45671      0.040035964    20.789921      705.74493     -83.791916      621.95302    
    200000   290.49689      0.040035964    12.485365      720.73078     -85.037677      635.69311    
    201000   319.20964      0.040035964    26.024139      791.96793     -76.425838      715.54209    
    202000   303.32279      0.040035964    17.694347      752.55221     -81.951417      670.6008     
    203000   298.35191      0.040035964    6.2841091      740.21932     -75.477478      664.74184    
    204000   313.25445      0.040035964    27.010967      777.19292     -81.265157      695.92777    
    205000   300.15403      0.040035964    22.196308      744.69042     -79.417567      665.27285    
    206000   299.54198      0.040035964    22.902669      743.17191     -80.166416      663.00549    
    207000   298.18769      0.040035964   -4.6171019      739.81187     -84.935327      654.87654    
    208000   304.99485      0.040035964    34.576599      756.70064     -76.592505      680.10813    
    209000   300.86941      0.040035964    16.211849      746.4653      -79.008423      667.45688    
    210000   313.05809      0.040035964    14.537286      776.70575     -76.114505      700.59124    
    211000   297.06471      0.040035964    28.741867      737.02574     -81.77004       655.2557     
    212000   294.78583      0.040035964    24.760666      731.37176     -79.541465      651.83029    
    213000   300.75933      0.040035964    9.1460967      746.19219     -84.842418      661.34977    
    214000   306.37751      0.040035964    19.574065      760.13104     -76.36098       683.77006    
    215000   313.46283      0.040035964    39.796404      777.70992     -68.928742      708.78117    
    216000   287.22096      0.040035964    19.282236      712.60311     -66.728283      645.87483    
    217000   288.46632      0.040035964    9.8266357      715.69288     -73.906827      641.78606    
    218000   304.23964      0.040035964    6.2440597      754.82693     -67.727117      687.09981    
    219000   300.81673      0.040035964    18.169749      746.33459     -80.308439      666.02615    
    220000   299.80017      0.040035964    25.240122      743.81249     -79.747001      664.06549    
    221000   291.49932      0.040035964    39.902831      723.21785     -78.197321      645.02053    
    222000   293.44356      0.040035964    5.7094995      728.04156     -72.489735      655.55182    
    223000   301.56014      0.040035964    7.0590865      748.17901     -72.75193       675.42708    
    224000   304.48182      0.040035964    22.042828      755.42779     -73.086773      682.34102    
    225000   301.84477      0.040035964    37.416392      748.88518     -82.247531      666.63765    
    226000   301.13976      0.040035964    4.4153036      747.13604     -76.405997      670.73004    
    227000   293.03598      0.040035964   -3.6827044      727.03036     -74.196954      652.8334     
    228000   305.73402      0.040035964    16.685971      758.53453     -76.646826      681.8877     
    229000   317.07791      0.040035964    41.916621      786.67904     -67.45194       719.2271     
    230000   294.34807      0.040035964    40.857556      730.28566     -68.507371      661.77829    
    231000   292.60584      0.040035964    14.53903       725.96315     -77.444692      648.51846    
    232000   304.28456      0.040035964    20.716971      754.93838     -70.477071      684.46131    
    233000   305.53941      0.040035964    14.350242      758.05169     -73.884517      684.16717    
    234000   296.93816      0.040035964    19.603367      736.71177     -72.798901      663.91286    
    235000   304.18092      0.040035964    24.786445      754.68124     -72.015629      682.66561    
    236000   290.34448      0.040035964    20.038663      720.35266     -73.373659      646.979      
    237000   292.97809      0.040035964    16.849687      726.88671     -70.361167      656.52554    
    238000   310.43151      0.040035964    20.268196      770.18914     -73.75714       696.432      
    239000   302.12443      0.040035964    21.710137      749.57903     -78.3465        671.23253    
    240000   281.46465      0.040035964    20.072189      698.32157     -76.894373      621.42719    
    241000   290.71916      0.040035964    17.641181      721.28225     -73.651786      647.63046    
    242000   293.68057      0.040035964    18.734408      728.6296      -69.086128      659.54347    
    243000   319.48059      0.040035964    21.08594       792.64015     -71.256069      721.38408    
    244000   295.56828      0.040035964    19.66793       733.31304     -66.039331      667.27371    
    245000   291.07503      0.040035964    19.030344      722.16517     -67.236264      654.92891    
    246000   293.81472      0.040035964    33.616337      728.96241     -55.075967      673.88644    
    247000   302.39267      0.040035964    15.762833      750.24455     -60.75631       689.48824    
    248000   291.14163      0.040035964    12.94775       722.33041     -56.781284      665.54913    
    249000   299.45438      0.040035964    4.918831       742.95456     -63.388153      679.56641    
    250000   289.89065      0.040035964    22.074272      719.2267      -64.327344      654.89936    
    251000   308.10215      0.040035964    36.623916      764.40993     -65.95596       698.45397    
    252000   302.26042      0.040035964    12.718083      749.91644     -66.090063      683.82638    
    253000   289.86938      0.040035964    4.1640438      719.17392     -68.977106      650.19682    
    254000   298.4827       0.040035964    30.967444      740.5438      -69.645035      670.89877    
    255000   320.06014      0.040035964    49.346556      794.07803     -61.787693      732.29034    
    256000   310.69247      0.040035964    12.106603      770.83658     -67.708387      703.12819    
    257000   276.98572      0.040035964    32.286092      687.2092      -63.600753      623.60845    
    258000   303.37204      0.040035964    23.24825       752.67438     -68.5673        684.10708    
    259000   308.37293      0.040035964    7.806657       765.08174     -74.43378       690.64796    
    260000   294.40285      0.040035964    15.849014      730.42159     -70.899364      659.52223    
    261000   304.18488      0.040035964    27.194073      754.69107     -77.942519      676.74855    
    262000   296.43232      0.040035964    12.967573      735.45675     -78.281899      657.17485    
    263000   291.94568      0.040035964    28.89073       724.32527     -74.951425      649.37384    
    264000   296.67147      0.040035964    19.05682       736.05009     -71.148845      664.90124    
    265000   302.50924      0.040035964    14.997262      750.53375     -71.535717      678.99803    
    266000   292.14449      0.040035964    19.087033      724.81854     -70.073407      654.74514    
    267000   304.28546      0.040035964    16.489379      754.94061     -67.764919      687.17569    
    268000   304.34749      0.040035964    20.210748      755.09452     -63.401834      691.69269    
    269000   301.46164      0.040035964    32.389778      747.93465     -62.211379      685.72327    
    270000   308.62833      0.040035964    15.436278      765.7154      -62.676391      703.03901    
    271000   301.87697      0.040035964    21.532271      748.96509     -69.98648       678.97861    
    272000   292.11759      0.040035964    32.392382      724.75179     -67.300186      657.45161    
    273000   304.42512      0.040035964    6.8566615      755.28712     -77.950963      677.33615    
    274000   300.86575      0.040035964    7.4122099      746.45622     -72.511567      673.94465    
    275000   301.91334      0.040035964    21.32988       749.05532     -64.498588      684.55673    
    276000   291.29453      0.040035964    22.057887      722.70977     -69.95354       652.75623    
    277000   300.52357      0.040035964    17.348072      745.60726     -69.777288      675.82997    
    278000   311.34848      0.040035964    20.138184      772.46415     -70.048991      702.41516    
    279000   291.74906      0.040035964    18.619166      723.83746     -74.799981      649.03748    
    280000   298.20705      0.040035964    20.316847      739.8599      -65.660882      674.19902    
    281000   317.19699      0.040035964    32.075288      786.97447     -62.814782      724.15968    
    282000   306.53467      0.040035964    19.098158      760.52097     -64.730396      695.79058    
    283000   295.72688      0.040035964    17.95832       733.70655     -61.535055      672.17149    
    284000   292.93308      0.040035964    23.363199      726.77503     -55.459106      671.31593    
    285000   317.47836      0.040035964    33.292266      787.67257     -62.144434      725.52814    
    286000   305.15025      0.040035964    16.123256      757.08618     -64.611573      692.47461    
    287000   284.58637      0.040035964    16.804795      706.06664     -66.721049      639.34559    
    288000   300.59554      0.040035964    20.050772      745.78583     -70.55912       675.22671    
    289000   306.69869      0.040035964    6.441179       760.9279      -67.219638      693.70826    
    290000   293.04536      0.040035964    14.402202      727.05361     -72.883642      654.16997    
    291000   289.13688      0.040035964    20.9688        717.35658     -61.652272      655.7043     
    292000   290.77272      0.040035964    21.852427      721.41514     -68.054747      653.36039    
    293000   310.46522      0.040035964    21.536479      770.27276     -73.587138      696.68562    
    294000   313.41025      0.040035964    18.18896       777.57947     -69.265437      708.31403    
    295000   292.82514      0.040035964    12.469529      726.50724     -72.019746      654.48749    
    296000   293.1396       0.040035964    19.542459      727.28744     -66.244806      661.04263    
    297000   288.87469      0.040035964    21.366567      716.70606     -62.346337      654.35973    
    298000   297.56163      0.040035964    24.608775      738.2586      -67.40535       670.85325    
    299000   304.14932      0.040035964    19.786289      754.60284     -64.553963      690.04887    
    300000   308.60519      0.040035964    16.861897      765.65797     -75.752833      689.90514    
    301000   291.64488      0.040035964    19.885182      723.57898     -68.300004      655.27897    
    302000   311.76291      0.040035964    24.637366      773.49237     -63.741908      709.75046    
    303000   306.57591      0.040035964    17.530269      760.62328     -73.798018      686.82526    
    304000   289.07265      0.040035964    16.89444       717.19721     -74.336796      642.86041    
    305000   295.22314      0.040035964    26.923137      732.45676     -73.114103      659.34265    
    306000   311.39418      0.040035964    19.839322      772.57755     -67.293256      705.28429    
    307000   304.98879      0.040035964    15.168997      756.68559     -67.895536      688.79005    
    308000   291.0382       0.040035964    15.769084      722.0738      -67.276568      654.79724    
    309000   292.8962       0.040035964    18.276866      726.68355     -70.147033      656.53652    
    310000   304.06984      0.040035964    19.400433      754.40566     -71.890867      682.51479    
    311000   294.53386      0.040035964    22.901124      730.74663     -67.248989      663.49765    
    312000   294.30917      0.040035964    26.053448      730.18917     -59.54423       670.64494    
    313000   301.0087       0.040035964    17.411286      746.81089     -65.517545      681.29334    
    314000   302.82652      0.040035964    18.473388      751.32094     -64.525236      686.79571    
    315000   299.12449      0.040035964    20.091934      742.13611     -66.855212      675.2809     
    316000   301.4537       0.040035964    27.181038      747.91493     -62.445121      685.46981    
    317000   305.91342      0.040035964    16.591112      758.97963     -67.176923      691.8027     
    318000   302.21472      0.040035964    13.249002      749.80305     -65.596465      684.20658    
    319000   291.9685       0.040035964    21.630174      724.38189     -67.34617       657.03572    
    320000   293.94557      0.040035964    23.444888      729.28707     -72.142751      657.14432    
    321000   309.7489       0.040035964    17.489282      768.49555     -74.904572      693.59098    
    322000   299.36939      0.040035964    20.750477      742.74371     -73.245335      669.49838    
    323000   301.73287      0.040035964    28.844749      748.60756     -71.427352      677.1802     
    324000   297.95439      0.040035964    18.243735      739.23306     -66.319726      672.91334    
    325000   296.55916      0.040035964    20.506524      735.77145     -63.462978      672.30847    
    326000   289.7262       0.040035964    18.786392      718.81869     -64.504362      654.31432    
    327000   305.46884      0.040035964    22.156807      757.87661     -65.507153      692.36946    
    328000   298.53884      0.040035964    20.315618      740.68308     -59.932192      680.75089    
    329000   295.84554      0.040035964    19.345946      734.00094     -65.44296       668.55798    
    330000   301.7459       0.040035964    22.048465      748.63989     -58.695225      689.94466    
    331000   303.66553      0.040035964    23.885353      753.40256     -55.228688      698.17387    
    332000   308.40658      0.040035964    14.592854      765.16523     -62.524694      702.64054    
    333000   296.20948      0.040035964    13.088677      734.90388     -59.30474       675.59914    
    334000   299.33679      0.040035964    19.512181      742.66283     -66.396857      676.26598    
    335000   298.52303      0.040035964    24.936096      740.64386     -56.421156      684.2227     
    336000   304.56892      0.040035964    21.273036      755.64388     -53.249012      702.39487    
    337000   296.6108       0.040035964    22.003248      735.89956     -55.475042      680.42452    
    338000   295.32445      0.040035964    12.191169      732.70811     -54.147083      678.56103    
    339000   288.97745      0.040035964    19.717897      716.96102     -57.201884      659.75913    
    340000   306.87046      0.040035964    21.838362      761.35408     -64.87659       696.47749    
    341000   300.61815      0.040035964    21.447476      745.84191     -67.052093      678.78982    
    342000   297.92858      0.040035964    25.53684       739.16902     -62.488322      676.6807     
    343000   275.19788      0.040035964    15.817904      682.77353     -60.742556      622.03097    
    344000   306.61517      0.040035964    16.799511      760.72068     -64.477941      696.24274    
    345000   302.28577      0.040035964    28.611416      749.97932     -61.741817      688.23751    
    346000   303.7541       0.040035964    17.111081      753.6223      -61.654795      691.9675     
    347000   300.79543      0.040035964    23.588895      746.28175     -67.365532      678.91622    
    348000   280.7533       0.040035964    18.684209      696.55668     -64.791004      631.76567    
    349000   304.93446      0.040035964    18.402739      756.5508      -63.796551      692.75425    
    350000   320.37806      0.040035964    27.756329      794.86681     -66.179694      728.68712    
    351000   286.99799      0.040035964    29.338225      712.04992     -67.645375      644.40455    
    352000   296.24012      0.040035964    15.795574      734.9799      -71.770512      663.20939    
    353000   298.88618      0.040035964    21.063677      741.54485     -67.543917      674.00093    
    354000   310.504        0.040035964    25.035345      770.36899     -72.551347      697.81764    
    355000   306.62928      0.040035964    23.35772       760.75569     -69.623917      691.13177    
    356000   282.41671      0.040035964    18.357324      700.68364     -68.949722      631.73391    
    357000   296.26929      0.040035964    19.616255      735.05228     -72.068698      662.98358    
    358000   307.81064      0.040035964    18.845084      763.68669     -69.091896      694.5948     
    359000   300.3792       0.040035964    19.003484      745.24908     -63.531433      681.71765    
    360000   298.09593      0.040035964    20.245245      739.58421     -66.51335       673.07086    
    361000   305.18729      0.040035964    17.986752      757.17809     -66.997335      690.18075    
    362000   299.23019      0.040035964    17.303131      742.39835     -66.926351      675.47199    
    363000   300.00373      0.040035964    25.157908      744.31753     -61.812752      682.50478    
    364000   291.24087      0.040035964    18.082107      722.57663     -66.184522      656.39211    
    365000   311.17483      0.040035964    20.025699      772.03333     -67.974425      704.05891    
    366000   297.53938      0.040035964    25.830393      738.20341     -61.415077      676.78834    
    367000   295.39614      0.040035964    11.528413      732.88596     -59.214374      673.67159    
    368000   313.24188      0.040035964    40.589812      777.16174     -56.941135      720.22061    
    369000   292.09783      0.040035964    34.046047      724.70276     -58.955488      665.74728    
    370000   300.06191      0.040035964    7.6837692      744.46188     -59.207796      685.25409    
    371000   297.99115      0.040035964    21.101658      739.32425     -59.252652      680.0716     
    372000   301.19732      0.040035964    35.451894      747.27886     -60.329824      686.94904    
    373000   299.45955      0.040035964    18.476756      742.96741     -57.379879      685.58753    
    374000   316.80036      0.040035964    17.044433      785.99043     -56.254763      729.73566    
    375000   302.76646      0.040035964    17.670144      751.17194     -58.923172      692.24877    
    376000   296.81025      0.040035964    25.295734      736.39442     -64.923034      671.47138    
    377000   297.04468      0.040035964    20.006133      736.97604     -61.394422      675.58162    
    378000   303.54095      0.040035964    11.984315      753.09347     -61.594427      691.49904    
    379000   301.34403      0.040035964    18.349546      747.64284     -71.098224      676.54461    
    380000   284.23167      0.040035964    21.309413      705.18661     -72.680711      632.5059     
    381000   297.45243      0.040035964    20.114302      737.98769     -74.857766      663.12992    
    382000   307.22085      0.040035964    20.300626      762.22339     -74.194542      688.02885    
    383000   301.65603      0.040035964    20.763736      748.41692     -71.930851      676.48607    
    384000   291.52276      0.040035964    18.429932      723.27601     -69.857361      653.41865    
    385000   301.17387      0.040035964    27.417127      747.22068     -66.585053      680.63562    
    386000   307.13872      0.040035964    19.292339      762.01964     -70.374429      691.64521    
    387000   281.08483      0.040035964    20.728775      697.3792      -66.67277       630.70643    
    388000   299.22109      0.040035964    14.584141      742.37577     -72.969833      669.40594    
    389000   295.79758      0.040035964    26.174297      733.88195     -80.249147      653.6328     
    390000   313.77627      0.040035964    38.642083      778.48757     -68.958323      709.52925    
    391000   308.09892      0.040035964    19.406667      764.4019      -69.569951      694.83195    
    392000   292.42934      0.040035964    19.417125      725.52526     -66.616196      658.90906    
    393000   299.99023      0.040035964    17.235505      744.28402     -65.440413      678.84361    
    394000   302.3228       0.040035964    22.847872      750.07121     -61.63507       688.43614    
    395000   300.85359      0.040035964    20.512361      746.42604     -60.083552      686.34249    
    396000   300.0854       0.040035964    19.873946      744.52015     -56.435204      688.08495    
    397000   310.26072      0.040035964    24.958046      769.7654      -54.562947      715.20245    
    398000   293.45419      0.040035964    22.80647       728.06794     -48.526308      679.54163    
    399000   300.91598      0.040035964    19.21417       746.58085     -64.959851      681.621      
    400000   299.22922      0.040035964    20.037474      742.39594     -63.153194      679.24274    
    401000   301.73267      0.040035964    18.290412      748.60707     -63.551955      685.05512    
    402000   301.0673       0.040035964    22.097858      746.95627     -59.883855      687.07242    
    403000   300.24964      0.040035964    18.474783      744.92764     -66.214267      678.71337    
    404000   304.86408      0.040035964    20.36744       756.37619     -69.439994      686.9362     
    405000   294.96215      0.040035964    20.197302      731.80924     -71.613884      660.19535    
    406000   299.53974      0.040035964    24.137916      743.16635     -69.405186      673.76117    
    407000   297.42548      0.040035964    17.494513      737.9208      -72.015183      665.90562    
    408000   304.67234      0.040035964    18.331632      755.90048     -68.322692      687.57779    
    409000   302.05461      0.040035964    20.729031      749.40581     -61.568285      687.83753    
    410000   290.47933      0.040035964    22.203783      720.68723     -62.080221      658.60701    
    411000   301.77011      0.040035964    21.336712      748.69997     -65.990801      682.70917    
    412000   300.94774      0.040035964    23.564336      746.65965     -64.986754      681.67289    
    413000   290.82728      0.040035964    21.314446      721.5505      -69.677283      651.87321    
    414000   314.93063      0.040035964    20.883102      781.35158     -68.813692      712.53789    
    415000   296.97468      0.040035964    20.012419      736.80236     -64.227322      672.57503    
    416000   304.32871      0.040035964    17.69615       755.04792     -67.893319      687.1546     
    417000   301.75957      0.040035964    13.992956      748.67382     -65.960399      682.71342    
    418000   305.42852      0.040035964    22.809662      757.77659     -60.041029      697.73556    
    419000   294.30948      0.040035964    28.421349      730.18993     -65.893711      664.29622    
    420000   293.51556      0.040035964    10.978309      728.22021     -62.54305       665.67716    
    421000   311.75324      0.040035964    18.449399      773.46838     -59.747396      713.72099    
    422000   311.58838      0.040035964    28.335867      773.05935     -64.273936      708.78542    
    423000   294.98243      0.040035964    27.639966      731.85954     -60.011151      671.84839    
    424000   304.87936      0.040035964    19.300085      756.4141      -69.493812      686.92029    
    425000   304.83523      0.040035964    20.147674      756.30461     -68.848875      687.45573    
    426000   290.63206      0.040035964    22.767987      721.06615     -69.565657      651.50049    
    427000   288.27566      0.040035964    18.710171      715.21986     -68.493004      646.72685    
    428000   299.68796      0.040035964    20.05336       743.53409     -70.259103      673.27499    
    429000   308.07319      0.040035964    18.774254      764.33809     -71.733419      692.60467    
    430000   288.43378      0.040035964    19.420152      715.61215     -67.263053      648.3491     
    431000   299.01341      0.040035964    23.017581      741.86052     -67.952401      673.90812    
    432000   302.65479      0.040035964    18.466153      750.89488     -68.508372      682.3865     
    433000   288.89836      0.040035964    20.821358      716.7648      -64.439966      652.32483    
    434000   292.56095      0.040035964    17.791271      725.85179     -68.460595      657.39119    
    435000   305.11565      0.040035964    22.283439      757.00034     -64.063917      692.93643    
    436000   296.17472      0.040035964    18.837771      734.81764     -60.576158      674.24148    
    437000   301.09773      0.040035964    22.269157      747.03177     -57.636925      689.39484    
    438000   303.87383      0.040035964    17.901866      753.91934     -63.823228      690.09611    
    439000   299.18687      0.040035964    18.965048      742.29088     -62.48057       679.81031    
    440000   300.92856      0.040035964    20.555489      746.61204     -56.964167      689.64788    
    441000   292.86197      0.040035964    17.534859      726.59862     -69.786505      656.81212    
    442000   293.02866      0.040035964    20.32889       727.01217     -73.747251      653.26492    
    443000   303.78365      0.040035964    24.481936      753.6956      -66.20398       687.49162    
    444000   302.28427      0.040035964    18.786121      749.97561     -70.073737      679.90188    
    445000   292.17343      0.040035964    12.707946      724.89032     -67.032859      657.85746    
    446000   297.89929      0.040035964    22.227354      739.09636     -69.345839      669.75052    
    447000   301.28758      0.040035964    19.295401      747.50278     -65.765623      681.73716    
    448000   299.70291      0.040035964    22.932508      743.57119     -64.604521      678.96667    
    449000   302.41573      0.040035964    21.551231      750.30176     -62.699082      687.60268    
    450000   295.98815      0.040035964    23.004253      734.35476     -65.801395      668.55337    
    451000   306.70593      0.040035964    18.264531      760.94588     -72.600129      688.34575    
    452000   282.93754      0.040035964    20.400263      701.97584     -67.582595      634.39324    
    453000   296.01759      0.040035964    18.316235      734.4278      -66.595437      667.83237    
    454000   321.58587      0.040035964    24.508012      797.8634      -63.213012      734.65039    
    455000   299.62858      0.040035964    20.070691      743.38678     -65.383661      678.00312    
    456000   302.89152      0.040035964    6.5278446      751.48221     -68.721904      682.7603     
    457000   296.36936      0.040035964    20.074967      735.30056     -67.317299      667.98326    
    458000   305.05829      0.040035964    22.615701      756.85802     -64.0552        692.80282    
    459000   291.17126      0.040035964    29.032107      722.40392     -59.21421       663.18971    
    460000   309.89186      0.040035964    3.8556307      768.85026     -59.647292      709.20297    
    461000   298.9507       0.040035964    19.177822      741.70493     -64.994622      676.71031    
    462000   297.14738      0.040035964    24.371834      737.23084     -72.099218      665.13162    
    463000   300.91303      0.040035964    20.613178      746.57352     -73.869761      672.70376    
    464000   299.35771      0.040035964    19.226744      742.71473     -67.15684       675.55789    
    465000   289.32597      0.040035964    18.034806      717.82571     -72.325302      645.50041    
    466000   311.94729      0.040035964    25.563978      773.94983     -64.830885      709.11894    
    467000   289.91402      0.040035964    14.139313      719.28469     -66.284213      653.00047    
    468000   291.95185      0.040035964    30.641815      724.34058     -67.704449      656.63613    
    469000   301.48484      0.040035964    19.249615      747.9922      -64.129761      683.86244    
    470000   310.49993      0.040035964    6.3929267      770.35889     -68.944214      701.41468    
    471000   290.48561      0.040035964    21.233498      720.70282     -66.160174      654.54264    
    472000   318.64685      0.040035964    21.762326      790.57161     -62.429012      728.1426     
    473000   308.41535      0.040035964    11.626997      765.18699     -66.774639      698.41235    
    474000   289.10388      0.040035964    12.431446      717.2747      -63.073673      654.20103    
    475000   293.35399      0.040035964    21.339994      727.81934     -68.108643      659.71069    
    476000   305.27573      0.040035964    22.868939      757.3975      -72.411103      684.9864     
    477000   309.18601      0.040035964    18.178233      767.09902     -66.440278      700.65874    
    478000   288.22306      0.040035964    20.785207      715.08935     -67.856683      647.23266    
    479000   304.44122      0.040035964    21.843008      755.32707     -68.709269      686.6178     
    480000   305.18578      0.040035964    20.244291      757.17432     -62.893985      694.28033    
    481000   297.12052      0.040035964    3.950097       737.1642      -67.01231       670.15189    
    482000   295.11058      0.040035964    23.994995      732.17748     -65.497917      666.67956    
    483000   313.92042      0.040035964    24.764171      778.84523     -60.769706      718.07552    
    484000   305.98278      0.040035964    9.8104427      759.15171     -65.940563      693.21114    
    485000   293.90893      0.040035964    20.882868      729.19616     -66.601692      662.59447    
    486000   296.71684      0.040035964    21.138894      736.16266     -71.179622      664.98303    
    487000   316.22242      0.040035964    22.303071      784.55655     -73.448384      711.10817    
    488000   293.3047       0.040035964    24.815119      727.69704     -61.812831      665.88421    
    489000   301.5232       0.040035964   -0.92289887     748.08736     -65.856302      682.23106    
    490000   298.37608      0.040035964    17.319885      740.27928     -67.637885      672.6414     
    491000   302.32399      0.040035964    41.593848      750.07416     -64.530069      685.54409    
    492000   296.94849      0.040035964    13.78789       736.73738     -64.682873      672.05451    
    493000   290.45443      0.040035964    4.1341526      720.62545     -68.04827       652.57718    
    494000   293.81845      0.040035964    16.9804        728.97168     -53.958901      675.01278    
    495000   296.25304      0.040035964    35.768387      735.01195     -56.536907      678.47505    
    496000   306.64542      0.040035964    16.308996      760.79574     -52.807805      707.98794    
    497000   306.21964      0.040035964    10.694049      759.73937     -61.776838      697.96253    
    498000   282.95034      0.040035964    30.513027      702.00759     -56.499225      645.50837    
    499000   297.90098      0.040035964    24.195959      739.10053     -59.337772      679.76276    
    500000   312.67416      0.040035964    17.598441      775.75322     -53.685507      722.06771    
    501000   298.84623      0.040035964    16.660516      741.44573     -53.160502      688.28523    
    502000   286.6878       0.040035964    23.320723      711.28034     -56.569121      654.71122    
    503000   301.79703      0.040035964    36.749012      748.76676     -50.070767      698.69599    
    504000   312.8884       0.040035964    22.612472      776.28474     -51.182906      725.10183    
    505000   292.63549      0.040035964    19.781829      726.03673     -57.168853      668.86788    
    506000   298.35914      0.040035964    18.81919       740.23725     -61.84628       678.39097    
    507000   310.36246      0.040035964    19.940287      770.01782     -52.134758      717.88307    
    508000   299.70373      0.040035964    27.412932      743.57323     -54.573589      688.99964    
    509000   294.55462      0.040035964    18.824253      730.79813     -57.511467      673.28667    
    510000   296.47728      0.040035964    16.479093      735.56829     -57.933242      677.63505    
    511000   302.67387      0.040035964    20.105694      750.94222     -63.401729      687.54049    
    512000   291.56745      0.040035964    20.213016      723.38688     -58.182058      665.20482    
    513000   307.54268      0.040035964    18.54179       763.02187     -65.593473      697.4284     
    514000   313.49128      0.040035964    22.217858      777.7805      -66.836269      710.94423    
    515000   308.38052      0.040035964    22.849808      765.10056     -68.161167      696.9394     
    516000   291.5313       0.040035964    19.772528      723.2972      -68.726178      654.57102    
    517000   309.15303      0.040035964    27.890648      767.01719     -69.125815      697.89137    
    518000   311.55779      0.040035964    21.711893      772.98347     -69.249124      703.73434    
    519000   287.59218      0.040035964    9.4166415      713.52414     -61.746369      651.77777    
    520000   293.04764      0.040035964    22.749628      727.05926     -62.174843      664.88442    
    521000   305.38168      0.040035964    21.532537      757.66035     -57.940576      699.71978    
    522000   300.22344      0.040035964    19.835841      744.86262     -59.778621      685.084      
    523000   303.40847      0.040035964    19.687748      752.76479     -59.209555      693.55523    
    524000   304.41044      0.040035964    26.213787      755.25068     -51.598877      703.6518     
    525000   294.60756      0.040035964    16.886971      730.92948     -52.130818      678.79866    
    526000   296.8356       0.040035964    32.495632      736.45731     -57.106468      679.35084    
    527000   305.74677      0.040035964    31.351208      758.56616     -60.3743        698.19186    
    528000   301.81115      0.040035964    15.878184      748.80178     -61.999792      686.80199    
    529000   295.69436      0.040035964    21.374128      733.62586     -59.364235      674.26162    
    530000   298.38589      0.040035964    30.015726      740.30362     -67.113771      673.18985    
    531000   305.11423      0.040035964    25.419857      756.99681     -61.413598      695.58321    
    532000   294.85306      0.040035964    2.2386764      731.53856     -55.714135      675.82443    
    533000   302.95128      0.040035964    19.316521      751.63049     -53.347632      698.28285    
    534000   297.02843      0.040035964    20.701128      736.93572     -56.749782      680.18594    
    535000   311.04587      0.040035964    28.825909      771.71337     -61.062866      710.6505     
    536000   304.65861      0.040035964    19.659289      755.86642     -52.591792      703.27463    
    537000   286.38725      0.040035964    21.867533      710.53467     -50.4526        660.08207    
    538000   294.51527      0.040035964    20.312061      730.70051     -54.529499      676.17101    
    539000   294.92719      0.040035964    27.412268      731.72248     -57.141248      674.58123    
    540000   302.6066       0.040035964    22.601042      750.77532     -51.540817      699.23451    
    541000   309.83038      0.040035964    20.66102       768.69771     -52.79553       715.90218    
    542000   306.45055      0.040035964    20.420102      760.31225     -50.667949      709.6443     
    543000   287.64863      0.040035964    19.204986      713.66418     -49.130414      664.53377    
    544000   304.56186      0.040035964    19.484772      755.62636     -50.255951      705.37041    
    545000   303.6264       0.040035964    16.389557      753.30548     -54.433505      698.87197    
    546000   291.51263      0.040035964    22.009319      723.25086     -56.780403      666.47046    
    547000   331.05585      0.040035964    30.251608      821.35868     -62.547185      758.8115     
    548000   307.43301      0.040035964    12.007786      762.74977     -57.665597      705.08417    
    549000   293.24975      0.040035964    18.791552      727.56072     -64.293844      663.26687    
    550000   299.7703       0.040035964    26.977847      743.73837     -67.311356      676.42701    
    551000   286.44435      0.040035964    35.112685      710.67633     -66.372478      644.30385    
    552000   300.59643      0.040035964    34.202332      745.78804     -66.881242      678.9068     
    553000   309.08436      0.040035964    26.718041      766.84681     -67.573945      699.27286    
    554000   305.59627      0.040035964    14.667169      758.19277     -71.38381       686.80896    
    555000   279.92889      0.040035964    15.290056      694.5113      -68.50255       626.00875    
    556000   299.90756      0.040035964    22.662825      744.07893     -63.084651      680.99427    
    557000   311.60284      0.040035964    22.987707      773.09524     -54.590376      718.50486    
    558000   297.61831      0.040035964    18.685439      738.39923     -55.575743      682.82348    
    559000   302.17027      0.040035964    19.712289      749.69278     -55.296418      694.39636    
    560000   298.07712      0.040035964    19.513399      739.53756     -51.457269      688.08029    
    561000   303.90676      0.040035964    22.911506      754.00105     -51.059013      702.94204    
    562000   302.68375      0.040035964    27.74134       750.96674     -54.045271      696.92147    
    563000   309.30476      0.040035964    16.086765      767.39363     -54.241019      713.15261    
    564000   302.47224      0.040035964    24.518273      750.44196     -53.989971      696.45199    
    565000   286.91573      0.040035964    26.516511      711.84582     -65.623924      646.2219     
    566000   291.43283      0.040035964    25.090805      723.05287     -62.442854      660.61002    
    567000   307.55064      0.040035964    17.390189      763.04161     -57.935226      705.10638    
    568000   304.8744       0.040035964    23.785633      756.40179     -54.301415      702.10037    
    569000   292.17856      0.040035964    20.042324      724.90305     -57.149082      667.75397    
    570000   299.27574      0.040035964    20.949408      742.51136     -58.395546      684.11581    
    571000   314.97054      0.040035964    21.105293      781.45059     -61.041997      720.40859    
    572000   303.61227      0.040035964    17.403632      753.27041     -69.251321      684.01909    
    573000   287.24502      0.040035964    3.8024434      712.6628      -65.131488      647.53131    
    574000   280.35046      0.040035964    19.989439      695.55721     -69.25877       626.29844    
    575000   298.93887      0.040035964    23.958424      741.67559     -68.991124      672.68446    
    576000   307.38686      0.040035964    19.036094      762.63528     -58.223076      704.4122     
    577000   300.2597       0.040035964    18.211241      744.95258     -59.996914      684.95567    
    578000   280.8014       0.040035964    20.050634      696.67602     -63.606751      633.06927    
    579000   304.93647      0.040035964    28.081046      756.55579     -68.43648       688.11931    
    580000   313.87526      0.040035964    15.896421      778.73317     -67.900124      710.83305    
    581000   303.52699      0.040035964    21.045868      753.05883     -60.435734      692.6231     
    582000   294.9382       0.040035964    20.587204      731.7498      -55.535791      676.214      
    583000   303.66537      0.040035964    21.386493      753.40216     -55.276534      698.12563    
    584000   299.4217       0.040035964    18.908559      742.87349     -62.284069      680.58942    
    585000   289.04828      0.040035964    19.857796      717.13675     -64.466177      652.67057    
    586000   291.66542      0.040035964    27.237868      723.62994     -63.793973      659.83597    
    587000   307.16536      0.040035964    25.208107      762.08572     -67.762339      694.32338    
    588000   300.95026      0.040035964    14.448558      746.6659      -71.759362      674.90654    
    589000   300.61197      0.040035964    25.440269      745.8266      -63.416172      682.41042    
    590000   298.97632      0.040035964    20.009263      741.76849     -66.568482      675.20001    
    591000   297.56412      0.040035964    21.649917      738.26478     -60.055429      678.20935    
    592000   301.42441      0.040035964    19.767954      747.84226     -66.456849      681.38541    
    593000   305.96749      0.040035964    23.67468       759.11379     -64.12572       694.98807    
    594000   303.2974       0.040035964    22.203955      752.48921     -65.694761      686.79445    
    595000   296.26492      0.040035964    20.498319      735.04143     -61.084232      673.95719    
    596000   295.0869       0.040035964    19.320708      732.11873     -55.255963      676.86277    
    597000   308.18985      0.040035964    20.887813      764.62752     -52.370098      712.25742    
    598000   309.45144      0.040035964    25.039596      767.75756     -58.988104      708.76946    
    599000   297.90575      0.040035964    27.132022      739.11237     -60.030754      679.08162    
    600000   295.34927      0.040035964    18.925015      732.76969     -58.470834      674.29886    
    601000   305.51465      0.040035964    22.850806      757.99028     -59.396538      698.59374    
    602000   307.97014      0.040035964    20.525949      764.08241     -63.129904      700.9525     
    603000   297.85165      0.040035964    19.963652      738.97814     -64.040312      674.93783    
    604000   290.35547      0.040035964    24.105401      720.37993     -70.163591      650.21634    
    605000   288.34944      0.040035964    22.460858      715.4029      -63.762922      651.63998    
    606000   307.61011      0.040035964    25.087887      763.18917     -72.504242      690.68493    
    607000   299.35259      0.040035964    18.992651      742.70204     -64.8127        677.88934    
    608000   294.64255      0.040035964    33.311479      731.01628     -66.449269      664.56701    
    609000   293.57792      0.040035964    16.087782      728.37492     -66.429391      661.94553    
    610000   311.2641       0.040035964    18.57924       772.2548      -70.114923      702.13988    
    611000   300.97387      0.040035964    21.947827      746.72446     -64.049698      682.67476    
    612000   292.98986      0.040035964    17.32931       726.91592     -69.93546       656.98046    
    613000   308.62387      0.040035964    18.067521      765.70433     -65.910181      699.79415    
    614000   307.2174       0.040035964    23.541612      762.21485     -64.539331      697.67552    
    615000   298.20495      0.040035964    17.793841      739.85469     -65.997402      673.85729    
    616000   300.91581      0.040035964    17.901619      746.58043     -65.174504      681.40592    
    617000   284.13894      0.040035964    24.677002      704.95655     -61.062537      643.89402    
    618000   303.30322      0.040035964    17.341119      752.50364     -65.459551      687.04409    
    619000   313.88411      0.040035964    21.018547      778.75514     -66.641537      712.1136     
    620000   296.33912      0.040035964    18.765452      735.22554     -70.854186      664.37135    
    621000   304.2214       0.040035964    19.803006      754.78169     -69.168152      685.61354    
    622000   297.04907      0.040035964    17.06391       736.98693     -68.053265      668.93367    
    623000   299.92855      0.040035964    21.574873      744.131       -70.802987      673.32801    
    624000   295.55112      0.040035964    21.980137      733.27047     -69.753244      663.51722    
    625000   309.9841       0.040035964    20.317983      769.0791      -76.80606       692.27304    
    626000   310.22385      0.040035964    23.562393      769.67392     -71.065676      698.60824    
    627000   303.26079      0.040035964    24.825618      752.39838     -77.212335      675.18604    
    628000   300.05254      0.040035964    20.239699      744.43863     -72.404043      672.03459    
    629000   320.92         0.040035964    23.784844      796.21137     -71.91236       724.29901    
    630000   292.46836      0.040035964    19.883572      725.62206     -70.635105      654.98696    
    631000   299.84228      0.040035964    17.811507      743.91695     -69.470169      674.44678    
    632000   303.44702      0.040035964    20.947148      752.86041     -70.119758      682.74065    
    633000   312.57661      0.040035964    20.144837      775.51119     -70.650893      704.8603     
    634000   300.55499      0.040035964    19.898329      745.68521     -69.495983      676.18923    
    635000   281.80641      0.040035964    31.433626      699.16948     -70.846028      628.32345    
    636000   302.4738       0.040035964    22.097067      750.44582     -71.984907      678.46092    
    637000   285.30432      0.040035964    14.566662      707.84787     -74.082025      633.76584    
    638000   293.72872      0.040035964    20.891212      728.74906     -75.788786      652.96027    
    639000   300.8744       0.040035964    24.731337      746.47768     -70.051932      676.42575    
    640000   296.45823      0.040035964    27.200434      735.52104     -76.114693      659.40635    
    641000   304.86916      0.040035964    8.678468       756.38879     -72.702126      683.68667    
    642000   305.6639       0.040035964    22.129612      758.36055     -63.514223      694.84633    
    643000   298.95655      0.040035964    23.187328      741.71944     -65.467343      676.2521     
    644000   297.16767      0.040035964    36.047869      737.28119     -67.077863      670.20332    
    645000   299.46103      0.040035964    8.5774893      742.97108     -70.711482      672.25959    
    646000   306.24194      0.040035964    3.9680467      759.79471     -76.689443      683.10526    
    647000   307.59049      0.040035964    36.6982        763.14049     -68.453223      694.68726    
    648000   298.19589      0.040035964    25.550194      739.83223     -67.964632      671.8676     
    649000   309.33149      0.040035964   -1.9517979      767.45995     -79.012978      688.44697    
    650000   299.24869      0.040035964    27.603807      742.44425     -67.857188      674.58706    
    651000   291.5808       0.040035964    38.953418      723.42        -65.104344      658.31566    
    652000   302.99615      0.040035964    0.9705392      751.74181     -61.290169      690.45164    
    653000   312.71772      0.040035964    19.478072      775.86129     -64.885645      710.97565    
    654000   297.65222      0.040035964    31.226534      738.48336     -67.272188      671.21118    
    655000   289.0178       0.040035964    7.7246881      717.06113     -67.771278      649.28985    
    656000   300.63456      0.040035964    12.384766      745.88263     -76.259381      669.62324    
    657000   319.54223      0.040035964    27.63397       792.79309     -74.618627      718.17446    
    658000   295.6331       0.040035964    28.582259      733.47388     -66.323765      667.15011    
    659000   294.09603      0.040035964    30.541738      729.66037     -71.70027       657.9601     
    660000   295.32224      0.040035964    7.7136935      732.70263     -80.563576      652.13905    
    661000   318.79359      0.040035964    32.860163      790.93568     -77.876039      713.05965    
    662000   303.97378      0.040035964    18.19749       754.16732     -72.01702       682.1503     
    663000   307.01702      0.040035964    16.527056      761.7177      -70.624755      691.09294    
    664000   308.90668      0.040035964    10.75072       766.40599     -66.562406      699.84358    
    665000   304.62471      0.040035964    27.016552      755.7823      -68.210296      687.572      
    666000   300.23718      0.040035964    23.836958      744.89672     -67.528192      677.36853    
    667000   296.89931      0.040035964    12.905434      736.61537     -67.645238      668.97014    
    668000   298.45152      0.040035964    25.147662      740.46645     -69.099445      671.367      
    669000   296.39182      0.040035964    22.181112      735.35628     -66.99398       668.3623     
    670000   300.94621      0.040035964    6.9244476      746.65583     -75.625225      671.03061    
    671000   293.03099      0.040035964    17.634651      727.01796     -68.440463      658.57749    
    672000   301.90067      0.040035964    25.216686      749.02388     -72.793388      676.23049    
    673000   317.96452      0.040035964    21.98098       788.87874     -71.27657       717.60217    
    674000   296.93508      0.040035964    18.374405      736.70413     -73.38462       663.31951    
    675000   281.72661      0.040035964    18.86369       698.97149     -67.53655       631.43494    
    676000   302.43947      0.040035964    22.053172      750.36067     -68.483528      681.87714    
    677000   306.88713      0.040035964    26.48402       761.39542     -66.800682      694.59474    
    678000   304.74979      0.040035964    19.087595      756.09263     -66.060741      690.03189    
    679000   294.59443      0.040035964    22.108287      730.89691     -64.641859      666.25505    
    680000   294.25437      0.040035964    18.295328      730.0532      -63.819243      666.23396    
    681000   314.58765      0.040035964    20.616355      780.50064     -68.940629      711.56001    
    682000   301.65114      0.040035964    22.723797      748.40479     -66.820482      681.58431    
    683000   291.65495      0.040035964    22.566154      723.60396     -70.368303      653.23566    
    684000   310.53781      0.040035964    22.31204       770.45287     -70.19601       700.25686    
    685000   305.30888      0.040035964    20.627424      757.47976     -72.99708       684.48268    
    686000   300.07194      0.040035964    22.31732       744.48676     -71.212936      673.27383    
    687000   288.3062       0.040035964    17.51148       715.29564     -76.336944      638.95869    
    688000   304.60904      0.040035964    22.841872      755.74343     -72.62472       683.11871    
    689000   297.21259      0.040035964    18.190328      737.39262     -70.965279      666.42734    
    690000   292.27934      0.040035964    18.062616      725.1531      -67.041665      658.11144    
    691000   301.80134      0.040035964    18.137277      748.77743     -59.808632      688.9688     
    692000   305.13689      0.040035964    18.009946      757.05304     -59.632421      697.42062    
    693000   289.47552      0.040035964    18.373712      718.19675     -65.890025      652.30672    
    694000   298.85597      0.040035964    20.992817      741.46989     -65.488529      675.98137    
    695000   307.68141      0.040035964    19.242597      763.36606     -63.056573      700.30949    
    696000   297.45946      0.040035964    18.641541      738.00511     -67.140748      670.86436    
    697000   287.63753      0.040035964    20.796162      713.63665     -66.997125      646.63953    
    698000   289.85643      0.040035964    18.222461      719.1418      -74.966878      644.17492    
    699000   305.51241      0.040035964    21.524775      757.98472     -76.157136      681.82759    
    700000   311.75749      0.040035964    21.305154      773.47892     -74.292427      699.18649    
    701000   308.82816      0.040035964    10.315664      766.21117     -73.460892      692.75028    
    702000   292.15449      0.040035964    25.482233      724.84335     -66.513358      658.32999    
    703000   307.78082      0.040035964    21.715397      763.61269     -70.118045      693.49464    
    704000   309.05978      0.040035964    10.466784      766.78584     -69.61381       697.17203    
    705000   290.85489      0.040035964    10.236018      721.619       -61.587405      660.0316     
    706000   297.87942      0.040035964    18.447375      739.04706     -66.17959       672.86747    
    707000   299.165        0.040035964    27.731101      742.23662     -59.474952      682.76167    
    708000   293.38013      0.040035964    28.861105      727.88419     -60.90021       666.98398    
    709000   308.74316      0.040035964    16.98255       766.00029     -66.022963      699.97733    
    710000   305.12642      0.040035964    19.784892      757.02705     -62.57023       694.45682    
    711000   298.0454       0.040035964    15.384969      739.45886     -63.215254      676.2436     
    712000   293.99808      0.040035964    15.642576      729.41733     -62.086584      667.33075    
    713000   308.05409      0.040035964    26.932411      764.29068     -63.98775       700.30293    
    714000   301.23712      0.040035964    24.234911      747.37761     -60.071485      687.30612    
    715000   296.8809       0.040035964    19.522201      736.5697      -61.044291      675.52541    
    716000   291.41759      0.040035964    3.6499854      723.01507     -58.099623      664.91545    
    717000   301.19195      0.040035964    41.315381      747.26553     -52.057997      695.20754    
    718000   297.04969      0.040035964    43.767303      736.98848     -61.105712      675.88276    
    719000   303.84676      0.040035964    1.6331491      753.8522      -63.62285       690.22935    
    720000   303.39584      0.040035964   -4.3387183      752.73344     -66.463444      686.27       
    721000   287.56435      0.040035964    54.067652      713.45508     -63.604339      649.85074    
    722000   304.6972       0.040035964    17.349488      755.96216     -60.171428      695.79074    
    723000   303.15687      0.040035964    12.291144      752.14054     -68.655474      683.48507    
    724000   291.33463      0.040035964    46.194943      722.80926     -70.777584      652.03167    
    725000   294.38684      0.040035964    65.410385      730.38186     -72.647251      657.7346     
    726000   315.13873      0.040035964    9.7636833      781.86788     -65.456387      716.41149    
    727000   301.52961      0.040035964    0.16731841     748.10329     -64.384028      683.71926    
    728000   285.09116      0.040035964    41.198175      707.31902     -75.003456      632.31556    
    729000   307.04621      0.040035964    30.126592      761.79011     -70.823592      690.96652    
    730000   311.16755      0.040035964    9.7910047      772.01526     -73.289952      698.72531    
    731000   281.40718      0.040035964    1.4186535      698.17898     -76.332722      621.84626    
    732000   297.11926      0.040035964    72.316294      737.16108     -70.323811      666.83727    
    733000   308.06308      0.040035964    16.101904      764.313       -68.01525       696.29775    
    734000   303.93892      0.040035964    13.637327      754.08083     -60.381054      693.69977    
    735000   283.29517      0.040035964    18.543758      702.86312     -58.362062      644.50106    
    736000   295.59258      0.040035964    25.091508      733.37333     -64.687511      668.68582    
    737000   307.73014      0.040035964    9.2129151      763.48696     -68.395385      695.09158    
    738000   300.08385      0.040035964    28.35433       744.5163      -68.495535      676.02076    
    739000   307.78915      0.040035964    19.8317        763.63338     -74.045586      689.58779    
    740000   301.07628      0.040035964    8.3066219      746.97855     -64.572428      682.40612    
    741000   287.54259      0.040035964    8.4019658      713.40108     -60.965581      652.4355     
    742000   304.22681      0.040035964    28.409217      754.79511     -56.106976      698.68813    
    743000   304.7298       0.040035964    14.674448      756.04304     -63.13284       692.9102     
    744000   307.58365      0.040035964    21.72201       763.12351     -59.529691      703.59382    
    745000   297.31057      0.040035964    18.157556      737.63573     -62.703987      674.93174    
    746000   294.73637      0.040035964    28.353961      731.24907     -50.93624       680.31283    
    747000   311.63295      0.040035964    20.710176      773.16993     -61.444295      711.72564    
    748000   297.87275      0.040035964    22.113901      739.03051     -57.073601      681.95691    
    749000   294.37552      0.040035964    9.1631086      730.35377     -60.638383      669.71539    
    750000   311.51687      0.040035964    35.394499      772.88194     -60.07697       712.80497    
    751000   297.56074      0.040035964    19.888039      738.2564      -56.105502      682.1509     
    752000   299.32715      0.040035964    17.433325      742.63892     -66.110042      676.52888    
    753000   306.79681      0.040035964    18.381699      761.17134     -66.238852      694.93248    
    754000   304.45764      0.040035964    27.244365      755.3678      -64.770914      690.59689    
    755000   303.33471      0.040035964    19.440083      752.58178     -63.670932      688.91085    
    756000   296.99978      0.040035964    16.156629      736.86464     -62.407785      674.45686    
    757000   306.81368      0.040035964    20.918333      761.21321     -65.189315      696.02389    
    758000   302.55712      0.040035964    22.958294      750.65254     -62.210555      688.44199    
    759000   294.75283      0.040035964    19.018649      731.28989     -62.743146      668.54674    
    760000   303.97572      0.040035964    21.022606      754.17215     -62.780363      691.39179    
    761000   301.74144      0.040035964    20.3148        748.62882     -62.951183      685.67764    
    762000   296.23146      0.040035964    15.406723      734.95841     -53.637624      681.32079    
    763000   300.9186       0.040035964    23.025784      746.58735     -57.877027      688.71033    
    764000   295.16487      0.040035964    20.242994      732.31218     -59.843197      672.46899    
    765000   305.14361      0.040035964    18.519525      757.06972     -62.1339        694.93582    
    766000   306.35575      0.040035964    24.016238      760.07706     -62.404537      697.67253    
    767000   291.27184      0.040035964    34.174966      722.65348     -52.397038      670.25644    
    768000   302.54458      0.040035964   -9.3655436      750.62144     -56.438991      694.18245    
    769000   303.50657      0.040035964    20.860162      753.00816     -57.143327      695.86483    
    770000   290.25096      0.040035964    19.039094      720.12062     -56.345642      663.77498    
    771000   299.33739      0.040035964    25.333236      742.66432     -64.297185      678.36713    
    772000   295.00878      0.040035964    20.138463      731.92492     -68.240915      663.684      
    773000   298.21247      0.040035964    14.044816      739.87337     -64.817966      675.0554     
    774000   300.57158      0.040035964    18.416382      745.72638     -55.477522      690.24886    
    775000   311.73731      0.040035964    21.807107      773.42886     -59.80073       713.62813    
    776000   303.29025      0.040035964    33.19354       752.47147     -60.145476      692.32599    
    777000   287.74775      0.040035964    15.727809      713.9101      -57.490054      656.42005    
    778000   294.36016      0.040035964    12.995697      730.31568     -58.882113      671.43357    
    779000   313.14409      0.040035964    15.639663      776.91912     -66.405156      710.51396    
    780000   300.58572      0.040035964    28.545013      745.76146     -64.039241      681.72222    
    781000   299.88962      0.040035964    25.278873      744.0344      -64.165793      679.86861    
    782000   293.68838      0.040035964    13.848659      728.64896     -66.58189       662.06707    
    783000   301.26636      0.040035964   -4.6847487      747.45015     -68.243102      679.20705    
    784000   316.24028      0.040035964   -5.6067711      784.60084     -68.578778      716.02206    
    785000   301.62508      0.040035964    37.119481      748.34013     -62.251996      686.08814    
    786000   282.72776      0.040035964    25.365287      701.45537     -62.187101      639.26827    
    787000   301.87884      0.040035964   -10.883954      748.96972     -60.090182      688.87953    
    788000   297.9193       0.040035964    30.732793      739.146       -61.646813      677.49919    
    789000   293.871        0.040035964    24.073019      729.10205     -64.231803      664.87025    
    790000   295.25779      0.040035964    12.896113      732.54271     -67.748684      664.79402    
    791000   305.80485      0.040035964    6.5323615      758.71027     -63.414299      695.29597    
    792000   300.33339      0.040035964    34.664768      745.13543     -65.880475      679.25495    
    793000   294.68359      0.040035964    20.552369      731.11811     -62.030295      669.08781    
    794000   298.7314       0.040035964    7.311168       741.16085     -62.711033      678.44982    
    795000   301.76628      0.040035964    32.046627      748.69045     -63.254757      685.43569    
    796000   295.67329      0.040035964    33.970915      733.57359     -58.490349      675.08325    
    797000   297.9871       0.040035964    17.358044      739.31421     -72.590285      666.72393    
    798000   299.66779      0.040035964    16.873098      743.48404     -70.755283      672.72875    
    799000   304.73223      0.040035964    20.22955       756.04907     -71.361635      684.68744    
    800000   296.09241      0.040035964    28.703531      734.61342     -66.245774      668.36765    
    801000   302.84048      0.040035964    14.80307       751.35558     -70.467262      680.88831    
    802000   290.06089      0.040035964    19.192545      719.64907     -73.151372      646.4977     
    803000   303.04249      0.040035964    18.625015      751.85677     -75.83367       676.0231     
    804000   301.09398      0.040035964    38.163602      747.02245     -66.599361      680.42309    
    805000   289.9473       0.040035964    17.066535      719.36724     -66.634239      652.733      
    806000   309.58838      0.040035964    16.849515      768.09731     -71.580871      696.51644    
    807000   299.70922      0.040035964    24.209847      743.58683     -61.821607      681.76522    
    808000   297.3758       0.040035964    19.341665      737.79755     -63.474424      674.32313    
    809000   290.99878      0.040035964    18.747601      721.97599     -59.97738       661.99861    
    810000   308.81643      0.040035964    23.351283      766.18207     -61.939785      704.24229    
    811000   296.40516      0.040035964    22.95647       735.38938     -60.124982      675.26439    
    812000   294.0163       0.040035964    17.752433      729.46254     -59.691998      669.77054    
    813000   293.5426       0.040035964    24.615548      728.28729     -67.067074      661.22022    
    814000   309.59935      0.040035964    23.089477      768.12451     -59.331429      708.79309    
    815000   298.21252      0.040035964    20.087548      739.87349     -62.337289      677.5362     
    816000   296.38889      0.040035964    19.323744      735.34901     -61.265421      674.08359    
    817000   304.68622      0.040035964    22.038029      755.93491     -58.144886      697.79002    
    818000   297.68173      0.040035964    19.840325      738.55657     -66.101706      672.45486    
    819000   308.78293      0.040035964    24.610462      766.09896     -63.203185      702.89578    
    820000   302.50939      0.040035964    19.98885       750.53413     -63.826619      686.70751    
    821000   301.47868      0.040035964    27.236002      747.9769      -64.123992      683.85291    
    822000   301.70918      0.040035964    19.97543       748.5488      -65.167787      683.38101    
    823000   302.85271      0.040035964    20.249007      751.38592     -61.516092      689.86983    
    824000   331.08016      0.040035964    18.196129      821.419       -66.151554      755.26745    
    825000   301.52719      0.040035964    19.174271      748.09728     -68.115219      679.98206    
    826000   305.8732       0.040035964    10.429902      758.87984     -72.498152      686.38169    
    827000   303.09052      0.040035964    12.578201      751.97595     -65.655428      686.32052    
    828000   291.42201      0.040035964    21.526713      723.02604     -76.833857      646.19219    
    829000   289.19826      0.040035964    21.449715      717.50884     -79.536119      637.97272    
    830000   294.73413      0.040035964    22.454848      731.2435      -74.617635      656.62586    
    831000   314.30436      0.040035964    19.614489      779.79777     -69.202986      710.59479    
    832000   302.62963      0.040035964    7.9245631      750.83245     -65.963217      684.86923    
    833000   298.40256      0.040035964    25.284405      740.34497     -61.436845      678.90813    
    834000   305.931        0.040035964    24.838764      759.02323     -61.431769      697.59146    
    835000   294.01         0.040035964    12.429722      729.44691     -65.15617       664.29074    
    836000   297.75129      0.040035964    18.81262       738.72915     -65.05241       673.67674    
    837000   286.41306      0.040035964    20.737924      710.59869     -59.895629      650.70306    
    838000   307.93476      0.040035964    20.91374       763.99462     -60.538407      703.45621    
    839000   307.85891      0.040035964    20.299538      763.80645     -59.537147      704.2693     
    840000   305.58156      0.040035964    22.653116      758.15628     -54.079978      704.0763     
    841000   292.30829      0.040035964    17.214956      725.22493     -63.323316      661.90161    
    842000   296.49052      0.040035964    18.370143      735.60114     -59.990828      675.61032    
    843000   317.38548      0.040035964    30.531356      787.44213     -60.554091      726.88804    
    844000   305.31508      0.040035964    17.202099      757.49513     -61.215005      696.28012    
    845000   290.97637      0.040035964    20.520251      721.9204      -62.758924      659.16147    
    846000   301.0722       0.040035964    25.693024      746.96843     -60.072235      686.8962     
    847000   303.47471      0.040035964    26.503067      752.92913     -61.206752      691.72237    
    848000   307.87098      0.040035964    33.771737      763.83639     -63.142589      700.6938     
    849000   305.09287      0.040035964    12.297371      756.94381     -68.719051      688.22476    
    850000   292.72523      0.040035964    21.486908      726.25936     -62.164156      664.0952     
    851000   299.05898      0.040035964    23.772222      741.97356     -69.126089      672.84747    
    852000   292.23203      0.040035964    21.273615      725.03572     -74.378328      650.65739    
    853000   305.76897      0.040035964    22.073253      758.62125     -66.436356      692.18489    
    854000   299.78172      0.040035964    20.483269      743.7667      -63.517432      680.24927    
    855000   291.32196      0.040035964    18.747979      722.77782     -61.115565      661.66225    
    856000   306.16562      0.040035964    24.586188      759.60534     -60.346331      699.25901    
    857000   311.33485      0.040035964    21.849947      772.43033     -62.930429      709.4999     
    858000   294.21047      0.040035964    14.13098       729.94427     -65.29151       664.65277    
    859000   309.58944      0.040035964    18.956823      768.09994     -73.738849      694.36109    
    860000   282.24848      0.040035964    7.1008487      700.26625     -75.956071      624.31018    
    861000   306.58622      0.040035964    30.068208      760.64885     -70.919679      689.72917    
    862000   315.91083      0.040035964    18.850423      783.78348     -70.130134      713.65335    
    863000   295.75099      0.040035964    20.102256      733.76637     -58.95805       674.80832    
    864000   293.30771      0.040035964    21.296976      727.70452     -66.080498      661.62402    
    865000   313.36839      0.040035964    35.300407      777.47563     -65.574129      711.9015     
    866000   303.62011      0.040035964    7.7022838      753.28985     -67.271516      686.01833    
    867000   293.72237      0.040035964    9.2479236      728.73331     -71.127075      657.60623    
    868000   288.48819      0.040035964    12.071045      715.74715     -62.930212      652.81694    
    869000   297.74009      0.040035964    18.970678      738.70136     -70.989415      667.71195    
    870000   311.45265      0.040035964    22.5963        772.7226      -71.695267      701.02733    
    871000   297.0366       0.040035964    24.366714      736.956       -65.805993      671.15       
    872000   293.88634      0.040035964    18.813325      729.14011     -69.662179      659.47793    
    873000   319.60446      0.040035964    26.614253      792.94747     -65.408149      727.53932    
    874000   304.23452      0.040035964    18.96656       754.81424     -61.76142       693.05282    
    875000   294.25072      0.040035964    22.187126      730.04415     -67.231051      662.8131     
    876000   297.06203      0.040035964    21.39459       737.01908     -69.963936      667.05515    
    877000   291.68128      0.040035964    20.290099      723.6693      -65.586483      658.08282    
    878000   316.1994       0.040035964    19.54782       784.49942     -64.947098      719.55232    
    879000   311.30517      0.040035964    22.413636      772.35671     -61.368159      710.98856    
    880000   298.06612      0.040035964    15.710457      739.51026     -65.709304      673.80096    
    881000   297.4325       0.040035964    28.834371      737.93824     -58.619785      679.31846    
    882000   309.19901      0.040035964    17.106191      767.13127     -64.316691      702.81458    
    883000   299.43014      0.040035964    18.488778      742.89443     -55.818936      687.0755     
    884000   289.25783      0.040035964    26.459236      717.65665     -57.603124      660.05352    
    885000   310.91751      0.040035964    22.932597      771.39492     -60.887797      710.50712    
    886000   293.8133       0.040035964    18.072575      728.9589      -64.409829      664.54907    
    887000   296.4057       0.040035964    27.153496      735.3907      -67.707717      667.68298    
    888000   299.95767      0.040035964    19.234381      744.20326     -63.42806       680.7752     
    889000   297.21161      0.040035964    13.839402      737.39019     -62.460091      674.9301     
    890000   297.90832      0.040035964    34.389626      739.11874     -59.644804      679.47394    
    891000   301.61906      0.040035964    19.457736      748.32521     -61.829808      686.4954     
    892000   312.10054      0.040035964    20.573115      774.33005     -66.186068      708.14398    
    893000   300.84009      0.040035964    19.156181      746.39255     -66.097369      680.29518    
    894000   286.89472      0.040035964    21.59226       711.7937      -58.676389      653.11731    
    895000   298.79119      0.040035964    21.307156      741.30919     -62.086736      679.22245    
    896000   306.69087      0.040035964    9.8961888      760.9085      -60.522529      700.38597    
    897000   302.92298      0.040035964    19.767126      751.56025     -60.614911      690.94534    
    898000   298.08434      0.040035964    22.041768      739.55547     -59.751141      679.80433    
    899000   293.84457      0.040035964    18.97775       729.03648     -62.063822      666.97266    
    900000   306.37906      0.040035964    18.070474      760.13489     -56.966247      703.16864    
    901000   305.09799      0.040035964    18.514815      756.95653     -57.546441      699.41009    
    902000   294.65968      0.040035964    21.558619      731.0588      -59.957357      671.10144    
    903000   288.68673      0.040035964    22.820334      716.23973     -61.98057       654.25916    
    904000   296.71685      0.040035964    19.056687      736.16269     -65.950202      670.21249    
    905000   308.24845      0.040035964    19.055536      764.7729      -67.178918      697.59398    
    906000   301.52717      0.040035964    37.905476      748.09721     -59.642669      688.45454    
    907000   299.08346      0.040035964    17.799263      742.03431     -64.742502      677.29181    
    908000   303.26286      0.040035964    13.64171       752.40352     -64.626487      687.77704    
    909000   295.2083       0.040035964    21.567186      732.41993     -65.775541      666.64439    
    910000   307.58795      0.040035964    27.076593      763.13419     -67.072758      696.06143    
    911000   289.2176       0.040035964    28.38164       717.55683     -66.735656      650.82118    
    912000   293.69867      0.040035964    19.840345      728.6745      -63.034265      665.64023    
    913000   311.59574      0.040035964    22.490578      773.07763     -66.818825      706.2588     
    914000   297.42551      0.040035964    17.456189      737.92089     -68.941343      668.97955    
    915000   298.06252      0.040035964    20.003936      739.50132     -71.861932      667.63939    
    916000   303.18691      0.040035964    22.791632      752.21508     -65.018434      687.19665    
    917000   295.47858      0.040035964    9.1841721      733.0905      -78.023939      655.06656    
    918000   301.68249      0.040035964    25.406465      748.48256     -74.708213      673.77435    
    919000   304.7318       0.040035964    22.823151      756.048       -76.198231      679.84977    
    920000   297.26984      0.040035964    23.328366      737.53467     -73.584564      663.95011    
    921000   295.47494      0.040035964    20.732097      733.08148     -70.331051      662.75043    
    922000   298.48423      0.040035964    25.674994      740.54761     -68.104428      672.44318    
    923000   313.54442      0.040035964    14.967581      777.91236     -66.63489       711.27747    
    924000   302.50784      0.040035964    16.206934      750.53028     -62.396495      688.13378    
    925000   291.92219      0.040035964    14.505833      724.267       -66.445933      657.82106    
    926000   288.39848      0.040035964    21.541228      715.52457     -69.233839      646.29073    
    927000   305.40741      0.040035964    23.634532      757.7242      -59.648205      698.076      
    928000   313.93037      0.040035964    22.78638       778.8699      -66.040373      712.82953    
    929000   299.75683      0.040035964    5.8634808      743.70495     -64.184878      679.52008    
    930000   280.63387      0.040035964    14.711536      696.26036     -69.273078      626.98728    
    931000   296.31378      0.040035964    23.957208      735.16267     -71.560131      663.60254    
    932000   314.05715      0.040035964    25.402225      779.18445     -68.831311      710.35314    
    933000   306.22629      0.040035964    25.244021      759.75587     -65.761288      693.99459    
    934000   296.4492       0.040035964    5.2275868      735.49864     -58.752978      676.74567    
    935000   292.89048      0.040035964    13.377696      726.66934     -59.399532      667.26981    
    936000   309.22134      0.040035964    29.109658      767.18668     -63.646323      703.54036    
    937000   305.68043      0.040035964    24.950817      758.40158     -64.48353       693.91805    
    938000   286.98226      0.040035964    11.524657      712.01089     -75.448506      636.56238    
    939000   306.10872      0.040035964    29.291698      759.46416     -59.701372      699.76279    
    940000   312.22546      0.040035964    13.465684      774.63997     -58.030467      716.6095     
    941000   294.25927      0.040035964    4.8138631      730.06536     -64.303286      665.76207    
    942000   293.53737      0.040035964    21.675752      728.27431     -61.585566      666.68875    
    943000   300.68479      0.040035964    26.187203      746.00726     -61.815809      684.19145    
    944000   318.23664      0.040035964    22.382322      789.55387     -62.78637       726.7675     
    945000   301.83838      0.040035964    13.005823      748.86935     -66.113511      682.75584    
    946000   293.61126      0.040035964    15.297412      728.45764     -62.638343      665.8193     
    947000   295.29872      0.040035964    27.71798       732.64426     -61.646642      670.99762    
    948000   302.50735      0.040035964    28.490422      750.52907     -59.404661      691.12441    
    949000   303.51178      0.040035964    29.560493      753.0211      -59.356556      693.66455    
    950000   298.97401      0.040035964    18.651585      741.76275     -65.969781      675.79297    
    951000   279.83544      0.040035964    19.899604      694.27945     -61.098981      633.18046    
    952000   292.39874      0.040035964    26.282945      725.44934     -63.982604      661.46673    
    953000   301.37341      0.040035964    27.379541      747.71574     -63.800495      683.91524    
    954000   315.41147      0.040035964    13.055028      782.54454     -64.977654      717.56689    
    955000   296.93668      0.040035964    19.478414      736.70808     -69.845787      666.86229    
    956000   301.94131      0.040035964    38.976223      749.12472     -72.963164      676.16156    
    957000   301.9549       0.040035964    14.742848      749.15842     -59.193987      689.96443    
    958000   305.79628      0.040035964    13.900892      758.68899     -61.761607      696.92739    
    959000   285.06136      0.040035964    17.16501       707.2451      -62.093637      645.15147    
    960000   299.45841      0.040035964    20.796993      742.96457     -67.666315      675.29826    
    961000   309.1279       0.040035964    21.73124       766.95485     -70.343819      696.61103    
    962000   292.93761      0.040035964    19.352605      726.7863      -65.709227      661.07707    
    963000   294.95927      0.040035964    18.288917      731.80208     -62.319656      669.48243    
    964000   298.77117      0.040035964    20.564574      741.25951     -60.122002      681.13751    
    965000   303.2017       0.040035964    17.977462      752.25177     -64.017661      688.23411    
    966000   299.6406       0.040035964    20.166796      743.4166      -65.98055       677.43605    
    967000   296.27229      0.040035964    40.194554      735.05972     -70.604486      664.45523    
    968000   303.97821      0.040035964    11.588772      754.17831     -70.764875      683.41344    
    969000   289.08482      0.040035964    25.044774      717.22741     -66.470206      650.75721    
    970000   305.44579      0.040035964    31.629641      757.81943     -69.276515      688.54292    
    971000   316.60552      0.040035964    25.923072      785.50703     -68.550802      716.95623    
    972000   298.82504      0.040035964    10.419209      741.39317     -65.929441      675.46373    
    973000   281.35542      0.040035964    9.5399794      698.05056     -64.91785       633.13271    
    974000   306.79857      0.040035964    33.864201      761.17571     -60.924706      700.251      
    975000   306.71354      0.040035964    14.138479      760.96476     -59.46613       701.49863    
    976000   286.57639      0.040035964    6.3574346      711.00393     -63.576568      647.42737    
    977000   290.44682      0.040035964    24.14775       720.60656     -66.529419      654.07714    
    978000   305.01794      0.040035964    30.422984      756.75792     -69.019         687.73892    
    979000   302.41691      0.040035964    18.038889      750.3047      -67.441776      682.86292    
    980000   300.79053      0.040035964    20.959513      746.26961     -66.16298       680.10663    
    981000   302.93717      0.040035964    23.831983      751.59547     -69.482448      682.11302    
    982000   315.58803      0.040035964    42.088329      782.9826      -72.979232      710.00336    
    983000   301.25106      0.040035964    15.78425       747.41218     -67.15164       680.26054    
    984000   300.40879      0.040035964    19.292733      745.3225      -70.427653      674.89485    
    985000   298.34687      0.040035964    25.931469      740.20681     -69.529485      670.67733    
    986000   297.84571      0.040035964    24.769812      738.96341     -65.566338      673.39707    
    987000   289.402        0.040035964    21.785248      718.01433     -59.168835      658.8455     
    988000   297.81943      0.040035964    3.9304127      738.89822     -62.104722      676.79349    
    989000   298.77812      0.040035964    14.4007        741.27676     -67.240084      674.03668    
    990000   291.87968      0.040035964    25.411402      724.16153     -59.013871      665.14766    
    991000   305.68694      0.040035964    27.131061      758.41772     -68.634476      689.78324    
    992000   307.24789      0.040035964    17.186661      762.29049     -59.240389      703.0501     
    993000   292.83843      0.040035964    13.851641      726.54023     -56.143281      670.39695    
    994000   306.22646      0.040035964    24.924284      759.75629     -61.936269      697.82002    
    995000   301.51711      0.040035964    20.192455      748.07226     -58.625872      689.44639    
    996000   295.12685      0.040035964    9.5262955      732.21785     -57.945582      674.27227    
    997000   298.96785      0.040035964    22.712098      741.74747     -57.72673       684.02074    
    998000   288.52588      0.040035964    21.697287      715.84067     -61.594275      654.24639    
    999000   302.26004      0.040035964    23.572386      749.91548     -63.447159      686.46832    
   1000000   310.44316      0.040035964    25.089872      770.21804     -63.737143      706.4809     
   1001000   304.86737      0.040035964    19.335371      756.38436     -68.269295      688.11506    
   1002000   285.35844      0.040035964    20.252053      707.98215     -70.188017      637.79413    
   1003000   284.52576      0.040035964    14.86621       705.91625     -69.297645      636.61861    
   1004000   317.26032      0.040035964    20.218431      787.13159     -64.339834      722.79176    
   1005000   301.59586      0.040035964    23.370032      748.26765     -64.994978      683.27267    
   1006000   288.55358      0.040035964    24.884689      715.9094      -57.829683      658.07971    
   1007000   292.14827      0.040035964    9.7686244      724.82791     -65.092415      659.7355     
   1008000   310.46028      0.040035964    26.330237      770.26051     -61.935283      708.32523    
   1009000   297.40559      0.040035964    17.217776      737.87148     -59.149506      678.72197    
   1010000   298.16292      0.040035964    11.333226      739.75043     -56.734428      683.01601    
   1011000   309.33211      0.040035964    34.349795      767.4615      -64.123285      703.33822    
   1012000   304.33161      0.040035964    31.258415      755.0551      -57.911199      697.1439     
   1013000   303.05757      0.040035964    0.17658617     751.89418     -54.808907      697.08527    
   1014000   302.23853      0.040035964    21.650506      749.86211     -58.807975      691.05414    
   1015000   296.02571      0.040035964    21.09309       734.44794     -63.175128      671.27281    
   1016000   304.49325      0.040035964    17.40825       755.45614     -63.344902      692.11124    
   1017000   300.02035      0.040035964    7.5413001      744.35875     -64.293928      680.06482    
   1018000   291.03108      0.040035964    23.499343      722.05612     -65.068751      656.98737    
   1019000   299.75022      0.040035964    30.377947      743.68856     -59.860863      683.82769    
   1020000   302.6287       0.040035964    16.15203       750.83014     -63.817081      687.01305    
   1021000   283.51724      0.040035964    11.124383      703.41408     -58.873901      644.54018    
   1022000   302.78777      0.040035964    15.091724      751.22479     -64.194404      687.03039    
   1023000   319.85962      0.040035964    26.166228      793.58054     -73.628399      719.95214    
   1024000   295.55364      0.040035964    25.097169      733.27673     -65.180525      668.0962     
   1025000   294.70803      0.040035964    16.644518      731.17874     -63.27249       667.90625    
   1026000   299.96292      0.040035964    16.038329      744.21626     -63.980948      680.23532    
   1027000   300.95627      0.040035964    11.634137      746.6808      -67.495216      679.18558    
   1028000   309.13571      0.040035964    10.301361      766.97421     -76.738847      690.23536    
   1029000   302.84296      0.040035964    17.837141      751.36173     -70.411906      680.94982    
   1030000   301.90656      0.040035964    30.314849      749.03851     -73.15172       675.88679    
   1031000   298.97629      0.040035964    22.122221      741.76841     -63.770112      677.9983     
   1032000   294.10736      0.040035964   -1.8174574      729.68846     -72.296243      657.39221    
   1033000   293.68019      0.040035964    21.250126      728.62865     -71.288267      657.34038    
   1034000   302.44543      0.040035964    24.401963      750.37545     -64.860684      685.51477    
   1035000   295.23913      0.040035964    8.9607592      732.49641     -76.171073      656.32534    
   1036000   293.30876      0.040035964    19.051695      727.70712     -72.598279      655.10884    
   1037000   300.92305      0.040035964    31.367613      746.59839     -73.348499      673.24989    
   1038000   298.7534       0.040035964    16.173036      741.21542     -61.119334      680.09608    
   1039000   290.0155       0.040035964   -10.886073      719.53645     -64.965572      654.57088    
   1040000   314.4342       0.040035964   -13.060924      780.11992     -57.500231      722.61969    
   1041000   301.83467      0.040035964    23.074946      748.86014     -58.773451      690.08669    
   1042000   299.51158      0.040035964    43.024769      743.0965      -58.332465      684.76403    
   1043000   296.22824      0.040035964    35.973332      734.95042     -56.849968      678.10045    
   1044000   300.98475      0.040035964    11.194397      746.75147     -65.617176      681.13429    
   1045000   299.07577      0.040035964    17.608173      742.01524     -61.765116      680.25012    
   1046000   304.7157       0.040035964    34.476315      756.00804     -66.978045      689.03       
   1047000   302.24081      0.040035964    24.393443      749.86777     -63.596951      686.27082    
   1048000   309.33132      0.040035964   -7.4886935      767.45953     -65.759484      701.70004    
   1049000   307.73058      0.040035964    28.718589      763.48806     -67.72875       695.75931    
   1050000   296.93953      0.040035964    31.243802      736.71515     -68.459881      668.25527    
   1051000   280.05403      0.040035964    12.479039      694.82178     -63.115791      631.70599    
   1052000   305.10657      0.040035964    21.712967      756.9778      -63.126731      693.85107    
   1053000   293.81369      0.040035964    22.384138      728.95986     -67.304337      661.65553    
   1054000   305.62259      0.040035964    7.9004239      758.25807     -64.848352      693.40972    
   1055000   306.83956      0.040035964    22.56167       761.27739     -66.911369      694.36602    
   1056000   306.69092      0.040035964    33.495812      760.90862     -70.083985      690.82463    
   1057000   307.53279      0.040035964    22.912381      762.99732     -70.904266      692.09306    
   1058000   295.96158      0.040035964    13.475936      734.28884     -78.628814      655.66003    
   1059000   294.09863      0.040035964    8.7989781      729.66681     -71.945908      657.7209     
   1060000   308.13719      0.040035964    11.785873      764.49686     -70.775917      693.72094    
   1061000   315.57042      0.040035964    26.848124      782.9389      -70.936084      712.00282    
   1062000   288.57143      0.040035964    19.034355      715.95367     -70.347751      645.60592    
   1063000   289.03174      0.040035964    19.562657      717.09572     -67.294757      649.80096    
   1064000   295.81326      0.040035964    17.806888      733.92085     -67.008149      666.9127     
   1065000   300.44862      0.040035964    19.658913      745.4213      -64.748328      680.67297    
   1066000   302.7524       0.040035964    21.289421      751.13706     -64.384307      686.75275    
   1067000   284.56836      0.040035964    19.798426      706.02194     -69.532746      636.4892     
   1068000   295.07664      0.040035964    18.121958      732.09328     -76.030213      656.06307    
   1069000   310.82566      0.040035964    21.586348      771.16704     -71.982766      699.18427    
   1070000   309.76561      0.040035964    16.18631       768.53702     -67.938499      700.59852    
   1071000   291.43035      0.040035964    12.589041      723.04674     -67.015941      656.0308     
   1072000   289.79918      0.040035964    21.89752       718.99974     -58.31376       660.68598    
   1073000   301.25317      0.040035964    21.549128      747.41743     -57.470653      689.94677    
   1074000   311.22513      0.040035964    24.615471      772.15813     -64.657857      707.50027    
   1075000   300.4443       0.040035964    9.8811221      745.4106      -57.470326      687.94028    
   1076000   292.74107      0.040035964    17.570952      726.29865     -59.107599      667.19105    
   1077000   310.69808      0.040035964    28.553831      770.85049     -63.38776       707.46273    
   1078000   312.54673      0.040035964    21.558226      775.43705     -63.588223      711.84882    
   1079000   286.85799      0.040035964    11.10446       711.70258     -57.043519      654.65906    
   1080000   294.06165      0.040035964    24.498529      729.57505     -59.544288      670.03077    
   1081000   318.74322      0.040035964    35.798474      790.8107      -64.731894      726.07881    
   1082000   317.18862      0.040035964    14.3835        786.95371     -67.264152      719.68956    
   1083000   300.90367      0.040035964    11.050881      746.5503      -65.407618      681.14268    
   1084000   289.89266      0.040035964    22.377005      719.23169     -68.265918      650.96578    
   1085000   283.76448      0.040035964    37.215366      704.0275      -63.61347       640.41403    
   1086000   306.12881      0.040035964    29.258839      759.51402     -76.854086      682.65993    
   1087000   297.89751      0.040035964    14.103832      739.09193     -72.05079       667.04114    
   1088000   304.75594      0.040035964    16.822755      756.10788     -70.364814      685.74306    
   1089000   291.48648      0.040035964    23.516453      723.18599     -73.411818      649.77417    
   1090000   294.39666      0.040035964    31.472267      730.40622     -74.158669      656.24755    
   1091000   307.02645      0.040035964    36.617422      761.74108     -84.580783      677.1603     
   1092000   304.71162      0.040035964    18.637035      755.99794     -71.83367       684.16427    
   1093000   292.90445      0.040035964    11.67739       726.70401     -80.936307      645.76771    
   1094000   298.65684      0.040035964    28.299478      740.97585     -73.232581      667.74327    
   1095000   306.50295      0.040035964    21.383283      760.44226     -66.590074      693.85219    
   1096000   303.66175      0.040035964    17.379696      753.39318     -65.647275      687.7459     
   1097000   290.12823      0.040035964    12.683341      719.81613     -75.434509      644.38162    
   1098000   304.74543      0.040035964    38.176936      756.08182     -78.441786      677.64003    
   1099000   312.65243      0.040035964    18.061726      775.69929     -70.965721      704.73357    
   1100000   300.16279      0.040035964    19.238535      744.71216     -69.55957       675.15259    
   1101000   280.8674       0.040035964    27.306586      696.83977     -61.987001      634.85277    
   1102000   303.67398      0.040035964    22.904842      753.42353     -64.590139      688.83339    
   1103000   316.87708      0.040035964    16.169727      786.18078     -70.903325      715.27745    
   1104000   299.91997      0.040035964    18.88249       744.10971     -72.650749      671.45896    
   1105000   309.58904      0.040035964    19.899883      768.09893     -72.988633      695.1103     
   1106000   296.13898      0.040035964    27.447985      734.72897     -74.66093       660.06804    
   1107000   296.29637      0.040035964    22.992572      735.11946     -76.262338      658.85713    
   1108000   299.75972      0.040035964    19.970708      743.71212     -69.554492      674.15763    
   1109000   297.45784      0.040035964    19.120034      738.0011      -66.764498      671.2366     
   1110000   306.53879      0.040035964    19.809918      760.53119     -70.690218      689.84098    
   1111000   302.35157      0.040035964    26.112222      750.14258     -69.588211      680.55437    
   1112000   290.17486      0.040035964    20.351938      719.93184     -71.36988       648.56196    
   1113000   301.64603      0.040035964    18.29933       748.39211     -72.626233      675.76588    
   1114000   319.08034      0.040035964    23.602238      791.64713     -68.3721        723.27503    
   1115000   292.79375      0.040035964    24.269645      726.42937     -65.437133      660.99224    
   1116000   294.35083      0.040035964    18.290283      730.29253     -69.640729      660.6518     
   1117000   302.93026      0.040035964    13.928192      751.57832     -64.330362      687.24795    
   1118000   309.02797      0.040035964    15.287388      766.70691     -69.008676      697.69823    
   1119000   299.21737      0.040035964    25.264376      742.36655     -72.689156      669.67739    
   1120000   277.87606      0.040035964    14.418759      689.41816     -71.022377      618.39578    
   1121000   304.71544      0.040035964    17.128023      756.00739     -78.261588      677.74581    
   1122000   304.5547       0.040035964    20.194534      755.6086      -74.012726      681.59587    
   1123000   301.26801      0.040035964    21.517454      747.45423     -80.918898      666.53533    
   1124000   285.09146      0.040035964    29.481501      707.31976     -79.449287      627.87047    
   1125000   298.40368      0.040035964    13.106207      740.34775     -75.635741      664.71201    
   1126000   303.87695      0.040035964    18.142756      753.92709     -74.630224      679.29686    
   1127000   293.13541      0.040035964    12.849949      727.27702     -77.087418      650.1896     
   1128000   302.83681      0.040035964    12.814448      751.34647     -82.878825      668.46765    
   1129000   311.4943       0.040035964    16.905809      772.82595     -77.426585      695.39936    
   1130000   310.73931      0.040035964    31.545781      770.95281     -74.314099      696.63871    
   1131000   301.72204      0.040035964    21.72107       748.58071     -76.610024      671.97068    
   1132000   312.49585      0.040035964    42.099098      775.31083     -75.417222      699.89361    
   1133000   297.41657      0.040035964    22.86841       737.8987      -73.367403      664.5313     
   1134000   299.51294      0.040035964    10.217955      743.09987     -81.285291      661.81458    
   1135000   291.48589      0.040035964    20.687282      723.18453     -70.71363       652.4709     
   1136000   302.01304      0.040035964    29.322698      749.30267     -72.328654      676.97401    
   1137000   303.50983      0.040035964    25.525785      753.01626     -69.403158      683.61311    
   1138000   300.56306      0.040035964    18.618922      745.70523     -70.083482      675.62175    
   1139000   295.93462      0.040035964    19.441004      734.22195     -77.014135      657.20782    
   1140000   313.15588      0.040035964    22.061276      776.94836     -70.750516      706.19784    
   1141000   297.21754      0.040035964    19.979269      737.4049      -76.783757      660.62115    
   1142000   281.14363      0.040035964    19.617088      697.52509     -72.838404      624.68669    
   1143000   306.20583      0.040035964    25.324289      759.70511     -69.835685      689.86942    
   1144000   312.59121      0.040035964    19.422867      775.54741     -77.708332      697.83908    
   1145000   293.29633      0.040035964    14.758646      727.67627     -79.202671      648.4736     
   1146000   301.13681      0.040035964    19.152257      747.12873     -79.312672      667.81606    
   1147000   309.23317      0.040035964    20.528699      767.21601     -69.523309      697.6927     
   1148000   318.25801      0.040035964    28.173046      789.60689     -71.200996      718.4059     
   1149000   294.2612       0.040035964    23.772111      730.07014     -67.292713      662.77743    
   1150000   282.40568      0.040035964    20.992248      700.65627     -70.353789      630.30248    
   1151000   310.1035       0.040035964    20.773471      769.37534     -68.975268      700.40007    
   1152000   318.57601      0.040035964    21.342954      790.39586     -75.243908      715.15195    
   1153000   298.08594      0.040035964    19.577488      739.55944     -80.105907      659.45354    
   1154000   279.92296      0.040035964    19.053136      694.49657     -71.216643      623.27992    
   1155000   282.64188      0.040035964    16.81569       701.2423      -68.515444      632.72685    
   1156000   302.89206      0.040035964    17.172495      751.48354     -72.33031       679.15324    
   1157000   313.05725      0.040035964    23.640843      776.70367     -69.550369      707.1533     
   1158000   300.78912      0.040035964    18.975668      746.26609     -72.465689      673.8004     
   1159000   297.91199      0.040035964    20.603893      739.12787     -67.613951      671.51392    
   1160000   302.24554      0.040035964    17.459522      749.87952     -72.519996      677.35953    
   1161000   303.61503      0.040035964    21.836144      753.27726     -64.026997      689.25026    
   1162000   298.94398      0.040035964    23.592248      741.68826     -57.304378      684.38389    
   1163000   311.74512      0.040035964    15.64343       773.44825     -61.68028       711.76797    
   1164000   296.53383      0.040035964    6.9714546      735.70859     -60.216656      675.49194    
   1165000   300.47014      0.040035964    37.493539      745.47471     -58.126314      687.3484     
   1166000   295.12954      0.040035964    21.105361      732.22452     -60.923988      671.30053    
   1167000   292.8127       0.040035964    32.486021      726.47638     -58.719541      667.75684    
   1168000   308.52407      0.040035964    16.365628      765.45671     -54.175132      711.28158    
   1169000   294.1321       0.040035964    13.706307      729.74985     -52.155964      677.59388    
   1170000   298.19607      0.040035964    22.027328      739.83268     -49.86952       689.96316    
   1171000   303.29024      0.040035964    19.150156      752.47145     -50.654981      701.81647    
   1172000   305.19908      0.040035964    13.647832      757.20732     -53.645117      703.5622     
   1173000   297.20158      0.040035964    21.267477      737.3653      -54.580578      682.78472    
   1174000   292.55121      0.040035964    30.976161      725.82761     -60.155957      665.67165    
   1175000   296.11831      0.040035964    31.194649      734.6777      -59.450122      675.22758    
   1176000   299.71109      0.040035964    25.735928      743.59147     -60.07716       683.51431    
   1177000   309.18233      0.040035964    39.323244      767.08989     -61.434753      705.65514    
   1178000   300.09487      0.040035964    13.803789      744.54366     -65.476845      679.06681    
   1179000   286.87119      0.040035964    12.675779      711.73534     -65.22397       646.51137    
   1180000   307.05078      0.040035964    25.101884      761.80145     -69.153745      692.64771    
   1181000   309.60036      0.040035964    20.050019      768.12702     -68.176529      699.95049    
   1182000   291.68684      0.040035964    13.881624      723.68308     -64.868788      658.81429    
   1183000   285.00244      0.040035964    19.832597      707.09892     -61.852788      645.24613    
   1184000   302.62821      0.040035964    27.709186      750.82893     -63.780875      687.04805    
   1185000   304.58496      0.040035964    20.266988      755.68368     -60.202501      695.48118    
   1186000   293.34559      0.040035964    14.62745       727.7985      -59.357221      668.44128    
   1187000   298.29574      0.040035964    35.701493      740.07995     -58.416051      681.6639     
   1188000   309.59818      0.040035964    14.300897      768.12163     -64.452843      703.66879    
   1189000   297.01253      0.040035964    10.522941      736.89627     -70.72028       666.17599    
   1190000   281.67984      0.040035964    19.645507      698.85545     -71.370111      627.48534    
   1191000   299.78973      0.040035964    21.992561      743.7866      -66.714886      677.07171    
   1192000   325.02214      0.040035964    19.20325       806.38889     -65.646916      740.74197    
   1193000   303.52921      0.040035964    13.706985      753.06434     -64.337393      688.72695    
   1194000   289.63447      0.040035964   -13.378557      718.59111     -65.086943      653.50417    
   1195000   295.78435      0.040035964    19.590239      733.84913     -69.404831      664.4443     
   1196000   300.61727      0.040035964    49.376326      745.83975     -74.497701      671.34204    
   1197000   309.21453      0.040035964    29.360178      767.16977     -69.296682      697.87309    
   1198000   302.20938      0.040035964    19.162529      749.78981     -65.687729      684.10209    
   1199000   290.0047       0.040035964    1.1546655      719.50965     -75.796756      643.7129     
   1200000   291.81291      0.040035964    16.996529      723.99588     -70.073232      653.92265    
   1201000   312.56574      0.040035964    38.59012       775.48421     -76.23883       699.24538    
   1202000   299.55144      0.040035964    14.189274      743.19538     -81.393022      661.80235    
   1203000   295.0211       0.040035964    4.5839179      731.95548     -71.402596      660.55288    
   1204000   305.26515      0.040035964    26.562426      757.37124     -69.669389      687.70185    
   1205000   319.39866      0.040035964    15.805463      792.43687     -77.810971      714.6259     
   1206000   307.7187       0.040035964    14.830192      763.45857     -79.711908      683.74666    
   1207000   288.67727      0.040035964    23.08086       716.21625     -69.254068      646.96219    
   1208000   302.03835      0.040035964    39.891643      749.36547     -79.537784      669.82768    
   1209000   307.9328       0.040035964    20.154919      763.98977     -87.798483      676.19129    
   1210000   284.5539       0.040035964    7.1805032      705.98606     -79.647483      626.33858    
   1211000   299.81611      0.040035964    6.8094681      743.85203     -77.167109      666.68492    
   1212000   301.25685      0.040035964    20.022477      747.42655     -79.7495        667.67705    
   1213000   293.29944      0.040035964    26.598682      727.68401     -78.242898      649.44111    
   1214000   293.84688      0.040035964    13.384556      729.04221     -80.992185      648.05002    
   1215000   295.51431      0.040035964    19.451915      733.17915     -83.083685      650.09546    
   1216000   291.22279      0.040035964    21.236045      722.53176     -80.51062       642.02114    
   1217000   298.50892      0.040035964    20.531209      740.60886     -85.50078       655.10807    
   1218000   306.54057      0.040035964    19.270223      760.53561     -82.102665      678.43294    
   1219000   302.43676      0.040035964    24.383609      750.35394     -79.848273      670.50567    
   1220000   295.53575      0.040035964    3.7707957      733.23234     -78.965123      654.26721    
   1221000   288.48848      0.040035964    11.289115      715.74786     -83.210297      632.53757    
   1222000   300.27556      0.040035964    1.4864097      744.99193     -81.99895       662.99298    
   1223000   315.16671      0.040035964    29.446762      781.93729     -76.662313      705.27497    
   1224000   293.65039      0.040035964    25.033118      728.55471     -76.048283      652.50643    
   1225000   285.73196      0.040035964    15.365439      708.90888     -72.248158      636.66072    
   1226000   299.68637      0.040035964    12.039579      743.53014     -70.782989      672.74715    
   1227000   314.38929      0.040035964    29.690974      780.00849     -74.084665      705.92382    
   1228000   294.55725      0.040035964    25.837216      730.80467     -80.700345      650.10432    
   1229000   287.49361      0.040035964   -20.304408      713.27958     -74.62468       638.6549     
   1230000   316.8101       0.040035964    27.856123      786.01459     -72.03855       713.97604    
   1231000   288.61         0.040035964    37.122295      716.04936     -77.518188      638.53117    
   1232000   294.8296       0.040035964   -0.069945505    731.48037     -77.060388      654.41998    
   1233000   302.65072      0.040035964    7.0365983      750.88478     -78.168079      672.7167     
   1234000   309.50819      0.040035964    26.890548      767.89836     -82.290052      685.6083     
   1235000   288.97218      0.040035964    30.340193      716.94795     -79.913128      637.03482    
   1236000   283.75839      0.040035964    8.5912342      704.01239     -73.602687      630.4097     
   1237000   293.29757      0.040035964   -5.7236169      727.67936     -67.433189      660.24617    
   1238000   301.86022      0.040035964    39.535672      748.92353     -67.616731      681.3068     
   1239000   301.309        0.040035964    16.07638       747.55594     -76.875744      670.6802     
   1240000   305.62954      0.040035964    3.680777       758.27532     -75.326724      682.9486     
   1241000   300.60822      0.040035964    13.370551      745.81727     -75.967099      669.85017    
   1242000   303.50295      0.040035964    26.442077      752.99918     -77.958781      675.0404     
   1243000   302.0206       0.040035964    20.399676      749.32144     -80.501124      668.82032    
   1244000   306.88634      0.040035964    11.206366      761.39347     -80.437336      680.95613    
   1245000   302.09307      0.040035964    17.783387      749.50123     -82.763776      666.73745    
   1246000   298.6519       0.040035964    21.36982       740.9636      -77.660718      663.30288    
   1247000   288.82405      0.040035964    19.747827      716.58043     -85.445981      631.13445    
   1248000   307.09081      0.040035964    22.717517      761.90078     -76.407998      685.49278    
   1249000   317.24139      0.040035964    23.372215      787.08463     -77.420151      709.66448    
   1250000   310.09224      0.040035964    26.370752      769.3474      -68.064375      701.28302    
   1251000   291.58423      0.040035964    22.161439      723.42852     -65.856701      657.57182    
   1252000   294.09873      0.040035964    10.253327      729.66705     -66.844105      662.82294    
   1253000   306.55966      0.040035964    20.551411      760.58297     -70.899241      689.68372    
   1254000   300.22044      0.040035964    23.572794      744.85518     -73.810657      671.04453    
   1255000   292.29864      0.040035964    17.84114       725.20098     -76.348731      648.85225    
   1256000   300.35298      0.040035964    20.374021      745.18403     -72.084511      673.09952    
   1257000   308.3933       0.040035964    21.778136      765.13228     -70.431615      694.70067    
   1258000   284.86203      0.040035964    15.882538      706.75056     -68.561242      638.18931    
   1259000   292.08423      0.040035964    16.531499      724.66903     -75.508539      649.16049    
   1260000   303.40524      0.040035964    25.393565      752.75675     -73.199465      679.55729    
   1261000   303.4835       0.040035964    21.729799      752.95093     -71.683283      681.26765    
   1262000   312.89602      0.040035964    20.160397      776.30365     -64.81251       711.49114    
   1263000   290.19933      0.040035964    16.42712       719.99254     -65.481649      654.51089    
   1264000   303.33232      0.040035964    22.606156      752.57584     -67.768183      684.80766    
   1265000   313.37644      0.040035964    22.057811      777.49558     -69.953566      707.54202    
   1266000   307.35479      0.040035964    21.720006      762.55571     -68.84154       693.71417    
   1267000   290.4089       0.040035964    18.377345      720.51249     -71.515112      648.99738    
   1268000   293.14158      0.040035964    26.934628      727.29235     -64.031801      663.26055    
   1269000   306.31318      0.040035964    18.682184      759.97144     -70.565         689.40644    
   1270000   314.51615      0.040035964    23.245955      780.32323     -69.674863      710.64836    
   1271000   304.81129      0.040035964    21.105254      756.2452      -70.197017      686.04819    
   1272000   304.5656       0.040035964    27.30343       755.63565     -79.731566      675.90408    
   1273000   300.54769      0.040035964    23.782982      745.6671      -78.955247      666.71185    
   1274000   324.45945      0.040035964    22.540619      804.99285     -84.818674      720.17417    
   1275000   281.27227      0.040035964    12.971632      697.84425     -78.948923      618.89532    
   1276000   294.23221      0.040035964    19.309292      729.99821     -73.669088      656.32913    
   1277000   306.74627      0.040035964    20.421847      761.04595     -76.806111      684.23984    
   1278000   307.47724      0.040035964    19.276549      762.8595      -77.094521      685.76498    
   1279000   300.93574      0.040035964    20.992298      746.62986     -77.010697      669.61916    
   1280000   307.47394      0.040035964    22.317268      762.85132     -73.714391      689.13692    
   1281000   294.87575      0.040035964    20.511302      731.59487     -75.626827      655.96804    
   1282000   290.24974      0.040035964    16.407966      720.11762     -78.22286       641.89476    
   1283000   293.01432      0.040035964    22.881018      726.9766      -72.994177      653.98242    
   1284000   301.56887      0.040035964    28.519679      748.20069     -73.426903      674.77379    
   1285000   316.379        0.040035964    3.9061914      784.94502     -79.380964      705.56406    
   1286000   297.38209      0.040035964    23.53659       737.81317     -72.845608      664.96756    
   1287000   295.14856      0.040035964    34.166855      732.27172     -73.407584      658.86414    
   1288000   319.35602      0.040035964    17.769257      792.3311      -69.915453      722.41565    
   1289000   306.97133      0.040035964    19.776303      761.60434     -64.497838      697.1065     
   1290000   289.35221      0.040035964    21.118654      717.89082     -59.95887       657.93195    
   1291000   299.8403       0.040035964    20.808986      743.91204     -67.614706      676.29734    
   1292000   302.87099      0.040035964    26.69354       751.43128     -67.727114      683.70417    
   1293000   295.05597      0.040035964    21.25878       732.04199     -69.336507      662.70549    
   1294000   293.34672      0.040035964    19.761231      727.80131     -72.911576      654.88973    
   1295000   281.75536      0.040035964    11.636081      699.04281     -77.089215      621.95359    
   1296000   317.91815      0.040035964    22.443871      788.76368     -77.401229      711.36245    
   1297000   304.23163      0.040035964    18.628532      754.80706     -76.551319      678.25574    
   1298000   297.69995      0.040035964    19.72333       738.60177     -70.356213      668.24556    
   1299000   305.48662      0.040035964    16.019272      757.92073     -63.814092      694.10664    
   1300000   311.99802      0.040035964    23.744704      774.0757      -61.428796      712.6469     
   1301000   298.13039      0.040035964    19.348875      739.66972     -56.708752      682.96097    
   1302000   303.31718      0.040035964    9.836997       752.53828     -63.57797       688.96031    
   1303000   302.26182      0.040035964    28.134103      749.91992     -65.108019      684.8119     
   1304000   293.00149      0.040035964    21.582538      726.94477     -56.034198      670.91057    
   1305000   305.97362      0.040035964    0.73827758     759.12899     -62.518467      696.61053    
   1306000   312.62243      0.040035964    23.038494      775.62487     -68.127887      707.49698    
   1307000   295.9548       0.040035964    24.999993      734.27203     -67.631572      666.64045    
   1308000   287.23671      0.040035964    11.667686      712.64221     -66.017281      646.62493    
   1309000   303.33008      0.040035964    19.142891      752.57029     -59.314414      693.25588    
   1310000   304.33754      0.040035964    27.536168      755.06982     -64.427901      690.64192    
   1311000   299.1464       0.040035964    19.411305      742.19048     -64.933375      677.2571     
   1312000   291.62109      0.040035964    18.678274      723.51997     -66.57176       656.94821    
   1313000   296.83868      0.040035964    19.799238      736.46495     -63.703143      672.76181    
   1314000   305.30918      0.040035964    19.328108      757.4805      -62.038823      695.44168    
   1315000   303.69238      0.040035964    19.21598       753.46916     -60.104186      693.36497    
   1316000   301.93078      0.040035964    20.863836      749.09859     -58.572272      690.52632    
   1317000   307.51905      0.040035964    21.661862      762.96325     -59.279089      703.68416    
   1318000   287.52295      0.040035964    20.674491      713.35236     -54.693917      658.65845    
   1319000   300.42284      0.040035964    28.482874      745.35734     -60.186072      685.17127    
   1320000   310.8312       0.040035964    28.0467        771.18078     -57.478584      713.7022     
   1321000   302.99492      0.040035964    16.648738      751.73874     -65.28759       686.45115    
   1322000   286.65375      0.040035964    19.8648        711.19586     -67.388411      643.80744    
   1323000   298.71206      0.040035964    20.100831      741.11286     -64.861687      676.25118    
   1324000   310.05389      0.040035964    21.738962      769.25225     -62.372817      706.87943    
   1325000   297.80858      0.040035964    17.054074      738.8713      -67.455552      671.41575    
   1326000   287.37477      0.040035964    20.019061      712.98473     -63.972073      649.01266    
   1327000   302.23064      0.040035964    21.742306      749.84255     -63.974295      685.86826    
   1328000   298.82361      0.040035964    17.656443      741.38962     -65.029557      676.36007    
   1329000   310.55086      0.040035964    23.482805      770.48524     -58.664986      711.82025    
   1330000   291.75716      0.040035964    19.227684      723.85755     -63.631207      660.22635    
   1331000   297.05581      0.040035964    18.27389       737.00365     -59.573916      677.42973    
   1332000   300.26965      0.040035964    20.470235      744.97728     -71.461023      673.51625    
   1333000   295.74414      0.040035964    22.781772      733.74936     -61.564619      672.18474    
   1334000   299.35732      0.040035964    22.568996      742.71375     -66.983343      675.73041    
   1335000   292.67962      0.040035964    15.35793       726.14622     -72.645432      653.50078    
   1336000   298.96846      0.040035964    17.752658      741.74899     -73.55387       668.19512    
   1337000   293.95177      0.040035964    21.66521       729.30244     -73.821273      655.48116    
   1338000   297.18432      0.040035964    21.794775      737.32248     -67.673445      669.64904    
   1339000   307.58704      0.040035964    18.3039        763.13192     -72.345227      690.7867     
   1340000   293.20748      0.040035964    15.901017      727.45583     -67.990494      659.46534    
   1341000   296.06015      0.040035964    23.332288      734.53339     -66.337979      668.19541    
   1342000   305.91269      0.040035964    10.474979      758.97781     -70.49283       688.48498    
   1343000   295.55532      0.040035964    18.080132      733.28089     -66.057699      667.22319    
   1344000   299.94287      0.040035964    23.578848      744.16653     -63.608409      680.55812    
   1345000   300.41867      0.040035964    16.658997      745.34701     -71.291562      674.05545    
   1346000   298.68878      0.040035964    14.152158      741.05509     -64.086982      676.96811    
   1347000   292.14884      0.040035964    18.103204      724.82932     -66.060633      658.76869    
   1348000   290.75097      0.040035964    19.580651      721.36117     -68.789872      652.5713     
   1349000   308.47243      0.040035964    32.231037      765.32861     -73.822792      691.50582    
   1350000   305.20017      0.040035964    22.589448      757.21003     -67.258094      689.95194    
   1351000   299.24923      0.040035964    15.460812      742.4456      -69.000752      673.44485    
   1352000   296.457        0.040035964    14.349313      735.51798     -70.279033      665.23895    
   1353000   294.3051       0.040035964    19.205184      730.17906     -64.396516      665.78255    
   1354000   293.48375      0.040035964    20.033755      728.14126     -69.697987      658.44328    
   1355000   291.20562      0.040035964    22.277871      722.48918     -67.055737      655.43344    
   1356000   294.40408      0.040035964    5.1907405      730.42464     -66.839515      663.58513    
   1357000   294.86524      0.040035964    17.696867      731.56879     -70.093767      661.47503    
   1358000   298.07672      0.040035964    39.595209      739.53656     -63.093866      676.44269    
   1359000   318.88747      0.040035964    14.27163       791.16861     -70.160138      721.00847    
   1360000   288.95534      0.040035964    17.954263      716.90618     -75.140707      641.76547    
   1361000   308.62696      0.040035964    39.004322      765.71198     -77.032075      688.67991    
   1362000   302.0454       0.040035964    0.87869185     749.38295     -70.769098      678.61386    
   1363000   296.09422      0.040035964    41.240066      734.61793     -65.145924      669.47201    
   1364000   296.7446       0.040035964    38.498963      736.23154     -65.689763      670.54177    
   1365000   307.09784      0.040035964    14.029268      761.91821     -69.205832      692.71237    
   1366000   295.63239      0.040035964    11.558349      733.47211     -64.08602       669.38609    
   1367000   289.98279      0.040035964    20.94488       719.45529     -68.242602      651.21269    
   1368000   298.91692      0.040035964    22.918924      741.62111     -71.920176      669.70094    
   1369000   313.0427       0.040035964    15.261848      776.66757     -66.760909      709.90666    
   1370000   293.86806      0.040035964    20.654092      729.09475     -66.01247       663.08228    
   1371000   296.14031      0.040035964    22.066388      734.73228     -64.018918      670.71336    
   1372000   310.60737      0.040035964    15.773331      770.62546     -67.856443      702.76902    
   1373000   297.07399      0.040035964    23.59702       737.04875     -67.722721      669.32603    
   1374000   304.99102      0.040035964    27.175506      756.69114     -66.747246      689.94389    
   1375000   298.77171      0.040035964    20.043521      741.26085     -66.73509       674.52576    
   1376000   286.04152      0.040035964    17.275297      709.6769      -73.958783      635.71812    
   1377000   297.91921      0.040035964    15.211124      739.14576     -72.320422      666.82534    
   1378000   311.38042      0.040035964    20.537218      772.54341     -68.798521      703.74489    
   1379000   292.56383      0.040035964    21.460735      725.85894     -78.837516      647.02142    
   1380000   297.953        0.040035964    19.51152       739.22962     -74.26354       664.96608    
   1381000   298.75163      0.040035964    21.565797      741.21104     -70.596475      670.61456    
   1382000   312.14682      0.040035964    26.849071      774.44488     -59.751468      714.69341    
   1383000   300.95822      0.040035964    17.549038      746.68564     -62.176418      684.50922    
   1384000   296.07156      0.040035964    16.818737      734.56171     -65.631152      668.93056    
   1385000   295.80657      0.040035964    22.811149      733.90425     -65.161381      668.74287    
   1386000   306.63297      0.040035964    24.53528       760.76485     -66.594855      694.16999    
   1387000   303.45922      0.040035964    18.36739       752.89068     -68.201098      684.68958    
   1388000   309.59083      0.040035964    21.26823       768.10339     -65.152274      702.95111    
   1389000   304.53798      0.040035964    18.761908      755.56712     -68.131846      687.43528    
   1390000   285.51849      0.040035964    18.167789      708.37924     -60.374127      648.00511    
   1391000   291.75355      0.040035964    22.359055      723.84861     -62.010193      661.83842    
   1392000   328.21323      0.040035964    31.292766      814.30606     -63.110415      751.19565    
   1393000   303.27983      0.040035964    17.919257      752.44561     -60.382357      692.06325    
   1394000   278.95507      0.040035964    20.625643      692.09522     -63.991066      628.10415    
   1395000   299.99182      0.040035964    29.923255      744.28797     -66.778088      677.50988    
   1396000   313.06931      0.040035964    20.982429      776.7336      -70.898666      705.83493    
   1397000   303.88774      0.040035964    20.230963      753.95386     -70.321166      683.63269    
   1398000   288.24218      0.040035964    17.240617      715.1368      -57.954303      657.1825     
   1399000   305.00769      0.040035964    20.492372      756.73248     -58.493271      698.23921    
   1400000   300.51806      0.040035964    23.151524      745.59359     -64.826291      680.7673     
   1401000   299.93454      0.040035964    15.08875       744.14587     -63.279633      680.86624    
   1402000   295.53336      0.040035964    17.435775      733.2264      -65.366985      667.85942    
   1403000   306.24051      0.040035964    20.068431      759.79113     -65.299014      694.49212    
   1404000   278.10667      0.040035964    18.804431      689.99031     -62.754793      627.23552    
   1405000   298.35381      0.040035964    21.35965       740.22402     -63.148062      677.07596    
   1406000   320.34686      0.040035964    19.548258      794.78938     -60.547478      734.2419     
   1407000   299.62371      0.040035964    12.31297       743.37469     -68.00836       675.36633    
   1408000   292.77476      0.040035964    17.261248      726.38225     -62.873812      663.50844    
   1409000   303.82742      0.040035964    22.212467      753.80421     -62.687809      691.1164     
   1410000   300.69385      0.040035964    29.811793      746.02972     -56.678241      689.35148    
   1411000   303.62504      0.040035964    7.7170392      753.3021      -64.434722      688.86738    
   1412000   296.09305      0.040035964    14.281158      734.61502     -57.659149      676.95587    
   1413000   300.28743      0.040035964    36.161378      745.0214      -59.740536      685.28086    
   1414000   304.49953      0.040035964    8.1983191      755.47172     -66.457563      689.01416    
   1415000   307.22531      0.040035964    14.239859      762.23447     -69.332092      692.90238    
   1416000   300.06742      0.040035964    33.475949      744.47554     -68.548947      675.9266     
   1417000   309.90654      0.040035964    24.789725      768.88668     -71.632249      697.25443    
   1418000   293.61829      0.040035964    14.351902      728.47508     -62.679378      665.7957     
   1419000   296.50968      0.040035964    4.4026325      735.64868     -66.897374      668.75131    
   1420000   301.15937      0.040035964    29.255314      747.18469     -69.331867      677.85282    
   1421000   302.43151      0.040035964    31.785615      750.34092     -72.528214      677.81271    
   1422000   301.43463      0.040035964    5.6648453      747.86762     -63.906377      683.96124    
   1423000   301.08796      0.040035964    22.320517      747.00754     -67.819179      679.18836    
   1424000   296.28839      0.040035964    40.399126      735.09966     -61.212343      673.88732    
   1425000   295.48229      0.040035964    16.205452      733.0997      -66.201496      666.89821    
   1426000   298.07156      0.040035964    19.076392      739.52375     -67.308335      672.21542    
   1427000   305.89752      0.040035964    45.720549      758.94017     -64.723885      694.21628    
   1428000   299.25339      0.040035964    26.984578      742.4559      -63.326533      679.12936    
   1429000   306.33756      0.040035964    26.279584      760.03193     -63.204477      696.82746    
   1430000   293.4357       0.040035964    8.2786771      728.02207     -66.17951       661.84256    
   1431000   291.04066      0.040035964    19.176916      722.07991     -68.096281      653.98363    
   1432000   307.206        0.040035964    23.80024       762.18654     -72.768574      689.41797    
   1433000   310.15299      0.040035964    12.363176      769.49812     -63.617401      705.88072    
   1434000   293.74516      0.040035964    15.66771       728.78983     -70.724913      658.06491    
   1435000   296.10417      0.040035964    22.551261      734.6426      -67.51378       667.12882    
   1436000   299.20761      0.040035964    19.579459      742.34234     -67.006401      675.33594    
   1437000   305.07124      0.040035964    18.46156       756.89015     -69.410057      687.48009    
   1438000   309.60766      0.040035964    24.459704      768.14513     -65.754441      702.39069    
   1439000   283.67253      0.040035964    23.847538      703.79936     -71.004687      632.79467    
   1440000   300.93827      0.040035964    18.838502      746.63615     -60.949076      685.68708    
   1441000   310.52231      0.040035964    20.509786      770.4144      -64.679025      705.73538    
   1442000   289.74075      0.040035964    28.527117      718.85479     -64.945068      653.90972    
   1443000   290.06708      0.040035964    18.979241      719.66441     -62.005041      657.65937    
   1444000   311.80857      0.040035964    12.213521      773.60567     -60.532447      713.07322    
   1445000   306.04182      0.040035964    30.70526       759.2982      -63.787193      695.51101    
   1446000   284.59668      0.040035964    24.75983       706.09221     -67.997985      638.09422    
   1447000   302.84886      0.040035964    2.8632358      751.37636     -62.624189      688.75218    
   1448000   318.20291      0.040035964    16.130467      789.4702      -55.616148      733.85405    
   1449000   291.91801      0.040035964    27.036686      724.25663     -60.676321      663.58031    
   1450000   299.48298      0.040035964    24.931389      743.02552     -65.540135      677.48539    
   1451000   296.53819      0.040035964    3.7524384      735.71942     -60.383553      675.33586    
   1452000   295.9747       0.040035964   -3.2256323      734.3214      -58.927657      675.39374    
   1453000   302.01562      0.040035964    38.894106      749.30908     -56.267244      693.04184    
   1454000   301.54369      0.040035964    60.980291      748.13822     -58.348823      689.78939    
   1455000   297.97532      0.040035964    25.608167      739.28498     -59.93496       679.35002    
   1456000   290.47449      0.040035964   -8.7926507      720.67522     -66.321942      654.35328    
   1457000   310.24765      0.040035964    5.8198855      769.73297     -62.78684       706.94613    
   1458000   302.74986      0.040035964    31.646865      751.13074     -63.611663      687.51908    
   1459000   295.06059      0.040035964    19.408042      732.05345     -65.017989      667.03546    
   1460000   285.77152      0.040035964    13.625017      709.00701     -61.118597      647.88841    
   1461000   293.18707      0.040035964    17.430918      727.40521     -57.847155      669.55805    
   1462000   307.6892       0.040035964    18.257281      763.38538     -65.645269      697.74011    
   1463000   310.76264      0.040035964    36.114537      771.01068     -60.570522      710.44016    
   1464000   286.24356      0.040035964    26.199212      710.17816     -60.709716      649.46844    
   1465000   298.11363      0.040035964    16.938431      739.62813     -57.859351      681.76878    
   1466000   294.78418      0.040035964   -1.5435245      731.36768     -59.990116      671.37757    
   1467000   313.5854       0.040035964    44.188014      778.01401     -52.925545      725.08846    
   1468000   285.82133      0.040035964    49.550978      709.13059     -52.910068      656.22053    
   1469000   303.31558      0.040035964   -2.1847438      752.53432     -50.178648      702.35568    
   1470000   307.42549      0.040035964    21.693821      762.73112     -58.426966      704.30415    
   1471000   302.27514      0.040035964    24.096226      749.95296     -63.092877      686.86008    
   1472000   306.63299      0.040035964    17.190895      760.7649      -63.175919      697.58898    
   1473000   292.30975      0.040035964    15.361386      725.22855     -65.221868      660.00668    
   1474000   302.95113      0.040035964    17.271366      751.63011     -70.136034      681.49408    
   1475000   302.60981      0.040035964    24.414321      750.78328     -64.871825      685.91145    
   1476000   288.0725       0.040035964    24.315269      714.71582     -62.653624      652.0622     
   1477000   290.47087      0.040035964    11.777893      720.66625     -67.0517        653.61455    
   1478000   306.60527      0.040035964    16.98915       760.69613     -66.086621      694.60951    
   1479000   319.68249      0.040035964    24.07327       793.14106     -71.043666      722.09739    
   1480000   293.46218      0.040035964    20.409136      728.08775     -64.259341      663.82841    
   1481000   283.73568      0.040035964    18.495995      703.95605     -73.604127      630.35192    
   1482000   312.48044      0.040035964    23.73532       775.27259     -69.189133      706.08345    
   1483000   292.97858      0.040035964    19.375812      726.88795     -71.121082      655.76686    
   1484000   306.18412      0.040035964    19.090788      759.65125     -73.372911      686.27834    
   1485000   304.31007      0.040035964    27.132714      755.00166     -73.306662      681.695      
   1486000   291.83636      0.040035964    41.52572       724.05406     -70.227013      653.82705    
   1487000   300.56091      0.040035964    12.818993      745.6999      -73.833868      671.86603    
   1488000   300.98891      0.040035964    11.332754      746.76178     -74.16833       672.59344    
   1489000   306.59378      0.040035964    36.670592      760.66763     -72.408322      688.25931    
   1490000   305.90795      0.040035964    47.041921      758.96605     -68.296101      690.66995    
   1491000   309.85992      0.040035964    22.918368      768.77101     -67.423569      701.34744    
   1492000   298.26081      0.040035964    5.8509881      739.9933      -71.691673      668.30163    
   1493000   298.33015      0.040035964    24.044672      740.16532     -68.680021      671.4853     
   1494000   298.69113      0.040035964    37.608588      741.06094     -67.132182      673.92876    
   1495000   303.01044      0.040035964    15.880781      751.77726     -67.940459      683.8368     
   1496000   301.97452      0.040035964    19.463963      749.2071      -69.102947      680.10415    
   1497000   298.04433      0.040035964    21.126271      739.45621     -64.195118      675.26109    
   1498000   290.4986       0.040035964    19.760638      720.73503     -64.858093      655.87694    
   1499000   302.12008      0.040035964    17.839152      749.56825     -70.909115      678.65914    
   1500000   295.34013      0.040035964    19.196063      732.74702     -66.033883      666.71313    
   1501000   296.97158      0.040035964    20.471517      736.79468     -69.038399      667.75629    
   1502000   317.71334      0.040035964    23.072626      788.25556     -68.239222      720.01634    
   1503000   298.1414       0.040035964    9.704967       739.69704     -66.619493      673.07755    
   1504000   298.1324       0.040035964    5.5435765      739.6747      -66.77617       672.89853    
   1505000   298.32723      0.040035964    13.707035      740.15809     -60.579164      679.57893    
   1506000   293.92036      0.040035964    15.145969      729.22451     -72.913758      656.31075    
   1507000   290.74354      0.040035964    23.963583      721.34275     -66.666366      654.67638    
   1508000   298.92588      0.040035964    17.350508      741.64336     -68.034634      673.60872    
   1509000   291.62752      0.040035964    19.932798      723.53592     -62.185267      661.35065    
   1510000   306.53279      0.040035964    21.486772      760.51629     -60.248545      700.26774    
   1511000   298.74959      0.040035964    21.885718      741.20597     -58.955054      682.25091    
   1512000   297.36485      0.040035964    13.86075       737.7704      -70.409234      667.36117    
   1513000   294.83623      0.040035964    23.830136      731.49682     -57.137583      674.35924    
   1514000   309.84189      0.040035964    24.463567      768.72627     -62.580523      706.14575    
   1515000   306.42927      0.040035964    20.947297      760.25946     -63.390765      696.86869    
   1516000   296.13568      0.040035964    15.68469       734.72078     -56.164218      678.55656    
   1517000   297.17854      0.040035964    22.489857      737.30815     -62.219869      675.08829    
   1518000   320.64869      0.040035964    23.193979      795.53823     -61.234797      734.30343    
   1519000   300.08565      0.040035964    17.934092      744.52078     -65.634981      678.8858     
   1520000   286.6145       0.040035964    23.663195      711.09847     -76.368406      634.73006    
   1521000   315.55261      0.040035964    26.785172      782.89473     -68.04787       714.84686    
   1522000   301.77688      0.040035964    12.687692      748.71675     -64.133013      684.58374    
   1523000   283.23376      0.040035964    30.04767       702.71075     -66.165081      636.54567    
   1524000   300.23158      0.040035964    50.202834      744.88282     -67.261572      677.62125    
   1525000   312.47184      0.040035964    27.081256      775.25125     -65.404949      709.84631    
   1526000   299.49277      0.040035964    8.0182538      743.04981     -58.953621      684.09618    
   1527000   284.68456      0.040035964    25.741449      706.31024     -55.234962      651.07528    
   1528000   302.33293      0.040035964    28.487036      750.09633     -72.252188      677.84414    
   1529000   315.96416      0.040035964   -0.52115846     783.91578     -62.690422      721.22536    
   1530000   291.41605      0.040035964    18.151363      723.01125     -67.084545      655.92671    
   1531000   297.95778      0.040035964    33.906431      739.24148     -65.796318      673.44516    
   1532000   304.38533      0.040035964    18.702383      755.18838     -67.703201      687.48518    
   1533000   307.85756      0.040035964    20.870931      763.80308     -65.751808      698.05128    
   1534000   298.6618       0.040035964    8.23543        740.98816     -67.359023      673.62913    
   1535000   296.88754      0.040035964    18.186761      736.58617     -58.877688      677.70848    
   1536000   299.64262      0.040035964    22.910324      743.4216      -61.372389      682.04921    
   1537000   295.98893      0.040035964    21.290422      734.3567      -67.116077      667.24062    
   1538000   300.46641      0.040035964    14.27616       745.46544     -61.855818      683.60962    
   1539000   302.71078      0.040035964    22.947835      751.03378     -57.237608      693.79617    
   1540000   314.91079      0.040035964    23.356831      781.30236     -54.199662      727.1027     
   1541000   302.0815       0.040035964    15.62829       749.47252     -59.07813       690.39439    
   1542000   287.9795       0.040035964    17.627637      714.48509     -56.98047       657.50462    
   1543000   295.29515      0.040035964    12.271285      732.63542     -56.978764      675.65665    
   1544000   310.18849      0.040035964    23.840964      769.58619     -58.669267      710.91693    
   1545000   304.55073      0.040035964    21.198159      755.59876     -60.953612      694.64515    
   1546000   302.73925      0.040035964    22.909166      751.10443     -59.095917      692.00851    
   1547000   309.69423      0.040035964    21.242875      768.35993     -54.617414      713.74252    
   1548000   292.77272      0.040035964    23.270358      726.37719     -56.235047      670.14214    
   1549000   296.6867       0.040035964    21.514507      736.08788     -52.89768       683.1902     
   1550000   300.36322      0.040035964    25.761368      745.20942     -55.79462       689.4148     
   1551000   317.52752      0.040035964    26.6523        787.79453     -57.044195      730.75033    
   1552000   302.44264      0.040035964    19.358377      750.36854     -61.510448      688.85809    
   1553000   303.97053      0.040035964    9.979283       754.15927     -67.072265      687.08701    
   1554000   304.138        0.040035964    19.708185      754.57476     -65.227645      689.34712    
   1555000   295.59593      0.040035964    30.606628      733.38166     -64.623033      668.75862    
   1556000   289.64295      0.040035964    19.883526      718.61213     -67.726096      650.88604    
   1557000   305.29657      0.040035964    14.607285      757.4492      -66.731646      690.71756    
   1558000   302.49899      0.040035964    14.402418      750.50833     -63.314499      687.19384    
   1559000   297.55024      0.040035964    28.536143      738.23035     -60.49617       677.73418    
   1560000   309.32895      0.040035964    20.238259      767.45366     -60.893211      706.56045    
   1561000   306.70151      0.040035964    16.823543      760.93491     -65.492994      695.44192    
   1562000   302.67825      0.040035964    21.213682      750.95308     -60.779946      690.17314    
   1563000   304.80951      0.040035964    21.946499      756.2408      -59.969459      696.27135    
   1564000   298.88596      0.040035964    20.125532      741.54432     -56.763088      684.78123    
   1565000   300.85174      0.040035964    9.226199       746.42146     -61.605739      684.81573    
   1566000   308.99664      0.040035964    26.961984      766.62918     -64.146156      702.48302    
   1567000   303.28718      0.040035964   -2.8678552      752.46385     -68.813148      683.6507     
   1568000   295.3755       0.040035964    16.952207      732.83475     -56.935024      675.89973    
   1569000   305.88829      0.040035964    33.353047      758.91727     -56.161615      702.75566    
   1570000   317.93526      0.040035964    21.101247      788.80615     -58.863823      729.94233    
   1571000   295.00005      0.040035964    14.024893      731.90325     -62.152274      669.75098    
   1572000   287.08926      0.040035964    19.421311      712.27637     -65.933312      646.34306    
   1573000   311.86008      0.040035964    26.907949      773.73346     -65.036048      708.69741    
   1574000   295.71045      0.040035964    21.719236      733.66578     -67.813712      665.85207    
   1575000   312.17445      0.040035964    11.200906      774.51341     -66.782462      707.73095    
   1576000   302.27205      0.040035964    10.335465      749.94528     -57.580716      692.36457    
   1577000   290.72485      0.040035964    17.086391      721.29637     -63.72383       657.57254    
   1578000   289.22708      0.040035964    16.033825      717.58036     -60.702937      656.87742    
   1579000   304.12086      0.040035964    21.97233       754.53223     -63.080944      691.45129    
   1580000   318.32703      0.040035964    21.091341      789.77815     -64.811826      724.96632    
   1581000   301.10105      0.040035964    21.581073      747.03999     -63.579929      683.46007    
   1582000   284.28168      0.040035964    21.897596      705.31068     -54.290464      651.02021    
   1583000   303.2376       0.040035964    24.246701      752.34083     -62.371941      689.96889    
   1584000   311.27476      0.040035964    20.571002      772.28127     -62.623388      709.65788    
   1585000   289.70215      0.040035964    19.920095      718.75902     -60.989462      657.76956    
   1586000   301.41757      0.040035964    30.123566      747.8253      -55.707522      692.11778    
   1587000   308.06783      0.040035964    14.29178       764.32479     -54.683828      709.64096    
   1588000   308.93259      0.040035964    17.33595       766.47027     -59.364544      707.10572    
   1589000   284.68937      0.040035964    18.305107      706.32217     -55.607297      650.71488    
   1590000   305.97398      0.040035964    21.890139      759.12987     -62.178123      696.95174    
   1591000   311.47773      0.040035964    17.88446       772.78483     -54.604142      718.18069    
   1592000   291.43475      0.040035964    11.722348      723.05764     -60.152612      662.90503    
   1593000   289.67666      0.040035964    20.404621      718.69577     -56.981105      661.71467    
   1594000   294.58975      0.040035964    18.914794      730.88528     -64.993293      665.89199    
   1595000   300.5928       0.040035964    23.126567      745.77902     -65.75813       680.02089    
   1596000   285.69469      0.040035964    19.667922      708.81641     -66.715643      642.10077    
   1597000   311.69604      0.040035964    23.226916      773.32646     -63.229606      710.09686    
   1598000   310.8992       0.040035964    17.113321      771.34948     -60.938386      710.41109    
   1599000   294.04788      0.040035964    23.722319      729.5409      -55.661289      673.87961    
   1600000   305.0309       0.040035964    22.587069      756.79007     -60.08837       696.7017     
   1601000   307.23541      0.040035964    26.943434      762.25951     -58.940827      703.31868    
   1602000   295.27399      0.040035964    17.293521      732.58292     -60.929587      671.65333    
   1603000   295.27113      0.040035964    25.186521      732.57581     -67.070018      665.5058     
   1604000   295.32052      0.040035964    21.609997      732.69834     -66.481227      666.21711    
   1605000   298.60207      0.040035964    13.525568      740.83997     -60.143899      680.69608    
   1606000   293.06439      0.040035964    17.673762      727.10083     -67.32372       659.77711    
   1607000   299.66428      0.040035964    31.965865      743.47533     -60.927844      682.54749    
   1608000   307.38311      0.040035964    15.055456      762.62598     -61.791172      700.8348     
   1609000   303.78438      0.040035964    21.37249       753.69743     -53.93335       699.76408    
   1610000   305.10459      0.040035964    25.901046      756.97289     -65.436087      691.5368     
   1611000   297.98007      0.040035964    21.122192      739.29676     -65.881617      673.41514    
   1612000   305.02383      0.040035964    23.026575      756.77253     -67.90198       688.87055    
   1613000   304.091        0.040035964    22.015597      754.45814     -70.959248      683.4989     
   1614000   292.98801      0.040035964    14.070331      726.91133     -62.861037      664.05029    
   1615000   292.43568      0.040035964    25.643066      725.54099     -60.654487      664.8865     
   1616000   309.57441      0.040035964    21.283988      768.06264     -63.332555      704.73008    
   1617000   297.82599      0.040035964    20.470295      738.91449     -58.64028       680.27421    
   1618000   292.59655      0.040035964    19.256479      725.9401      -67.729621      658.21048    
   1619000   297.86304      0.040035964    20.55794       739.00641     -59.86157       679.14484    
   1620000   303.55257      0.040035964    20.217333      753.12229     -61.856875      691.26542    
   1621000   299.91971      0.040035964    26.048384      744.10906     -69.026504      675.08256    
   1622000   292.44671      0.040035964    10.040165      725.56835     -71.79547       653.77288    
   1623000   306.683        0.040035964    10.68269       760.88898     -62.328856      698.56013    
   1624000   302.68731      0.040035964    17.601901      750.97555     -60.271936      690.70362    
   1625000   297.91875      0.040035964    20.298034      739.14463     -65.592801      673.55183    
   1626000   299.07649      0.040035964    24.217877      742.01703     -59.003082      683.01395    
   1627000   300.48789      0.040035964    24.728629      745.51875     -58.544565      686.97418    
   1628000   282.0442       0.040035964    18.406293      699.75943     -69.577562      630.18187    
   1629000   306.96178      0.040035964    22.930877      761.58064     -69.630774      691.94987    
   1630000   299.67535      0.040035964    16.084891      743.5028      -67.911407      675.59139    
   1631000   289.54329      0.040035964    21.427007      718.3649      -62.725998      655.6389     
   1632000   311.43062      0.040035964    28.376894      772.66796     -59.643906      713.02406    
   1633000   314.64089      0.040035964    19.560811      780.63273     -57.894025      722.73871    
   1634000   296.51913      0.040035964    19.903223      735.67215     -53.760759      681.91139    
   1635000   291.96844      0.040035964    24.863561      724.38174     -57.916904      666.46484    
   1636000   311.28486      0.040035964    27.629747      772.30631     -60.413406      711.89291    
   1637000   302.59332      0.040035964    20.754348      750.74237     -55.440451      695.30192    
   1638000   291.74999      0.040035964    11.7198        723.83976     -60.967444      662.87231    
   1639000   291.9223       0.040035964    23.768457      724.26727     -71.784829      652.48244    
   1640000   300.24575      0.040035964    21.705819      744.91798     -70.070461      674.84752    
   1641000   312.48626      0.040035964    19.868869      775.28702     -63.843305      711.44372    
   1642000   296.37975      0.040035964    16.632007      735.32633     -72.501451      662.82488    
   1643000   284.31177      0.040035964    18.61805       705.38533     -73.654161      631.73117    
   1644000   294.12116      0.040035964    20.960852      729.72272     -69.456631      660.26609    
   1645000   317.49702      0.040035964    12.338614      787.71885     -68.055706      719.66314    
   1646000   300.62976      0.040035964    17.485022      745.87073     -59.279911      686.59082    
   1647000   289.71743      0.040035964    32.312968      718.79692     -73.168886      645.62803    
   1648000   314.14534      0.040035964    25.696028      779.40325     -72.183849      707.2194     
   1649000   301.45123      0.040035964    19.313785      747.90881     -65.344107      682.5647     
   1650000   301.68019      0.040035964    27.20727       748.47686     -67.963189      680.51367    
   1651000   296.43585      0.040035964    21.018606      735.46553     -73.628997      661.83653    
   1652000   296.1375       0.040035964    23.307008      734.72531     -66.482283      668.24303    
   1653000   307.03284      0.040035964    21.892995      761.75693     -68.8036        692.95333    
   1654000   315.34686      0.040035964    19.093178      782.38425     -71.994646      710.3896     
   1655000   293.09307      0.040035964    21.148138      727.17199     -78.450915      648.72107    
   1656000   289.43212      0.040035964    20.599116      718.08907     -72.903465      645.1856     
   1657000   310.10117      0.040035964    16.822993      769.36954     -74.790288      694.57925    
   1658000   302.76477      0.040035964    21.409109      751.16775     -70.559901      680.60785    
   1659000   290.48638      0.040035964    19.770281      720.7047      -79.665276      641.03943    
   1660000   295.71769      0.040035964    21.190104      733.68374     -69.180571      664.50317    
   1661000   303.48047      0.040035964    20.07066       752.9434      -66.424434      686.51897    
   1662000   294.22292      0.040035964    20.8139        729.97517     -71.677878      658.29729    
   1663000   297.01068      0.040035964    19.919541      736.89168     -65.054893      671.83678    
   1664000   309.51297      0.040035964    16.35572       767.91022     -67.443303      700.46691    
   1665000   300.13225      0.040035964    20.548923      744.63638     -68.373965      676.26241    
   1666000   296.54525      0.040035964    26.039844      735.73694     -71.440755      664.29619    
   1667000   302.59117      0.040035964    20.685396      750.73702     -62.934361      687.80266    
   1668000   298.91095      0.040035964    11.975842      741.60632     -63.515058      678.09126    
   1669000   314.31924      0.040035964    24.415657      779.83471     -63.921758      715.91295    
   1670000   310.18432      0.040035964    28.347673      769.57584     -66.848652      702.72719    
   1671000   291.9865       0.040035964    33.761778      724.42656     -66.217286      658.20928    
   1672000   284.82998      0.040035964    16.542471      706.67103     -69.530283      637.14075    
   1673000   306.14603      0.040035964    2.062898       759.55674     -73.636567      685.92017    
   1674000   304.23249      0.040035964    22.611593      754.8092      -77.112825      677.69638    
   1675000   292.58714      0.040035964    21.967205      725.91677     -76.218181      649.69859    
   1676000   290.71014      0.040035964    20.145611      721.25987     -68.052604      653.20727    
   1677000   306.32304      0.040035964    20.247727      759.99591     -68.611705      691.3842     
   1678000   307.84426      0.040035964    22.218257      763.77009     -67.159696      696.61039    
   1679000   295.45069      0.040035964    19.859006      733.02131     -70.646636      662.37467    
   1680000   286.90757      0.040035964    20.20932       711.8256      -70.614755      641.21085    
   1681000   308.22345      0.040035964    23.15097       764.71087     -61.040727      703.67015    
   1682000   304.11536      0.040035964    18.370842      754.51859     -70.852855      683.66574    
   1683000   279.65892      0.040035964    16.917546      693.84148     -63.432892      630.40859    
   1684000   293.96574      0.040035964    19.637712      729.33711     -58.526389      670.81072    
   1685000   316.29404      0.040035964    21.542768      784.73422     -62.611858      722.12237    
   1686000   309.29323      0.040035964    27.618792      767.36502     -63.405235      703.95979    
   1687000   291.74282      0.040035964    22.208793      723.82199     -63.34458       660.47741    
   1688000   290.29225      0.040035964    11.356268      720.22306     -62.633433      657.58963    
   1689000   306.39651      0.040035964    22.884571      760.17818     -64.345572      695.8326     
   1690000   302.68052      0.040035964    16.578856      750.95871     -65.58017       685.37854    
   1691000   312.54668      0.040035964    19.234857      775.43692     -64.269773      711.16715    
   1692000   308.79836      0.040035964    25.580689      766.13724     -58.572422      707.56481    
   1693000   281.15408      0.040035964    22.384268      697.55103     -58.804409      638.74662    
   1694000   291.18613      0.040035964    17.744246      722.44082     -64.729498      657.71132    
   1695000   305.53505      0.040035964    22.08564       758.04088     -67.339827      690.70106    
   1696000   302.97089      0.040035964    36.533539      751.67913     -69.179537      682.49959    
   1697000   295.13367      0.040035964    25.520732      732.23477     -73.197209      659.03756    
   1698000   291.60181      0.040035964    13.064641      723.47214     -74.426757      649.04538    
   1699000   304.29599      0.040035964    13.031976      754.96674     -75.6453        679.32144    
   1700000   297.70931      0.040035964    40.673506      738.62501     -75.268772      663.35624    
   1701000   304.22591      0.040035964    29.091615      754.79286     -73.978988      680.81387    
   1702000   291.20886      0.040035964    5.1476548      722.49721     -68.356271      654.14094    
   1703000   296.10756      0.040035964    8.0209819      734.65101     -73.589773      661.06124    
   1704000   312.46869      0.040035964    22.116708      775.24342     -74.570241      700.67318    
   1705000   308.07105      0.040035964    25.83267       764.33276     -68.710369      695.62239    
   1706000   288.63468      0.040035964    28.117209      716.11061     -61.124245      654.98636    
   1707000   292.40856      0.040035964    16.850209      725.47369     -63.681454      661.79223    
   1708000   320.93313      0.040035964    20.410599      796.24395     -67.694595      728.54935    
   1709000   299.77806      0.040035964    22.429563      743.75762     -64.393128      679.36449    
   1710000   302.13307      0.040035964    21.964081      749.60047     -53.701772      695.89869    
   1711000   294.71871      0.040035964    23.57079       731.20524     -57.923646      673.28159    
   1712000   274.52518      0.040035964    18.898032      681.10453     -57.424755      623.67977    
   1713000   305.42121      0.040035964    12.212307      757.75844     -59.041303      698.71714    
   1714000   305.1528       0.040035964    24.207637      757.09252     -60.590443      696.50208    
   1715000   298.22771      0.040035964    26.637807      739.91116     -47.092516      692.81865    
   1716000   301.71705      0.040035964    37.217421      748.56831     -59.438812      689.1295     
   1717000   301.82745      0.040035964    27.878987      748.84221     -52.624715      696.2175     
   1718000   286.64559      0.040035964    22.006185      711.17561     -51.204165      659.97145    
   1719000   302.29782      0.040035964    16.674574      750.00921     -46.590377      703.41884    
   1720000   316.02295      0.040035964    25.849847      784.06166     -54.309805      729.75186    
   1721000   309.40409      0.040035964    20.686591      767.64007     -53.270626      714.36944    
   1722000   287.54345      0.040035964    13.957277      713.40323     -56.989584      656.41364    
   1723000   300.57077      0.040035964    17.136587      745.72436     -61.802427      683.92194    
   1724000   302.07505      0.040035964    16.236486      749.45653     -61.492691      687.96384    
   1725000   320.26742      0.040035964    22.035074      794.5923      -58.943369      735.64893    
   1726000   299.90143      0.040035964    19.590823      744.0637      -58.018269      686.04544    
   1727000   292.76643      0.040035964    19.152312      726.36158     -58.305406      668.05618    
   1728000   293.69073      0.040035964    29.673717      728.65479     -59.595711      669.05908    
   1729000   301.49263      0.040035964    22.468162      748.01153     -66.872904      681.13862    
   1730000   298.35137      0.040035964    19.515817      740.21796     -61.776234      678.44173    
   1731000   319.59984      0.040035964    29.795067      792.93602     -61.909058      731.02697    
   1732000   307.98148      0.040035964    13.551926      764.11055     -63.73348       700.37707    
   1733000   308.23606      0.040035964   -3.9986148      764.74217     -56.117941      708.62423    
   1734000   298.07119      0.040035964    20.531689      739.52283     -61.264012      678.25882    
   1735000   294.42738      0.040035964    28.731219      730.48244     -63.386917      667.09553    
   1736000   312.26641      0.040035964   -0.74282106     774.74157     -65.686047      709.05552    
   1737000   293.45565      0.040035964   -8.9982502      728.07156     -64.55613       663.51543    
   1738000   281.20933      0.040035964    33.991667      697.68811     -61.025539      636.66257    
   1739000   307.47768      0.040035964    40.214484      762.86061     -65.782899      697.07771    
   1740000   314.86219      0.040035964    9.9455464      781.18178     -59.762747      721.41903    
   1741000   294.98767      0.040035964   -6.6372007      731.87253     -60.565253      671.30728    
   1742000   293.63647      0.040035964    28.979394      728.52017     -67.004955      661.51521    
   1743000   302.61928      0.040035964    18.872812      750.80677     -64.427861      686.37891    
   1744000   304.90753      0.040035964    11.419167      756.48398     -65.800363      690.68362    
   1745000   291.83508      0.040035964    8.2272951      724.05089     -64.93703       659.11386    
   1746000   296.32477      0.040035964    18.93302       735.18991     -66.297709      668.89221    
   1747000   297.87303      0.040035964    26.86114       739.03119     -72.888789      666.1424     
   1748000   301.20624      0.040035964    20.732623      747.30098     -76.471422      670.82955    
   1749000   298.42696      0.040035964    16.820552      740.40551     -76.986665      663.41885    
   1750000   301.08868      0.040035964    22.745993      747.0093      -63.139925      683.86938    
   1751000   311.32347      0.040035964    20.977801      772.4021      -66.20614       706.19596    
   1752000   300.53602      0.040035964    18.404084      745.63815     -63.804215      681.83393    
   1753000   279.18634      0.040035964    20.770349      692.669       -63.95686       628.71214    
   1754000   301.39595      0.040035964    21.218725      747.77166     -64.318035      683.45362    
   1755000   314.32022      0.040035964    20.465206      779.83712     -65.899518      713.93761    
   1756000   284.14522      0.040035964    20.096586      704.97213     -58.174325      646.79781    
   1757000   298.46208      0.040035964    22.447916      740.49265     -62.367552      678.1251     
   1758000   308.06781      0.040035964    23.456474      764.32474     -63.254271      701.07047    
   1759000   305.32381      0.040035964    10.45672       757.51679     -63.46431       694.05248    
   1760000   294.62898      0.040035964    17.352895      730.98262     -66.882108      664.10051    
   1761000   295.04255      0.040035964    26.661964      732.00871     -62.511718      669.49699    
   1762000   306.82276      0.040035964    19.703901      761.23571     -63.896083      697.33963    
   1763000   317.18506      0.040035964    21.608425      786.94489     -57.600664      729.34423    
   1764000   299.44698      0.040035964    23.839923      742.93621     -56.877551      686.05866    
   1765000   298.49889      0.040035964    19.333059      740.58397     -61.80276       678.78121    
   1766000   304.35276      0.040035964    26.163292      755.1076      -61.585385      693.52221    
   1767000   305.3385       0.040035964    18.662124      757.55324     -62.030614      695.52262    
   1768000   298.25956      0.040035964    21.044033      739.99018     -67.455726      672.53446    
   1769000   298.20489      0.040035964    18.833619      739.85454     -69.386221      670.46832    
   1770000   327.50835      0.040035964    20.163372      812.55724     -71.500931      741.05631    
   1771000   296.89285      0.040035964    18.117281      736.59934     -65.469033      671.1303     
   1772000   280.65842      0.040035964    19.400373      696.32128     -69.772206      626.54908    
   1773000   305.74316      0.040035964    20.45334       758.55722     -71.062755      687.49446    
   1774000   310.30718      0.040035964    22.832046      769.88067     -72.481079      697.39959    
   1775000   281.25101      0.040035964    16.541961      697.79151     -72.185071      625.60644    
   1776000   290.65781      0.040035964    27.754066      721.13003     -73.031125      648.0989     
   1777000   317.24436      0.040035964    23.703011      787.09201     -73.753462      713.33854    
   1778000   299.07341      0.040035964    14.535729      742.00938     -69.803888      672.20549    
   1779000   296.85304      0.040035964    19.174388      736.50059     -66.975623      669.52496    
   1780000   297.68198      0.040035964    9.8960416      738.55721     -73.718288      664.83892    
   1781000   299.09645      0.040035964    12.094787      742.06653     -60.449099      681.61743    
   1782000   293.12321      0.040035964    17.557364      727.24677     -60.733284      666.51349    
   1783000   286.0175       0.040035964    20.875848      709.6173      -62.058826      647.55848    
   1784000   301.53689      0.040035964    27.514007      748.12134     -63.686576      684.43477    
   1785000   306.26678      0.040035964    26.703881      759.85632     -67.665453      692.19087    
   1786000   318.4403       0.040035964    13.269717      790.05917     -73.268154      716.79101    
   1787000   293.69738      0.040035964    17.941168      728.67128     -70.969975      657.70131    
   1788000   281.70819      0.040035964    20.095213      698.92578     -68.73342       630.19236    
   1789000   308.22386      0.040035964    28.229711      764.71189     -71.258548      693.45334    
   1790000   311.68364      0.040035964    17.535058      773.2957      -70.551108      702.7446     
   1791000   290.1719       0.040035964    20.612595      719.92447     -72.292719      647.63176    
   1792000   297.26792      0.040035964    21.711789      737.5299      -75.01223       662.51767    
   1793000   310.41999      0.040035964    15.206502      770.16055     -73.403676      696.75687    
   1794000   292.30631      0.040035964    19.011764      725.22001     -70.413496      654.80652    
   1795000   290.35184      0.040035964    24.031172      720.37092     -69.369977      651.00094    
   1796000   298.59885      0.040035964    17.67221       740.83199     -66.550723      674.28126    
   1797000   299.905        0.040035964    15.553927      744.07258     -72.742892      671.32969    
   1798000   306.92287      0.040035964    26.013684      761.4841      -71.711653      689.77245    
   1799000   313.52611      0.040035964    20.502944      777.86691     -73.337827      704.52908    
   1800000   287.17806      0.040035964    17.450099      712.49668     -70.129782      642.3669     
   1801000   290.39113      0.040035964    28.423658      720.4684      -64.964454      655.50394    
   1802000   304.31955      0.040035964    29.013758      755.02519     -74.793845      680.23134    
   1803000   309.50417      0.040035964    20.622678      767.88838     -75.675424      692.21296    
   1804000   297.81475      0.040035964    16.722223      738.88659     -79.291855      659.59474    
   1805000   296.15271      0.040035964    18.979673      734.76303     -75.624257      659.13877    
   1806000   309.16748      0.040035964    20.200923      767.05304     -82.805679      684.24736    
   1807000   291.18651      0.040035964    18.461509      722.44176     -79.942628      642.49914    
   1808000   314.75163      0.040035964    19.897535      780.90747     -79.019351      701.88812    
   1809000   302.47917      0.040035964    22.033065      750.45917     -83.360299      667.09887    
   1810000   287.53233      0.040035964    20.807565      713.37564     -68.158513      645.21713    
   1811000   305.0748       0.040035964    19.113791      756.89899     -74.432687      682.46631    
   1812000   305.36083      0.040035964    19.738498      757.60865     -79.210773      678.39787    
   1813000   298.18023      0.040035964    21.087197      739.79338     -68.045344      671.74803    
   1814000   287.53342      0.040035964    15.840279      713.37833     -74.386766      638.99156    
   1815000   302.85621      0.040035964    19.94746       751.39459     -69.218186      682.17641    
   1816000   305.53389      0.040035964    23.143124      758.03801     -82.741537      675.29647    
   1817000   289.3368       0.040035964    6.1518051      717.85258     -77.460303      640.39227    
   1818000   291.5973       0.040035964    15.081562      723.46094     -79.610295      643.85064    
   1819000   312.20779      0.040035964    20.814649      774.59614     -84.051203      690.54494    
   1820000   293.53688      0.040035964    33.117097      728.2731      -83.025483      645.24761    
   1821000   293.15765      0.040035964    11.136832      727.33221     -72.790103      654.5421     
   1822000   297.25002      0.040035964    14.448289      737.48549     -70.908739      666.57675    
   1823000   311.74464      0.040035964    18.841912      773.44704     -71.408888      702.03815    
   1824000   292.06511      0.040035964    26.3237        724.62159     -71.230752      653.39084    
   1825000   283.43678      0.040035964    15.990108      703.21447     -69.473252      633.74122    
   1826000   299.03528      0.040035964    16.561831      741.91478     -69.427453      672.48733    
   1827000   318.57496      0.040035964    21.891555      790.39326     -65.990097      724.40316    
   1828000   281.83942      0.040035964    22.380664      699.25136     -64.864984      634.38638    
   1829000   294.18226      0.040035964    8.7556301      729.87429     -61.134951      668.73934    
   1830000   312.41938      0.040035964    21.658546      775.12109     -68.028655      707.09244    
   1831000   306.58413      0.040035964    24.005675      760.64367     -61.889317      698.75435    
   1832000   281.68032      0.040035964    20.80802       698.85663     -58.155039      640.70159    
   1833000   299.80852      0.040035964    14.876716      743.8332      -59.393059      684.44014    
   1834000   308.45257      0.040035964    28.255074      765.27932     -55.005553      710.27377    
   1835000   294.88431      0.040035964    22.109392      731.61611     -62.274461      669.34165    
   1836000   298.64245      0.040035964    18.014076      740.94016     -66.947353      673.99281    
   1837000   312.46569      0.040035964    21.456966      775.236       -68.152228      707.08377    
   1838000   302.02099      0.040035964    23.088264      749.3224      -69.096923      680.22547    
   1839000   296.21474      0.040035964    20.535378      734.91692     -65.564377      669.35255    
   1840000   290.91808      0.040035964    18.188295      721.77578     -68.125498      653.65028    
   1841000   299.71086      0.040035964    21.192589      743.59091     -64.785427      678.80549    
   1842000   311.04062      0.040035964    25.703938      771.70036     -63.525695      708.17466    
   1843000   312.94409      0.040035964    22.081504      776.42291     -59.182217      717.24069    
   1844000   306.93958      0.040035964    15.699298      761.52557     -63.073676      698.45189    
   1845000   290.53252      0.040035964    18.192544      720.81918     -59.754979      661.0642     
   1846000   301.24734      0.040035964    37.184655      747.40295     -64.02344       683.37951    
   1847000   304.02806      0.040035964    30.493111      754.302       -66.832153      687.46985    
   1848000   298.02563      0.040035964    12.984423      739.4098      -65.179178      674.23062    
   1849000   285.37117      0.040035964    24.756233      708.01374     -69.209167      638.80457    
   1850000   313.27518      0.040035964    28.319501      777.24435     -65.758408      711.48594    
   1851000   305.07984      0.040035964    23.488657      756.9115      -67.205263      689.70623    
   1852000   304.96862      0.040035964    17.623716      756.63555     -63.611518      693.02403    
   1853000   300.64019      0.040035964    19.563018      745.8966      -64.396458      681.50014    
   1854000   303.41274      0.040035964    19.249938      752.77538     -66.647519      686.12786    
   1855000   302.46373      0.040035964    26.258735      750.42085     -65.828944      684.59191    
   1856000   304.26457      0.040035964    20.370071      754.88879     -67.927696      686.96109    
   1857000   295.75697      0.040035964    20.645799      733.78121     -66.89932       666.88189    
   1858000   309.33584      0.040035964    23.569986      767.47075     -65.254244      702.2165     
   1859000   316.11655      0.040035964    14.504384      784.29388     -66.252798      718.04108    
   1860000   299.02961      0.040035964    4.0973457      741.9007      -60.818709      681.08199    
   1861000   300.83992      0.040035964    24.533326      746.39214     -68.044936      678.3472     
   1862000   312.0361       0.040035964    25.692999      774.17016     -65.269944      708.90022    
   1863000   304.33785      0.040035964    13.573466      755.07059     -62.243812      692.82678    
   1864000   299.30089      0.040035964    15.318331      742.57377     -66.448792      676.12498    
   1865000   309.76764      0.040035964    25.579945      768.54205     -66.82572       701.71633    
   1866000   303.95412      0.040035964    17.920145      754.11855     -73.623098      680.49545    
   1867000   303.43953      0.040035964    15.200672      752.84185     -70.852007      681.98984    
   1868000   300.58555      0.040035964    35.799079      745.76103     -74.792811      670.96822    
   1869000   310.23143      0.040035964    22.567384      769.69273     -77.11638       692.57635    
   1870000   312.19806      0.040035964    21.556321      774.572       -73.473484      701.09852    
   1871000   301.97822      0.040035964    15.564708      749.21629     -73.992247      675.22405    
   1872000   290.63883      0.040035964    26.218083      721.08295     -73.980734      647.10222    
   1873000   315.66364      0.040035964    27.333087      783.17019     -70.26206       712.90813    
   1874000   308.62968      0.040035964    18.130344      765.71874     -71.807366      693.91137    
   1875000   308.92613      0.040035964    10.084804      766.45425     -69.831922      696.62233    
   1876000   296.71226      0.040035964    14.455318      736.15129     -76.557155      659.59413    
   1877000   295.28562      0.040035964    24.170373      732.61176     -73.757776      658.85398    
   1878000   308.33496      0.040035964    31.870379      764.98755     -78.895906      686.09164    
   1879000   302.67345      0.040035964    10.214326      750.94117     -69.54457       681.3966     
   1880000   295.40019      0.040035964    21.31547       732.89602     -73.532775      659.36324    
   1881000   322.0083       0.040035964    21.876288      798.91146     -72.742493      726.16896    
   1882000   296.70866      0.040035964    17.532792      736.14237     -70.594863      665.54751    
   1883000   285.97473      0.040035964    19.23259       709.5112      -73.21332       636.29788    
   1884000   294.4193       0.040035964    21.635054      730.4624      -74.001504      656.46089    
   1885000   308.69518      0.040035964    20.621058      765.88124     -67.785338      698.0959     
   1886000   297.22495      0.040035964    18.83854       737.4233      -70.944189      666.47911    
   1887000   309.77236      0.040035964    20.962138      768.55376     -67.871913      700.68184    
   1888000   311.33695      0.040035964    19.217429      772.43555     -69.08229       703.35326    
   1889000   293.4741       0.040035964    22.506283      728.11734     -71.707154      656.41019    
   1890000   290.59184      0.040035964    19.710327      720.96636     -66.938987      654.02737    
   1891000   300.48394      0.040035964    21.64466       745.50895     -66.349687      679.15926    
   1892000   298.8006       0.040035964    21.00754       741.33254     -67.5519        673.78064    
   1893000   300.00906      0.040035964    14.749054      744.33076     -66.502289      677.82847    
   1894000   310.48732      0.040035964    24.882477      770.3276      -68.535775      701.79182    
   1895000   295.39919      0.040035964    25.531543      732.89353     -67.897525      664.996      
   1896000   297.83547      0.040035964    25.891705      738.938       -68.16239       670.77561    
   1897000   314.93548      0.040035964    9.8035576      781.3636      -74.012728      707.35088    
   1898000   302.38743      0.040035964    16.679786      750.23154     -74.636962      675.59458    
   1899000   279.36953      0.040035964    10.989529      693.1235      -71.934852      621.18865    
   1900000   289.59274      0.040035964    27.739381      718.48757     -68.086681      650.40089    
   1901000   303.60987      0.040035964    20.678309      753.26445     -61.287031      691.97742    
   1902000   306.74799      0.040035964    18.432759      761.05023     -64.43077       696.61946    
   1903000   290.93426      0.040035964    23.139361      721.81591     -64.029742      657.78617    
   1904000   306.79674      0.040035964    24.966751      761.17118     -59.811895      701.35928    
   1905000   311.39853      0.040035964    18.610141      772.58833     -63.865903      708.72243    
   1906000   292.52345      0.040035964    20.098218      725.75875     -63.883577      661.87517    
   1907000   306.30831      0.040035964    21.193766      759.95935     -64.621361      695.33799    
   1908000   292.34021      0.040035964    22.619486      725.30411     -62.321365      662.98275    
   1909000   290.53696      0.040035964    21.36346       720.83022     -63.822296      657.00792    
   1910000   315.04783      0.040035964    19.810256      781.64234     -69.557947      712.0844     
   1911000   297.07919      0.040035964    18.288868      737.06167     -66.114859      670.94681    
   1912000   293.97543      0.040035964    20.38672       729.36116     -60.939866      668.42129    
   1913000   306.26718      0.040035964    20.937981      759.85731     -65.651407      694.2059     
   1914000   311.8102       0.040035964    31.446237      773.60971     -63.401277      710.20843    
   1915000   299.41833      0.040035964    21.145048      742.86513     -67.367695      675.49743    
   1916000   291.33757      0.040035964    18.91031       722.81655     -62.169549      660.647      
   1917000   307.69403      0.040035964    16.833998      763.39737     -67.070401      696.32697    
   1918000   312.74524      0.040035964    32.980439      775.92955     -69.924889      706.00466    
   1919000   294.95921      0.040035964    18.179871      731.80194     -69.112319      662.68962    
   1920000   288.91918      0.040035964    29.950612      716.81645     -64.656039      652.16042    
   1921000   296.45001      0.040035964    21.121234      735.50064     -71.510058      663.99058    
   1922000   307.04742      0.040035964    18.531501      761.79311     -75.651449      686.14166    
   1923000   295.77215      0.040035964    24.008926      733.81886     -70.311952      663.5069     
   1924000   301.84195      0.040035964    19.913934      748.87821     -71.551229      677.32698    
   1925000   302.01452      0.040035964   -1.9574485      749.30636     -64.217079      685.08928    
   1926000   311.73167      0.040035964    2.2423389      773.41487     -69.295762      704.1191     
   1927000   299.98016      0.040035964    30.259018      744.25904     -71.866981      672.39206    
   1928000   298.39431      0.040035964    17.035015      740.32452     -68.5351        671.78942    
   1929000   299.67772      0.040035964    19.354019      743.50869     -65.722866      677.78583    
   1930000   296.54944      0.040035964    25.968095      735.74732     -65.581697      670.16563    
   1931000   302.04943      0.040035964    23.813847      749.39297     -61.282009      688.11096    
   1932000   306.2531       0.040035964    16.329342      759.82238     -68.448385      691.37399    
   1933000   295.2661       0.040035964    20.635336      732.56332     -65.232328      667.33099    
   1934000   307.15917      0.040035964    20.424011      762.07037     -64.625663      697.44471    
   1935000   305.91604      0.040035964    22.172185      758.98612     -70.088351      688.89777    
   1936000   295.82736      0.040035964    21.373848      733.95584     -77.22216       656.73368    
   1937000   289.05731      0.040035964    15.809099      717.15915     -76.000245      641.1589     
   1938000   289.48818      0.040035964    16.817222      718.22816     -80.950268      637.27789    
   1939000   300.81105      0.040035964    18.71625       746.3205      -76.780982      669.53952    
   1940000   307.98219      0.040035964    20.734046      764.11231     -71.761009      692.3513     
   1941000   276.00908      0.040035964    17.108791      684.78613     -73.901778      610.88435    
   1942000   302.97327      0.040035964    17.013979      751.68504     -71.468401      680.21664    
   1943000   302.14714      0.040035964    29.181491      749.63538     -71.182745      678.45263    
   1944000   290.03411      0.040035964    17.350167      719.58262     -68.315396      651.26722    
   1945000   302.7623       0.040035964    11.623691      751.16162     -64.820893      686.34073    
   1946000   307.31701      0.040035964    24.752239      762.46198     -70.567981      691.894      
   1947000   293.2802       0.040035964    19.815595      727.63626     -68.473668      659.16259    
   1948000   300.43946      0.040035964    17.595523      745.39858     -75.082064      670.31652    
   1949000   307.45833      0.040035964    22.894027      762.81259     -77.578405      685.23419    
   1950000   304.21181      0.040035964    18.63105       754.75787     -69.245488      685.51239    
   1951000   306.19036      0.040035964    10.773436      759.66673     -65.451302      694.21543    
   1952000   302.30675      0.040035964    21.168157      750.03137     -66.918533      683.11284    
   1953000   306.38683      0.040035964    20.987327      760.15418     -65.189893      694.96429    
   1954000   292.39986      0.040035964    23.67815       725.4521      -63.806226      661.64588    
   1955000   284.4392       0.040035964    5.9123187      705.7015      -60.796378      644.90512    
   1956000   309.20686      0.040035964    14.525598      767.15075     -62.9441        704.20665    
   1957000   303.86534      0.040035964    23.21922       753.89829     -55.087659      698.81063    
   1958000   285.99877      0.040035964    27.027371      709.57084     -62.729305      646.84154    
   1959000   294.38016      0.040035964    19.963149      730.36529     -62.409147      667.95614    
   1960000   307.63091      0.040035964    17.739963      763.24076     -70.560406      692.68035    
   1961000   296.02516      0.040035964    20.71593       734.44659     -67.307931      667.13866    
   1962000   298.66126      0.040035964    24.152538      740.98683     -73.183041      667.80379    
   1963000   296.46997      0.040035964    17.957862      735.55017     -66.573986      668.97618    
   1964000   293.82174      0.040035964    19.73371       728.97984     -68.989063      659.99078    
   1965000   312.93143      0.040035964    24.51763       776.3915      -64.989786      711.40171    
   1966000   302.21329      0.040035964    27.830969      749.7995      -58.141955      691.65754    
   1967000   306.37005      0.040035964    16.619221      760.11254     -59.075693      701.03685    
   1968000   303.42629      0.040035964    15.376793      752.80899     -58.665476      694.14351    
   1969000   304.41689      0.040035964    25.558159      755.2667      -60.753787      694.51291    
   1970000   298.86369      0.040035964    22.873437      741.48905     -58.460841      683.02821    
   1971000   297.93611      0.040035964    22.666135      739.1877      -55.347677      683.84002    
   1972000   310.17236      0.040035964    22.48486       769.54617     -63.342457      706.20372    
   1973000   302.4864       0.040035964    23.702879      750.4771      -56.281764      694.19533    
   1974000   290.74901      0.040035964    14.13105       721.3563      -57.478987      663.87731    
   1975000   304.61692      0.040035964    20.614042      755.76298     -61.950346      693.81263    
   1976000   307.7779       0.040035964    20.15823       763.60546     -60.42238       703.18308    
   1977000   305.89474      0.040035964    11.342907      758.93327     -58.500328      700.43294    
   1978000   296.78183      0.040035964    27.53682       736.3239      -54.79808       681.52582    
   1979000   299.63122      0.040035964    24.639985      743.39333     -55.095885      688.29744    
   1980000   301.91855      0.040035964    21.577185      749.06824     -50.554041      698.5142     
   1981000   311.39052      0.040035964    24.057233      772.56846     -53.487357      719.0811     
   1982000   296.50951      0.040035964    24.074405      735.64826     -53.607668      682.0406     
   1983000   302.49628      0.040035964    22.964049      750.50161     -54.798451      695.70316    
   1984000   307.81302      0.040035964    22.841521      763.69259     -59.160321      704.53227    
   1985000   302.11548      0.040035964    18.664472      749.55683     -58.275144      691.28169    
   1986000   302.90777      0.040035964    21.951932      751.52252     -60.39838       691.12413    
   1987000   299.6608       0.040035964    21.427156      743.4667      -59.801717      683.66498    
   1988000   297.99245      0.040035964    14.140696      739.32749     -63.212859      676.11463    
   1989000   309.06605      0.040035964    31.924769      766.80139     -60.231943      706.56945    
   1990000   298.4455       0.040035964    30.043668      740.4515      -58.000906      682.45059    
   1991000   289.36485      0.040035964    18.572003      717.92216     -61.27659       656.64557    
   1992000   294.15914      0.040035964    17.364898      729.81693     -62.706135      667.11079    
   1993000   314.14779      0.040035964    23.410955      779.40932     -61.979339      717.42998    
   1994000   299.8448       0.040035964    20.740406      743.92321     -60.232552      683.69066    
   1995000   303.1267       0.040035964    19.067659      752.0657      -61.017359      691.04834    
   1996000   299.21646      0.040035964    21.423405      742.36428     -58.706155      683.65813    
   1997000   300.79188      0.040035964    19.792424      746.27295     -66.551016      679.72193    
   1998000   303.0817       0.040035964    23.603563      751.95406     -62.987585      688.96647    
   1999000   298.71538      0.040035964    18.565369      741.1211      -62.634209      678.48689    
   2000000   300.07608      0.040035964    20.044363      744.49703     -63.261429      681.2356     
   2001000   294.09499      0.040035964    20.305977      729.65777     -57.155911      672.50185    
   2002000   299.58905      0.040035964    24.817756      743.2887      -58.661097      684.6276     
   2003000   310.02141      0.040035964    22.301513      769.17166     -57.074372      712.09728    
   2004000   295.87283      0.040035964    6.5224056      734.06866     -54.970772      679.09788    
   2005000   304.65493      0.040035964    10.568352      755.85727     -58.814478      697.0428     
   2006000   294.56556      0.040035964    38.517473      730.82527     -64.440505      666.38477    
   2007000   296.96169      0.040035964    26.558747      736.77015     -60.020052      676.75009    
   2008000   301.12782      0.040035964    12.931836      747.10643     -52.399123      694.70731    
   2009000   295.45654      0.040035964    16.542194      733.03583     -57.411408      675.62442    
   2010000   312.16681      0.040035964    25.218389      774.49446     -64.399577      710.09488    
   2011000   301.6382       0.040035964   -1.589505       748.37269     -69.252919      679.11977    
   2012000   285.53414      0.040035964    15.155786      708.41808     -69.67876       638.73932    
   2013000   300.11515      0.040035964    26.699686      744.59397     -67.629962      676.96401    
   2014000   300.08763      0.040035964    27.656785      744.52567     -71.366444      673.15923    
   2015000   303.33209      0.040035964    23.150159      752.57529     -73.812996      678.76229    
   2016000   299.10362      0.040035964    16.401726      742.08433     -72.214062      669.87027    
   2017000   298.30305      0.040035964    13.007747      740.09808     -72.960581      667.1375     
   2018000   306.72025      0.040035964    22.882665      760.9814      -67.970062      693.01134    
   2019000   301.31524      0.040035964    11.247459      747.57142     -65.493676      682.07775    
   2020000   291.15266      0.040035964    34.641099      722.35778     -63.932366      658.42541    
   2021000   298.0135       0.040035964    44.327743      739.37971     -63.777222      675.60249    
   2022000   302.15939      0.040035964   -1.8545852      749.66578     -59.983336      689.68245    
   2023000   296.98072      0.040035964    15.80315       736.81735     -63.274793      673.54256    
   2024000   289.92915      0.040035964    26.24882       719.32222     -67.396914      651.92531    
   2025000   303.96516      0.040035964    24.997883      754.14593     -69.802168      684.34377    
   2026000   301.58218      0.040035964    1.8889563      748.23369     -77.52067       670.71302    
   2027000   294.80267      0.040035964    17.96276       731.41355     -73.432587      657.98097    
   2028000   295.54446      0.040035964    22.803282      733.25396     -76.315113      656.93885    
   2029000   304.06202      0.040035964    24.48629       754.38625     -76.899765      677.48649    
   2030000   292.53426      0.040035964    17.8747        725.78555     -79.630894      646.15466    
   2031000   307.57763      0.040035964    19.97934       763.10859     -73.3655        689.74309    
   2032000   302.42918      0.040035964    21.201611      750.33512     -68.787024      681.5481     
   2033000   313.32292      0.040035964    20.085668      777.36279     -65.796378      711.56641    
   2034000   296.93083      0.040035964    17.170163      736.69356     -58.493132      678.20043    
   2035000   288.7099       0.040035964    20.203579      716.29723     -60.075994      656.22123    
   2036000   301.55214      0.040035964    27.357239      748.15917     -63.508946      684.65022    
   2037000   311.27653      0.040035964    25.974454      772.28564     -56.979281      715.30636    
   2038000   317.47483      0.040035964    21.23169       787.66382     -66.009007      721.65481    
   2039000   290.82628      0.040035964    20.122541      721.54802     -64.037883      657.51014    
   2040000   298.3511       0.040035964    23.737764      740.2173      -59.023489      681.19381    
   2041000   314.46101      0.040035964    26.981558      780.18644     -63.311651      716.87478    
   2042000   304.09125      0.040035964    17.282273      754.45876     -66.758196      687.70057    
   2043000   294.07995      0.040035964    21.860318      729.62046     -60.584709      669.03575    
   2044000   302.91885      0.040035964    24.429592      751.55002     -61.044389      690.50563    
   2045000   295.7766       0.040035964    23.350462      733.82989     -65.497793      668.3321     
   2046000   318.06954      0.040035964    21.51356       789.13929     -61.152         727.98728    
   2047000   294.20998      0.040035964    17.549859      729.94308     -67.030863      662.91222    
   2048000   305.08144      0.040035964    23.507579      756.91545     -63.224288      693.69116    
   2049000   307.83262      0.040035964    19.649655      763.7412      -64.03859       699.70261    
   2050000   291.06453      0.040035964    3.6192852      722.13912     -62.567053      659.57207    
   2051000   296.6804       0.040035964    19.53799       736.07224     -65.45374       670.6185     
   2052000   307.98231      0.040035964    22.762963      764.11259     -64.930901      699.18169    
   2053000   314.62777      0.040035964    21.696377      780.60017     -70.904795      709.69538    
   2054000   297.1432       0.040035964    21.157457      737.22047     -63.053576      674.1669     
   2055000   307.55629      0.040035964    23.435539      763.05563     -64.252884      698.80275    
   2056000   304.80398      0.040035964    23.21277       756.22707     -57.042442      699.18463    
   2057000   302.237        0.040035964    20.251029      749.85832     -63.559009      686.29931    
   2058000   296.48701      0.040035964    22.93188       735.59244     -64.574567      671.01787    
   2059000   299.31677      0.040035964    18.305326      742.61315     -67.95813       674.65502    
   2060000   302.68881      0.040035964    20.36402       750.97928     -65.278037      685.70124    
   2061000   308.52282      0.040035964    22.872253      765.45361     -63.006966      702.44665    
   2062000   300.06405      0.040035964    19.906263      744.46718     -73.232882      671.2343     
   2063000   288.92836      0.040035964    20.081334      716.83922     -65.781164      651.05806    
   2064000   298.95092      0.040035964    20.432695      741.70549     -59.020221      682.68526    
   2065000   297.02521      0.040035964    22.799748      736.92774     -61.822085      675.10566    
   2066000   303.58399      0.040035964    19.824657      753.20026     -61.261844      691.93841    
   2067000   303.7605       0.040035964    9.687493       753.63817     -61.786851      691.85132    
   2068000   291.00489      0.040035964    26.357597      721.99115     -63.312991      658.67816    
   2069000   287.47682      0.040035964    21.764064      713.23791     -58.534452      654.70346    
   2070000   314.32985      0.040035964    17.624134      779.86103     -64.250817      715.61022    
   2071000   323.4484       0.040035964    24.494581      802.48439     -74.089419      728.39497    
   2072000   291.53581      0.040035964    29.111776      723.30837     -65.056589      658.25178    
   2073000   312.68558      0.040035964    16.866852      775.78153     -69.200258      706.58128    
   2074000   302.02668      0.040035964    19.039427      749.33653     -63.084978      686.25155    
   2075000   293.74294      0.040035964    22.693376      728.78432     -66.629109      662.15521    
   2076000   301.28348      0.040035964    21.708326      747.49262     -69.004095      678.48852    
   2077000   297.31466      0.040035964    21.889085      737.64586     -70.953893      666.69196    
   2078000   291.65923      0.040035964    20.177294      723.61459     -62.364417      661.25017    
   2079000   303.28155      0.040035964    23.057511      752.44988     -68.010612      684.43927    
   2080000   323.65442      0.040035964    34.844136      802.99553     -68.645279      734.35025    
   2081000   286.70905      0.040035964    14.888441      711.33306     -67.933889      643.39917    
   2082000   297.64248      0.040035964    18.698009      738.45921     -63.280689      675.17852    
   2083000   305.14262      0.040035964    11.590247      757.06725     -67.340045      689.72721    
   2084000   310.51245      0.040035964    24.735213      770.38995     -62.382501      708.00745    
   2085000   296.3863       0.040035964    38.751214      735.34257     -58.895242      676.44733    
   2086000   289.73325      0.040035964    18.251554      718.83618     -53.549496      665.28669    
   2087000   309.9806       0.040035964    11.513206      769.07041     -57.273708      711.79671    
   2088000   298.93467      0.040035964    24.632671      741.66516     -55.386515      686.27865    
   2089000   292.50975      0.040035964    9.749099       725.72475     -57.932563      667.79219    
   2090000   301.43795      0.040035964    3.4453682      747.87586     -62.976896      684.89897    
   2091000   306.52977      0.040035964    19.011571      760.50881     -59.065791      701.44302    
   2092000   306.03743      0.040035964    23.528519      759.28731     -63.424297      695.86301    
   2093000   306.63337      0.040035964    18.335089      760.76584     -60.900303      699.86554    
   2094000   307.98528      0.040035964    20.841728      764.11996     -61.804786      702.31518    
   2095000   294.3306       0.040035964    9.4997349      730.24232     -70.456144      659.78618    
   2096000   292.55067      0.040035964    23.300996      725.82627     -65.879667      659.94661    
   2097000   303.22729      0.040035964    20.42987       752.31526     -70.610347      681.70492    
   2098000   315.38171      0.040035964    21.741158      782.47073     -74.190938      708.27979    
   2099000   296.01386      0.040035964    17.754481      734.41854     -66.801644      667.61689    
   2100000   293.2073       0.040035964    18.107518      727.45539     -69.44147       658.01392    
   2101000   309.34463      0.040035964    23.781454      767.49255     -70.093295      697.39925    
   2102000   313.33116      0.040035964    20.320372      777.38324     -70.857434      706.52581    
   2103000   293.35667      0.040035964    14.87711       727.82598     -66.1559        661.67008    
   2104000   292.23788      0.040035964    23.095399      725.05022     -63.376987      661.67324    
   2105000   305.7557       0.040035964    24.367246      758.58833     -70.128425      688.45991    
   2106000   305.70639      0.040035964    10.927298      758.46599     -65.445046      693.02095    
   2107000   294.81663      0.040035964    19.644141      731.44819     -64.26204       667.18615    
   2108000   294.70093      0.040035964    20.627614      731.16113     -53.689217      677.47191    
   2109000   303.66711      0.040035964    19.745066      753.40648     -58.772956      694.63352    
   2110000   310.68476      0.040035964    20.462833      770.81746     -60.369587      710.44787    
   2111000   309.1238       0.040035964    20.816179      766.94466     -62.811705      704.13296    
   2112000   304.31396      0.040035964    24.122179      755.01132     -63.998998      691.01232    
   2113000   283.80583      0.040035964    20.158166      704.13008     -62.8545        641.27558    
   2114000   309.97335      0.040035964    15.893298      769.05243     -76.025346      693.02708    
   2115000   305.44503      0.040035964    22.158701      757.81755     -73.317019      684.50053    
   2116000   293.13923      0.040035964    23.413275      727.28652     -70.45741       656.82911    
   2117000   293.77529      0.040035964    19.881446      728.86458     -73.716942      655.14764    
   2118000   308.34367      0.040035964    17.441239      765.00915     -64.457282      700.55186    
   2119000   305.2489       0.040035964    23.229246      757.33093     -65.938798      691.39213    
   2120000   294.87429      0.040035964    17.982645      731.59124     -62.129258      669.46198    
   2121000   276.67496      0.040035964    13.116023      686.4382      -65.632449      620.80575    
   2122000   297.98001      0.040035964    18.443967      739.29662     -62.024492      677.27213    
   2123000   303.96202      0.040035964    19.799814      754.13814     -74.997879      679.14026    
   2124000   304.07527      0.040035964    23.946684      754.41913     -69.59278       684.82635    
   2125000   284.0107       0.040035964    10.853083      704.63838     -65.213879      639.4245     
   2126000   314.57969      0.040035964    18.411199      780.48089     -63.64128       716.83961    
   2127000   303.42574      0.040035964    28.656075      752.80761     -64.420635      688.38698    
   2128000   301.87689      0.040035964    9.1144102      748.96489     -64.494043      684.47085    
   2129000   303.96823      0.040035964    27.945775      754.15356     -65.227755      688.9258     
   2130000   288.9231       0.040035964    36.208758      716.82619     -59.098023      657.72816    
   2131000   300.49015      0.040035964    9.497663       745.52435     -58.685513      686.83884    
   2132000   318.49648      0.040035964    15.676838      790.19855     -63.064432      727.13412    
   2133000   287.42619      0.040035964    26.280767      713.1123      -63.779528      649.33277    
   2134000   291.5221       0.040035964    2.7888817      723.27437     -68.486682      654.78769    
   2135000   313.11432      0.040035964    16.797532      776.84527     -67.830744      709.01453    
   2136000   307.31521      0.040035964    21.230053      762.4575      -67.68629       694.77121    
   2137000   289.9904       0.040035964    24.521666      719.47418     -68.939384      650.5348     
   2138000   288.9969       0.040035964    16.751804      717.00927     -65.261241      651.74803    
   2139000   314.298        0.040035964    19.653279      779.78201     -67.275996      712.50601    
   2140000   297.2863       0.040035964    29.786206      737.57551     -68.399515      669.176      
   2141000   295.2711       0.040035964    12.81963       732.57574     -70.041127      662.53461    
   2142000   311.96533      0.040035964    17.095674      773.99459     -72.25165       701.74294    
   2143000   311.69338      0.040035964    22.879065      773.31987     -70.446135      702.87373    
   2144000   291.1034       0.040035964    20.346008      722.23556     -71.084334      651.15122    
   2145000   299.28867      0.040035964    19.01263       742.54343     -79.947808      662.59563    
   2146000   305.41963      0.040035964    27.221614      757.75452     -69.755899      687.99862    
   2147000   303.88437      0.040035964    19.011557      753.94551     -67.13634       686.80917    
   2148000   303.39089      0.040035964    16.570716      752.72116     -68.765599      683.95556    
   2149000   298.61205      0.040035964    20.748898      740.86473     -62.209652      678.65507    
   2150000   295.65504      0.040035964    21.643866      733.5283      -70.188732      663.33957    
   2151000   298.00815      0.040035964    20.206077      739.36644     -63.531499      675.83494    
   2152000   303.63199      0.040035964    22.060693      753.31933     -58.463743      694.85558    
   2153000   305.88667      0.040035964    20.949776      758.91327     -62.562396      696.35087    
   2154000   291.60233      0.040035964    14.550232      723.47341     -56.744911      666.7285     
   2155000   297.75931      0.040035964    17.82345       738.74906     -60.264468      678.48459    
   2156000   292.59022      0.040035964    17.974394      725.92441     -64.371225      661.55318    
   2157000   303.90123      0.040035964    28.643576      753.98733     -69.263432      684.7239     
   2158000   305.88378      0.040035964    24.831939      758.90608     -70.159124      688.74696    
   2159000   292.83129      0.040035964    15.326915      726.52251     -70.923595      655.59892    
   2160000   297.07428      0.040035964    19.220385      737.04948     -72.673784      664.37569    
   2161000   309.52859      0.040035964    19.507322      767.94895     -67.189911      700.75904    
   2162000   301.88096      0.040035964    17.162615      748.97497     -74.833041      674.14193    
   2163000   309.81903      0.040035964    24.756943      768.66954     -66.412145      702.2574     
   2164000   306.88507      0.040035964    23.272544      761.39033     -66.592822      694.7975     
   2165000   290.40998      0.040035964    21.695449      720.51516     -67.139757      653.3754     
   2166000   296.36116      0.040035964    19.998957      735.28021     -75.334755      659.94546    
   2167000   298.44525      0.040035964    19.976126      740.45089     -64.548314      675.90258    
   2168000   298.03511      0.040035964    23.846223      739.43332     -60.993076      678.44024    
   2169000   297.94481      0.040035964    26.042209      739.20929     -63.032717      676.17657    
   2170000   302.10952      0.040035964    14.795284      749.54206     -60.3511        689.19096    
   2171000   302.50358      0.040035964    15.169637      750.51971     -61.301531      689.21818    
   2172000   277.39371      0.040035964    21.256346      688.22144     -62.423317      625.79812    
   2173000   302.68087      0.040035964    18.283362      750.95958     -63.233551      687.72603    
   2174000   289.46328      0.040035964    26.801533      718.16637     -66.849561      651.3168     
   2175000   297.3493       0.040035964    20.450749      737.73181     -69.981633      667.75018    
   2176000   300.86347      0.040035964    20.595317      746.45056     -71.304305      675.14626    
   2177000   305.0443       0.040035964    21.211709      756.82332     -67.062271      689.76105    
   2178000   285.44501      0.040035964    23.798824      708.19695     -64.240967      643.95598    
   2179000   286.60016      0.040035964    18.596851      711.06291     -71.216376      639.84653    
   2180000   304.50372      0.040035964    24.903673      755.48212     -71.920142      683.56197    
   2181000   307.68059      0.040035964    23.01384       763.36403     -75.417363      687.94667    
   2182000   281.09683      0.040035964    16.973965      697.40899     -76.938498      620.47049    
   2183000   293.63804      0.040035964    20.993219      728.52407     -69.361766      659.1623     
   2184000   302.94029      0.040035964    14.526161      751.6032      -65.549096      686.05411    
   2185000   307.98504      0.040035964    20.291953      764.11938     -63.226473      700.89291    
   2186000   295.67876      0.040035964    19.883658      733.58715     -63.704659      669.88249    
   2187000   304.50109      0.040035964    24.236507      755.47561     -57.44967       698.02594    
   2188000   302.31826      0.040035964    22.567693      750.05995     -63.827745      686.2322     
   2189000   295.24413      0.040035964    19.4807        732.50884     -63.690474      668.81836    
   2190000   303.76523      0.040035964    19.952526      753.64991     -69.880687      683.76922    
   2191000   301.53581      0.040035964    19.697804      748.11866     -76.442958      671.6757     
   2192000   285.50571      0.040035964    16.738877      708.34753     -71.221056      637.12648    
   2193000   288.68979      0.040035964    22.259692      716.24732     -68.478604      647.76872    
   2194000   315.91307      0.040035964    26.622781      783.78903     -63.917202      719.87183    
   2195000   302.43048      0.040035964    12.494375      750.33835     -61.618802      688.71955    
   2196000   293.67071      0.040035964    16.92552       728.60514     -68.642572      659.96256    
   2197000   302.78242      0.040035964    25.687878      751.21152     -64.084292      687.12723    
   2198000   307.68172      0.040035964    15.865597      763.36682     -65.530116      697.83671    
   2199000   291.76977      0.040035964    19.259175      723.88885     -65.771361      658.11749    
   2200000   306.92784      0.040035964    32.539063      761.49643     -66.205133      695.29129    
   2201000   298.40873      0.040035964    43.741938      740.36029     -62.561639      677.79865    
   2202000   307.81872      0.040035964    18.915245      763.70674     -68.58638       695.12036    
   2203000   296.71262      0.040035964    12.920683      736.1522      -72.885932      663.26627    
   2204000   301.4572       0.040035964    24.369236      747.92363     -69.543527      678.3801     
   2205000   311.57864      0.040035964    25.433135      773.03521     -67.425857      705.60935    
   2206000   298.4656       0.040035964    14.322171      740.50138     -62.477837      678.02355    
   2207000   299.60227      0.040035964    18.606633      743.32149     -68.847016      674.47448    
   2208000   312.61008      0.040035964    22.086834      775.59421     -62.089101      713.50511    
   2209000   303.63271      0.040035964    19.36217       753.32112     -69.072048      684.24907    
   2210000   302.38985      0.040035964    18.88871       750.23754     -67.972796      682.26475    
   2211000   298.90602      0.040035964    16.875224      741.59409     -70.007198      671.58689    
   2212000   294.43236      0.040035964    21.584898      730.49479     -64.161486      666.33331    
   2213000   308.42531      0.040035964    23.960434      765.21169     -59.458557      705.75313    
   2214000   308.08608      0.040035964    24.027155      764.37005     -66.867673      697.50238    
   2215000   295.91512      0.040035964    20.153349      734.17358     -75.296758      658.87682    
   2216000   292.56662      0.040035964    17.329357      725.86585     -73.176464      652.68939    
   2217000   292.51341      0.040035964    26.592308      725.73384     -72.281212      653.45263    
   2218000   297.3421       0.040035964    21.56187       737.71396     -68.364757      669.3492     
   2219000   314.74508      0.040035964    16.716226      780.89123     -68.002414      712.88881    
   2220000   288.99944      0.040035964    19.789702      717.01559     -65.392089      651.6235     
   2221000   300.24204      0.040035964    14.634051      744.90878     -63.380809      681.52797    
   2222000   311.05182      0.040035964    20.17305       771.72813     -66.414317      705.31382    
   2223000   299.6702       0.040035964    15.934931      743.49002     -58.152386      685.33763    
   2224000   292.36672      0.040035964    27.094375      725.36989     -61.262293      664.1076     
   2225000   288.89726      0.040035964    22.547351      716.76206     -62.768495      653.99357    
   2226000   313.3981       0.040035964    34.259699      777.54933     -66.98146       710.56787    
   2227000   302.21027      0.040035964    8.0282063      749.792       -64.859138      684.93286    
   2228000   293.54748      0.040035964    29.841182      728.29939     -65.181828      663.11756    
   2229000   311.36339      0.040035964    28.792885      772.50116     -61.620237      710.88092    
   2230000   304.46697      0.040035964    13.591266      755.39095     -66.122657      689.2683     
   2231000   279.83011      0.040035964    22.004346      694.26623     -62.395463      631.87076    
   2232000   275.41657      0.040035964    7.7677636      683.3161      -54.800136      628.51596    
   2233000   295.71764      0.040035964    21.318871      733.68361     -62.106291      671.57732    
   2234000   304.0141       0.040035964    41.214571      754.26735     -62.053916      692.21343    
   2235000   295.36633      0.040035964    6.8023065      732.81199     -58.106035      674.70596    
   2236000   292.8383       0.040035964    17.528183      726.5399      -60.335121      666.20478    
   2237000   298.79663      0.040035964    31.705695      741.32269     -66.896224      674.42646    
   2238000   294.8196       0.040035964    33.660948      731.45554     -61.338643      670.1169     
   2239000   298.62346      0.040035964    16.776801      740.89303     -65.207448      675.68558    
   2240000   299.06121      0.040035964    18.996554      741.9791      -57.353961      684.62514    
   2241000   313.18888      0.040035964    37.073289      777.03023     -61.686415      715.34382    
   2242000   303.5621       0.040035964    21.685254      753.14593     -57.127553      696.01838    
   2243000   299.05722      0.040035964    8.5345725      741.96921     -56.148094      685.82111    
   2244000   294.83867      0.040035964    22.78089       731.50286     -56.549143      674.95371    
   2245000   318.19216      0.040035964    37.596708      789.44352     -61.927424      727.51609    
   2246000   313.06063      0.040035964    13.388606      776.71205     -60.307193      716.40485    
   2247000   288.63256      0.040035964    28.05757       716.10534     -63.079577      653.02576    
   2248000   301.43479      0.040035964    26.132187      747.86803     -65.170923      682.69711    
   2249000   300.38765      0.040035964   -1.817637       745.27005     -59.640042      685.63       
   2250000   295.02715      0.040035964    28.941586      731.9705      -59.869672      672.10083    
   2251000   307.19692      0.040035964    27.098277      762.16402     -67.694363      694.46966    
   2252000   301.08939      0.040035964    20.656378      747.01107     -61.162141      685.84893    
   2253000   299.50516      0.040035964    6.321253       743.08056     -60.456733      682.62383    
   2254000   296.94671      0.040035964    20.87114       736.73298     -59.453647      677.27933    
   2255000   304.90451      0.040035964    27.930583      756.47649     -67.379923      689.09656    
   2256000   308.03121      0.040035964    8.0580912      764.23391     -61.481779      702.75213    
   2257000   303.19247      0.040035964    19.247833      752.22886     -59.779402      692.44946    
   2258000   301.93397      0.040035964    11.935659      749.10649     -58.465198      690.6413     
   2259000   296.04508      0.040035964    25.614847      734.49601     -58.542731      675.95328    
   2260000   317.75233      0.040035964    15.277691      788.35228     -50.236984      738.1153     
   2261000   289.66619      0.040035964    21.123879      718.66979     -51.200859      667.46894    
   2262000   287.37938      0.040035964    24.41837       712.99615     -57.725978      655.27017    
   2263000   313.11252      0.040035964    23.82932       776.84079     -57.07562       719.76517    
   2264000   304.0304       0.040035964    21.337848      754.30781     -57.865744      696.44207    
   2265000   285.09237      0.040035964    20.96203       707.32203     -60.84048       646.48155    
   2266000   296.10897      0.040035964    20.281584      734.65451     -55.10691       679.5476     
   2267000   312.4547       0.040035964    21.223981      775.20871     -56.982523      718.22619    
   2268000   299.07836      0.040035964    18.279186      742.02165     -61.777727      680.24392    
   2269000   298.28605      0.040035964    25.015227      740.05592     -58.809112      681.24681    
   2270000   304.52947      0.040035964    20.752401      755.54602     -57.631242      697.91478    
   2271000   290.12138      0.040035964    19.447588      719.79913     -58.987036      660.8121     
   2272000   298.97375      0.040035964    20.564538      741.76212     -55.886084      685.87603    
   2273000   301.56255      0.040035964    22.962708      748.185       -60.862206      687.32279    
   2274000   304.78226      0.040035964    22.27988       756.17319     -59.775468      696.39772    
   2275000   312.25593      0.040035964    22.028198      774.71558     -53.721561      720.99401    
   2276000   297.58557      0.040035964    20.277013      738.31801     -58.249123      680.06889    
   2277000   308.93042      0.040035964    25.538987      766.46488     -56.825454      709.63942    
   2278000   294.35827      0.040035964    20.199855      730.31098     -57.188924      673.12206    
   2279000   292.41792      0.040035964    19.564855      725.49692     -61.905252      663.59166    
   2280000   311.90533      0.040035964    23.563698      773.84571     -55.009097      718.83662    
   2281000   310.71438      0.040035964    19.359184      770.89095     -60.948551      709.9424     
   2282000   303.91743      0.040035964    18.634645      754.02751     -61.336055      692.69146    
   2283000   290.76928      0.040035964    23.614328      721.40661     -62.108682      659.29792    
   2284000   303.43684      0.040035964    14.969044      752.83517     -71.285761      681.54941    
   2285000   305.49883      0.040035964    21.186411      757.95101     -63.807264      694.14374    
   2286000   309.70874      0.040035964    23.464564      768.39592     -62.105917      706.29       
   2287000   291.37802      0.040035964    19.658484      722.91689     -66.65535       656.26154    
   2288000   296.97512      0.040035964    21.336861      736.80346     -60.427457      676.37601    
   2289000   302.22215      0.040035964    23.123631      749.82147     -60.421407      689.40007    
   2290000   309.66367      0.040035964    20.974372      768.2841      -59.14523       709.13887    
   2291000   292.78474      0.040035964    10.385152      726.40701     -65.746837      660.66017    
   2292000   293.26216      0.040035964    20.456932      727.5915      -63.303139      664.28836    
   2293000   319.90851      0.040035964    29.779172      793.70184     -64.362026      729.33982    
   2294000   297.83122      0.040035964    9.032595       738.92746     -61.562083      677.36537    
   2295000   297.31143      0.040035964    16.653165      737.63785     -70.27531       667.36254    
   2296000   312.20459      0.040035964    26.355054      774.58819     -72.81121       701.77698    
   2297000   308.10017      0.040035964    19.673045      764.40501     -77.233549      687.17146    
   2298000   307.13517      0.040035964    18.532589      762.01083     -68.38209       693.62874    
   2299000   285.8789       0.040035964    9.5124824      709.27344     -74.346948      634.92649    
   2300000   284.12524      0.040035964    18.91276       704.92256     -67.961007      636.96156    
   2301000   304.79246      0.040035964    21.12871       756.19849     -67.572118      688.62637    
   2302000   309.67497      0.040035964    23.773911      768.31213     -66.212933      702.0992     
   2303000   295.70026      0.040035964    23.565713      733.64051     -64.618639      669.02187    
   2304000   299.65283      0.040035964    18.83762       743.44694     -56.615575      686.83137    
   2305000   304.77332      0.040035964    28.231791      756.15101     -53.913715      702.23729    
   2306000   296.68328      0.040035964    23.767995      736.0794      -55.836126      680.24328    
   2307000   290.37756      0.040035964    11.968473      720.43474     -56.583157      663.85158    
   2308000   302.28516      0.040035964    18.860367      749.97781     -54.379206      695.59861    
   2309000   292.95768      0.040035964    21.761694      726.83607     -62.255248      664.58083    
   2310000   296.19619      0.040035964    14.102664      734.87091     -63.299313      671.5716     
   2311000   287.51449      0.040035964    14.979529      713.33137     -71.397829      641.93354    
   2312000   300.79573      0.040035964    20.171812      746.28251     -68.312586      677.96992    
   2313000   313.10463      0.040035964    23.857056      776.82122     -60.817393      716.00383    
   2314000   294.80188      0.040035964    46.346481      731.41159     -62.702547      668.70904    
   2315000   284.64925      0.040035964    22.137077      706.22264     -57.456721      648.76591    
   2316000   299.33025      0.040035964    17.120745      742.64659     -58.055324      684.59127    
   2317000   312.0879       0.040035964    17.426575      774.29868     -60.249595      714.04909    
   2318000   290.98908      0.040035964    29.125901      721.95193     -64.209106      657.74283    
   2319000   297.77161      0.040035964    26.895576      738.77957     -62.402465      676.3771     
   2320000   301.33267      0.040035964    21.899816      747.61466     -61.126976      686.48768    
   2321000   299.35407      0.040035964   -0.77713777     742.70569     -67.677682      675.02801    
   2322000   297.72349      0.040035964    22.753257      738.66018     -67.480193      671.17999    
   2323000   294.88165      0.040035964    32.834293      731.6095      -67.76539       663.84411    
   2324000   306.75361      0.040035964    20.442347      761.06417     -66.19237       694.8718     
   2325000   303.88435      0.040035964    19.287272      753.94544     -61.941919      692.00352    
   2326000   300.53341      0.040035964    22.046353      745.63169     -65.492287      680.1394     
   2327000   309.79613      0.040035964    20.202906      768.61275     -63.432207      705.18054    
   2328000   296.71694      0.040035964    18.451465      736.1629      -64.282009      671.88089    
   2329000   295.01708      0.040035964    22.085859      731.94551     -57.855152      674.09036    
   2330000   308.82947      0.040035964    22.637009      766.21444     -65.020784      701.19365    
   2331000   310.04769      0.040035964    19.638527      769.23687     -65.238317      703.99856    
   2332000   300.86319      0.040035964    19.588569      746.44987     -64.246055      682.20382    
   2333000   294.14292      0.040035964    20.740106      729.77668     -65.495128      664.28156    
   2334000   295.9174       0.040035964    13.696524      734.17922     -75.841532      658.33769    
   2335000   296.48782      0.040035964    19.781615      735.59446     -70.762102      664.83235    
   2336000   299.67716      0.040035964    21.143978      743.5073      -72.700441      670.80686    
   2337000   315.84512      0.040035964    18.746249      783.62044     -74.833193      708.78725    
   2338000   300.71156      0.040035964    5.1672436      746.07366     -71.44167       674.63199    
   2339000   292.81328      0.040035964    30.400816      726.47782     -74.651156      651.82667    
   2340000   296.0829       0.040035964    9.3646357      734.58983     -68.687195      665.90264    
   2341000   294.26948      0.040035964    11.082627      730.09068     -70.803686      659.28699    
   2342000   308.13903      0.040035964    45.132367      764.50144     -70.14498       694.35646    
   2343000   302.10662      0.040035964    8.4522627      749.53486     -71.447289      678.08757    
   2344000   295.1774       0.040035964    16.227115      732.34327     -66.074131      666.26914    
   2345000   293.50306      0.040035964    14.929951      728.18918     -67.068349      661.12083    
   2346000   310.17018      0.040035964    39.960834      769.54078     -62.122732      707.41804    
   2347000   308.70846      0.040035964    12.247727      765.9142      -61.48065       704.43355    
   2348000   294.30316      0.040035964    11.645093      730.17425     -71.991376      658.18287    
   2349000   282.58999      0.040035964    14.697173      701.11356     -67.104843      634.00872    
   2350000   305.34867      0.040035964    29.85116       757.57847     -63.926962      693.65151    
   2351000   310.45658      0.040035964    31.311192      770.25134     -62.876936      707.3744     
   2352000   295.62507      0.040035964   -6.169163       733.45396     -64.940811      668.51315    
   2353000   299.18377      0.040035964    2.38621        742.28318     -59.609159      682.67403    
   2354000   300.3184       0.040035964    31.745738      745.09822     -58.125655      686.97256    
   2355000   298.89288      0.040035964    35.442146      741.56146     -54.816632      686.74483    
   2356000   312.82158      0.040035964   -9.6553599      776.11897     -59.273482      716.84549    
   2357000   298.02867      0.040035964    16.593745      739.41735     -61.637736      677.77961    
   2358000   290.69286      0.040035964    37.941248      721.21701     -54.515616      666.70139    
   2359000   307.10744      0.040035964    29.553154      761.94203     -62.72782       699.21421    
   2360000   304.68698      0.040035964    13.802757      755.9368      -62.844918      693.09188    
   2361000   308.01786      0.040035964    19.899733      764.20079     -59.87156       704.32923    
   2362000   293.53308      0.040035964    52.17682       728.26366     -64.367914      663.89575    
   2363000   302.43603      0.040035964    18.497963      750.35213     -61.85349       688.49864    
   2364000   300.0547       0.040035964    12.963031      744.44399     -66.514047      677.92994    
   2365000   289.68693      0.040035964    21.40358       718.72125     -61.4151        657.30615    
   2366000   300.77834      0.040035964    22.236186      746.23935     -62.199478      684.03987    
   2367000   306.1785       0.040035964    14.311517      759.63729     -62.039917      697.59738    
   2368000   299.27355      0.040035964    12.303784      742.50593     -62.747586      679.75834    
   2369000   289.12862      0.040035964    16.70995       717.33607     -59.35963       657.97644    
   2370000   308.3433       0.040035964    20.6507        765.00822     -69.143069      695.86516    
   2371000   284.37514      0.040035964    17.691045      705.54255     -75.355137      630.18742    
   2372000   289.97243      0.040035964    22.170016      719.4296      -67.31457       652.11503    
   2373000   318.59551      0.040035964    23.130964      790.44423     -74.361252      716.08298    
   2374000   297.21683      0.040035964    19.715256      737.40314     -67.087404      670.31574    
   2375000   296.87743      0.040035964    26.000118      736.56109     -72.817115      663.74398    
   2376000   309.87113      0.040035964    19.266452      768.79882     -70.254637      698.54419    
   2377000   306.0822       0.040035964    21.482702      759.39837     -66.205002      693.19336    
   2378000   294.73987      0.040035964    19.779406      731.25774     -64.598853      666.65889    
   2379000   311.98745      0.040035964    21.866935      774.04946     -61.661911      712.38754    
   2380000   302.01908      0.040035964    21.585621      749.31766     -60.715993      688.60167    
   2381000   287.53136      0.040035964    21.589967      713.37324     -59.494192      653.87904    
   2382000   303.34972      0.040035964    15.818949      752.61902     -57.792239      694.82678    
   2383000   312.56746      0.040035964    17.476696      775.48849     -65.273896      710.2146     
   2384000   307.61734      0.040035964    23.010834      763.20711     -65.556517      697.65059    
   2385000   289.6489       0.040035964    20.985968      718.62691     -68.385658      650.24125    
   2386000   297.37232      0.040035964    21.233732      737.78892     -64.121283      673.66763    
   2387000   312.17557      0.040035964    20.26385       774.51619     -64.900263      709.61593    
   2388000   298.95492      0.040035964    20.251562      741.7154      -67.36394       674.35146    
   2389000   313.35836      0.040035964    29.940981      777.45074     -62.11299       715.33775    
   2390000   297.08359      0.040035964    18.134322      737.07257     -66.800874      670.2717     
   2391000   299.23692      0.040035964    19.001974      742.41506     -66.097112      676.31794    
   2392000   292.20953      0.040035964    18.498881      724.97989     -70.181904      654.79798    
   2393000   299.78548      0.040035964    22.139463      743.77603     -67.714941      676.06109    
   2394000   300.92453      0.040035964    20.603925      746.60206     -58.818948      687.78312    
   2395000   303.12341      0.040035964    22.149804      752.05755     -65.340064      686.71748    
   2396000   299.9283       0.040035964    20.10042       744.13037     -64.458984      679.67139    
   2397000   299.85787      0.040035964    21.734432      743.95563     -62.951509      681.00413    
   2398000   311.17503      0.040035964    19.785599      772.03382     -68.227811      703.80601    
   2399000   300.76693      0.040035964    19.251952      746.21104     -71.198539      675.0125     
   2400000   292.41634      0.040035964    24.223818      725.49301     -60.399735      665.09327    
   2401000   305.94496      0.040035964    21.53278       759.05789     -67.699895      691.35799    
   2402000   305.27738      0.040035964    13.851367      757.4016      -61.489165      695.91243    
   2403000   293.01643      0.040035964    16.811936      726.98184     -69.221587      657.76025    
   2404000   305.0095       0.040035964    24.608872      756.73698     -66.38805       690.34893    
   2405000   302.04826      0.040035964    22.341028      749.39006     -63.812868      685.57719    
   2406000   289.38332      0.040035964    17.352896      717.96799     -61.446044      656.52194    
   2407000   298.8363       0.040035964    19.483525      741.42109     -65.416406      676.00468    
   2408000   302.20619      0.040035964    21.485354      749.78188     -61.58747       688.19441    
   2409000   299.67986      0.040035964    17.17196       743.51399     -57.975926      685.53806    
   2410000   287.04657      0.040035964    19.514718      712.17045     -62.725421      649.44503    
   2411000   304.20275      0.040035964    19.999717      754.73542     -70.633506      684.10191    
   2412000   312.70072      0.040035964    20.794105      775.81911     -72.867551      702.95156    
   2413000   286.97023      0.040035964    32.12065       711.98105     -65.656497      646.32456    
   2414000   295.0471       0.040035964    16.794819      732.01998     -61.097382      670.9226     
   2415000   306.51792      0.040035964    21.4729        760.4794      -63.042954      697.43645    
   2416000   315.59204      0.040035964    34.835149      782.99256     -61.699589      721.29297    
   2417000   295.19349      0.040035964    27.202168      732.3832      -61.231043      671.15215    
   2418000   301.4828       0.040035964    15.508431      747.98714     -62.123095      685.86405    
   2419000   299.71682      0.040035964    21.644968      743.60568     -68.135028      675.47065    
   2420000   287.18496      0.040035964    29.928919      712.51381     -64.861347      647.65247    
   2421000   302.35379      0.040035964    6.7273718      750.1481      -65.973009      684.17509    
   2422000   307.21848      0.040035964    18.34766       762.21752     -68.043093      694.17442    
   2423000   293.80078      0.040035964    29.464376      728.92783     -67.445268      661.48257    
   2424000   298.1929       0.040035964    2.360473       739.8248      -68.90048       670.92432    
   2425000   310.27201      0.040035964    22.988971      769.79341     -62.601834      707.19158    
   2426000   292.62512      0.040035964    28.955164      726.01099     -64.050493      661.9605     
   2427000   296.94427      0.040035964    20.222449      736.72692     -56.93275       679.79417    
   2428000   302.40957      0.040035964    18.087803      750.28648     -59.163027      691.12345    
   2429000   307.70457      0.040035964    22.618821      763.42352     -60.889994      702.53352    
   2430000   308.10708      0.040035964    23.082292      764.42217     -69.714127      694.70804    
   2431000   298.56072      0.040035964    21.338583      740.73738     -67.890278      672.84711    
   2432000   294.01468      0.040035964    18.806456      729.45852     -69.116711      660.34181    
   2433000   302.17248      0.040035964    19.339358      749.69825     -70.058538      679.63971    
   2434000   310.58912      0.040035964    22.442614      770.58018     -76.804295      693.77588    
   2435000   297.49222      0.040035964    18.442754      738.08639     -80.590453      657.49594    
   2436000   294.97229      0.040035964    16.895493      731.83438     -81.561802      650.27258    
   2437000   307.39539      0.040035964    5.9946013      762.65644     -77.272059      685.38438    
   2438000   310.11922      0.040035964    23.724448      769.41433     -80.366767      689.04757    
   2439000   293.23912      0.040035964    21.865208      727.53433     -72.956729      654.5776     
   2440000   293.49396      0.040035964    19.178385      728.16662     -68.176953      659.98966    
   2441000   309.85479      0.040035964    37.315485      768.75827     -76.598856      692.15942    
   2442000   307.55168      0.040035964    27.045217      763.04419     -73.046016      689.99817    
   2443000   293.56111      0.040035964    8.9202503      728.3332      -69.348636      658.98456    
   2444000   298.16535      0.040035964    14.058106      739.75645     -74.560639      665.19582    
   2445000   308.5306       0.040035964    22.565806      765.47291     -68.343695      697.12922    
   2446000   309.4846       0.040035964    47.855568      767.83983     -68.838655      699.00117    
   2447000   288.82684      0.040035964    34.911696      716.58734     -68.369492      648.21785    
   2448000   299.45088      0.040035964    2.2183712      742.94589     -68.796931      674.14896    
   2449000   286.79925      0.040035964    13.367609      711.55685     -70.943526      640.61333    
   2450000   301.71956      0.040035964   -2.1846343      748.57454     -60.538211      688.03633    
   2451000   322.18438      0.040035964    23.069934      799.34833     -64.651317      734.69702    
   2452000   296.80763      0.040035964    14.634064      736.38792     -64.371808      672.01611    
   2453000   301.46915      0.040035964    18.156642      747.95327     -67.378163      680.57511    
   2454000   298.91071      0.040035964    24.012912      741.6057      -65.993797      675.6119     
   2455000   302.98391      0.040035964    17.177287      751.71143     -65.596726      686.11471    
   2456000   304.9555       0.040035964    17.309503      756.60301     -65.297866      691.30515    
   2457000   305.59182      0.040035964    20.199396      758.18174     -69.270904      688.91084    
   2458000   314.19424      0.040035964    38.574137      779.52456     -56.069956      723.4546     
   2459000   285.75919      0.040035964    18.117432      708.97642     -59.320536      649.65588    
   2460000   297.69973      0.040035964    21.074264      738.60123     -64.25757       674.34366    
   2461000   297.52859      0.040035964    20.485844      738.17664     -65.320311      672.85633    
   2462000   300.50082      0.040035964    20.961391      745.55083     -66.737347      678.81348    
   2463000   300.8567       0.040035964    23.889045      746.43376     -67.231942      679.20182    
   2464000   286.97149      0.040035964    28.775986      711.98419     -66.399355      645.58483    
   2465000   295.7821       0.040035964    14.496301      733.84353     -67.721779      666.12176    
   2466000   309.87659      0.040035964    23.346092      768.81235     -66.706902      702.10545    
   2467000   319.22063      0.040035964    30.837024      791.99518     -60.20727       731.78791    
   2468000   305.13716      0.040035964    18.368566      757.05371     -65.650141      691.40357    
   2469000   299.21004      0.040035964    16.39612       742.34836     -61.835994      680.51237    
   2470000   327.52436      0.040035964    21.183077      812.59696     -67.004937      745.59202    
   2471000   300.85317      0.040035964    25.696493      746.42501     -64.543778      681.88124    
   2472000   285.73689      0.040035964    12.036939      708.92109     -65.147026      643.77407    
   2473000   294.80279      0.040035964    20.119338      731.41386     -65.293796      666.12006    
   2474000   311.97589      0.040035964    26.18212       774.0208      -58.834302      715.18649    
   2475000   282.19917      0.040035964    20.189168      700.14392     -57.603349      642.54058    
   2476000   286.77194      0.040035964    17.693648      711.48909     -64.920462      646.56863    
   2477000   303.53026      0.040035964    19.560805      753.06694     -69.998969      683.06797    
   2478000   312.5565       0.040035964    20.255953      775.46129     -60.95526       714.50603    
   2479000   307.42839      0.040035964    23.645155      762.73831     -67.95773       694.78058    
   2480000   287.4944       0.040035964    23.004561      713.28152     -67.718771      645.56275    
   2481000   308.62622      0.040035964    16.386587      765.71017     -72.166164      693.54401    
   2482000   304.37099      0.040035964    20.150345      755.15281     -73.661893      681.49091    
   2483000   286.10658      0.040035964    24.741155      709.8383      -74.105552      635.73275    
   2484000   300.35816      0.040035964    21.008772      745.19687     -76.414499      668.78237    
   2485000   311.98839      0.040035964    20.122197      774.05179     -72.010465      702.04133    
   2486000   316.41459      0.040035964    18.55506       785.03332     -71.546438      713.48688    
   2487000   291.75059      0.040035964    18.427452      723.84125     -67.81153       656.02972    
   2488000   307.81367      0.040035964    20.746032      763.69419     -63.777333      699.91686    
   2489000   307.45241      0.040035964    20.499002      762.7979      -66.003427      696.79447    
   2490000   293.68073      0.040035964    22.60788       728.63        -63.008976      665.62102    
   2491000   289.39279      0.040035964    29.897119      717.9915      -60.37102       657.62048    
   2492000   301.11079      0.040035964    22.753924      747.06417     -64.85173       682.21244    
   2493000   318.02621      0.040035964    19.126854      789.03178     -65.678565      723.35322    
   2494000   291.70319      0.040035964    17.396516      723.72366     -61.981837      661.74182    
   2495000   290.03007      0.040035964    27.200038      719.57261     -60.174162      659.39845    
   2496000   307.62934      0.040035964    36.57108       763.23688     -61.719884      701.517      
   2497000   312.33848      0.040035964    16.360385      774.92038     -60.793999      714.12638    
   2498000   291.72326      0.040035964    13.279169      723.77345     -69.13773       654.63572    
   2499000   283.97342      0.040035964    24.869931      704.54588     -66.198754      638.34713    
   2500000   299.91602      0.040035964    22.768973      744.09992     -62.340828      681.75909    
   2501000   303.1149       0.040035964    18.107047      752.03642     -57.690357      694.34607    
   2502000   305.53195      0.040035964    18.631856      758.03319     -63.49286       694.54033    
   2503000   314.76021      0.040035964    11.948015      780.92875     -65.207543      715.72121    
   2504000   291.48401      0.040035964    15.446533      723.17986     -64.318089      658.86177    
   2505000   293.55053      0.040035964    20.192642      728.30696     -58.147832      670.15913    
   2506000   304.47707      0.040035964    37.827865      755.416       -70.674516      684.74148    
   2507000   317.98005      0.040035964    26.589933      788.91726     -64.798287      724.11897    
   2508000   300.19203      0.040035964    11.387627      744.78471     -66.987956      677.79675    
   2509000   297.35027      0.040035964    35.646566      737.73422     -62.967139      674.76708    
   2510000   295.95453      0.040035964    20.186422      734.27134     -65.412697      668.85865    
   2511000   312.8413       0.040035964    11.058579      776.16789     -65.946504      710.22139    
   2512000   300.70185      0.040035964    12.934583      746.04959     -63.824942      682.22465    
   2513000   294.13765      0.040035964    39.293781      729.76362     -55.952962      673.81065    
   2514000   304.76015      0.040035964    16.867639      756.11832     -60.683197      695.43512    
   2515000   298.06532      0.040035964    18.992847      739.50827     -59.203058      680.30521    
   2516000   319.24267      0.040035964    40.273702      792.04987     -57.144527      734.90534    
   2517000   305.18402      0.040035964    15.017146      757.16997     -67.949474      689.22049    
   2518000   285.79819      0.040035964    14.202869      709.07318     -64.007046      645.06614    
   2519000   297.56059      0.040035964    35.512373      738.25603     -68.017681      670.23835    
   2520000   312.40603      0.040035964    25.560167      775.08796     -69.808831      705.27913    
   2521000   296.41682      0.040035964    22.456085      735.4183      -65.825878      669.59242    
   2522000   300.17513      0.040035964    14.151748      744.74276     -66.648762      678.094      
   2523000   302.00397      0.040035964    10.976647      749.28018     -65.265416      684.01477    
   2524000   294.41297      0.040035964    25.151937      730.44668     -64.685465      665.76122    
   2525000   304.63757      0.040035964    43.555914      755.8142      -60.110353      695.70385    
   2526000   313.0068       0.040035964    23.2959        776.57849     -61.34789       715.2306     
   2527000   298.64483      0.040035964    18.828645      740.94605     -63.212562      677.73349    
   2528000   298.22957      0.040035964    23.331827      739.91578     -63.849146      676.06663    
   2529000   305.07322      0.040035964    22.800148      756.89507     -63.25842       693.63665    
   2530000   290.25695      0.040035964    19.997376      720.1355      -60.253661      659.88184    
   2531000   284.50925      0.040035964    22.267469      705.8753      -59.473882      646.40142    
   2532000   307.34272      0.040035964    24.115298      762.52575     -64.433031      698.09272    
   2533000   313.51483      0.040035964    23.244815      777.83894     -64.274181      713.56476    
   2534000   294.24324      0.040035964    20.595831      730.02559     -62.401773      667.62381    
   2535000   293.52484      0.040035964    22.454328      728.24321     -60.836231      667.40698    
   2536000   293.47832      0.040035964    19.684479      728.1278      -59.077925      669.04988    
   2537000   300.97651      0.040035964    20.674977      746.73102     -60.99954       685.73148    
   2538000   293.38241      0.040035964    22.774178      727.88985     -64.217949      663.6719     
   2539000   299.70619      0.040035964    25.588448      743.57933     -67.845859      675.73347    
   2540000   305.0758       0.040035964    16.77644       756.90148     -66.839643      690.06183    
   2541000   288.78644      0.040035964    18.521369      716.48711     -60.532806      655.95431    
   2542000   297.33586      0.040035964    26.07827       737.69846     -61.008385      676.69008    
   2543000   308.87985      0.040035964    18.480215      766.33943     -63.099123      703.2403     
   2544000   305.85502      0.040035964    19.870002      758.83473     -54.742408      704.09232    
   2545000   305.27434      0.040035964    22.194813      757.39405     -59.419511      697.97454    
   2546000   294.50929      0.040035964    18.706696      730.68567     -63.854296      666.83137    
   2547000   292.80596      0.040035964    21.172862      726.45965     -67.603804      658.85584    
   2548000   297.69124      0.040035964    22.999931      738.58017     -62.069022      676.51115    
   2549000   302.62505      0.040035964    24.043186      750.8211      -68.670148      682.15095    
   2550000   313.32287      0.040035964    20.152185      777.36269     -70.846203      706.51648    
   2551000   301.17791      0.040035964    17.644837      747.23069     -68.782764      678.44792    
   2552000   289.37643      0.040035964    17.019355      717.9509      -60.776682      657.17421    
   2553000   299.76659      0.040035964    24.754481      743.72917     -64.533041      679.19613    
   2554000   307.35093      0.040035964    18.979343      762.54613     -57.169489      705.37664    
   2555000   285.50479      0.040035964    12.959313      708.34525     -63.414287      644.93097    
   2556000   302.59953      0.040035964    26.655235      750.75778     -52.691424      698.06635    
   2557000   305.57503      0.040035964    18.668919      758.14007     -59.560092      698.57998    
   2558000   299.57784      0.040035964    13.876968      743.26087     -58.515732      684.74514    
   2559000   299.14684      0.040035964    21.952682      742.19156     -61.0251        681.16646    
   2560000   305.60709      0.040035964    23.09723       758.2196      -59.421457      698.79815    
   2561000   297.50771      0.040035964    15.44161       738.12483     -64.381827      673.743      
   2562000   293.75694      0.040035964    20.586932      728.81907     -65.651112      663.16796    
   2563000   315.12798      0.040035964    21.325135      781.84121     -61.393217      720.448      
   2564000   298.56385      0.040035964    18.476192      740.74514     -62.060687      678.68446    
   2565000   291.07746      0.040035964    16.50684       722.17119     -61.646003      660.52519    
   2566000   306.35489      0.040035964    28.272771      760.07492     -62.393669      697.68125    
   2567000   301.19918      0.040035964    23.220851      747.28347     -61.335546      685.94793    
   2568000   302.59883      0.040035964    22.033669      750.75604     -65.238704      685.51733    
   2569000   296.7131       0.040035964    1.2779853      736.15337     -74.398756      661.75461    
   2570000   293.54569      0.040035964    33.33029       728.29495     -64.945627      663.34932    
   2571000   294.89382      0.040035964    10.544304      731.6397      -71.640374      659.99933    
   2572000   294.59131      0.040035964    20.43907       730.88916     -70.707462      660.18169    
   2573000   303.71339      0.040035964    25.657184      753.52128     -68.624941      684.89634    
   2574000   299.23851      0.040035964    23.145323      742.419       -65.559432      676.85956    
   2575000   305.82027      0.040035964    18.514672      758.74853     -61.076585      697.67195    
   2576000   305.99928      0.040035964    14.505182      759.19266     -57.787569      701.40509    
   2577000   294.77079      0.040035964    17.483654      731.33445     -58.233088      673.10136    
   2578000   282.96458      0.040035964    7.0109172      702.04292     -52.111241      649.93168    
   2579000   285.27948      0.040035964    22.10408       707.78626     -55.748131      652.03813    
   2580000   306.06175      0.040035964    26.393187      759.34763     -53.393573      705.95405    
   2581000   301.33442      0.040035964    19.051117      747.61901     -54.255394      693.36361    
   2582000   296.1497       0.040035964    20.608826      734.75556     -55.392169      679.36339    
   2583000   306.64149      0.040035964    24.351384      760.78599     -59.583354      701.20263    
   2584000   308.48745      0.040035964    23.893039      765.36587     -62.775229      702.59064    
   2585000   303.468        0.040035964    15.831932      752.91246     -68.485211      684.42725    
   2586000   301.60195      0.040035964    19.663475      748.28276     -63.846481      684.43628    
   2587000   291.42496      0.040035964    23.454022      723.03336     -64.393803      658.63956    
   2588000   309.70077      0.040035964    45.350919      768.37614     -61.045633      707.33051    
   2589000   304.49059      0.040035964    18.272875      755.44955     -63.282938      692.16661    
   2590000   298.61283      0.040035964   -0.25245234     740.86667     -57.872025      682.99464    
   2591000   294.10606      0.040035964    11.235516      729.68523     -59.491294      670.19394    
   2592000   296.23941      0.040035964    22.046967      734.97813     -64.803368      670.17477    
   2593000   288.54018      0.040035964    37.678389      715.87614     -59.471499      656.40464    
   2594000   306.8595       0.040035964    21.608089      761.32689     -64.508038      696.81885    
   2595000   300.77512      0.040035964    17.96698       746.23137     -64.396373      681.83499    
   2596000   302.12109      0.040035964    22.915023      749.57076     -58.331641      691.23912    
   2597000   308.17476      0.040035964    21.571622      764.59009     -58.256246      706.33384    
   2598000   314.48687      0.040035964    19.006947      780.2506      -58.663733      721.58686    
   2599000   291.33555      0.040035964    21.610686      722.81153     -61.453874      661.35765    
   2600000   291.31986      0.040035964    11.587611      722.7726      -60.000393      662.7722     
   2601000   296.13458      0.040035964    16.905886      734.71805     -67.886651      666.8314     
   2602000   303.93382      0.040035964    20.93585       754.06818     -60.348108      693.72007    
   2603000   297.97101      0.040035964    18.704566      739.2743      -64.190785      675.08351    
   2604000   300.94405      0.040035964    21.423751      746.65048     -59.018601      687.63188    
   2605000   301.75062      0.040035964    20.155893      748.65161     -62.51942       686.13219    
   2606000   305.63113      0.040035964    23.416235      758.27926     -64.652014      693.62724    
   2607000   308.34417      0.040035964    23.257954      765.01037     -65.749083      699.26129    
   2608000   285.51189      0.040035964    20.182508      708.36288     -61.362208      647.00067    
   2609000   304.39658      0.040035964    19.998007      755.21629     -62.404097      692.8122     
   2610000   312.34058      0.040035964    20.107681      774.92558     -63.173368      711.75221    
   2611000   296.33147      0.040035964    23.539683      735.20655     -61.300954      673.90559    
   2612000   288.64874      0.040035964    22.755953      716.14547     -57.871199      658.27427    
   2613000   290.21615      0.040035964    17.590422      720.03428     -62.636506      657.39777    
   2614000   313.66383      0.040035964    19.435945      778.20861     -64.215716      713.9929     
   2615000   291.66795      0.040035964    24.406444      723.63622     -53.286266      670.34995    
   2616000   288.34         0.040035964    19.388664      715.3795      -64.088826      651.29067    
   2617000   300.2777       0.040035964    21.956617      744.99726     -58.3497        686.64756    
   2618000   309.50598      0.040035964    25.034832      767.89288     -54.076796      713.81608    
   2619000   297.39468      0.040035964    31.365485      737.8444      -53.948408      683.89599    
   2620000   292.70512      0.040035964    14.001528      726.20947     -61.089651      665.11982    
   2621000   316.81311      0.040035964    20.705707      786.02206     -61.406997      724.61507    
   2622000   299.47431      0.040035964    23.624952      743.00402     -57.959155      685.04487    
   2623000   290.03883      0.040035964    17.430837      719.59433     -61.635489      657.95884    
   2624000   287.94941      0.040035964    0.12623051     714.41042     -58.012194      656.39822    
   2625000   294.22991      0.040035964    8.6666102      729.99253     -53.692187      676.30034    
   2626000   295.40706      0.040035964    59.625454      732.91306     -56.443111      676.46995    
   2627000   303.10718      0.040035964    3.4440579      752.01726     -61.657071      690.36019    
   2628000   322.75166      0.040035964    8.7734396      800.75576     -55.495885      745.25988    
   2629000   303.66009      0.040035964    23.631581      753.38904     -60.029692      693.35935    
   2630000   280.88997      0.040035964    24.55679       696.89577     -63.222388      633.67338    
   2631000   302.82868      0.040035964    10.681264      751.3263      -61.135149      690.19115    
   2632000   305.99255      0.040035964    14.305662      759.17595     -63.483402      695.69255    
   2633000   296.96585      0.040035964    39.169328      736.78046     -63.554203      673.22626    
   2634000   298.34789      0.040035964    11.984863      740.20934     -62.020393      678.18895    
   2635000   309.56114      0.040035964    30.972901      768.02973     -64.778319      703.25141    
   2636000   283.83839      0.040035964    26.146964      704.21087     -64.505047      639.70582    
   2637000   297.78611      0.040035964    7.6592264      738.81555     -62.193058      676.6225     
   2638000   312.98783      0.040035964    26.232952      776.53143     -77.152018      699.37941    
   2639000   284.56793      0.040035964    25.236075      706.02087     -72.260152      633.76072    
   2640000   299.48267      0.040035964    8.3445676      743.02475     -69.084852      673.9399     
   2641000   308.93125      0.040035964    28.249356      766.46694     -74.460598      692.00634    
   2642000   301.99523      0.040035964    33.126338      749.25848     -66.032368      683.22611    
   2643000   286.6008       0.040035964    3.6390827      711.06448     -65.054956      646.00953    
   2644000   309.90353      0.040035964    21.379382      768.8792      -61.504973      707.37423    
   2645000   304.0441       0.040035964    25.264759      754.34178     -62.326241      692.01554    
   2646000   285.93495      0.040035964    27.414475      709.4125      -60.591075      648.82142    
   2647000   292.56519      0.040035964    7.9267312      725.8623      -60.66433       665.19797    
   2648000   312.53213      0.040035964    13.839946      775.40083     -55.81676       719.58407    
   2649000   310.57264      0.040035964    34.466527      770.53927     -55.388352      715.15092    
   2650000   292.92171      0.040035964    22.844529      726.74685     -53.182225      673.56462    
   2651000   300.16103      0.040035964    15.173967      744.70778     -55.693985      689.01379    
   2652000   307.49562      0.040035964    22.065565      762.90512     -64.289747      698.61537    
   2653000   305.90183      0.040035964    27.494221      758.95088     -61.676491      697.27439    
   2654000   289.46862      0.040035964    20.784353      718.17962     -69.919941      648.25968    
   2655000   292.59591      0.040035964    18.845531      725.93852     -61.553075      664.38544    
   2656000   316.58051      0.040035964    19.511355      785.44496     -66.754122      718.69084    
   2657000   299.06225      0.040035964    38.241515      741.98169     -63.382182      678.59951    
   2658000   285.55701      0.040035964    5.6112161      708.4748      -68.267392      640.20741    
   2659000   314.61553      0.040035964    19.617196      780.5698      -71.128968      709.44084    
   2660000   302.43611      0.040035964    34.659861      750.35234     -73.661772      676.69056    
   2661000   287.68155      0.040035964    19.123219      713.74585     -67.831682      645.91417    
   2662000   298.16783      0.040035964    19.517909      739.76261     -70.039018      669.72359    
   2663000   323.50766      0.040035964    21.200666      802.63142     -69.481025      733.15039    
   2664000   295.82566      0.040035964    20.809993      733.95161     -66.963639      666.98797    
   2665000   300.41513      0.040035964    19.112299      745.33821     -65.996342      679.34187    
   2666000   300.221        0.040035964    22.25733       744.85659     -67.421958      677.43463    
   2667000   292.04117      0.040035964    20.410159      724.56218     -57.638953      666.92323    
   2668000   294.3468       0.040035964    19.710575      730.28253     -64.158085      666.12444    
   2669000   312.80816      0.040035964    22.081659      776.08567     -63.804228      712.28144    
   2670000   308.15009      0.040035964    21.873308      764.52886     -63.480268      701.04859    
   2671000   295.50356      0.040035964    21.861088      733.15249     -61.955761      671.19672    
   2672000   296.4153       0.040035964    21.017669      735.41452     -62.818349      672.59617    
   2673000   303.57354      0.040035964    20.117419      753.17433     -67.604579      685.56975    
   2674000   304.43669      0.040035964    21.731571      755.31582     -63.746167      691.56966    
   2675000   296.6072       0.040035964    5.0287866      735.89064     -70.05098       665.83966    
   2676000   290.04297      0.040035964    22.692739      719.60461     -70.23415       649.37046    
   2677000   303.51093      0.040035964    29.149368      753.01899     -64.270558      688.74843    
   2678000   308.54624      0.040035964    16.951245      765.51173     -67.984664      697.52707    
   2679000   304.89421      0.040035964    20.258532      756.45093     -68.599794      687.85114    
   2680000   293.48027      0.040035964    20.438117      728.13263     -67.480143      660.65249    
   2681000   300.37434      0.040035964    21.043686      745.23702     -71.101229      674.13579    
   2682000   311.06527      0.040035964    18.987002      771.76152     -73.808173      697.95335    
   2683000   299.13038      0.040035964    23.717283      742.15073     -73.993976      668.15675    
   2684000   282.81916      0.040035964    12.650579      701.68214     -71.174581      630.50756    
   2685000   295.40052      0.040035964    23.521488      732.89683     -74.729021      658.16781    
   2686000   295.98096      0.040035964    20.667109      734.33691     -70.614956      663.72195    
   2687000   304.81632      0.040035964    21.113343      756.25769     -80.747676      675.51002    
   2688000   295.81072      0.040035964    22.873528      733.91456     -68.239824      665.67474    
   2689000   294.36147      0.040035964    19.434544      730.31892     -72.513057      657.80586    
   2690000   299.7631       0.040035964    19.098956      743.72052     -74.962136      668.75839    
   2691000   316.58638      0.040035964    22.036889      785.45955     -74.240908      711.21864    
   2692000   292.44047      0.040035964    24.501511      725.55288     -74.78823       650.76465    
   2693000   299.04989      0.040035964    16.955292      741.95102     -71.549037      670.40199    
   2694000   314.06028      0.040035964    20.156784      779.19222     -73.437958      705.75426    
   2695000   306.15407      0.040035964    23.73896       759.57669     -76.322846      683.25385    
   2696000   300.4874       0.040035964    23.02198       745.51753     -77.90834       667.60919    
   2697000   298.35884      0.040035964    18.004834      740.23652     -72.189633      668.04688    
   2698000   301.18064      0.040035964    21.158348      747.23747     -77.316638      669.92084    
   2699000   297.04437      0.040035964    20.754999      736.97527     -78.450461      658.52481    
   2700000   296.04391      0.040035964    18.607007      734.49309     -77.341023      657.15207    
   2701000   308.55502      0.040035964    21.924192      765.5335      -71.125341      694.40816    
   2702000   305.94291      0.040035964    19.096602      759.05279     -71.675156      687.37763    
   2703000   291.74832      0.040035964    16.306593      723.83563     -68.148029      655.6876     
   2704000   304.49385      0.040035964    25.366929      755.45763     -64.304698      691.15293    
   2705000   300.41924      0.040035964    20.829211      745.34842     -68.647155      676.70126    
   2706000   298.33539      0.040035964    17.574759      740.17833     -69.849528      670.3288     
   2707000   301.05956      0.040035964    14.022122      746.93707     -72.670281      674.26679    
   2708000   292.91951      0.040035964    27.079363      726.74139     -71.991846      654.74954    
   2709000   304.00418      0.040035964    26.426914      754.24274     -72.267028      681.97571    
   2710000   307.65184      0.040035964    4.509107       763.29268     -69.907781      693.3849     
   2711000   293.36043      0.040035964    24.590487      727.83532     -70.591261      657.24406    
   2712000   303.06846      0.040035964    29.56381       751.92121     -70.429542      681.49167    
   2713000   302.70685      0.040035964   -21.121249      751.02405     -70.241177      680.78287    
   2714000   290.1262       0.040035964   -0.89540057     719.81109     -70.971682      648.83941    
   2715000   296.83796      0.040035964    8.0880794      736.46316     -67.065882      669.39728    
   2716000   292.46188      0.040035964    47.270698      725.60597     -66.573314      659.03266    
   2717000   313.64881      0.040035964    25.638882      778.17134     -67.235138      710.9362     
   2718000   297.17349      0.040035964    31.976102      737.29561     -69.463668      667.83194    
   2719000   298.14488      0.040035964    13.888599      739.70566     -69.419467      670.28619    
   2720000   301.36976      0.040035964    27.176615      747.70667     -69.390092      678.31658    
   2721000   298.84656      0.040035964    16.668493      741.44655     -72.317897      669.12865    
   2722000   292.50123      0.040035964    17.030945      725.70361     -71.059595      654.64402    
   2723000   310.94736      0.040035964    21.571117      771.46898     -65.87686       705.59212    
   2724000   311.5422       0.040035964    26.08644       772.94478     -67.147357      705.79743    
   2725000   289.6287       0.040035964    28.749631      718.57679     -59.090377      659.48641    
   2726000   293.05946      0.040035964    20.968524      727.08861     -59.127264      667.96134    
   2727000   304.99437      0.040035964    18.705217      756.69944     -58.879319      697.82012    
   2728000   295.08674      0.040035964    21.923291      732.11834     -61.0262        671.09214    
   2729000   298.55206      0.040035964    23.744463      740.7159      -62.730126      677.98577    
   2730000   303.52727      0.040035964    22.676981      753.05952     -65.77214       687.28738    
   2731000   292.90982      0.040035964    17.784752      726.71734     -60.851308      665.86604    
   2732000   293.69747      0.040035964    18.478939      728.67153     -63.989442      664.68208    
   2733000   309.29297      0.040035964    23.393472      767.36438     -52.546262      714.81812    
   2734000   300.3886       0.040035964    23.252574      745.27239     -58.759992      686.5124     
   2735000   299.62896      0.040035964    26.692219      743.38772     -61.544198      681.84352    
   2736000   282.26746      0.040035964    7.9452333      700.31334     -53.096155      647.21718    
   2737000   307.84154      0.040035964    18.542322      763.76334     -64.390086      699.37326    
   2738000   292.90134      0.040035964    31.676566      726.6963      -59.13991       667.55639    
   2739000   294.44739      0.040035964    21.201584      730.53209     -65.253968      665.27812    
   2740000   296.15652      0.040035964    19.918311      734.77249     -70.770885      664.00161    
   2741000   306.34845      0.040035964    19.646898      760.05895     -70.291381      689.76757    
   2742000   300.64563      0.040035964    15.57661       745.9101      -72.125442      673.78466    
   2743000   303.41395      0.040035964    20.75646       752.77837     -71.986142      680.79223    
   2744000   301.08626      0.040035964    19.071835      747.0033      -78.500933      668.50237    
   2745000   290.45604      0.040035964    10.668317      720.62944     -78.836988      641.79245    
   2746000   286.53051      0.040035964    15.91454       710.89009     -77.494307      633.39579    
   2747000   305.71852      0.040035964    21.793854      758.49607     -80.396826      678.09924    
   2748000   301.37883      0.040035964    19.30443       747.72918     -80.139563      667.58961    
   2749000   295.75484      0.040035964    20.550486      733.77592     -69.938459      663.83746    
   2750000   298.88908      0.040035964    19.536416      741.55206     -69.593434      671.95862    
   2751000   299.32712      0.040035964    19.086201      742.63883     -63.740734      678.8981     
   2752000   303.7358       0.040035964    18.334393      753.57689     -63.632039      689.94485    
   2753000   327.89522      0.040035964    24.573127      813.51707     -70.163047      743.35402    
   2754000   292.15942      0.040035964    19.665902      724.85556     -72.179691      652.67587    
   2755000   298.12017      0.040035964    13.184905      739.64437     -69.696521      669.94785    
   2756000   314.20689      0.040035964    22.937446      779.55595     -80.736581      698.81936    
   2757000   298.84189      0.040035964    26.152532      741.43496     -77.624197      663.81076    
   2758000   294.66739      0.040035964    13.873106      731.07791     -71.198026      659.87988    
   2759000   297.03109      0.040035964    16.575991      736.94232     -76.216837      660.72549    
   2760000   304.87687      0.040035964    20.566099      756.40793     -71.675891      684.73204    
   2761000   294.49404      0.040035964    19.251398      730.64783     -73.264106      657.38372    
   2762000   309.8696       0.040035964    17.967696      768.79503     -81.442039      687.35299    
   2763000   302.41797      0.040035964    13.958885      750.30732     -82.959365      667.34795    
   2764000   293.52819      0.040035964    19.985896      728.25154     -83.559943      644.6916     
   2765000   287.32931      0.040035964    14.979206      712.87193     -81.283899      631.58803    
   2766000   295.4458       0.040035964    23.38421       733.00916     -75.441333      657.56783    
   2767000   293.13939      0.040035964    28.736479      727.2869      -76.317941      650.96896    
   2768000   310.35942      0.040035964    12.536163      770.01029     -77.399337      692.61095    
   2769000   314.5748       0.040035964    9.5982879      780.46875     -76.46011       704.00864    
   2770000   285.89159      0.040035964    29.416618      709.30492     -79.080608      630.22431    
   2771000   289.78265      0.040035964    24.248911      718.95875     -77.58562       641.37313    
   2772000   321.14496      0.040035964    31.355634      796.7695      -77.819239      718.95026    
   2773000   307.54707      0.040035964    21.85401       763.03275     -77.424406      685.60834    
   2774000   300.09738      0.040035964    17.454677      744.54988     -80.836198      663.71368    
   2775000   295.42783      0.040035964    23.818821      732.9646      -77.885889      655.07871    
   2776000   313.95753      0.040035964    24.441106      778.9373      -74.672292      704.265      
   2777000   296.53516      0.040035964    16.829787      735.71191     -71.377639      664.33427    
   2778000   301.41163      0.040035964    18.094438      747.81057     -70.120673      677.6899     
   2779000   313.6886       0.040035964    23.674186      778.27006     -62.157727      716.11234    
   2780000   306.92486      0.040035964    19.662399      761.48903     -77.427817      684.06121    
   2781000   306.09322      0.040035964    14.350016      759.42573     -67.609129      691.8166     
   2782000   307.6418       0.040035964    19.718401      763.26779     -71.799565      691.46823    
   2783000   309.83127      0.040035964    20.353886      768.69992     -70.669655      698.03026    
   2784000   296.40775      0.040035964    23.840467      735.39579     -66.916149      668.47965    
   2785000   305.74311      0.040035964    20.519412      758.55709     -67.86866       690.68843    
   2786000   300.26538      0.040035964    21.55966       744.96669     -69.537626      675.42907    
   2787000   303.66723      0.040035964    19.207537      753.40678     -68.264579      685.1422     
   2788000   297.71119      0.040035964    22.260555      738.62968     -68.465007      670.16467    
   2789000   317.73802      0.040035964    26.44924       788.31679     -70.647896      717.66889    
   2790000   303.51422      0.040035964    20.09574       753.02714     -73.51971       679.50743    
   2791000   311.71663      0.040035964    24.825712      773.37754     -75.091568      698.28598    
   2792000   305.92716      0.040035964    12.227354      759.01372     -76.378598      682.63512    
   2793000   291.10107      0.040035964    17.727198      722.22978     -80.825999      641.40378    
   2794000   299.28889      0.040035964    20.860557      742.54399     -79.970219      662.57378    
   2795000   307.08713      0.040035964    17.607657      761.89163     -78.672728      683.2189     
   2796000   301.86519      0.040035964    19.187765      748.93585     -79.431422      669.50443    
   2797000   305.6552       0.040035964    25.607493      758.33898     -71.778963      686.56002    
   2798000   304.5188       0.040035964    22.981964      755.51954     -77.718547      677.801      
   2799000   294.73672      0.040035964    22.243948      731.24993     -70.946306      660.30363    
   2800000   308.97172      0.040035964    14.605519      766.56735     -78.277404      688.28995    
   2801000   305.00081      0.040035964    17.650108      756.71542     -77.444453      679.27096    
   2802000   300.79055      0.040035964    32.269895      746.26965     -77.791217      668.47843    
   2803000   298.75443      0.040035964    13.068485      741.21799     -72.768557      668.44943    
   2804000   294.38816      0.040035964    12.1785        730.38514     -66.400181      663.98496    
   2805000   309.64923      0.040035964    37.187949      768.24829     -70.553332      697.69496    
   2806000   303.70975      0.040035964    20.641203      753.51225     -69.359963      684.15229    
   2807000   286.09608      0.040035964    17.045923      709.81225     -67.57156       642.24069    
   2808000   297.68446      0.040035964    20.33857       738.56334     -71.568204      666.99514    
   2809000   301.06577      0.040035964    31.686246      746.95247     -69.24564       677.70683    
   2810000   309.68921      0.040035964    24.118438      768.34747     -77.274011      691.07345    
   2811000   292.74709      0.040035964    8.2756574      726.31359     -66.713355      659.60023    
   2812000   294.96997      0.040035964    15.448359      731.82863     -70.517324      661.31131    
   2813000   312.69828      0.040035964    27.953743      775.81305     -71.871552      703.94149    
   2814000   301.64437      0.040035964    20.418812      748.38801     -64.280141      684.10787    
   2815000   305.41111      0.040035964    20.906841      757.73337     -65.878068      691.85531    
   2816000   307.61581      0.040035964    24.423897      763.20331     -63.953001      699.25031    
   2817000   287.70755      0.040035964    19.105348      713.81035     -64.742423      649.06793    
   2818000   293.78532      0.040035964    11.653164      728.88949     -68.336109      660.55338    
   2819000   299.8777       0.040035964    20.683561      744.00483     -72.495664      671.50917    
   2820000   312.49712      0.040035964    24.901464      775.31396     -72.324314      702.98965    
   2821000   294.48357      0.040035964    18.978097      730.62186     -76.21218       654.40968    
   2822000   291.50901      0.040035964    17.178833      723.24189     -76.403852      646.83803    
   2823000   312.78767      0.040035964    16.443867      776.03482     -68.154664      707.88016    
   2824000   300.87977      0.040035964    28.206142      746.49101     -74.559706      671.9313     
   2825000   286.6845       0.040035964    10.682515      711.27215     -69.624287      641.64787    
   2826000   295.44878      0.040035964    16.048128      733.01656     -68.148972      664.86759    
   2827000   308.44325      0.040035964    20.968023      765.25621     -70.305163      694.95105    
   2828000   297.08885      0.040035964    22.131839      737.08563     -68.575229      668.5104     
   2829000   290.91591      0.040035964    19.28064       721.77039     -70.194104      651.57628    
   2830000   297.96674      0.040035964    15.546585      739.26371     -74.303863      664.95984    
   2831000   301.27309      0.040035964    19.316422      747.46684     -77.030719      670.43612    
   2832000   305.79853      0.040035964    16.994825      758.69458     -78.754083      679.9405     
   2833000   303.03838      0.040035964    23.482979      751.84658     -75.377997      676.46859    
   2834000   290.72369      0.040035964    29.718294      721.2935      -67.09983       654.19367    
   2835000   301.95845      0.040035964    15.494807      749.16724     -69.152908      680.01433    
   2836000   307.49227      0.040035964    14.473502      762.8968      -65.872492      697.02431    
   2837000   313.19142      0.040035964    26.931976      777.03654     -68.380658      708.65588    
   2838000   290.93729      0.040035964    24.671496      721.82344     -60.46533       661.35811    
   2839000   296.04391      0.040035964    11.804071      734.4931      -72.407061      662.08604    
   2840000   311.99869      0.040035964    16.240764      774.07734     -75.99101       698.08633    
   2841000   304.82355      0.040035964    29.832907      756.27563     -67.635623      688.64001    
   2842000   299.66974      0.040035964    25.032166      743.4889      -70.935259      672.55364    
   2843000   288.10827      0.040035964   -3.0451269      714.80455     -69.381228      645.42332    
   2844000   313.31957      0.040035964    23.11029       777.35448     -69.061664      708.29281    
   2845000   305.98799      0.040035964    27.574309      759.16465     -70.564161      688.60049    
   2846000   290.89302      0.040035964    20.817026      721.71359     -65.364348      656.34924    
   2847000   297.44269      0.040035964    2.4361543      737.96352     -62.978152      674.98536    
   2848000   311.12668      0.040035964    2.4339878      771.91388     -70.408194      701.50569    
   2849000   306.36916      0.040035964    22.701202      760.11034     -65.87854       694.2318     
   2850000   296.05822      0.040035964    28.208899      734.52861     -64.327093      670.20151    
   2851000   292.81145      0.040035964   -2.7247022      726.47327     -66.37954       660.09373    
   2852000   320.6599       0.040035964    12.850314      795.56606     -61.636457      733.92961    
   2853000   312.7846       0.040035964    16.720582      776.02722     -68.318933      707.70829    
   2854000   291.49524      0.040035964    23.938204      723.20773     -72.796793      650.41093    
   2855000   294.95152      0.040035964    14.973082      731.78285     -74.35787       657.42498    
   2856000   304.77353      0.040035964    16.533645      756.15153     -79.474675      676.67686    
   2857000   304.21616      0.040035964    21.6013        754.76868     -79.690004      675.07868    
   2858000   296.98846      0.040035964    21.126871      736.83656     -82.449044      654.38752    
   2859000   308.34932      0.040035964    17.882606      765.02316     -74.381569      690.64159    
   2860000   302.72412      0.040035964    18.44074       751.06689     -73.911541      677.15535    
   2861000   294.44085      0.040035964    24.129671      730.51586     -63.779         666.73687    
   2862000   291.21573      0.040035964    23.157283      722.51426     -57.919221      664.59504    
   2863000   301.04931      0.040035964    10.475442      746.91163     -59.722998      687.18863    
   2864000   298.82404      0.040035964    21.667465      741.39067     -60.475226      680.91544    
   2865000   309.97208      0.040035964    23.215692      769.04928     -62.667648      706.38163    
   2866000   306.43819      0.040035964    24.011941      760.28159     -69.186694      691.09489    
   2867000   294.24752      0.040035964    20.043103      730.0362      -69.981819      660.05438    
   2868000   313.32597      0.040035964    18.755081      777.37037     -70.511636      706.85873    
   2869000   288.30814      0.040035964    23.299361      715.30044     -72.393862      642.90658    
   2870000   294.52606      0.040035964    18.297056      730.72727     -70.686782      660.04048    
   2871000   307.1292       0.040035964    26.283289      761.99601     -68.358272      693.63773    
   2872000   303.41408      0.040035964    20.728478      752.77871     -74.791346      677.98736    
   2873000   296.70415      0.040035964    16.108186      736.13119     -72.582885      663.5483     
   2874000   310.08452      0.040035964    19.231858      769.32823     -70.520123      698.80811    
   2875000   303.67672      0.040035964    20.187551      753.43031     -70.770469      682.65984    
   2876000   303.18321      0.040035964    35.325908      752.20591     -70.71162       681.49429    
   2877000   304.18957      0.040035964    15.19746       754.7027      -77.438704      677.26399    
   2878000   303.11909      0.040035964    4.3818397      752.04683     -83.34872       668.69811    
   2879000   300.51857      0.040035964    22.512007      745.59487     -75.740904      669.85396    
   2880000   296.62468      0.040035964    25.570129      735.93401     -77.023093      658.91091    
   2881000   291.9635       0.040035964    29.573922      724.36949     -78.027317      646.34218    
   2882000   312.89953      0.040035964    1.6582396      776.31237     -78.764526      697.54784    
   2883000   293.86156      0.040035964    28.232391      729.07863     -76.638638      652.43999    
   2884000   286.71799      0.040035964    29.175903      711.35524     -70.232406      641.12283    
   2885000   316.3315       0.040035964    20.629         784.82717     -67.864905      716.96226    
   2886000   305.58513      0.040035964    1.9820608      758.16514     -75.141439      683.0237     
   2887000   293.39811      0.040035964    25.11097       727.9288      -62.027837      665.90097    
   2888000   303.08303      0.040035964    19.287775      751.95735     -75.386579      676.57077    
   2889000   302.87868      0.040035964    20.834649      751.45036     -70.075718      681.37464    
   2890000   295.17223      0.040035964    11.222166      732.33043     -76.230146      656.10028    
   2891000   295.50037      0.040035964    28.85969       733.14456     -70.158441      662.98612    
   2892000   309.11716      0.040035964    23.740322      766.9282      -63.542379      703.38582    
   2893000   316.30733      0.040035964    21.111482      784.76721     -64.048267      720.71894    
   2894000   306.55904      0.040035964   -1.5217275      760.58142     -61.205401      699.37602    
   2895000   291.90206      0.040035964    26.135504      724.21706     -66.872629      657.34443    
   2896000   309.02015      0.040035964    29.673993      766.68752     -66.901638      699.78588    
   2897000   298.85038      0.040035964    16.8949        741.45602     -68.265402      673.19062    
   2898000   299.60535      0.040035964    11.19453       743.32912     -74.445565      668.88356    
   2899000   292.60988      0.040035964    35.263236      725.97319     -71.261574      654.71161    
   2900000   305.57829      0.040035964    38.545355      758.14817     -67.308568      690.8396     
   2901000   305.55121      0.040035964   -7.1861836      758.08098     -69.603159      688.47782    
   2902000   301.02316      0.040035964    9.083645       746.84675     -66.589084      680.25767    
   2903000   292.06432      0.040035964    21.447042      724.61963     -64.323153      660.29648    
   2904000   307.58687      0.040035964    35.545281      763.13149     -67.919598      695.21189    
   2905000   313.73234      0.040035964    9.9479206      778.37859     -66.792909      711.58568    
   2906000   291.24191      0.040035964    1.5408667      722.57922     -60.886851      661.69237    
   2907000   286.02409      0.040035964    9.7219403      709.63364     -62.573297      647.06035    
   2908000   310.43036      0.040035964    29.521095      770.18627     -63.326118      706.86015    
   2909000   318.50629      0.040035964   -3.3348932      790.2229      -61.377784      728.84511    
   2910000   286.32755      0.040035964    5.4148969      710.38655     -60.960295      649.42625    
   2911000   297.47112      0.040035964    30.958495      738.03405     -56.115018      681.91903    
   2912000   310.86169      0.040035964    23.125449      771.25642     -63.359518      707.8969     
   2913000   302.87165      0.040035964    15.419432      751.43292     -62.912808      688.52011    
   2914000   300.27524      0.040035964    0.8322953      744.99116     -58.335995      686.65516    
   2915000   301.46514      0.040035964    26.416216      747.94332     -60.996477      686.94684    
   2916000   298.6161       0.040035964    23.915102      740.87478     -68.2274        672.64738    
   2917000   305.25541      0.040035964   -0.75937359     757.34708     -68.740183      688.60689    
   2918000   297.28863      0.040035964    21.734929      737.58128     -65.609801      671.97148    
   2919000   297.5302       0.040035964    44.132924      738.18064     -63.974941      674.2057     
   2920000   306.86256      0.040035964    15.611766      761.33448     -59.601147      701.73333    
   2921000   291.42846      0.040035964    14.198043      723.04205     -57.423821      665.61823    
   2922000   297.46186      0.040035964    28.535713      738.01106     -54.691167      683.3199     
   2923000   296.8027       0.040035964    23.49862       736.37567     -50.03224       686.34343    
   2924000   311.69972      0.040035964    23.264215      773.33559     -56.750176      716.58542    
   2925000   301.00122      0.040035964    16.634636      746.79231     -55.446582      691.34573    
   2926000   292.80646      0.040035964    26.143904      726.4609      -66.183156      660.27774    
   2927000   297.08325      0.040035964    21.396647      737.07173     -66.366893      670.70484    
   2928000   298.49627      0.040035964    20.239612      740.57747     -64.352124      676.22534    
   2929000   298.41476      0.040035964    17.418195      740.37524     -61.265905      679.10933    
   2930000   293.34974      0.040035964    19.139131      727.80878     -62.120669      665.68811    
   2931000   293.2467       0.040035964    19.340531      727.55314     -62.031244      665.52189    
   2932000   306.63967      0.040035964    23.626224      760.78146     -64.66904       696.11242    
   2933000   307.21658      0.040035964    25.547333      762.21279     -68.921086      693.29171    
   2934000   294.04187      0.040035964    30.063838      729.52599     -66.785436      662.74055    
   2935000   293.77517      0.040035964    17.010381      728.8643      -73.63893       655.22537    
   2936000   308.53139      0.040035964    18.257788      765.47489     -77.195622      688.27927    
   2937000   300.3215       0.040035964    26.809412      745.10592     -77.552379      667.55354    
   2938000   288.18001      0.040035964    18.111112      714.98255     -76.300368      638.68219    
   2939000   296.80478      0.040035964    16.300393      736.38085     -74.055299      662.32555    
   2940000   318.02422      0.040035964    33.625048      789.02685     -70.555291      718.47156    
   2941000   300.78136      0.040035964    23.740276      746.24685     -74.869788      671.37706    
   2942000   293.58902      0.040035964    6.3827981      728.40246     -69.574722      658.82773    
   2943000   301.80597      0.040035964    23.977451      748.78893     -66.971607      681.81732    
   2944000   301.89292      0.040035964    40.03153       749.00465     -68.46047       680.54418    
   2945000   294.48703      0.040035964    22.387359      730.63043     -76.780756      653.84967    
   2946000   299.15919      0.040035964    18.180974      742.2222      -74.650532      667.57167    
   2947000   300.34623      0.040035964    21.978795      745.16726     -74.807451      670.35981    
   2948000   300.70149      0.040035964    22.548551      746.04869     -76.938997      669.10969    
   2949000   283.02342      0.040035964    10.015443      702.18891     -74.829843      627.35907    
   2950000   296.07665      0.040035964    19.936053      734.57433     -72.215068      662.35927    
   2951000   304.81075      0.040035964    20.223162      756.24388     -74.448704      681.79518    
   2952000   309.48589      0.040035964    48.254575      767.84301     -70.010113      697.8329     
   2953000   287.86468      0.040035964    29.50239       714.2002      -62.428421      651.77178    
   2954000   301.26086      0.040035964    16.189205      747.43651     -68.320026      679.11648    
   2955000   318.19689      0.040035964    22.441657      789.45526     -69.296359      720.15891    
   2956000   304.2304       0.040035964    23.37086       754.80401     -73.545367      681.25865    
   2957000   303.65757      0.040035964    25.038644      753.3828      -77.936444      675.44636    
   2958000   295.44494      0.040035964    22.036279      733.00705     -74.81555       658.1915     
   2959000   297.68458      0.040035964    18.34148       738.56365     -76.632841      661.93081    
   2960000   301.88645      0.040035964    21.664251      748.9886      -76.829018      672.15958    
   2961000   292.25683      0.040035964    15.100805      725.09724     -80.801481      644.29576    
   2962000   321.44479      0.040035964    21.728143      797.51338     -81.137214      716.37617    
   2963000   312.62415      0.040035964    21.439667      775.62914     -75.551399      700.07774    
   2964000   314.31589      0.040035964    20.648963      779.82638     -79.707079      700.1193     
   2965000   305.10653      0.040035964    19.448647      756.97772     -82.441465      674.53625    
   2966000   291.30504      0.040035964    17.0083        722.73582     -73.926026      648.8098     
   2967000   301.03893      0.040035964    22.000775      746.88588     -71.052401      675.83348    
   2968000   318.09723      0.040035964    19.283516      789.20799     -65.682661      723.52533    
   2969000   293.41362      0.040035964    15.831488      727.96729     -61.940901      666.02639    
   2970000   297.75285      0.040035964    24.259709      738.73303     -62.923189      675.80985    
   2971000   303.47898      0.040035964    19.518651      752.93971     -64.408225      688.53148    
   2972000   310.64583      0.040035964    23.223275      770.72087     -62.517398      708.20347    
   2973000   304.13344      0.040035964    26.496389      754.56345     -69.10924       685.45421    
   2974000   288.7919       0.040035964    12.978037      716.50066     -62.610479      653.89018    
   2975000   298.36118      0.040035964    20.218053      740.24231     -66.914055      673.32826    
   2976000   298.01449      0.040035964    19.332729      739.38216     -68.083484      671.29868    
   2977000   309.51637      0.040035964    19.0107        767.91866     -64.118353      703.8003     
   2978000   299.13424      0.040035964    20.287979      742.16028     -62.10654       680.05374    
   2979000   307.12308      0.040035964    17.244709      761.98083     -63.713013      698.26782    
   2980000   298.19895      0.040035964    17.150446      739.83981     -60.013613      679.8262     
   2981000   296.71264      0.040035964    20.711094      736.15223     -63.724383      672.42785    
   2982000   301.48007      0.040035964    22.449887      747.98038     -67.017892      680.96248    
   2983000   316.41223      0.040035964    21.960647      785.02747     -65.528913      719.49856    
   2984000   298.77417      0.040035964    20.081263      741.26696     -66.724809      674.54215    
   2985000   291.19025      0.040035964    20.441451      722.45103     -64.727723      657.7233     
   2986000   313.07052      0.040035964    20.41579       776.73658     -62.858344      713.87823    
   2987000   296.84147      0.040035964    22.357637      736.47187     -63.992078      672.47979    
   2988000   300.92456      0.040035964    16.001409      746.60214     -69.950117      676.65202    
   2989000   303.79649      0.040035964    25.872402      753.72747     -67.725701      686.00177    
   2990000   313.91834      0.040035964    28.784522      778.84006     -73.493891      705.34617    
   2991000   298.46502      0.040035964    20.772395      740.49993     -77.6749        662.82503    
   2992000   301.59465      0.040035964    17.370434      748.26464     -63.672077      684.59256    
   2993000   290.87142      0.040035964    18.993522      721.66001     -66.332394      655.32761    
   2994000   312.51923      0.040035964    22.738012      775.36883     -72.8127        702.55612    
   2995000   296.59905      0.040035964    25.55934       735.87041     -68.839267      667.03114    
   2996000   291.75997      0.040035964    28.651958      723.86453     -69.461635      654.40289    
   2997000   298.59371      0.040035964    18.951154      740.81924     -79.193427      661.62581    
   2998000   308.26529      0.040035964    8.0766478      764.81468     -71.645635      693.16904    
   2999000   307.92819      0.040035964    20.13009       763.97832     -72.591109      691.38721    
   3000000   289.87015      0.040035964    27.139498      719.17584     -66.521825      652.65402    
   3001000   284.15656      0.040035964    11.817117      705.00026     -65.383141      639.61712    
   3002000   304.89276      0.040035964    22.200082      756.44733     -66.484986      689.96235    
   3003000   302.76484      0.040035964    22.976463      751.16792     -70.831145      680.33677    
   3004000   284.30237      0.040035964    13.725205      705.36201     -74.568707      630.7933     
   3005000   302.51966      0.040035964    19.281734      750.5596      -68.515643      682.04396    
   3006000   311.37121      0.040035964    22.303653      772.52056     -72.008514      700.51204    
   3007000   294.33497      0.040035964    18.639993      730.25317     -68.934883      661.31829    
   3008000   298.27513      0.040035964    17.85894       740.02881     -67.866601      672.16221    
   3009000   309.24065      0.040035964    21.530174      767.23457     -62.192115      705.04245    
   3010000   308.47443      0.040035964    24.741804      765.33357     -62.014551      703.31902    
   3011000   291.37067      0.040035964    19.667745      722.89866     -61.018517      661.88014    
   3012000   292.62256      0.040035964    20.967788      726.00465     -60.900573      665.10408    
   3013000   302.35489      0.040035964    19.428666      750.15081     -60.646651      689.50416    
   3014000   305.58341      0.040035964    21.676674      758.16086     -62.804454      695.3564     
   3015000   300.93379      0.040035964    18.167072      746.62504     -68.22145       678.40359    
   3016000   303.30451      0.040035964    20.038171      752.50685     -67.833263      684.67359    
   3017000   282.05396      0.040035964    22.28894       699.78365     -65.440394      634.34326    
   3018000   316.12682      0.040035964    24.437296      784.31935     -67.237616      717.08173    
   3019000   303.97638      0.040035964    18.350071      754.17377     -59.724475      694.44929    
   3020000   283.72066      0.040035964    16.359264      703.91878     -59.748906      644.16988    
   3021000   291.07669      0.040035964    17.106765      722.16928     -69.451412      652.71787    
   3022000   309.16149      0.040035964    22.785991      767.03819     -61.856247      705.18194    
   3023000   306.37478      0.040035964    18.769678      760.12427     -68.199598      691.92467    
   3024000   281.35525      0.040035964    21.379337      698.05013     -60.670228      637.3799     
   3025000   320.16874      0.040035964    27.126623      794.34748     -61.477879      732.8696     
   3026000   305.06965      0.040035964    17.318412      756.8862      -57.656695      699.2295     
   3027000   288.22602      0.040035964    15.182688      715.0967      -52.537309      662.55939    
   3028000   293.37463      0.040035964    32.922713      727.87055     -52.097937      675.77261    
   3029000   304.29578      0.040035964    19.774968      754.96622     -50.675319      704.2909     
   3030000   301.76093      0.040035964    12.324954      748.67718     -56.550471      692.12671    
   3031000   295.93085      0.040035964    39.136566      734.21259     -60.681337      673.53125    
   3032000   305.32973      0.040035964    42.910777      757.53148     -68.00666       689.52482    
   3033000   286.75505      0.040035964    17.233826      711.44719     -61.039896      650.40729    
   3034000   282.62092      0.040035964   -3.8133542      701.19031     -64.290211      636.90009    
   3035000   292.6151       0.040035964    14.955781      725.98613     -56.741475      669.24466    
   3036000   298.11175      0.040035964    26.680468      739.62348     -57.620824      682.00266    
   3037000   297.03223      0.040035964    29.588238      736.94515     -66.383767      670.56139    
   3038000   304.17802      0.040035964    18.987873      754.67404     -60.973146      693.7009     
   3039000   303.64076      0.040035964    19.53973       753.34109     -61.7089        691.63219    
   3040000   304.63713      0.040035964    22.825073      755.81311     -70.132431      685.68068    
   3041000   303.8879       0.040035964    21.431884      753.95425     -72.87597       681.07828    
   3042000   296.84582      0.040035964    23.094806      736.48265     -64.271647      672.21101    
   3043000   301.04605      0.040035964    21.40852       746.90355     -70.916832      675.98672    
   3044000   303.25879      0.040035964    7.7464859      752.39342     -66.692378      685.70105    
   3045000   291.22888      0.040035964    19.134622      722.54688     -70.26458       652.2823     
   3046000   299.19352      0.040035964    21.191909      742.30738     -69.687913      672.61946    
   3047000   311.21169      0.040035964    29.671254      772.12478     -64.746136      707.37864    
   3048000   306.65475      0.040035964    20.341855      760.81888     -60.115103      700.70377    
   3049000   289.86915      0.040035964    18.216036      719.17334     -67.958302      651.21504    
   3050000   302.39971      0.040035964    25.566969      750.26203     -64.259923      686.0021     
   3051000   310.14436      0.040035964    21.991296      769.47671     -63.223875      706.25283    
   3052000   295.2269       0.040035964    15.5159        732.46608     -64.139525      668.32656    
   3053000   287.44086      0.040035964    17.970883      713.14871     -59.419563      653.72914    
   3054000   291.57582      0.040035964    16.251566      723.40764     -64.012842      659.39479    
   3055000   304.83422      0.040035964    19.986513      756.30211     -61.798038      694.50407    
   3056000   313.4995       0.040035964    20.871205      777.80089     -71.591494      706.2094     
   3057000   289.61904      0.040035964    21.376322      718.55283     -71.690012      646.86281    
   3058000   301.60774      0.040035964    18.165805      748.29711     -72.945603      675.3515     
   3059000   308.6926       0.040035964    24.49389       765.87485     -78.132073      687.74278    
   3060000   294.56687      0.040035964    31.443014      730.82852     -75.031876      655.79664    
   3061000   295.07343      0.040035964    21.567465      732.08532     -71.036374      661.04894    
   3062000   299.24791      0.040035964   -9.085967       742.44231     -77.51972       664.92259    
   3063000   323.66695      0.040035964    26.678556      803.02663     -77.866812      725.15982    
   3064000   296.35945      0.040035964    25.346302      735.27596     -81.909399      653.36656    
   3065000   289.73008      0.040035964    33.251447      718.82831     -77.387159      641.44115    
   3066000   298.91898      0.040035964    21.132321      741.62623     -76.81854       664.80769    
   3067000   296.75527      0.040035964   -0.64577905     736.258       -72.881766      663.37623    
   3068000   310.52518      0.040035964    8.7496115      770.42152     -72.568965      697.85256    
   3069000   294.59573      0.040035964    34.557887      730.90012     -67.057316      663.8428     
   3070000   302.93591      0.040035964    29.202195      751.59234     -70.340744      681.2516     
   3071000   307.29723      0.040035964    20.522494      762.41289     -67.103799      695.30909    
   3072000   303.5154       0.040035964    17.067962      753.03008     -70.758759      682.27132    
   3073000   295.26989      0.040035964    25.076049      732.57275     -67.908709      664.66404    
   3074000   301.49789      0.040035964    24.889434      748.02459     -68.562261      679.46233    
   3075000   295.90189      0.040035964    20.015161      734.14075     -71.019257      663.12149    
   3076000   297.49669      0.040035964    9.7600967      738.09748     -71.615703      666.48178    
   3077000   304.42396      0.040035964    22.187949      755.28425     -73.362667      681.92158    
   3078000   295.39204      0.040035964    25.868108      732.87579     -71.935132      660.94066    
   3079000   298.58898      0.040035964    17.460477      740.80748     -80.72252       660.08496    
   3080000   301.13104      0.040035964    10.222981      747.11442     -78.28494       668.82948    
   3081000   303.82847      0.040035964    28.041624      753.8068      -76.107753      677.69905    
   3082000   298.53641      0.040035964    19.998403      740.67706     -71.506046      669.17101    
   3083000   304.95753      0.040035964    10.621611      756.60804     -62.961183      693.64686    
   3084000   306.54283      0.040035964    22.136056      760.54121     -66.399202      694.142      
   3085000   293.36499      0.040035964    25.526185      727.84663     -68.48006       659.36657    
   3086000   301.23309      0.040035964    9.1168476      747.36759     -66.146603      681.22099    
   3087000   305.22747      0.040035964    20.135972      757.27777     -67.449224      689.82855    
   3088000   302.64452      0.040035964    20.584891      750.8694      -61.6178        689.2516     
   3089000   305.88428      0.040035964    21.307798      758.90732     -63.209272      695.69805    
   3090000   280.22128      0.040035964    17.063866      695.23672     -67.359721      627.877      
   3091000   299.11165      0.040035964    21.890814      742.10426     -64.470925      677.63333    
   3092000   308.75577      0.040035964    17.012721      766.03158     -71.626862      694.40472    
   3093000   279.50696      0.040035964    15.447275      693.46447     -70.432551      623.03192    
   3094000   285.24193      0.040035964    23.649795      707.6931      -70.120479      637.57262    
   3095000   309.64455      0.040035964    30.084856      768.23667     -69.419849      698.81682    
   3096000   311.10074      0.040035964    6.0067314      771.84951     -81.317381      690.53213    
   3097000   285.96446      0.040035964    19.34084       709.48571     -79.816391      629.66932    
   3098000   313.43469      0.040035964    40.636023      777.64011     -81.721792      695.91832    
   3099000   306.19957      0.040035964    14.406461      759.68958     -82.604277      677.0853     
   3100000   283.54934      0.040035964    11.180814      703.49374     -74.229351      629.26438    
   3101000   297.93982      0.040035964    33.60558       739.19691     -72.190267      667.00664    
   3102000   307.5581       0.040035964    13.816866      763.06013     -76.027874      687.03226    
   3103000   306.02044      0.040035964    15.383763      759.24514     -73.843939      685.4012     
   3104000   291.34502      0.040035964    32.64561       722.83503     -81.682992      641.15204    
   3105000   300.33681      0.040035964    23.071025      745.14391     -81.471854      663.67206    
   3106000   297.03579      0.040035964   -2.0186714      736.95398     -82.778318      654.17566    
   3107000   297.37085      0.040035964    29.488235      737.78528     -80.362621      657.42266    
   3108000   306.93413      0.040035964    26.988623      761.51205     -87.375276      674.13677    
   3109000   299.68684      0.040035964   -22.135044      743.53131     -81.563177      661.96813    
   3110000   285.23297      0.040035964    8.2762024      707.67085     -76.763516      630.90734    
   3111000   287.95292      0.040035964    32.896305      714.41914     -83.153574      631.26556    
   3112000   310.29887      0.040035964    45.22517       769.86004     -81.772395      688.08765    
   3113000   306.48478      0.040035964   -1.5990255      760.39718     -84.869418      675.52777    
   3114000   298.14549      0.040035964   -15.443854      739.70717     -82.457052      657.25012    
   3115000   291.6342       0.040035964    40.599415      723.55248     -85.44138       638.1111     
   3116000   299.55947      0.040035964    37.317584      743.21531     -70.554862      672.66045    
   3117000   308.89896      0.040035964    15.13731       766.38684     -75.662026      690.72482    
   3118000   308.00106      0.040035964    8.8754866      764.15912     -78.017011      686.14211    
   3119000   294.17522      0.040035964    26.154027      729.85683     -77.216499      652.64033    
   3120000   294.89907      0.040035964    12.714461      731.65273     -81.957055      649.69568    
   3121000   291.4037       0.040035964    9.9196902      722.98061     -80.727612      642.253      
   3122000   304.90349      0.040035964    37.904038      756.47396     -80.269071      676.20489    
   3123000   298.38204      0.040035964    12.222944      740.29406     -79.781503      660.51256    
   3124000   288.91939      0.040035964    16.546699      716.81696     -79.080739      637.73622    
   3125000   298.90399      0.040035964    28.716618      741.58904     -82.665849      658.92319    
   3126000   312.49475      0.040035964    24.678402      775.30809     -85.368803      689.93929    
   3127000   307.16408      0.040035964    24.051484      762.08256     -81.277629      680.80493    
   3128000   297.78843      0.040035964    23.417053      738.8213      -84.02759       654.79371    
   3129000   304.47151      0.040035964    14.262109      755.40221     -79.174398      676.22782    
   3130000   291.13954      0.040035964    9.019482       722.32523     -76.407266      645.91796    
   3131000   303.05972      0.040035964    16.289445      751.89951     -76.211334      675.68818    
   3132000   296.0483       0.040035964    24.499235      734.50398     -78.656757      655.84723    
   3133000   298.64178      0.040035964    23.016434      740.93849     -72.895161      668.04333    
   3134000   313.54572      0.040035964    12.934033      777.91558     -69.913466      708.00211    
   3135000   298.82767      0.040035964    10.211028      741.39969     -70.506327      670.89337    
   3136000   289.32253      0.040035964    14.910653      717.81717     -70.627829      647.18934    
   3137000   292.49019      0.040035964    22.164321      725.67622     -71.558611      654.11761    
   3138000   324.77458      0.040035964    23.422162      805.77469     -65.838085      739.93661    
   3139000   306.81558      0.040035964    17.707473      761.21792     -68.076488      693.14143    
   3140000   283.65762      0.040035964    11.848518      703.76238     -67.19502       636.56736    
   3141000   298.08156      0.040035964    21.308944      739.54857     -70.583835      668.96474    
   3142000   319.00223      0.040035964    21.031854      791.45332     -68.93982       722.5135     
   3143000   306.28379      0.040035964    17.917102      759.89852     -68.153642      691.74487    
   3144000   294.70918      0.040035964    21.667934      731.18161     -67.050312      664.13129    
   3145000   310.50969      0.040035964    22.222031      770.3831      -69.264867      701.11824    
   3146000   318.31725      0.040035964    12.678585      789.75386     -68.241567      721.5123     
   3147000   298.41314      0.040035964    22.020426      740.37123     -62.13631       678.23492    
   3148000   294.59565      0.040035964    17.968688      730.89992     -71.341857      659.55807    
   3149000   308.84751      0.040035964    23.327516      766.2592      -65.46375       700.79545    
   3150000   284.33302      0.040035964    24.571398      705.43805     -66.520663      638.91739    
   3151000   290.61118      0.040035964    21.368677      721.01434     -63.775252      657.23909    
   3152000   319.08766      0.040035964    20.651598      791.66528     -65.63478       726.0305     
   3153000   309.73913      0.040035964    28.292731      768.47132     -72.181648      696.28967    
   3154000   291.80748      0.040035964    31.192209      723.98239     -68.274834      655.70756    
   3155000   302.55653      0.040035964    3.5545838      750.6511      -54.07574       696.57536    
   3156000   314.59948      0.040035964    16.224392      780.52998     -63.049188      717.48079    
   3157000   290.72863      0.040035964    20.427143      721.30575     -61.338288      659.96746    
   3158000   296.572        0.040035964    27.729009      735.80331     -60.994872      674.80844    
   3159000   294.88727      0.040035964    11.088222      731.62344     -57.17555       674.44789    
   3160000   296.69389      0.040035964    18.892388      736.10573     -58.840537      677.26519    
   3161000   300.07976      0.040035964    21.711879      744.50616     -60.548397      683.95776    
   3162000   306.81908      0.040035964    27.33471       761.22659     -61.802399      699.42419    
   3163000   286.11721      0.040035964    10.281375      709.86469     -60.497699      649.36699    
   3164000   299.11511      0.040035964    15.097462      742.11282     -57.502751      684.61007    
   3165000   307.25482      0.040035964    30.649227      762.30768     -62.664754      699.64293    
   3166000   293.23526      0.040035964    21.84336       727.52476     -63.987247      663.53751    
   3167000   284.18922      0.040035964    17.475878      705.08128     -72.009251      633.07203    
   3168000   303.40715      0.040035964    13.212984      752.7615      -69.028841      683.73266    
   3169000   303.00141      0.040035964    19.500074      751.75484     -62.529268      689.22557    
   3170000   303.54361      0.040035964    26.355316      753.10007     -60.065002      693.03507    
   3171000   303.52637      0.040035964    20.16724       753.0573      -58.473852      694.58344    
   3172000   287.80059      0.040035964    28.02386       714.04119     -52.880469      661.16072    
   3173000   298.07826      0.040035964    20.023267      739.54038     -61.591563      677.94882    
   3174000   311.11089      0.040035964    12.370301      771.8747      -57.052907      714.8218     
   3175000   308.49361      0.040035964    23.447701      765.38114     -65.441638      699.93951    
   3176000   299.13295      0.040035964    29.772663      742.15709     -68.912634      673.24446    
   3177000   290.84974      0.040035964    20.696313      721.60621     -63.803345      657.80287    
   3178000   314.83099      0.040035964    13.730955      781.10437     -68.164067      712.9403     
   3179000   302.44383      0.040035964    20.330029      750.37149     -59.52048       690.85101    
   3180000   318.20203      0.040035964    31.986515      789.46801     -59.938169      729.52984    
   3181000   305.31575      0.040035964    23.579611      757.49678     -59.283149      698.21363    
   3182000   298.39928      0.040035964   -0.16489371     740.33683     -64.722261      675.61457    
   3183000   307.4565       0.040035964    28.017987      762.80805     -61.262789      701.54526    
   3184000   312.29512      0.040035964    23.625467      774.8128      -72.952039      701.86076    
   3185000   293.50011      0.040035964    26.561057      728.18187     -66.305375      661.87649    
   3186000   291.97511      0.040035964    19.285945      724.39831     -65.467038      658.93127    
   3187000   303.17659      0.040035964   -12.251088      752.18949     -69.392247      682.79724    
   3188000   304.0915       0.040035964    31.327503      754.4594      -64.904526      689.55488    
   3189000   282.15339      0.040035964    29.063025      700.03033     -59.020592      641.00974    
   3190000   299.09018      0.040035964    18.669354      742.05097     -58.742654      683.30832    
   3191000   298.41805      0.040035964    15.677096      740.38342     -57.595056      682.78836    
   3192000   311.63905      0.040035964    34.627748      773.18508     -61.662001      711.52308    
   3193000   294.09204      0.040035964    21.286299      729.65046     -57.431237      672.21923    
   3194000   296.28809      0.040035964    15.175987      735.09893     -51.407054      683.69187    
   3195000   306.10077      0.040035964    20.989033      759.44445     -54.99694       704.44751    
   3196000   300.98557      0.040035964    19.511964      746.75349     -52.013913      694.73958    
   3197000   298.78756      0.040035964    16.569166      741.30018     -57.338913      683.96127    
   3198000   301.83869      0.040035964    22.48629       748.8701      -60.542108      688.328      
   3199000   294.59069      0.040035964    20.629522      730.88763     -64.661681      666.22595    
   3200000   307.90407      0.040035964    19.409152      763.91848     -62.62061       701.29787    
   3201000   310.57912      0.040035964    24.655077      770.55535     -63.227386      707.32796    
   3202000   295.19898      0.040035964    20.071232      732.3968      -63.778508      668.61829    
   3203000   309.35723      0.040035964    24.683181      767.52382     -65.643741      701.88008    
   3204000   330.69445      0.040035964    27.173566      820.46205     -63.17387       757.28818    
   3205000   303.55541      0.040035964    20.07545       753.12933     -62.921295      690.20804    
   3206000   290.26945      0.040035964    14.876331      720.16651     -59.959391      660.20711    
   3207000   292.39634      0.040035964    24.016553      725.44338     -58.584457      666.85892    
   3208000   309.38596      0.040035964    22.099182      767.5951      -58.551421      709.04368    
   3209000   307.84398      0.040035964    16.372531      763.7694      -56.414647      707.35475    
   3210000   295.11752      0.040035964    14.812308      732.1947      -57.258761      674.93594    
   3211000   288.92842      0.040035964    14.255055      716.83937     -59.038902      657.80047    
   3212000   302.55235      0.040035964    30.694807      750.64072     -54.304361      696.33636    
   3213000   298.8128       0.040035964    24.098507      741.36278     -57.489571      683.87321    
   3214000   293.54613      0.040035964    15.969384      728.29605     -54.543232      673.75282    
   3215000   298.71705      0.040035964    17.977267      741.12523     -58.567184      682.55805    
   3216000   294.40203      0.040035964    18.992797      730.41955     -65.722913      664.69664    
   3217000   304.7827       0.040035964    18.520073      756.17429     -67.267354      688.90694    
   3218000   305.89647      0.040035964    22.380959      758.93757     -67.217389      691.72018    
   3219000   306.41692      0.040035964    20.781054      760.22883     -66.490378      693.73845    
   3220000   303.35244      0.040035964    23.560723      752.62576     -65.898421      686.72734    
   3221000   294.52683      0.040035964    21.82529       730.72918     -64.207685      666.52149    
   3222000   298.30384      0.040035964    19.459495      740.10004     -63.1809        676.91915    
   3223000   306.77417      0.040035964    11.271945      761.11516     -61.989594      699.12557    
   3224000   311.97408      0.040035964    25.837831      774.01628     -63.989021      710.02726    
   3225000   288.74161      0.040035964    22.810945      716.3759      -62.39952       653.97638    
   3226000   300.63174      0.040035964    15.270279      745.87563     -60.554079      685.32155    
   3227000   309.65099      0.040035964    27.38842       768.25263     -58.021845      710.23079    
   3228000   292.16433      0.040035964    17.081199      724.86776     -55.567951      669.29981    
   3229000   283.59681      0.040035964    20.795333      703.61149     -52.026192      651.5853     
   3230000   291.47894      0.040035964    22.416225      723.16729     -56.425045      666.74224    
   3231000   314.25429      0.040035964    21.839485      779.67355     -58.366336      721.30721    
   3232000   288.75921      0.040035964    17.302507      716.41955     -52.999239      663.42031    
   3233000   289.86294      0.040035964    17.20215       719.15793     -54.131876      665.02606    
   3234000   293.93615      0.040035964    22.556639      729.26368     -58.219808      671.04387    
   3235000   310.13184      0.040035964    22.652095      769.44564     -54.04694       715.3987     
   3236000   299.85774      0.040035964    17.700187      743.95533     -60.360728      683.5946     
   3237000   293.25656      0.040035964    22.883896      727.5776      -60.533556      667.04405    
   3238000   304.1822       0.040035964    19.932518      754.68442     -58.184271      696.50015    
   3239000   301.30723      0.040035964    19.452183      747.55155     -56.567811      690.98374    
   3240000   296.96786      0.040035964    19.273069      736.78544     -61.13476       675.65068    
   3241000   298.56397      0.040035964    19.747163      740.74543     -58.819684      681.92575    
   3242000   306.71185      0.040035964    20.495081      760.96056     -61.419878      699.54069    
   3243000   312.46298      0.040035964    29.591339      775.22927     -57.822669      717.4066     
   3244000   305.48202      0.040035964    21.968863      757.90931     -64.764277      693.14503    
   3245000   301.71525      0.040035964    17.825871      748.56386     -68.376892      680.18697    
   3246000   302.4002       0.040035964    19.611732      750.26323     -57.970649      692.29258    
   3247000   295.30836      0.040035964    20.902045      732.66819     -57.890476      674.77771    
   3248000   306.64842      0.040035964    18.53323       760.80319     -56.611146      704.19204    
   3249000   303.72165      0.040035964    21.712697      753.54179     -57.951415      695.59038    
   3250000   295.18577      0.040035964    19.815035      732.36403     -54.933462      677.43057    
   3251000   304.44006      0.040035964    25.88077       755.32418     -60.093445      695.23074    
   3252000   292.78592      0.040035964    10.141999      726.40994     -63.020914      663.38902    
   3253000   305.93053      0.040035964    22.650281      759.02208     -63.27782       695.74426    
   3254000   310.39963      0.040035964    32.049002      770.11004     -62.862574      707.24747    
   3255000   298.53243      0.040035964    9.8030568      740.66718     -63.026864      677.64032    
   3256000   296.79107      0.040035964    17.099849      736.34683     -60.276419      676.07041    
   3257000   304.48857      0.040035964    30.05929       755.44453     -59.746531      695.698      
   3258000   315.89019      0.040035964    34.341941      783.73227     -57.919198      725.81307    
   3259000   292.12943      0.040035964    14.595269      724.78117     -56.377514      668.40366    
   3260000   299.36375      0.040035964    17.096461      742.72971     -54.443536      688.28618    
   3261000   297.71493      0.040035964    20.798672      738.63895     -58.065375      680.57358    
   3262000   303.14638      0.040035964    32.735595      752.11452     -58.039543      694.07497    
   3263000   306.58576      0.040035964    20.093318      760.64771     -57.045511      703.6022     
   3264000   304.30333      0.040035964    24.895275      754.98495     -57.946481      697.03847    
   3265000   304.76435      0.040035964    23.984845      756.12874     -60.214017      695.91472    
   3266000   302.58393      0.040035964    19.121184      750.71907     -58.152059      692.56701    
   3267000   292.63015      0.040035964    12.14722       726.02347     -59.088384      666.93509    
   3268000   307.81413      0.040035964    20.250765      763.69533     -70.243364      693.45197    
   3269000   301.81563      0.040035964    32.975672      748.81289     -62.378525      686.43436    
   3270000   309.22729      0.040035964    30.40694       767.20142     -57.76435       709.43707    
   3271000   286.54791      0.040035964    5.2061053      710.93326     -56.869529      654.06373    
   3272000   299.54509      0.040035964    16.337         743.17961     -60.900268      682.27935    
   3273000   298.67199      0.040035964    26.08754       741.01345     -59.9842        681.02925    
   3274000   296.579        0.040035964    22.55161       735.82069     -61.016267      674.80442    
   3275000   293.79695      0.040035964    18.167999      728.91834     -59.588395      669.32994    
   3276000   301.71689      0.040035964    29.174124      748.56791     -57.128754      691.43916    
   3277000   296.39191      0.040035964    30.261762      735.35651     -54.735356      680.62115    
   3278000   302.30249      0.040035964   -8.8851121      750.02082     -55.537293      694.48353    
   3279000   297.95156      0.040035964    11.953805      739.22603     -56.890661      682.33536    
   3280000   290.69051      0.040035964    21.44108       721.21116     -60.244139      660.96702    
   3281000   303.71752      0.040035964    23.532676      753.53154     -57.691448      695.84009    
   3282000   300.85793      0.040035964    22.570042      746.43681     -59.53863       686.89818    
   3283000   291.73371      0.040035964    12.675858      723.79937     -54.742065      669.0573     
   3284000   300.58133      0.040035964    25.285971      745.75056     -48.100465      697.65009    
   3285000   299.83089      0.040035964    24.953029      743.88871     -49.029834      694.85887    
   3286000   302.87901      0.040035964    22.801783      751.45118     -48.230657      703.22053    
   3287000   308.93715      0.040035964    20.338895      766.48159     -52.840798      713.6408     
   3288000   290.44507      0.040035964    18.889812      720.60223     -52.503433      668.0988     
   3289000   287.13589      0.040035964    21.482955      712.39206     -50.727321      661.66474    
   3290000   290.32086      0.040035964    18.770074      720.29405     -49.72586       670.56819    
   3291000   305.15818      0.040035964    21.229679      757.10585     -48.931749      708.1741     
   3292000   302.93195      0.040035964    15.179018      751.58251     -55.563487      696.01902    
   3293000   283.34002      0.040035964    17.661442      702.97439     -56.180669      646.79372    
   3294000   299.0545       0.040035964    28.572484      741.96245     -55.655311      686.30714    
   3295000   333.92545      0.040035964    32.24853       828.47825     -58.463964      770.01428    
   3296000   307.39684      0.040035964    18.115158      762.66004     -57.007039      705.653      
   3297000   294.01494      0.040035964    20.541965      729.45918     -64.60612       664.85306    
   3298000   281.97366      0.040035964    19.082189      699.58441     -60.84748       638.73693    
   3299000   299.13085      0.040035964    23.564547      742.1519      -61.280179      680.87172    
   3300000   304.47527      0.040035964    20.336285      755.41155     -55.793991      699.61756    
   3301000   310.50452      0.040035964    26.682033      770.37028     -57.026736      713.34354    
   3302000   299.03186      0.040035964    23.719504      741.90629     -53.72687       688.17942    
   3303000   285.09397      0.040035964    18.172121      707.32599     -56.744614      650.58137    
   3304000   295.4973       0.040035964    19.742345      733.13695     -54.168353      678.9686     
   3305000   308.63005      0.040035964    23.185495      765.71967     -48.272532      717.44714    
   3306000   305.96775      0.040035964    23.43942       759.11441     -48.04348       711.07093    
   3307000   301.53025      0.040035964    15.572347      748.10485     -51.162382      696.94247    
   3308000   302.66721      0.040035964    19.873626      750.9257      -59.131445      691.79426    
   3309000   302.4626       0.040035964    29.138681      750.41804     -53.282496      697.13555    
   3310000   287.09449      0.040035964    19.431009      712.28935     -53.307783      658.98156    
   3311000   299.49825      0.040035964    16.427676      743.06342     -55.661686      687.40173    
   3312000   311.58852      0.040035964    19.530086      773.0597      -55.404995      717.65471    
   3313000   298.42799      0.040035964    18.818778      740.40808     -62.000296      678.40778    
   3314000   288.26078      0.040035964    17.040405      715.18294     -65.474635      649.7083     
   3315000   290.65073      0.040035964    24.383479      721.11247     -61.548976      659.56349    
   3316000   293.51941      0.040035964    18.911513      728.22976     -70.140897      658.08886    
   3317000   297.79425      0.040035964    16.952008      738.83575     -70.151615      668.68413    
   3318000   306.13028      0.040035964    20.098742      759.51767     -71.860873      687.6568     
   3319000   307.82266      0.040035964    23.081057      763.7165      -64.228685      699.48781    
   3320000   289.42121      0.040035964    21.027701      718.062       -58.948852      659.11315    
   3321000   300.11898      0.040035964    20.191525      744.60345     -63.605349      680.9981     
   3322000   308.54382      0.040035964    20.980499      765.50572     -65.851409      699.65431    
   3323000   300.05055      0.040035964    21.644801      744.43368     -62.606769      681.82692    
   3324000   287.349        0.040035964    18.921663      712.9208      -67.700076      645.22072    
   3325000   305.65535      0.040035964    19.567554      758.33936     -71.071921      687.26743    
   3326000   293.74975      0.040035964    10.904076      728.80123     -65.655059      663.14617    
   3327000   293.73107      0.040035964    21.642486      728.75488     -64.916897      663.83798    
   3328000   301.68905      0.040035964    22.594476      748.49885     -63.505441      684.99341    
   3329000   310.79674      0.040035964    19.290304      771.09528     -64.316605      706.77867    
   3330000   302.05482      0.040035964    18.231717      749.40633     -62.824188      686.58214    
   3331000   289.65577      0.040035964    18.186982      718.64395     -58.879807      659.76414    
   3332000   291.37153      0.040035964    12.126135      722.90081     -56.774227      666.12658    
   3333000   303.61656      0.040035964    20.092414      753.28106     -64.998183      688.28288    
   3334000   312.62024      0.040035964    23.235888      775.61943     -63.190892      712.42854    
   3335000   293.06849      0.040035964    29.751982      727.11101     -60.281881      666.82913    
   3336000   293.96963      0.040035964    17.279096      729.34675     -66.86833       662.47842    
   3337000   318.67222      0.040035964    16.428619      790.63456     -63.509762      727.1248     
   3338000   298.76545      0.040035964    31.157708      741.24533     -69.732493      671.51284    
   3339000   297.10443      0.040035964    17.644065      737.12428     -64.101777      673.0225     
   3340000   306.73723      0.040035964    14.925746      761.02353     -64.703018      696.32051    
   3341000   313.04608      0.040035964    27.430952      776.67596     -62.493956      714.182      
   3342000   288.44007      0.040035964    26.74881       715.62777     -62.84017       652.7876     
   3343000   305.4089       0.040035964    15.488572      757.72791     -60.740583      696.98732    
   3344000   309.39311      0.040035964    21.504395      767.61283     -61.653324      705.95951    
   3345000   296.98444      0.040035964    24.294304      736.82658     -58.529463      678.29712    
   3346000   303.23011      0.040035964    23.257252      752.32226     -65.161517      687.16075    
   3347000   296.90561      0.040035964    21.320652      736.631       -71.796965      664.83403    
   3348000   296.51668      0.040035964    15.976853      735.66606     -67.977313      667.68875    
   3349000   284.97347      0.040035964    20.187332      707.02704     -74.510288      632.51675    
   3350000   314.32226      0.040035964    19.786583      779.84219     -72.394766      707.44742    
   3351000   315.31335      0.040035964    6.1379288      782.30112     -69.085816      713.21531    
   3352000   285.04621      0.040035964    15.489594      707.2075      -64.917308      642.29019    
   3353000   307.15479      0.040035964    47.616861      762.0595      -73.194339      688.86516    
   3354000   311.95429      0.040035964    16.149588      773.96719     -69.466584      704.5006     
   3355000   293.75345      0.040035964   -2.0302675      728.8104      -68.226974      660.58342    
   3356000   305.5465       0.040035964    26.238537      758.06928     -72.299207      685.77007    
   3357000   313.0251       0.040035964    17.79094       776.62391     -64.00437       712.61954    
   3358000   297.51302      0.040035964   -0.96487158     738.138       -69.735329      668.40268    
   3359000   298.95051      0.040035964    14.035222      741.70447     -66.193092      675.51137    
   3360000   289.44585      0.040035964    22.527344      718.12313     -65.659016      652.46411    
   3361000   292.50425      0.040035964    41.632204      725.7111      -66.397467      659.31363    
   3362000   309.74919      0.040035964    22.066385      768.49627     -63.827484      704.66878    
   3363000   303.78369      0.040035964   -7.5365668      753.69572     -67.83882       685.8569     
   3364000   301.8979       0.040035964    37.400214      749.017       -71.938694      677.07831    
   3365000   296.06327      0.040035964    21.338613      734.54112     -65.42333       669.11779    
   3366000   306.53698      0.040035964    12.888887      760.52669     -69.711334      690.81535    
   3367000   288.12904      0.040035964    8.8412143      714.85608     -65.564054      649.29203    
   3368000   294.04135      0.040035964    23.320211      729.5247      -74.776152      654.74855    
   3369000   307.69544      0.040035964    39.770872      763.40087     -72.341498      691.05937    
   3370000   300.44654      0.040035964    12.458747      745.41614     -74.437293      670.97885    
   3371000   306.01785      0.040035964    21.994775      759.23872     -66.073818      693.16491    
   3372000   294.83813      0.040035964    20.165388      731.50152     -68.364068      663.13745    
   3373000   307.48062      0.040035964    16.661804      762.8679      -64.971283      697.89661    
   3374000   306.47691      0.040035964    23.757068      760.37766     -69.271815      691.10585    
   3375000   292.21189      0.040035964    18.618309      724.98576     -60.869137      664.11662    
   3376000   302.82229      0.040035964    23.232162      751.31045     -71.60005       679.7104     
   3377000   309.92983      0.040035964    20.032453      768.94445     -66.035883      702.90857    
   3378000   294.81183      0.040035964    15.652866      731.43627     -64.336762      667.0995     
   3379000   290.62588      0.040035964    11.510689      721.05082     -62.241422      658.8094     
   3380000   297.81382      0.040035964    26.475527      738.88428     -60.034438      678.84985    
   3381000   317.90829      0.040035964    35.362451      788.73923     -61.023461      727.71577    
   3382000   303.60686      0.040035964    17.573419      753.25698     -58.188878      695.0681     
   3383000   295.01791      0.040035964    18.417751      731.94757     -62.107905      669.83967    
   3384000   292.53506      0.040035964    38.171159      725.78755     -70.525131      655.26242    
   3385000   319.62161      0.040035964    26.012376      792.99003     -63.757599      729.23243    
   3386000   305.53987      0.040035964    16.280368      758.05285     -63.181077      694.87178    
   3387000   294.33845      0.040035964    18.203998      730.26181     -69.706232      660.55558    
   3388000   298.39109      0.040035964    24.12671       740.31653     -59.322291      680.99423    
   3389000   299.01612      0.040035964    7.3184323      741.86723     -65.632505      676.23472    
   3390000   313.05849      0.040035964    27.440038      776.70674     -60.301414      716.40533    
   3391000   303.73443      0.040035964    24.280117      753.57349     -64.211689      689.3618     
   3392000   304.55601      0.040035964    24.996209      755.61185     -63.535609      692.07624    
   3393000   296.94092      0.040035964    21.846397      736.71861     -66.703035      670.01557    
   3394000   296.46136      0.040035964    22.818588      735.52879     -67.099578      668.42922    
   3395000   293.77545      0.040035964    15.558419      728.86499     -62.432809      666.43218    
   3396000   291.60993      0.040035964    19.453704      723.49227     -63.872862      659.61941    
   3397000   294.94953      0.040035964    33.102573      731.77791     -62.817305      668.96061    
   3398000   315.09206      0.040035964    20.235369      781.75209     -64.87118       716.88091    
   3399000   306.11697      0.040035964    19.55312       759.48463     -61.664028      697.8206     
   3400000   287.63279      0.040035964    22.043247      713.62489     -60.441747      653.18314    
   3401000   303.85067      0.040035964    20.807821      753.86189     -60.054307      693.80758    
   3402000   308.84207      0.040035964    18.891331      766.2457      -65.69212       700.55358    
   3403000   296.81759      0.040035964    19.761198      736.41262     -68.515776      667.89684    
   3404000   296.17912      0.040035964    17.706636      734.82855     -66.719235      668.10932    
   3405000   305.26133      0.040035964    33.620893      757.36178     -58.648348      698.71344    
   3406000   306.15839      0.040035964    17.919798      759.5874      -61.700596      697.8868     
   3407000   290.54824      0.040035964    22.85725       720.85819     -53.895379      666.96281    
   3408000   302.94624      0.040035964    36.769791      751.61798     -57.410469      694.20751    
   3409000   296.90993      0.040035964    19.681643      736.64173     -63.983203      672.65853    
   3410000   305.06963      0.040035964    16.471384      756.88616     -69.029224      687.85694    
   3411000   295.56593      0.040035964    18.896605      733.30721     -68.386473      664.92074    
   3412000   299.20816      0.040035964    22.441571      742.3437      -70.840854      671.50285    
   3413000   310.44844      0.040035964    19.685874      770.23114     -66.723254      703.50789    
   3414000   296.32672      0.040035964    18.668198      735.19476     -61.884819      673.30994    
   3415000   291.9399       0.040035964    18.251948      724.31094     -60.037544      664.2734     
   3416000   303.82478      0.040035964    21.768954      753.79764     -57.210487      696.58716    
   3417000   306.29367      0.040035964    17.648721      759.92304     -58.281358      701.64168    
   3418000   285.76837      0.040035964    18.214766      708.9992      -59.322138      649.67706    
   3419000   293.24177      0.040035964    20.920496      727.54092     -51.682789      675.85813    
   3420000   302.34463      0.040035964    19.85167       750.12537     -55.697947      694.42743    
   3421000   303.11814      0.040035964    20.592142      752.04446     -54.299294      697.74516    
   3422000   298.87456      0.040035964    18.307716      741.51601     -52.552641      688.96337    
   3423000   290.64603      0.040035964    20.27792       721.10082     -59.331262      661.76956    
   3424000   297.64396      0.040035964    19.734606      738.46288     -63.103671      675.35921    
   3425000   302.23277      0.040035964    21.214364      749.84784     -58.002551      691.84528    
   3426000   323.87866      0.040035964    20.349732      803.55188     -62.912004      740.63987    
   3427000   302.18029      0.040035964    20.995269      749.71763     -70.128304      679.58933    
   3428000   291.36434      0.040035964    19.24177       722.88296     -69.651882      653.23108    
   3429000   295.97643      0.040035964    32.193243      734.32567     -70.032119      664.29355    
   3430000   303.15905      0.040035964    23.159065      752.14595     -68.041026      684.10493    
   3431000   313.62462      0.040035964    23.858137      778.11134     -60.422651      717.68869    
   3432000   294.07237      0.040035964    13.729324      729.60166     -58.699711      670.90195    
   3433000   286.26079      0.040035964    14.78467       710.22092     -60.903903      649.31701    
   3434000   310.58635      0.040035964    25.436334      770.57329     -64.481504      706.09178    
   3435000   304.33366      0.040035964    22.236336      755.0602      -60.770748      694.28945    
   3436000   294.00321      0.040035964    14.741391      729.43006     -59.117796      670.31226    
   3437000   299.67837      0.040035964    26.348792      743.51029     -65.769871      677.74042    
   3438000   310.889        0.040035964    18.263748      771.32418     -58.752889      712.57129    
   3439000   291.95015      0.040035964    19.428338      724.33637     -63.703785      660.63258    
   3440000   304.4102       0.040035964    13.180226      755.2501      -53.148737      702.10137    
   3441000   298.61947      0.040035964    18.497555      740.88313     -60.114703      680.76843    
   3442000   307.77222      0.040035964    26.750342      763.59135     -56.395004      707.19635    
   3443000   302.30987      0.040035964    23.167112      750.03913     -61.664755      688.37438    
   3444000   293.89348      0.040035964    15.098211      729.15783     -61.026111      668.13172    
   3445000   313.71403      0.040035964    19.847552      778.33317     -61.150499      717.18267    
   3446000   319.43851      0.040035964    25.559179      792.53574     -61.99384       730.5419     
   3447000   297.0477       0.040035964    18.677938      736.98354     -57.905308      679.07823    
   3448000   300.21061      0.040035964    21.250404      744.83079     -62.958423      681.87237    
   3449000   295.5525       0.040035964    21.424381      733.27391     -63.395424      669.87848    
   3450000   299.96507      0.040035964    18.956903      744.22161     -66.822577      677.39903    
   3451000   297.76502      0.040035964    23.698409      738.76322     -67.742007      671.02122    
   3452000   302.07278      0.040035964    21.330843      749.4509      -63.692256      685.75864    
   3453000   299.26847      0.040035964    23.036948      742.49333     -70.915382      671.57795    
   3454000   296.13191      0.040035964    20.50726       734.71143     -63.041183      671.67025    
   3455000   310.68321      0.040035964    29.180466      770.81361     -59.117         711.69661    
   3456000   305.57497      0.040035964    23.691818      758.13992     -57.535385      700.60453    
   3457000   298.00787      0.040035964    35.193422      739.36574     -59.533088      679.83265    
   3458000   302.20685      0.040035964    22.852617      749.78352     -53.093999      696.68952    
   3459000   305.42214      0.040035964    14.907591      757.76074     -52.487126      705.27361    
   3460000   307.22304      0.040035964    32.11788       762.22883     -57.641096      704.58773    
   3461000   308.6886       0.040035964    25.547638      765.86492     -61.372216      704.4927     
   3462000   305.65705      0.040035964    19.101756      758.34358     -62.867795      695.47578    
   3463000   302.95983      0.040035964    13.383283      751.6517      -69.51113       682.14057    
   3464000   304.33495      0.040035964    8.8987297      755.0634      -59.857769      695.20563    
   3465000   295.04064      0.040035964    24.788411      732.00396     -61.909685      670.09427    
   3466000   299.26674      0.040035964    17.45015       742.48902     -64.246559      678.24246    
   3467000   306.08092      0.040035964    8.2248286      759.3952      -58.470011      700.92519    
   3468000   308.91988      0.040035964    28.671991      766.43875     -63.424002      703.01474    
   3469000   287.94186      0.040035964    19.299448      714.39168     -63.12077       651.27091    
   3470000   300.86069      0.040035964    21.030914      746.44367     -59.423063      687.02061    
   3471000   306.73699      0.040035964    27.878419      761.02292     -63.282977      697.73995    
   3472000   290.39914      0.040035964    24.537323      720.48827     -58.217226      662.27104    
   3473000   293.76216      0.040035964    15.189807      728.83203     -57.244152      671.58787    
   3474000   306.50536      0.040035964    7.9005274      760.44824     -56.077663      704.37057    
   3475000   311.60962      0.040035964    22.504415      773.11205     -57.655334      715.45671    
   3476000   295.22755      0.040035964    21.228319      732.4677      -57.946192      674.52151    
   3477000   296.65751      0.040035964    24.794062      736.01546     -56.523723      679.49174    
   3478000   285.04931      0.040035964    16.8046        707.2152      -61.138813      646.07639    
   3479000   310.21663      0.040035964    21.47128       769.65601     -65.831597      703.82441    
   3480000   298.47001      0.040035964    17.852633      740.51232     -68.646029      671.86629    
   3481000   294.44856      0.040035964    20.3344        730.535       -63.759341      666.77566    
   3482000   302.71577      0.040035964    16.902776      751.04617     -63.625447      687.42072    
   3483000   300.10255      0.040035964    19.860092      744.5627      -61.502422      683.06027    
   3484000   294.03         0.040035964    20.84762       729.49654     -62.231977      667.26456    
   3485000   306.36297      0.040035964    22.091441      760.09498     -55.957033      704.13795    
   3486000   294.83171      0.040035964    21.888484      731.48559     -56.406768      675.07883    
   3487000   290.53708      0.040035964    16.89209       720.8305      -61.202547      659.62796    
   3488000   296.80048      0.040035964    20.833696      736.37016     -59.789854      676.58031    
   3489000   311.54317      0.040035964    24.603826      772.94719     -53.234769      719.71242    
   3490000   295.54018      0.040035964    22.933584      733.24333     -61.996798      671.24654    
   3491000   298.91175      0.040035964    2.3896897      741.60829     -63.502605      678.10568    
   3492000   301.77352      0.040035964    26.033161      748.70842     -65.612318      683.0961     
   3493000   299.17686      0.040035964    26.593453      742.26605     -66.620166      675.64588    
   3494000   300.33077      0.040035964    8.1354457      745.12893     -63.426062      681.70286    
   3495000   296.93978      0.040035964    20.376455      736.71578     -61.886736      674.82904    
   3496000   306.14431      0.040035964    30.642582      759.55247     -68.116504      691.43596    
   3497000   294.25779      0.040035964    21.376255      730.0617      -70.549867      659.51183    
   3498000   295.008        0.040035964    5.1770593      731.92297     -64.422919      667.50005    
   3499000   312.93437      0.040035964    22.652062      776.39879     -66.08132       710.31747    
   3500000   295.92395      0.040035964    38.496972      734.19547     -73.178324      661.01714    
   3501000   298.38376      0.040035964    16.824587      740.29833     -60.450239      679.84809    
   3502000   316.47924      0.040035964    16.682681      785.19372     -54.910852      730.28287    
   3503000   297.04586      0.040035964    25.069545      736.97895     -61.48793       675.49102    
   3504000   287.79502      0.040035964    21.178107      714.02737     -61.672816      652.35455    
   3505000   298.67358      0.040035964    10.251823      741.01739     -54.719159      686.29823    
   3506000   311.44431      0.040035964    17.174113      772.70192     -60.71605       711.98587    
   3507000   308.02282      0.040035964    30.888417      764.2131      -58.773163      705.43993    
   3508000   286.30599      0.040035964    19.188834      710.33306     -63.381519      646.95154    
   3509000   309.90276      0.040035964    22.656909      768.87729     -63.234501      705.64279    
   3510000   304.32049      0.040035964    23.770354      755.02753     -73.469934      681.55759    
   3511000   286.34378      0.040035964    16.947367      710.42682     -61.247966      649.17885    
   3512000   295.94627      0.040035964    14.881207      734.25085     -59.232104      675.01874    
   3513000   315.05713      0.040035964    23.983343      781.66541     -64.453029      717.21238    
   3514000   304.31352      0.040035964    32.442281      755.01023     -62.146776      692.86345    
   3515000   287.47915      0.040035964    15.957211      713.2437      -67.218758      646.02494    
   3516000   307.19057      0.040035964    14.17022       762.14828     -61.519193      700.62909    
   3517000   306.94814      0.040035964    21.525044      761.5468      -64.969156      696.57765    
   3518000   298.92858      0.040035964    23.108587      741.65005     -58.935484      682.71457    
   3519000   289.64493      0.040035964    22.418287      718.61706     -58.587842      660.02922    
   3520000   311.78149      0.040035964    20.747606      773.53846     -63.214552      710.32391    
   3521000   296.58333      0.040035964    21.454062      735.83143     -61.004323      674.8271     
   3522000   287.21968      0.040035964    21.606886      712.59994     -64.488981      648.11096    
   3523000   311.71052      0.040035964    22.968397      773.36239     -66.063467      707.29892    
   3524000   310.18508      0.040035964    20.049227      769.57772     -70.081796      699.49593    
   3525000   306.10657      0.040035964    19.660201      759.45883     -61.349519      698.10932    
   3526000   302.075        0.040035964    26.903244      749.4564      -62.516432      686.93997    
   3527000   303.14222      0.040035964    21.706733      752.1042      -64.365849      687.73835    
   3528000   293.1183       0.040035964    19.325171      727.23457     -64.263967      662.97061    
   3529000   298.88966      0.040035964    14.737123      741.55347     -67.232477      674.321      
   3530000   300.15937      0.040035964    20.068583      744.70368     -58.231807      686.47187    
   3531000   315.64323      0.040035964    21.5295        783.11956     -68.36252       714.75704    
   3532000   301.87494      0.040035964    22.905906      748.96005     -63.3231        685.63695    
   3533000   297.90385      0.040035964    20.064485      739.10767     -63.779417      675.32825    
   3534000   292.42442      0.040035964    21.890771      725.51306     -67.571452      657.94161    
   3535000   295.04019      0.040035964    20.290811      732.00284     -69.785635      662.21721    
   3536000   300.5845       0.040035964    19.746981      745.75844     -75.811199      669.94724    
   3537000   310.14077      0.040035964    18.150691      769.46779     -82.720282      686.74751    
   3538000   300.36942      0.040035964    19.483927      745.2248      -74.725101      670.4997     
   3539000   297.26832      0.040035964    18.263615      737.5309      -71.929805      665.6011     
   3540000   293.45697      0.040035964    19.283897      728.07484     -70.243038      657.8318     
   3541000   313.50036      0.040035964    21.318741      777.80303     -68.450502      709.35253    
   3542000   302.04626      0.040035964    21.803232      749.3851      -60.192478      689.19262    
   3543000   292.63412      0.040035964    21.583002      726.03332     -67.612552      658.42077    
   3544000   301.88102      0.040035964    19.525144      748.97514     -60.39283       688.58231    
   3545000   309.3761       0.040035964    19.765599      767.57062     -58.139423      709.4312     
   3546000   307.60158      0.040035964    20.190925      763.16801     -62.844266      700.32374    
   3547000   287.56319      0.040035964    20.14955       713.45219     -65.672915      647.77928    
   3548000   317.34295      0.040035964    23.345728      787.33662     -67.932085      719.40453    
   3549000   307.13168      0.040035964    23.47259       762.00217     -67.678133      694.32404    
   3550000   291.78442      0.040035964    20.9067        723.92519     -64.619192      659.306      
   3551000   307.0003       0.040035964    24.106442      761.6762      -69.338248      692.33796    
   3552000   301.6118       0.040035964    22.50437       748.30719     -75.693375      672.61382    
   3553000   290.22996      0.040035964    22.809805      720.06852     -72.808511      647.26001    
   3554000   299.17741      0.040035964    18.778546      742.26739     -66.631233      675.63616    
   3555000   304.84137      0.040035964    20.078787      756.31985     -66.905945      689.4139     
   3556000   293.524        0.040035964    21.582947      728.24114     -67.987338      660.25381    
   3557000   293.62489      0.040035964    29.215317      728.49145     -67.072247      661.41921    
   3558000   306.24055      0.040035964    14.311248      759.79124     -64.433327      695.35791    
   3559000   301.67319      0.040035964    23.233379      748.45951     -61.100243      687.35927    
   3560000   301.80762      0.040035964    21.997902      748.79301     -65.423735      683.36928    
   3561000   311.79655      0.040035964    28.244978      773.57582     -70.348017      703.22781    
   3562000   299.38314      0.040035964    19.489599      742.77784     -67.406431      675.3714     
   3563000   302.72815      0.040035964    20.057715      751.07688     -76.255621      674.82125    
   3564000   311.14877      0.040035964    33.288866      771.96866     -70.180412      701.78825    
   3565000   301.0456       0.040035964    19.478546      746.90244     -69.709301      677.19314    
   3566000   292.02003      0.040035964    18.670447      724.50974     -65.078162      659.43158    
   3567000   298.33923      0.040035964    21.043041      740.18786     -64.790799      675.39706    
   3568000   313.97832      0.040035964    21.632183      778.98887     -65.654612      713.33425    
   3569000   295.07012      0.040035964    19.913657      732.07709     -63.374529      668.70256    
   3570000   302.25986      0.040035964    19.061742      749.91505     -65.483695      684.43136    
   3571000   306.59937      0.040035964    19.616886      760.68149     -70.680809      690.00068    
   3572000   294.92372      0.040035964    22.628294      731.71387     -74.602045      657.11182    
   3573000   297.89586      0.040035964    20.146039      739.08783     -72.73273       666.3551     
   3574000   300.7238       0.040035964    21.651188      746.10404     -67.531561      678.57248    
   3575000   296.63058      0.040035964    18.406288      735.94864     -74.021027      661.92761    
   3576000   291.40287      0.040035964    20.439336      722.97855     -74.554953      648.4236     
   3577000   295.70852      0.040035964    17.083143      733.66099     -75.019753      658.64123    
   3578000   300.16151      0.040035964    16.98972       744.70899     -74.394864      670.31413    
   3579000   289.65694      0.040035964    23.722776      718.64685     -78.882834      639.76402    
   3580000   287.52026      0.040035964    21.285531      713.34568     -74.639366      638.70632    
   3581000   305.68876      0.040035964    16.974782      758.42224     -75.589754      682.83249    
   3582000   305.67282      0.040035964    29.39554       758.3827      -83.979393      674.40331    
   3583000   294.04242      0.040035964    23.111458      729.52734     -72.038517      657.48883    
   3584000   276.80543      0.040035964    14.777795      686.76191     -71.991696      614.77021    
   3585000   318.47296      0.040035964    19.401466      790.1402      -72.015728      718.12447    
   3586000   303.69063      0.040035964    23.590803      753.46483     -67.300089      686.16474    
   3587000   300.24138      0.040035964    22.703125      744.90714     -71.863123      673.04401    
   3588000   307.01938      0.040035964    23.564646      761.72354     -75.729437      685.9941     
   3589000   297.18898      0.040035964    20.8435        737.33406     -68.384532      668.94953    
   3590000   294.02383      0.040035964    18.957945      729.48123     -72.495939      656.9853     
   3591000   305.52859      0.040035964    21.506638      758.02486     -68.190217      689.83464    
   3592000   306.02944      0.040035964    13.193435      759.26747     -65.671599      693.59587    
   3593000   307.63296      0.040035964    16.058043      763.24585     -69.065453      694.1804     
   3594000   291.15791      0.040035964    18.842464      722.37079     -71.856066      650.51472    
   3595000   297.90502      0.040035964    24.651739      739.11057     -71.84497       667.2656     
   3596000   309.58776      0.040035964    27.756253      768.09577     -57.955369      710.1404     
   3597000   305.87532      0.040035964    11.185727      758.88509     -70.241383      688.64371    
   3598000   288.4389       0.040035964    15.830842      715.62487     -69.040162      646.58471    
   3599000   306.57308      0.040035964    33.85987       760.61626     -72.831287      687.78497    
   3600000   302.5697       0.040035964    19.649932      750.68378     -71.98882       678.69496    
   3601000   291.5267       0.040035964    6.57765        723.28578     -63.51545       659.77033    
   3602000   292.63793      0.040035964    23.835619      726.04276     -68.409626      657.63314    
   3603000   301.80143      0.040035964    38.102268      748.77766     -64.054038      684.72362    
   3604000   311.54058      0.040035964    33.478995      772.94076     -75.760675      697.18009    
   3605000   300.00506      0.040035964    21.521066      744.32081     -75.184021      669.13679    
   3606000   294.79156      0.040035964   -2.6399517      731.38597     -83.580243      647.80573    
   3607000   307.59818      0.040035964    34.367         763.15957     -68.962217      694.19735    
   3608000   310.51863      0.040035964    19.054206      770.40527     -65.618261      704.78701    
   3609000   301.29296      0.040035964    7.5697655      747.51614     -65.176164      682.33997    
   3610000   290.08957      0.040035964    32.340745      719.72021     -70.735867      648.98434    
   3611000   316.08707      0.040035964    33.753212      784.22074     -65.325031      718.8957     
   3612000   303.40197      0.040035964    7.5580045      752.74866     -63.48496       689.2637     
   3613000   305.04324      0.040035964    10.17752       756.82068     -75.324121      681.49656    
   3614000   297.78701      0.040035964    28.188595      738.81777     -65.722832      673.09494    
   3615000   304.17442      0.040035964    21.608526      754.66512     -64.955022      689.7101     
   3616000   286.71798      0.040035964   -3.3031831      711.35521     -65.461158      645.89405    
   3617000   309.25525      0.040035964    23.61065       767.27081     -64.438503      702.83231    
   3618000   303.46049      0.040035964    22.670062      752.89385     -69.44703       683.44682    
   3619000   292.64169      0.040035964    18.939932      726.0521      -63.611153      662.44094    
   3620000   298.49629      0.040035964    21.103266      740.57751     -66.247763      674.32975    
   3621000   313.01763      0.040035964    37.737622      776.60536     -63.249425      713.35594    
   3622000   304.60366      0.040035964    27.499182      755.73007     -64.742018      690.98805    
   3623000   296.61314      0.040035964   -1.710419       735.90539     -65.357066      670.54832    
   3624000   293.56988      0.040035964    24.850466      728.35496     -65.844306      662.51065    
   3625000   308.96403      0.040035964    24.485941      766.54828     -64.364631      702.18365    
   3626000   301.7007       0.040035964    17.938989      748.52775     -61.353366      687.17439    
   3627000   286.07003      0.040035964    3.0221484      709.74763     -65.823629      643.92401    
   3628000   290.92756      0.040035964    30.135387      721.7993      -62.857299      658.94201    
   3629000   318.48746      0.040035964    19.954063      790.17616     -61.357043      728.81912    
   3630000   300.59394      0.040035964    9.1946361      745.78186     -62.167139      683.61472    
   3631000   310.06434      0.040035964    22.362669      769.27819     -58.587015      710.69117    
   3632000   309.81458      0.040035964    37.983826      768.6585      -60.994121      707.66438    
   3633000   299.05583      0.040035964    9.1313534      741.96577     -58.14056       683.82521    
   3634000   286.2719       0.040035964    39.069515      710.24848     -57.925922      652.32256    
   3635000   305.78169      0.040035964    25.370126      758.6528      -61.45503       697.19777    
   3636000   317.62573      0.040035964    11.172061      788.0382      -68.29678       719.74142    
   3637000   295.67862      0.040035964    16.159019      733.58681     -65.496247      668.09057    
   3638000   283.34215      0.040035964    15.65329       702.97969     -63.709975      639.26972    
   3639000   304.32657      0.040035964    30.709476      755.04261     -56.657007      698.38561    
   3640000   309.35415      0.040035964    9.6143421      767.51618     -53.164068      714.35211    
   3641000   293.77168      0.040035964    20.061191      728.85563     -56.888363      671.96727    
   3642000   300.6223       0.040035964    21.132553      745.85222     -61.767354      684.08487    
   3643000   302.99687      0.040035964    19.306128      751.74358     -62.818408      688.92517    
   3644000   299.49439      0.040035964    20.553753      743.05385     -68.842765      674.21108    
   3645000   313.24438      0.040035964    21.51391       777.16794     -61.811399      715.35654    
   3646000   311.90505      0.040035964    19.933574      773.84503     -63.04807       710.79696    
   3647000   296.7561       0.040035964    14.537724      736.26007     -69.481859      666.77821    
   3648000   302.14776      0.040035964    21.155829      749.63693     -73.418367      676.21856    
   3649000   301.70535      0.040035964    20.575443      748.53929     -73.229762      675.30953    
   3650000   303.67509      0.040035964    25.176013      753.42627     -76.45092       676.97535    
   3651000   299.25853      0.040035964    22.133803      742.46866     -78.048205      664.42046    
   3652000   297.64654      0.040035964    20.524273      738.46928     -75.21097       663.25831    
   3653000   303.45488      0.040035964    18.005739      752.87992     -77.249245      675.63068    
   3654000   298.09137      0.040035964    26.096722      739.5729      -88.297806      651.27509    
   3655000   297.93683      0.040035964    22.476287      739.18949     -83.94937       655.24012    
   3656000   309.60749      0.040035964    19.454999      768.14471     -79.890805      688.2539     
   3657000   305.23056      0.040035964    23.738397      757.28545     -74.013415      683.27203    
   3658000   290.83486      0.040035964    26.129425      721.56931     -71.224897      650.34442    
   3659000   306.12503      0.040035964    20.235194      759.50465     -74.775164      684.72948    
   3660000   302.73758      0.040035964    11.430056      751.10028     -74.033099      677.06718    
   3661000   287.22207      0.040035964    9.6334368      712.60587     -76.20557       636.4003     
   3662000   283.59102      0.040035964    19.269691      703.59715     -76.311386      627.28576    
   3663000   296.06996      0.040035964    19.592826      734.55772     -79.487302      655.07042    
   3664000   307.21448      0.040035964    16.405413      762.20759     -77.527675      684.67992    
   3665000   302.91181      0.040035964    25.594269      751.53254     -78.514567      673.01798    
   3666000   291.35998      0.040035964    25.338341      722.87215     -73.969837      648.90231    
   3667000   296.34136      0.040035964    19.121416      735.23107     -70.207357      665.02372    
   3668000   307.49429      0.040035964    22.163597      762.90181     -71.284988      691.61682    
   3669000   305.95295      0.040035964    26.781898      759.07771     -69.026722      690.05099    
   3670000   282.70208      0.040035964    25.719886      701.39167     -68.836852      632.55481    
   3671000   304.803        0.040035964    18.224319      756.22464     -67.369455      688.85519    
   3672000   316.66156      0.040035964    19.855842      785.64606     -69.46759       716.17847    
   3673000   298.32344      0.040035964    22.251635      740.14868     -66.212588      673.93609    
   3674000   297.36108      0.040035964    21.446553      737.76104     -67.331441      670.4296     
   3675000   301.27963      0.040035964    19.691161      747.48305     -71.211745      676.27131    
   3676000   313.3328       0.040035964    45.797192      777.38731     -73.583866      703.80345    
   3677000   299.81501      0.040035964    19.042031      743.84929     -67.002574      676.84672    
   3678000   293.10864      0.040035964    6.8094979      727.21062     -70.150892      657.05973    
   3679000   305.84922      0.040035964    39.475658      758.82034     -78.788029      680.03231    
   3680000   300.42857      0.040035964    19.529005      745.37155     -69.723829      675.64772    
   3681000   303.92555      0.040035964    5.8640083      754.04766     -72.594422      681.45324    
   3682000   298.20651      0.040035964    8.7431758      739.85858     -68.278196      671.58038    
   3683000   311.82922      0.040035964    30.041505      773.65689     -63.104283      710.5526     
   3684000   301.03814      0.040035964    34.741251      746.88394     -65.171375      681.71256    
   3685000   288.01314      0.040035964    23.790962      714.56853     -66.22212       648.34641    
   3686000   295.7431       0.040035964    16.89708       733.74677     -67.028386      666.71839    
   3687000   318.93886      0.040035964    22.936971      791.2961      -58.956617      732.33948    
   3688000   294.88958      0.040035964    20.181804      731.62917     -58.695507      672.93366    
   3689000   289.70919      0.040035964    20.794261      718.7765      -55.402322      663.37417    
   3690000   296.4451       0.040035964    19.757217      735.48846     -52.55938       682.92908    
   3691000   312.17252      0.040035964    20.257689      774.50863     -53.735389      720.77324    
   3692000   304.29568      0.040035964    20.827272      754.96596     -56.944938      698.02102    
   3693000   305.49969      0.040035964    25.135963      757.95314     -59.581598      698.37154    
   3694000   305.56419      0.040035964    29.541454      758.11318     -61.178498      696.93468    
   3695000   291.09972      0.040035964    11.002431      722.22642     -64.163614      658.06281    
   3696000   287.34705      0.040035964    1.7107446      712.91594     -63.77809       649.13785    
   3697000   309.5347       0.040035964    27.58791       767.96411     -57.625889      710.33822    
   3698000   306.10957      0.040035964    24.800697      759.46628     -57.29696       702.16932    
   3699000   287.46923      0.040035964    18.59773       713.21907     -58.304047      654.91503    
   3700000   291.41834      0.040035964    11.242226      723.01693     -59.500694      663.51623    
   3701000   308.99698      0.040035964    18.311984      766.63002     -61.636858      704.99316    
   3702000   302.07283      0.040035964    20.633931      749.45101     -61.713082      687.73793    
   3703000   299.30778      0.040035964    25.957941      742.59086     -61.252568      681.33829    
   3704000   285.41442      0.040035964    17.549866      708.12104     -64.749706      643.37134    
   3705000   290.02013      0.040035964    31.110977      719.54794     -58.539109      661.00883    
   3706000   300.08216      0.040035964    16.21171       744.51211     -61.272444      683.23966    
   3707000   303.8448       0.040035964    21.113273      753.84732     -64.96509       688.88223    
   3708000   294.39048      0.040035964    24.570152      730.3909      -67.421038      662.96986    
   3709000   308.59022      0.040035964    18.59378       765.62084     -68.391359      697.22948    
   3710000   303.30033      0.040035964    21.073586      752.49648     -61.709284      690.7872     
   3711000   296.53924      0.040035964    20.401253      735.72204     -67.117606      668.60443    
   3712000   294.30785      0.040035964    18.331524      730.18589     -56.925522      673.26037    
   3713000   307.92657      0.040035964    18.19967       763.9743      -59.555543      704.41875    
   3714000   327.10418      0.040035964    25.36468       811.5545      -62.29395       749.26055    
   3715000   298.32273      0.040035964    21.677807      740.14691     -62.09972       678.04719    
   3716000   300.12951      0.040035964    18.548736      744.62959     -57.868259      686.76133    
   3717000   305.8059       0.040035964    13.989563      758.71288     -66.493311      692.21956    
   3718000   301.32226      0.040035964    41.341431      747.58882     -66.177444      681.41138    
   3719000   283.23647      0.040035964    22.731482      702.71749     -64.073496      638.64399    
   3720000   295.90854      0.040035964    8.3975228      734.15724     -62.818072      671.33917    
   3721000   315.77785      0.040035964    6.6891379      783.45355     -65.108197      718.34535    
   3722000   305.95562      0.040035964    22.845689      759.08432     -60.065519      699.01881    
   3723000   294.24155      0.040035964    37.550649      730.0214      -61.776934      668.24447    
   3724000   291.65613      0.040035964    7.0770218      723.60689     -62.08896       661.51793    
   3725000   294.35457      0.040035964    5.884323       730.30181     -60.193059      670.10875    
   3726000   308.18698      0.040035964    29.656883      764.62039     -63.856771      700.76362    
   3727000   302.98022      0.040035964    39.546654      751.70227     -65.328576      686.3737     
   3728000   288.34042      0.040035964    14.419937      715.38053     -62.470926      652.90961    
   3729000   310.91238      0.040035964    20.782781      771.38219     -64.52572       706.85647    
   3730000   304.00393      0.040035964    30.93288       754.24214     -58.717388      695.52475    
   3731000   291.52933      0.040035964    12.404295      723.29229     -60.514548      662.77774    
   3732000   293.90116      0.040035964    12.964375      729.17689     -62.001012      667.17588    
   3733000   307.19262      0.040035964    32.493599      762.15337     -63.986899      698.16647    
   3734000   289.48964      0.040035964    17.143513      718.23176     -64.360816      653.87095    
   3735000   302.291        0.040035964    16.678622      749.99231     -58.480036      691.51228    
   3736000   309.07582      0.040035964    26.859695      766.82564     -58.620492      708.20515    
   3737000   303.61766      0.040035964    21.999533      753.2838      -59.807804      693.47599    
   3738000   289.8874       0.040035964    23.258758      719.21864     -63.030068      656.18857    
   3739000   285.76459      0.040035964    17.564707      708.98983     -68.240706      640.74913    
   3740000   309.76114      0.040035964    20.427012      768.52593     -64.914512      703.61141    
   3741000   307.87755      0.040035964    21.755515      763.85268     -64.832878      699.0198     
   3742000   303.1409       0.040035964    19.976033      752.10092     -64.522605      687.57832    
   3743000   304.87175      0.040035964    9.0289907      756.39521     -64.667872      691.72734    
   3744000   302.39106      0.040035964    21.243263      750.24055     -67.913158      682.32739    
   3745000   298.63046      0.040035964    24.675259      740.91041     -65.102573      675.80783    
   3746000   289.35992      0.040035964    30.895994      717.90994     -62.888044      655.0219     
   3747000   310.97331      0.040035964    24.907314      771.53336     -63.124902      708.40846    
   3748000   307.51228      0.040035964   -5.6825837      762.94643     -67.648727      695.29771    
   3749000   299.63706      0.040035964    16.193944      743.4078      -73.783452      669.62435    
   3750000   298.47968      0.040035964    30.035985      740.53632     -70.219058      670.31726    
   3751000   296.96835      0.040035964    23.641258      736.78665     -57.501161      679.28549    
   3752000   298.73797      0.040035964    3.6969336      741.17714     -64.813995      676.36314    
   3753000   306.98867      0.040035964    13.179514      761.64735     -67.188248      694.4591     
   3754000   301.59115      0.040035964    26.700392      748.25595     -66.565813      681.69014    
   3755000   304.84236      0.040035964    11.154472      756.3223      -70.542465      685.77984    
   3756000   296.88412      0.040035964    12.947505      736.57768     -71.708505      664.86918    
   3757000   286.12893      0.040035964    22.862868      709.89377     -71.256292      638.63748    
   3758000   298.92177      0.040035964    35.494145      741.63315     -65.202328      676.43082    
   3759000   301.93604      0.040035964   -4.0109931      749.11165     -72.468013      676.64363    
   3760000   305.51941      0.040035964    28.999052      758.00209     -65.176849      692.82524    
   3761000   302.71793      0.040035964    23.345754      751.05153     -65.248165      685.80337    
   3762000   318.81744      0.040035964    21.487774      790.99484     -71.955051      719.03979    
   3763000   310.27289      0.040035964    14.692249      769.7956      -69.268512      700.52709    
   3764000   301.2561       0.040035964    24.859087      747.42468     -63.642703      683.78198    
   3765000   309.95452      0.040035964    32.901935      769.00571     -60.219628      708.78608    
   3766000   299.29118      0.040035964    17.828315      742.54966     -60.552156      681.99751    
   3767000   298.81265      0.040035964    16.894358      741.36242     -59.369025      681.9934     
   3768000   294.28541      0.040035964    17.678448      730.1302      -66.183316      663.94689    
   3769000   291.66422      0.040035964    21.379726      723.62697     -68.444539      655.18243    
   3770000   314.54513      0.040035964    23.416687      780.39515     -70.209534      710.18561    
   3771000   305.21517      0.040035964    19.435568      757.24726     -73.208808      684.03845    
   3772000   291.92508      0.040035964    20.643629      724.27417     -71.759993      652.51418    
   3773000   290.44763      0.040035964    24.736831      720.60858     -68.457292      652.15128    
   3774000   307.33738      0.040035964    19.288405      762.51251     -71.733932      690.77858    
   3775000   286.9527       0.040035964    3.3656263      711.93755     -74.083216      637.85433    
   3776000   301.66434      0.040035964    11.917372      748.43754     -74.792944      673.6446     
   3777000   293.17661      0.040035964    20.839816      727.37926     -71.711298      655.66796    
   3778000   312.62829      0.040035964    17.680026      775.6394      -69.305107      706.3343     
   3779000   306.16264      0.040035964    18.422558      759.59794     -71.730912      687.86703    
   3780000   295.11943      0.040035964    29.141467      732.19943     -73.821136      658.3783     
   3781000   297.13855      0.040035964    20.979506      737.20893     -70.186157      667.02277    
   3782000   296.87543      0.040035964    22.546742      736.55613     -70.598132      665.958      
   3783000   308.17293      0.040035964    31.43787       764.58554     -70.258157      694.32738    
   3784000   283.53403      0.040035964    23.442207      703.45575     -65.484297      637.97145    
   3785000   293.32943      0.040035964    26.287987      727.7584      -68.198256      659.56015    
   3786000   308.1335       0.040035964    14.52336       764.4877      -59.86159       704.62611    
   3787000   307.72138      0.040035964    19.500039      763.46522     -62.081558      701.38366    
   3788000   291.07892      0.040035964    20.664169      722.17484     -64.562039      657.6128     
   3789000   313.48119      0.040035964    16.140591      777.75548     -62.080806      715.67467    
   3790000   305.99248      0.040035964    21.397516      759.17578     -55.717446      703.45833    
   3791000   300.89873      0.040035964    17.507135      746.53805     -64.95874       681.57931    
   3792000   290.9603       0.040035964    21.315248      721.88053     -65.545477      656.33505    
   3793000   302.94426      0.040035964    22.078256      751.61306     -64.083007      687.53006    
   3794000   311.26267      0.040035964    18.644365      772.25127     -69.484618      702.76665    
   3795000   297.82708      0.040035964    18.149772      738.9172      -68.526269      670.39093    
   3796000   286.92861      0.040035964    17.479276      711.87778     -67.359841      644.51794    
   3797000   302.95461      0.040035964    22.082845      751.63873     -59.223046      692.41568    
   3798000   315.29086      0.040035964    22.349766      782.24531     -62.398388      719.84693    
   3799000   294.18535      0.040035964    33.171991      729.88195     -62.852862      667.02909    
   3800000   295.94153      0.040035964    21.456679      734.2391      -70.064333      664.17477    
   3801000   294.76754      0.040035964    16.766756      731.32639     -78.282399      653.04399    
   3802000   305.61457      0.040035964    28.650833      758.23818     -65.885393      692.35279    
   3803000   301.79437      0.040035964    25.161813      748.76016     -68.799034      679.96112    
   3804000   291.87259      0.040035964    7.4005534      724.14395     -65.259904      658.88404    
   3805000   301.95738      0.040035964    22.627665      749.16458     -66.299637      682.86494    
   3806000   293.40945      0.040035964    22.972933      727.95692     -57.735602      670.22132    
   3807000   290.29886      0.040035964    18.789335      720.23947     -65.497067      654.7424     
   3808000   319.30754      0.040035964    18.063148      792.2108      -68.570521      723.64028    
   3809000   305.84806      0.040035964    24.615341      758.81746     -62.922726      695.89473    
   3810000   292.9952       0.040035964    26.380885      726.92916     -66.734377      660.19479    
   3811000   295.98043      0.040035964    20.151244      734.33561     -58.759504      675.5761     
   3812000   305.68735      0.040035964    6.015191       758.41874     -55.034561      703.38418    
   3813000   300.03229      0.040035964    29.385775      744.38838     -60.235602      684.15278    
   3814000   296.40208      0.040035964    38.962368      735.38172     -59.91325       675.46847    
   3815000   282.78142      0.040035964    27.746714      701.58849     -50.627459      650.96103    
   3816000   296.9995       0.040035964    17.807416      736.86395     -54.665897      682.19805    
   3817000   322.50204      0.040035964    19.875192      800.13646     -53.463715      746.67274    
   3818000   293.92965      0.040035964    22.175312      729.24757     -58.435901      670.81166    
   3819000   302.10004      0.040035964    26.591162      749.51852     -58.667129      690.85139    
   3820000   290.15876      0.040035964    26.199661      719.89189     -57.45174       662.44015    
   3821000   281.90648      0.040035964    16.794815      699.41774     -59.947509      639.47023    
   3822000   311.79343      0.040035964    16.536639      773.56809     -61.447135      712.12096    
   3823000   308.42444      0.040035964    19.664032      765.20953     -60.733966      704.47557    
   3824000   314.01317      0.040035964    23.027737      779.07532     -60.405774      718.66954    
   3825000   319.59472      0.040035964    21.600526      792.92332     -63.793207      729.13011    
   3826000   299.18598      0.040035964    16.452165      742.28867     -60.166921      682.12175    
   3827000   280.87682      0.040035964    13.72552       696.86314     -67.047229      629.81591    
   3828000   299.02643      0.040035964    37.517937      741.89282     -66.065305      675.82752    
   3829000   307.69715      0.040035964    14.585211      763.40512     -62.319202      701.08592    
   3830000   299.33046      0.040035964    10.449259      742.64712     -61.031905      681.61522    
   3831000   295.87431      0.040035964    23.194801      734.07232     -64.461804      669.61051    
   3832000   314.33646      0.040035964    31.598396      779.87743     -65.30359       714.57384    
   3833000   307.96485      0.040035964    20.536408      764.06929     -71.854274      692.21502    
   3834000   299.79558      0.040035964    18.148553      743.80111     -70.104941      673.69617    
   3835000   281.45078      0.040035964    13.627225      698.28715     -71.36284       626.92431    
   3836000   315.80518      0.040035964    22.553526      783.52136     -71.035166      712.48619    
   3837000   320.31576      0.040035964    21.060393      794.71222     -66.850379      727.86184    
   3838000   291.46497      0.040035964    17.152036      723.13261     -71.840266      651.29235    
   3839000   305.04904      0.040035964    19.55268       756.83507     -72.914809      683.92026    
   3840000   294.5549       0.040035964    17.354627      730.79884     -70.780333      660.0185     
   3841000   313.54366      0.040035964    15.857215      777.91047     -66.189772      711.7207     
   3842000   299.65333      0.040035964    21.945496      743.44816     -68.798681      674.64948    
   3843000   295.75101      0.040035964    20.137499      733.7664      -69.048562      664.71784    
   3844000   293.1556       0.040035964    19.98109       727.32713     -77.289953      650.03718    
   3845000   296.9178       0.040035964    17.320818      736.66125     -69.152869      667.50838    
   3846000   307.62917      0.040035964    21.031607      763.23645     -71.856363      691.38008    
   3847000   292.35087      0.040035964    20.051252      725.33057     -69.641424      655.68914    
   3848000   294.88345      0.040035964    20.704877      731.61396     -72.582887      659.03107    
   3849000   306.39727      0.040035964    22.410223      760.18007     -70.935747      689.24432    
   3850000   322.09317      0.040035964    20.728781      799.12204     -68.876746      730.24529    
   3851000   294.67005      0.040035964    21.993455      731.08451     -65.956259      665.12825    
   3852000   302.75315      0.040035964    18.265561      751.1389      -68.302916      682.83599    
   3853000   304.99036      0.040035964    9.7725002      756.68948     -66.356944      690.33254    
   3854000   307.20099      0.040035964    21.400548      762.17411     -64.063748      698.11037    
   3855000   293.84994      0.040035964    26.517765      729.0498      -58.561249      670.48855    
   3856000   300.13105      0.040035964    17.386538      744.63341     -51.49608       693.13733    
   3857000   304.60807      0.040035964    19.546902      755.74102     -53.51233       702.22869    
   3858000   313.78275      0.040035964    22.92582       778.50365     -56.441938      722.06171    
   3859000   295.44784      0.040035964    22.551399      733.01422     -59.530876      673.48335    
   3860000   296.14326      0.040035964    21.882683      734.73958     -58.971316      675.76827    
   3861000   297.57839      0.040035964    16.214488      738.30019     -54.545146      683.75505    
   3862000   312.70441      0.040035964    20.291626      775.82826     -61.523953      714.3043     
   3863000   296.13911      0.040035964    14.440185      734.7293      -67.105226      667.62408    
   3864000   299.78056      0.040035964    21.225688      743.76384     -62.733187      681.03066    
   3865000   316.21799      0.040035964    25.018655      784.54555     -66.931381      717.61417    
   3866000   301.86748      0.040035964    16.538666      748.94153     -72.326125      676.6154     
   3867000   293.12073      0.040035964    23.002879      727.24062     -63.84973       663.39089    
   3868000   289.56782      0.040035964    22.60814       718.42575     -62.026392      656.39935    
   3869000   303.63496      0.040035964    17.957382      753.3267      -61.722598      691.6041     
   3870000   294.85431      0.040035964    18.009425      731.54168     -65.119658      666.42202    
   3871000   295.05505      0.040035964    21.669513      732.03971     -65.515145      666.52457    
   3872000   295.61371      0.040035964    20.090141      733.42576     -66.166907      667.25886    
   3873000   290.25842      0.040035964    20.225722      720.13913     -62.647378      657.49176    
   3874000   302.06756      0.040035964    21.034536      749.43794     -62.704416      686.73352    
   3875000   304.08548      0.040035964    19.621631      754.44446     -66.635056      687.8094     
   3876000   296.7643       0.040035964    19.125484      736.28041     -68.739803      667.5406     
   3877000   294.31435      0.040035964    20.068364      730.20202     -67.373386      662.82863    
   3878000   288.76237      0.040035964    16.314703      716.42739     -71.921959      644.50543    
   3879000   302.33625      0.040035964    20.453709      750.10458     -66.307451      683.79713    
   3880000   299.97426      0.040035964    21.432603      744.2444      -63.161312      681.08309    
   3881000   307.23356      0.040035964    23.346742      762.25494     -65.726861      696.52808    
   3882000   292.03159      0.040035964    7.7884176      724.53842     -65.703002      658.83542    
   3883000   296.90543      0.040035964    18.202611      736.63055     -71.40431       665.22624    
   3884000   299.61397      0.040035964    30.662575      743.35053     -67.785229      675.5653     
   3885000   312.30261      0.040035964    24.285         774.8314      -68.205031      706.62637    
   3886000   299.80826      0.040035964    2.9588482      743.83255     -70.016243      673.81631    
   3887000   297.57869      0.040035964    21.989173      738.30093     -66.3716        671.92933    
   3888000   296.04725      0.040035964    22.578476      734.5014      -65.69691       668.80449    
   3889000   311.39921      0.040035964    15.910686      772.59002     -69.324374      703.26565    
   3890000   292.16576      0.040035964   -7.2432764      724.8713      -62.535277      662.33602    
   3891000   290.56684      0.040035964    30.300419      720.90435     -68.787245      652.11711    
   3892000   311.74092      0.040035964    5.9457028      773.43782     -71.033707      702.40411    
   3893000   299.66385      0.040035964    17.765185      743.47426     -69.971015      673.50325    
   3894000   303.30885      0.040035964    30.229189      752.51761     -63.270517      689.24709    
   3895000   301.75935      0.040035964    5.4573119      748.67327     -59.634554      689.03872    
   3896000   295.7598       0.040035964    18.311684      733.78822     -64.469592      669.31863    
   3897000   299.27148      0.040035964    31.60679       742.50079     -66.124452      676.37634    
   3898000   302.05099      0.040035964    18.913674      749.39682     -71.774745      677.62208    
   3899000   288.58766      0.040035964    12.2888        715.99393     -67.616181      648.37775    
   3900000   304.69029      0.040035964    37.604586      755.94502     -68.762041      687.18298    
   3901000   312.25205      0.040035964    15.313812      774.70595     -68.202887      706.50306    
   3902000   288.65491      0.040035964    13.121941      716.16079     -68.821108      647.33969    
   3903000   288.30999      0.040035964    15.271738      715.30504     -72.370234      642.93481    
   3904000   300.97054      0.040035964    28.115568      746.71621     -71.245121      675.47109    
   3905000   310.40471      0.040035964    20.499396      770.12264     -71.500455      698.62218    
   3906000   303.49294      0.040035964    2.6990681      752.97436     -71.33176       681.6426     
   3907000   287.97711      0.040035964    17.379765      714.47914     -66.642032      647.83711    
   3908000   301.26596      0.040035964    31.365478      747.44915     -64.699633      682.74951    
   3909000   307.54498      0.040035964    21.904887      763.02756     -64.978452      698.04911    
   3910000   288.49615      0.040035964    20.37563       715.76691     -64.397853      651.36906    
   3911000   294.54859      0.040035964    18.076732      730.78317     -65.633072      665.1501     
   3912000   311.38425      0.040035964    18.452922      772.55291     -66.751841      705.80107    
   3913000   310.75824      0.040035964    19.988276      770.99975     -61.496457      709.50329    
   3914000   286.21069      0.040035964    18.600493      710.09662     -59.034518      651.0621     
   3915000   280.28349      0.040035964    18.190011      695.39107     -63.254259      632.13681    
   3916000   303.45536      0.040035964    19.182614      752.88112     -67.846067      685.03505    
   3917000   304.52919      0.040035964    19.680714      755.54532     -70.760584      684.78474    
   3918000   295.60122      0.040035964    26.047137      733.39478     -76.161051      657.23373    
   3919000   288.45994      0.040035964    16.074582      715.67705     -71.813431      643.86362    
   3920000   299.05096      0.040035964    8.7812232      741.95368     -76.664632      665.28905    
   3921000   307.35538      0.040035964    30.677448      762.55716     -74.960834      687.59632    
   3922000   293.16816      0.040035964    7.3495123      727.35827     -78.553687      648.80459    
   3923000   299.1226       0.040035964    6.8116863      742.13142     -88.129324      654.0021     
   3924000   296.61025      0.040035964    24.941046      735.89819     -84.236628      651.66157    
   3925000   306.77143      0.040035964    29.090145      761.10837     -78.467396      682.64097    
   3926000   285.53512      0.040035964    16.909683      708.4205      -79.691786      628.72871    
   3927000   295.9751       0.040035964    18.281945      734.32237     -73.789501      660.53287    
   3928000   302.34309      0.040035964    19.999572      750.12154     -71.272882      678.84866    
   3929000   303.6929       0.040035964    19.090758      753.47046     -73.286846      680.18361    
   3930000   301.61873      0.040035964    22.262005      748.32438     -70.195079      678.1293     
   3931000   309.86288      0.040035964    18.860289      768.77836     -72.298192      696.48017    
   3932000   298.8884       0.040035964    20.459013      741.55036     -75.453844      666.09652    
   3933000   292.80459      0.040035964    17.706959      726.45626     -82.083797      644.37247    
   3934000   307.82069      0.040035964    17.503824      763.71161     -77.230592      686.48101    
   3935000   306.59119      0.040035964    21.214412      760.6612      -77.687595      682.9736     
   3936000   302.2307       0.040035964    20.777041      749.84271     -77.605943      672.23676    
   3937000   297.52874      0.040035964    21.081994      738.17702     -67.966534      670.21048    
   3938000   296.94496      0.040035964    15.655967      736.72864     -67.707124      669.02152    
   3939000   303.17122      0.040035964    21.110011      752.17614     -65.520705      686.65544    
   3940000   298.62094      0.040035964    16.263309      740.88678     -66.518742      674.36804    
   3941000   301.62036      0.040035964    19.006195      748.32843     -67.719317      680.60911    
   3942000   297.51816      0.040035964    19.382423      738.15077     -65.65734       672.49343    
   3943000   302.91231      0.040035964    20.066164      751.5338      -64.611717      686.92208    
   3944000   308.24297      0.040035964    21.089386      764.75932     -60.453623      704.30569    
   3945000   302.25237      0.040035964    17.153646      749.89645     -58.44929       691.44716    
   3946000   288.20684      0.040035964    18.811294      715.04912     -62.218107      652.83102    
   3947000   302.30655      0.040035964    23.505833      750.03089     -63.084881      686.94601    
   3948000   316.13437      0.040035964    13.11127       784.33807     -65.929426      718.40865    
   3949000   292.77192      0.040035964    19.027248      726.37519     -67.072832      659.30236    
   3950000   294.06231      0.040035964    31.554165      729.57669     -72.103613      657.47308    
   3951000   307.48866      0.040035964    16.215041      762.88783     -70.309013      692.57882    
   3952000   305.46806      0.040035964    14.772053      757.87467     -70.393226      687.48145    
   3953000   298.12448      0.040035964    19.546636      739.65505     -69.592586      670.06247    
   3954000   291.57572      0.040035964    19.064086      723.4074      -72.534211      650.87319    
   3955000   309.28215      0.040035964    21.019366      767.33754     -70.655553      696.68199    
   3956000   307.57188      0.040035964    26.399026      763.09432     -67.318095      695.77623    
   3957000   288.01984      0.040035964    17.149622      714.58517     -76.129501      638.45567    
   3958000   307.89076      0.040035964    12.809169      763.88546     -72.881698      691.00376    
   3959000   295.75181      0.040035964    22.032514      733.76838     -76.190107      657.57827    
   3960000   291.8586       0.040035964    18.792806      724.10923     -70.725531      653.3837     
   3961000   311.80786      0.040035964    15.011942      773.60389     -67.2175        706.38639    
   3962000   293.11323      0.040035964    32.511054      727.22201     -77.676327      649.54568    
   3963000   300.10061      0.040035964    15.203693      744.55788     -76.344964      668.21292    
   3964000   313.16527      0.040035964    10.632907      776.97166     -72.926113      704.04555    
   3965000   300.31755      0.040035964    23.193465      745.09613     -80.791936      664.30419    
   3966000   286.47328      0.040035964    14.986979      710.7481      -79.258977      631.48912    
   3967000   315.95876      0.040035964    20.519772      783.9024      -76.598803      707.3036     
   3968000   303.48819      0.040035964    19.503003      752.96256     -71.866155      681.0964     
   3969000   297.42337      0.040035964    23.927238      737.91558     -71.632719      666.28286    
   3970000   290.74235      0.040035964    19.886183      721.33979     -74.520884      646.8189     
   3971000   298.34998      0.040035964    13.236349      740.21453     -75.548368      664.66616    
   3972000   311.12661      0.040035964    24.884059      771.91369     -70.099352      701.81433    
   3973000   298.76758      0.040035964    17.837399      741.2506      -75.900442      665.35016    
   3974000   300.69661      0.040035964    16.788259      746.03658     -70.287945      675.74864    
   3975000   306.32026      0.040035964    20.506572      759.98902     -79.086388      680.90263    
   3976000   284.5278       0.040035964    23.469751      705.9213      -72.077876      633.84343    
   3977000   298.02054      0.040035964    16.188364      739.39719     -76.194955      663.20223    
   3978000   307.13451      0.040035964    23.07964       762.0092      -70.756671      691.25253    
   3979000   283.85418      0.040035964    13.950038      704.25003     -74.041012      630.20902    
   3980000   295.83158      0.040035964    18.703114      733.96631     -67.425034      666.54128    
   3981000   301.08699      0.040035964    14.55218       747.00512     -69.948461      677.05666    
   3982000   325.19327      0.040035964    17.849805      806.81347     -71.031032      735.78244    
   3983000   299.64204      0.040035964    25.436949      743.42015     -68.094836      675.32532    
   3984000   290.18237      0.040035964    26.34232       719.95045     -65.521882      654.42857    
   3985000   307.29911      0.040035964    19.930081      762.41756     -71.500797      690.91676    
   3986000   305.44076      0.040035964    22.268638      757.80694     -74.509943      683.297      
   3987000   306.58713      0.040035964    25.924779      760.65113     -78.400061      682.25107    
   3988000   301.57711      0.040035964    17.900256      748.22112     -77.719712      670.5014     
   3989000   305.12383      0.040035964    21.663571      757.02064     -80.365405      676.65523    
   3990000   285.91183      0.040035964    21.793878      709.35514     -71.437528      637.91761    
   3991000   303.3705       0.040035964    22.377519      752.67058     -66.716309      685.95427    
   3992000   300.14611      0.040035964    19.089694      744.67076     -67.644295      677.02647    
   3993000   284.47526      0.040035964    19.642091      705.79097     -69.184119      636.60685    
   3994000   294.87101      0.040035964    29.084672      731.5831      -71.781792      659.80131    
   3995000   311.42086      0.040035964    28.346126      772.64374     -71.423364      701.22037    
   3996000   311.28338      0.040035964    7.6447694      772.30265     -68.189725      704.11293    
   3997000   292.93556      0.040035964    25.449641      726.7812      -73.265722      653.51548    
   3998000   307.01228      0.040035964    22.033314      761.70592     -70.330057      691.37586    
   3999000   285.60364      0.040035964    2.9097372      708.5905      -72.504439      636.08606    
   4000000   289.51326      0.040035964    16.17755       718.29039     -65.603098      652.68729    
   4001000   304.95128      0.040035964    38.211112      756.59253     -63.454192      693.13834    
   4002000   296.6011       0.040035964    20.926092      735.87551     -67.519051      668.35646    
   4003000   291.12545      0.040035964    21.702294      722.29028     -64.146694      658.14358    
   4004000   303.08657      0.040035964    21.433417      751.96614     -64.551659      687.41449    
   4005000   306.70288      0.040035964    24.996836      760.93829     -68.311474      692.62682    
   4006000   300.93233      0.040035964    18.544096      746.62141     -67.713517      678.9079     
   4007000   303.5798       0.040035964    21.213086      753.18984     -64.901776      688.28806    
   4008000   304.64235      0.040035964    19.886114      755.82607     -58.201672      697.62439    
   4009000   304.18598      0.040035964    20.416679      754.6938      -54.104275      700.58953    
   4010000   301.22794      0.040035964    22.590694      747.35482     -54.3304        693.02442    
   4011000   298.62982      0.040035964    24.99019       740.90882     -58.615454      682.29336    
   4012000   293.83673      0.040035964    18.347988      729.01704     -63.741966      665.27507    
   4013000   302.22217      0.040035964    17.728775      749.82153     -62.548366      687.27317    
   4014000   305.34816      0.040035964    23.037761      757.5772      -68.852119      688.72508    
   4015000   297.96848      0.040035964    16.65249       739.26801     -66.897635      672.37037    
   4016000   292.3922       0.040035964    21.982247      725.43312     -65.228227      660.20489    
   4017000   304.84383      0.040035964    29.275532      756.32595     -64.560475      691.76547    
   4018000   296.41619      0.040035964    10.573118      735.41675     -59.405718      676.01103    
   4019000   303.30974      0.040035964    19.664941      752.51984     -58.89651       693.62333    
   4020000   311.01033      0.040035964    16.353477      771.62521     -59.750889      711.87432    
   4021000   314.81529      0.040035964    19.798759      781.06541     -59.645545      721.41987    
   4022000   295.61001      0.040035964    19.816837      733.41658     -60.672426      672.74416    
   4023000   292.53786      0.040035964    21.160878      725.79449     -62.823028      662.97146    
   4024000   295.45449      0.040035964    21.866243      733.03074     -70.513082      662.51766    
   4025000   304.78887      0.040035964    25.613647      756.18958     -68.204204      687.98538    
   4026000   312.62645      0.040035964    19.164796      775.63485     -68.110849      707.524      
   4027000   290.34027      0.040035964    15.408814      720.34222     -73.775174      646.56705    
   4028000   295.48416      0.040035964    31.209805      733.10435     -75.992796      657.11155    
   4029000   309.80365      0.040035964    20.138356      768.63141     -79.791769      688.83964    
   4030000   300.02455      0.040035964    17.930153      744.36919     -73.807161      670.56203    
   4031000   286.64898      0.040035964    18.449703      711.18401     -70.846102      640.33791    
   4032000   284.46376      0.040035964    24.825183      705.76242     -62.777103      642.98532    
   4033000   313.99351      0.040035964    23.385479      779.02656     -59.866479      719.16008    
   4034000   306.09449      0.040035964    18.319333      759.42887     -65.135169      694.2937     
   4035000   294.29142      0.040035964    16.005581      730.14512     -57.410046      672.73507    
   4036000   293.3824       0.040035964    24.279084      727.88983     -60.615281      667.27455    
   4037000   311.16972      0.040035964    34.849919      772.02065     -58.679658      713.341      
   4038000   307.3971       0.040035964    19.113033      762.66067     -61.906096      700.75457    
   4039000   287.40141      0.040035964    18.164525      713.05083     -58.149072      654.90176    
   4040000   305.29188      0.040035964    41.159487      757.43757     -63.065164      694.3724     
   4041000   314.27512      0.040035964    28.371761      779.72524     -62.303042      717.4222     
   4042000   298.45115      0.040035964    20.017275      740.46553     -60.015194      680.45034    
   4043000   291.55043      0.040035964    22.00778       723.34465     -61.56638       661.77827    
   4044000   307.01389      0.040035964    19.563891      761.70992     -60.007025      701.7029     
   4045000   291.12843      0.040035964    18.410126      722.29766     -60.934207      661.36345    
   4046000   301.53699      0.040035964    21.997262      748.12158     -58.212189      689.9094     
   4047000   298.23179      0.040035964    14.980516      739.92129     -60.613127      679.30816    
   4048000   294.66384      0.040035964    19.363241      731.06911     -61.053469      670.01564    
   4049000   296.59402      0.040035964    17.076811      735.85795     -64.414762      671.44318    
   4050000   292.52618      0.040035964    17.022589      725.76552     -69.981888      655.78364    
   4051000   316.29242      0.040035964    21.57402       784.7302      -70.219804      714.5104     
   4052000   295.85802      0.040035964    21.453554      734.03189     -66.534572      667.49732    
   4053000   296.47111      0.040035964    18.537809      735.55298     -60.489249      675.06373    
   4054000   308.30309      0.040035964    24.241705      764.90848     -65.658499      699.24998    
   4055000   288.52341      0.040035964    29.31759       715.83452     -66.388417      649.44611    
   4056000   293.77206      0.040035964    23.274488      728.85657     -64.486899      664.36968    
   4057000   288.11904      0.040035964    22.636029      714.83129     -61.088306      653.74298    
   4058000   306.42414      0.040035964    14.826911      760.24673     -59.658218      700.58852    
   4059000   305.61081      0.040035964    21.05153       758.22884     -58.212097      700.01674    
   4060000   305.12091      0.040035964    22.436437      757.01338     -62.034373      694.97901    
   4061000   294.14432      0.040035964    30.848722      729.78017     -63.411559      666.36861    
   4062000   303.8718       0.040035964    19.341674      753.91432     -62.288643      691.62568    
   4063000   297.42293      0.040035964    18.561565      737.91449     -66.818508      671.09598    
   4064000   281.92013      0.040035964    22.395424      699.4516      -68.457272      630.99433    
   4065000   303.58313      0.040035964    33.033157      753.1981      -69.273104      683.925      
   4066000   311.25044      0.040035964    29.101165      772.22092     -64.297808      707.92311    
   4067000   304.03663      0.040035964    15.613003      754.32327     -60.296539      694.02673    
   4068000   282.95538      0.040035964    27.222988      702.02009     -63.137259      638.88283    
   4069000   310.84753      0.040035964    54.172186      771.2213      -72.701153      698.52015    
   4070000   308.90842      0.040035964    10.11227       766.4103      -60.954801      705.4555     
   4071000   283.68111      0.040035964    11.641612      703.82065     -55.0906        648.73005    
   4072000   302.08511      0.040035964    28.484243      749.48149     -54.101491      695.38       
   4073000   317.84839      0.040035964    27.486042      788.59061     -49.965525      738.62508    
   4074000   311.30459      0.040035964    14.866242      772.35528     -54.794035      717.56125    
   4075000   297.49328      0.040035964    20.199891      738.08903     -62.184831      675.9042     
   4076000   295.15323      0.040035964    22.593996      732.28331     -69.74484       662.53847    
   4077000   294.23982      0.040035964    26.776236      730.0171      -64.40359       665.61351    
   4078000   303.70871      0.040035964    22.055387      753.50969     -63.34949       690.1602     
   4079000   305.15778      0.040035964    2.617238       757.10486     -61.095323      696.00953    
   4080000   298.40546      0.040035964    31.489726      740.35218     -64.777763      675.57442    
   4081000   308.71553      0.040035964    11.547896      765.93174     -65.84391       700.08783    
   4082000   291.51752      0.040035964    12.911575      723.26301     -65.492162      657.77084    
   4083000   300.38698      0.040035964    38.85518       745.26838     -61.248858      684.01953    
   4084000   294.13448      0.040035964    4.2515575      729.75576     -62.347506      667.40825    
   4085000   307.47939      0.040035964    17.227145      762.86483     -63.192109      699.67272    
   4086000   282.08743      0.040035964    20.725717      699.86669     -63.096225      636.77047    
   4087000   294.62704      0.040035964    27.156289      730.9778      -62.801358      668.17644    
   4088000   309.38244      0.040035964    23.201992      767.58636     -63.426532      704.15983    
   4089000   301.97643      0.040035964    17.782313      749.21185     -61.931078      687.28077    
   4090000   294.40022      0.040035964    14.824384      730.41506     -63.502987      666.91207    
   4091000   285.79584      0.040035964    37.534702      709.06736     -62.752591      646.31477    
   4092000   296.89493      0.040035964    30.932086      736.60451     -61.93386       674.67065    
   4093000   305.73175      0.040035964    39.253666      758.52889     -61.275964      697.25293    
   4094000   305.28198      0.040035964    20.605588      757.41301     -61.285091      696.12792    
   4095000   297.83014      0.040035964    15.201201      738.92479     -73.915036      665.00975    
   4096000   295.11347      0.040035964    18.394322      732.18465     -69.948664      662.23598    
   4097000   305.42762      0.040035964    19.331635      757.77434     -73.374366      684.39998    
   4098000   308.473        0.040035964    18.827169      765.33003     -66.593679      698.73635    
   4099000   293.14757      0.040035964    16.094554      727.30721     -64.037885      663.26933    
   4100000   287.78062      0.040035964    23.07745       713.99166     -66.438612      647.55304    
   4101000   304.02153      0.040035964    29.989642      754.28579     -61.684702      692.60109    
   4102000   312.30143      0.040035964    15.996827      774.82845     -67.714504      707.11394    
   4103000   302.95872      0.040035964    11.71152       751.64894     -59.757106      691.89183    
   4104000   294.62971      0.040035964    19.739239      730.98443     -68.396237      662.5882     
   4105000   320.38098      0.040035964    18.392576      794.87405     -61.957069      732.91698    
   4106000   296.08413      0.040035964    23.541818      734.59288     -65.445929      669.14695    
   4107000   293.71216      0.040035964    21.026684      728.70798     -61.840841      666.86714    
   4108000   301.10491      0.040035964    20.337574      747.04959     -57.616759      689.43283    
   4109000   307.58608      0.040035964    21.193368      763.12953     -60.054367      703.07516    
   4110000   312.00891      0.040035964    20.270144      774.1027      -60.203497      713.8992     
   4111000   298.99357      0.040035964    17.050233      741.81129     -59.921304      681.88998    
   4112000   289.74512      0.040035964    19.360213      718.86564     -60.326578      658.53906    
   4113000   293.37859      0.040035964    25.05645       727.88037     -59.810089      668.07028    
   4114000   314.32003      0.040035964    23.699186      779.83665     -64.543775      715.29287    
   4115000   300.4994       0.040035964    18.321934      745.54729     -68.672692      676.87459    
   4116000   289.11115      0.040035964    26.501293      717.29272     -63.197994      654.09473    
   4117000   323.43261      0.040035964    17.893771      802.44523     -65.562336      736.88289    
   4118000   299.75361      0.040035964    19.486361      743.69698     -60.389256      683.30772    
   4119000   295.18515      0.040035964    19.395281      732.3625      -67.802499      664.56001    
   4120000   301.11741      0.040035964    19.766138      747.0806      -64.54368       682.53692    
   4121000   310.70607      0.040035964    23.849268      770.87032     -69.584218      701.2861     
   4122000   327.36274      0.040035964    25.437081      812.19598     -64.443881      747.7521     
   4123000   299.62301      0.040035964    16.857422      743.37294     -62.323135      681.0498     
   4124000   276.2121       0.040035964    18.730745      685.28984     -66.699569      618.59027    
   4125000   300.86993      0.040035964    29.220442      746.46659     -66.461251      680.00534    
   4126000   304.78237      0.040035964    20.841348      756.17345     -65.768934      690.40452    
   4127000   303.90983      0.040035964    22.287861      754.00868     -68.567663      685.44101    
   4128000   304.51975      0.040035964    20.84403       755.52191     -65.710815      689.81109    
   4129000   307.31239      0.040035964    17.161451      762.45051     -70.69043       691.76008    
   4130000   296.35657      0.040035964    20.959763      735.26883     -64.887051      670.38178    
   4131000   288.84642      0.040035964    25.557576      716.63593     -62.751188      653.88475    
   4132000   296.27083      0.040035964    22.420185      735.0561      -69.273103      665.783      
   4133000   306.5186       0.040035964    5.3942495      760.48109     -63.407676      697.07341    
   4134000   287.15014      0.040035964    14.281514      712.4274      -73.117296      639.3101     
   4135000   295.89117      0.040035964    26.134335      734.11416     -68.160836      665.95332    
   4136000   306.53178      0.040035964    18.574014      760.51379     -76.047959      684.46583    
   4137000   298.16661      0.040035964    11.677235      739.75959     -75.891013      663.86858    
   4138000   267.82366      0.040035964    22.669252      664.47789     -67.24956       597.22833    
   4139000   298.71164      0.040035964    22.208548      741.1118      -68.958546      672.15326    
   4140000   314.34813      0.040035964    18.882205      779.90637     -69.946125      709.96024    
   4141000   301.71299      0.040035964    21.59338       748.55824     -69.456642      679.10159    
   4142000   297.42957      0.040035964    19.541001      737.93096     -70.654988      667.27598    
   4143000   301.1027       0.040035964    16.138253      747.04411     -64.526034      682.51807    
   4144000   292.33053      0.040035964    16.015226      725.2801      -67.77988       657.50022    
   4145000   295.49511      0.040035964    19.612573      733.13152     -63.550564      669.58096    
   4146000   322.13665      0.040035964    26.054341      799.22991     -63.318962      735.91094    
   4147000   309.78848      0.040035964    22.945616      768.59376     -57.962205      710.63155    
   4148000   287.43595      0.040035964    19.919662      713.13652     -54.503388      658.63313    
   4149000   301.58293      0.040035964    14.792523      748.23557     -59.660935      688.57464    
   4150000   302.04435      0.040035964    26.762033      749.38036     -63.217863      686.1625     
   4151000   294.75594      0.040035964    13.293451      731.2976      -67.229202      664.0684     
   4152000   296.56561      0.040035964    12.869134      735.78745     -66.805062      668.98239    
   4153000   306.61114      0.040035964    21.59695       760.71068     -76.541478      684.1692     
   4154000   299.83798      0.040035964    39.69873       743.90628     -74.355001      669.55128    
   4155000   297.5516       0.040035964    37.053575      738.23371     -72.808127      665.42558    
   4156000   292.13957      0.040035964    24.622825      724.80632     -68.846387      655.95994    
   4157000   300.43244      0.040035964    10.425389      745.38117     -74.306216      671.07495    
   4158000   303.7432       0.040035964    28.992488      753.59524     -68.945498      684.64975    
   4159000   299.04316      0.040035964    13.911546      741.93431     -72.563255      669.37106    
   4160000   294.61746      0.040035964    3.6741064      730.95404     -66.108026      664.84601    
   4161000   304.43806      0.040035964    21.961244      755.31922     -67.703138      687.61609    
   4162000   312.43693      0.040035964    23.143543      775.16464     -71.332953      703.83168    
   4163000   296.96216      0.040035964    21.997183      736.77131     -63.839901      672.9314     
   4164000   293.45593      0.040035964    16.808644      728.07226     -65.30419       662.76807    
   4165000   308.17006      0.040035964    18.942645      764.57841     -60.344411      704.234      
   4166000   307.26235      0.040035964    51.377355      762.32635     -62.399392      699.92696    
   4167000   293.80527      0.040035964    29.611858      728.93896     -63.549274      665.38969    
   4168000   296.29522      0.040035964   -10.136785      735.1166      -60.819035      674.29757    
   4169000   306.78625      0.040035964    23.202079      761.14515     -65.439459      695.70569    
   4170000   298.05703      0.040035964    31.116669      739.48771     -63.450068      676.03764    
   4171000   295.61293      0.040035964    12.424179      733.42382     -68.674955      664.74887    
   4172000   296.40351      0.040035964    20.864364      735.38528     -74.015958      661.36932    
   4173000   309.73476      0.040035964    18.571461      768.46048     -63.587616      704.87287    
   4174000   306.40932      0.040035964    15.401411      760.20997     -62.708088      697.50189    
   4175000   299.63557      0.040035964    27.593154      743.4041      -66.079205      677.32489    
   4176000   306.4745       0.040035964    46.119773      760.37169     -56.564576      703.80711    
   4177000   291.14633      0.040035964    11.390798      722.34206     -63.923396      658.41866    
   4178000   292.99661      0.040035964    16.588261      726.93267     -58.534026      668.39864    
   4179000   314.77071      0.040035964    28.134427      780.9548      -55.833223      725.12157    
   4180000   289.56228      0.040035964    34.045674      718.41199     -68.037946      650.37404    
   4181000   295.54348      0.040035964    13.646833      733.25152     -64.060735      669.19079    
   4182000   310.40051      0.040035964    20.272206      770.11223     -64.895327      705.2169     
   4183000   297.81998      0.040035964    32.8468        738.89957     -67.142558      671.75702    
   4184000   286.90525      0.040035964    16.675965      711.81984     -71.475791      640.34405    
   4185000   307.14271      0.040035964    15.467983      762.02952     -74.94203       687.08749    
   4186000   305.32076      0.040035964    31.903306      757.50922     -67.053931      690.45528    
   4187000   292.00072      0.040035964    18.580277      724.46183     -67.790037      656.67179    
   4188000   301.16935      0.040035964   -4.8381451      747.20945     -68.06274       679.14671    
   4189000   306.49615      0.040035964    25.291797      760.4254      -71.024532      689.40087    
   4190000   302.39478      0.040035964    33.94141       750.24977     -67.02417       683.2256     
   4191000   292.46097      0.040035964    17.129867      725.60373     -68.488494      657.11523    
   4192000   302.46187      0.040035964    12.960756      750.41625     -69.45861       680.95763    
   4193000   293.69267      0.040035964    38.280051      728.6596      -70.036321      658.62328    
   4194000   299.63471      0.040035964    32.423225      743.40197     -68.046315      675.35565    
   4195000   294.57873      0.040035964    22.166873      730.85794     -76.947688      653.91025    
   4196000   302.22984      0.040035964    6.3248004      749.84057     -70.560351      679.28022    
   4197000   310.09104      0.040035964    25.10302       769.34442     -67.858663      701.48576    
   4198000   275.4896       0.040035964    22.409657      683.4973      -68.94999       614.54731    
   4199000   289.26511      0.040035964    22.747823      717.67471     -68.91223       648.76248    
   4200000   304.09013      0.040035964    18.449078      754.45601     -71.146799      683.30921    
   4201000   307.50988      0.040035964    21.123108      762.94049     -68.92761       694.01288    
   4202000   293.77958      0.040035964    17.447537      728.87524     -62.849755      666.02548    
   4203000   295.83382      0.040035964    18.497416      733.97187     -67.668289      666.30358    
   4204000   309.64868      0.040035964    21.107127      768.2469      -64.493376      703.75353    
   4205000   308.13435      0.040035964    27.489812      764.4898      -62.488472      702.00133    
   4206000   292.88876      0.040035964    22.385049      726.66508     -57.364744      669.30034    
   4207000   293.93576      0.040035964    17.86176       729.26273     -61.834748      667.42798    
   4208000   309.75828      0.040035964    18.226953      768.51883     -62.122114      706.39672    
   4209000   310.29428      0.040035964    17.301         769.84867     -66.433422      703.41524    
   4210000   300.83076      0.040035964    18.710414      746.3694      -64.535904      681.8335     
   4211000   284.25153      0.040035964    17.791108      705.23589     -75.060785      630.17511    
   4212000   289.40885      0.040035964    25.490888      718.03134     -63.301259      654.73008    
   4213000   301.50269      0.040035964    30.250093      748.03647     -70.893173      677.1433     
   4214000   315.86045      0.040035964    20.316494      783.65849     -60.316528      723.34196    
   4215000   291.93923      0.040035964    15.947936      724.30927     -69.010729      655.29854    
   4216000   288.65723      0.040035964    17.362112      716.16654     -66.452624      649.71392    
   4217000   315.20312      0.040035964    23.054638      782.02762     -68.15722       713.8704     
   4218000   303.18391      0.040035964    13.139305      752.20763     -71.871961      680.33566    
   4219000   284.39884      0.040035964    15.355954      705.60137     -69.119375      636.48199    
   4220000   296.80005      0.040035964    36.493576      736.3691      -69.571723      666.79738    
   4221000   327.84837      0.040035964    42.40362       813.40085     -64.432373      748.96847    
   4222000   299.33648      0.040035964    15.055464      742.66206     -60.445945      682.21612    
   4223000   298.17298      0.040035964    14.99542       739.77538     -66.062788      673.71259    
   4224000   286.43358      0.040035964    19.575882      710.6496      -62.579426      648.07017    
   4225000   300.90186      0.040035964    26.771716      746.54582     -65.901744      680.64407    
   4226000   295.1366       0.040035964    23.724247      732.24205     -62.888773      669.35328    
   4227000   300.12841      0.040035964    23.801248      744.62687     -71.544874      673.082      
   4228000   311.72473      0.040035964    18.862625      773.39764     -67.44654       705.9511     
   4229000   302.71408      0.040035964    20.809497      751.04199     -68.678185      682.3638     
   4230000   283.82385      0.040035964    22.012409      704.17478     -60.210039      643.96475    
   4231000   294.70531      0.040035964    20.565224      731.17201     -58.03553       673.13648    
   4232000   306.23657      0.040035964    24.673471      759.78138     -60.121538      699.65984    
   4233000   300.4668       0.040035964    21.949581      745.46642     -64.145117      681.3213     
   4234000   284.69159      0.040035964    21.531157      706.32768     -68.406995      637.92068    
   4235000   303.74311      0.040035964    24.682338      753.59502     -66.323005      687.27202    
   4236000   295.87361      0.040035964    20.8023        734.07058     -60.455891      673.61469    
   4237000   297.55777      0.040035964    18.144808      738.24903     -66.709304      671.53972    
   4238000   298.98949      0.040035964    22.253096      741.80117     -65.915164      675.88601    
   4239000   307.82031      0.040035964    26.48491       763.71068     -61.596562      702.11412    
   4240000   292.76755      0.040035964    17.482135      726.36436     -63.302859      663.0615     
   4241000   301.96721      0.040035964    24.786902      749.18898     -68.755801      680.43318    
   4242000   304.56482      0.040035964    21.785912      755.63372     -66.676169      688.95755    
   4243000   295.68993      0.040035964    18.968167      733.61486     -61.549908      672.06495    
   4244000   289.01814      0.040035964    21.366396      717.06196     -53.313693      663.74827    
   4245000   312.2031       0.040035964    23.629006      774.58449     -60.813922      713.77057    
   4246000   304.72597      0.040035964    18.361195      756.03353     -63.80668       692.22685    
   4247000   295.64188      0.040035964    19.283091      733.49565     -63.835755      669.65989    
   4248000   287.08857      0.040035964    20.502163      712.27465     -62.427306      649.84734    
   4249000   301.4564       0.040035964    31.968935      747.92164     -64.889273      683.03237    
   4250000   288.5086       0.040035964    17.562041      715.79778     -68.540464      647.25732    
   4251000   314.24958      0.040035964    35.127287      779.66186     -57.52572       722.13614    
   4252000   301.52309      0.040035964    14.89969       748.08709     -61.686964      686.40012    
   4253000   288.43499      0.040035964    7.1695502      715.61516     -65.270822      650.34434    
   4254000   302.56552      0.040035964    32.233336      750.67341     -66.331657      684.34175    
   4255000   311.12058      0.040035964    21.859546      771.89874     -63.494014      708.40473    
   4256000   292.99552      0.040035964    4.7573092      726.92996     -60.870124      666.05984    
   4257000   293.33927      0.040035964    21.175286      727.78282     -61.667375      666.11545    
   4258000   309.35685      0.040035964    29.056049      767.52288     -64.905758      702.61712    
   4259000   302.65706      0.040035964   -2.2151536      750.9005      -62.666035      688.23446    
   4260000   292.28624      0.040035964    20.095637      725.17022     -68.945842      656.22438    
   4261000   308.19281      0.040035964    26.362777      764.63486     -63.993724      700.64114    
   4262000   305.60091      0.040035964    15.995219      758.20428     -63.831764      694.37252    
   4263000   291.25396      0.040035964    15.892431      722.60911     -71.051752      651.55736    
   4264000   290.29417      0.040035964    26.494366      720.22785     -71.187198      649.04065    
   4265000   301.88124      0.040035964    27.314072      748.97568     -73.710981      675.2647     
   4266000   315.87483      0.040035964    15.167702      783.69415     -70.71606       712.97809    
   4267000   308.50937      0.040035964    24.18016       765.42025     -71.687873      693.73238    
   4268000   295.10097      0.040035964    19.019691      732.15365     -66.580727      665.57292    
   4269000   283.45508      0.040035964    14.298749      703.25987     -64.427227      638.83264    
   4270000   289.6537       0.040035964    17.524338      718.63881     -67.319986      651.31882    
   4271000   310.19574      0.040035964    39.512791      769.60418     -69.526712      700.07747    
   4272000   306.33154      0.040035964    19.669141      760.01699     -68.776875      691.24011    
   4273000   298.92869      0.040035964    17.790083      741.65032     -61.335449      680.31487    
   4274000   296.49201      0.040035964    15.325653      735.60485     -62.295837      673.30901    
   4275000   300.19277      0.040035964    17.635064      744.78653     -56.714809      688.07172    
   4276000   297.01873      0.040035964    26.569689      736.91166     -54.286401      682.62525    
   4277000   292.40248      0.040035964    11.921626      725.4586      -57.660662      667.79794    
   4278000   295.29106      0.040035964    19.229083      732.62527     -55.732062      676.89321    
   4279000   294.50152      0.040035964    19.516612      730.66639     -61.007897      669.6585     
   4280000   309.51738      0.040035964    24.865873      767.92115     -61.475731      706.44542    
   4281000   305.77987      0.040035964    20.399191      758.64829     -61.56478       697.08351    
   4282000   281.45163      0.040035964    18.834487      698.28924     -57.82323       640.46601    
   4283000   293.55532      0.040035964    22.39934       728.31885     -59.193812      669.12503    
   4284000   307.44212      0.040035964    29.887488      762.77236     -61.43915       701.33321    
   4285000   311.21078      0.040035964    29.057084      772.12252     -65.10041       707.02211    
   4286000   300.88892      0.040035964    3.3506053      746.51371     -65.276435      681.23728    
   4287000   289.4229       0.040035964    9.0868522      718.06618     -61.09963       656.96655    
   4288000   296.47301      0.040035964    24.20923       735.55772     -67.488165      668.06955    
   4289000   311.87412      0.040035964    19.855395      773.76828     -74.09199       699.67629    
   4290000   312.14439      0.040035964    10.387148      774.43884     -76.123643      698.3152     
   4291000   289.79683      0.040035964    12.127292      718.99394     -66.58061       652.41333    
   4292000   300.09787      0.040035964    34.126708      744.55108     -64.092225      680.45885    
   4293000   317.28454      0.040035964    14.347269      787.19168     -65.03068       722.161      
   4294000   293.79358      0.040035964    14.523264      728.90998     -64.027419      664.88256    
   4295000   297.98799      0.040035964    27.43192       739.31642     -63.411721      675.9047     
   4296000   307.68635      0.040035964    18.642638      763.37832     -73.1043        690.27402    
   4297000   304.6581       0.040035964    22.454153      755.86515     -61.205829      694.65932    
   4298000   307.08559      0.040035964    28.470944      761.88782     -62.896619      698.9912     
   4299000   294.666        0.040035964    20.795191      731.07446     -65.586653      665.48781    
   4300000   289.3617       0.040035964    17.783369      717.91436     -63.391865      654.52249    
   4301000   308.27786      0.040035964    18.718143      764.84586     -64.622562      700.2233     
   4302000   310.0272       0.040035964    20.661184      769.18602     -63.237538      705.94849    
   4303000   302.58586      0.040035964    20.420544      750.72385     -66.844816      683.87904    
   4304000   297.42334      0.040035964    18.496432      737.91552     -64.727806      673.18771    
   4305000   298.23935      0.040035964    20.063442      739.94006     -64.315238      675.62482    
   4306000   304.27522      0.040035964    21.215312      754.91522     -63.019585      691.89563    
   4307000   303.07954      0.040035964    21.119655      751.9487      -66.082652      685.86605    
   4308000   292.87244      0.040035964    20.14291       726.6246      -67.055004      659.56959    
   4309000   290.20314      0.040035964    18.754716      720.00199     -69.524232      650.47776    
   4310000   307.47727      0.040035964    20.583678      762.85959     -61.796318      701.06327    
   4311000   315.99675      0.040035964    19.924204      783.99665     -70.792628      713.20402    
   4312000   303.93249      0.040035964    21.372104      754.06489     -63.554963      690.50993    
   4313000   298.26065      0.040035964    21.449381      739.99289     -66.407144      673.58574    
   4314000   297.35301      0.040035964    29.952757      737.74102     -64.992548      672.74848    
   4315000   296.72909      0.040035964    22.277289      736.19306     -60.954068      675.23899    
   4316000   301.9129       0.040035964    16.175932      749.05422     -64.437744      684.61648    
   4317000   288.42593      0.040035964    23.978191      715.59269     -68.871942      646.72075    
   4318000   297.54564      0.040035964    20.045683      738.21894     -73.96904       664.2499     
   4319000   298.63969      0.040035964    12.505238      740.93331     -73.964754      666.96856    
   4320000   296.31525      0.040035964    19.201051      735.1663      -69.305101      665.8612     
   4321000   294.31816      0.040035964    16.893516      730.21146     -71.833638      658.37782    
   4322000   299.20814      0.040035964    17.207133      742.34363     -73.433738      668.9099     
   4323000   292.96546      0.040035964    24.458449      726.85539     -71.391807      655.46358    
   4324000   305.05954      0.040035964    20.401611      756.86113     -74.604371      682.25676    
   4325000   308.69139      0.040035964    22.326644      765.87184     -65.610278      700.26156    
   4326000   291.21318      0.040035964    12.641284      722.50794     -73.110927      649.39701    
   4327000   289.57884      0.040035964    12.601472      718.4531      -70.814975      647.63812    
   4328000   299.73625      0.040035964    21.664395      743.6539      -67.874791      675.77911    
   4329000   305.72077      0.040035964    15.607847      758.50167     -67.940234      690.56143    
   4330000   298.75776      0.040035964    19.570829      741.22623     -71.854803      669.37143    
   4331000   282.4297       0.040035964    19.408029      700.71587     -66.656394      634.05948    
   4332000   305.75822      0.040035964    20.523481      758.59456     -63.816929      694.77764    
   4333000   311.54565      0.040035964    20.779419      772.95335     -67.635737      705.31761    
   4334000   296.63562      0.040035964    23.626254      735.96114     -59.81127       676.14987    
   4335000   294.31549      0.040035964    17.722801      730.20483     -64.664583      665.54025    
   4336000   314.71616      0.040035964    22.243408      780.81947     -58.423948      722.39552    
   4337000   299.35884      0.040035964    25.381119      742.71752     -65.144491      677.57303    
   4338000   289.1702       0.040035964    23.23086       717.43924     -58.881635      658.55761    
   4339000   301.72703      0.040035964    17.259727      748.59308     -65.4194        683.17368    
   4340000   307.16796      0.040035964    19.792588      762.09218     -66.951951      695.14023    
   4341000   290.76962      0.040035964    26.136006      721.40744     -70.226769      651.18067    
   4342000   289.56454      0.040035964    24.099324      718.4176      -70.81554       647.60206    
   4343000   299.47969      0.040035964    13.268946      743.01737     -66.621648      676.39572    
   4344000   304.38203      0.040035964    25.352702      755.18021     -67.709033      687.47117    
   4345000   300.13536      0.040035964    28.204791      744.64411     -63.530598      681.11351    
   4346000   303.06227      0.040035964    10.635623      751.90584     -58.981356      692.92448    
   4347000   298.42948      0.040035964    18.805323      740.41178     -61.646372      678.7654     
   4348000   289.1406       0.040035964    33.701489      717.3658      -65.362625      652.00317    
   4349000   301.29643      0.040035964    15.38922       747.52474     -64.574914      682.94983    
   4350000   325.04311      0.040035964    33.004058      806.44093     -77.883351      728.55758    
   4351000   287.96722      0.040035964    30.036873      714.4546      -61.680916      652.77368    
   4352000   299.4532       0.040035964    24.514421      742.95165     -63.952582      678.99907    
   4353000   297.10561      0.040035964    21.804754      737.1272      -60.703032      676.42417    
   4354000   296.9624       0.040035964    10.085943      736.77189     -57.198154      679.57374    
   4355000   296.67377      0.040035964    17.558831      736.05581     -55.678577      680.37724    
   4356000   313.60119      0.040035964    41.606208      778.05319     -56.636391      721.41679    
   4357000   303.27228      0.040035964    23.055248      752.42689     -62.508709      689.91818    
   4358000   297.38544      0.040035964    13.336827      737.82147     -61.848747      675.97272    
   4359000   311.09181      0.040035964    27.718532      771.82735     -58.13015       713.69719    
   4360000   304.28989      0.040035964    24.347898      754.95161     -57.119733      697.83188    
   4361000   300.78459      0.040035964    11.239061      746.25486     -60.896022      685.35883    
   4362000   299.01742      0.040035964    28.485445      741.87046     -55.475638      686.39483    
   4363000   303.67445      0.040035964    35.207546      753.42469     -47.779333      705.64535    
   4364000   298.0786       0.040035964    22.574225      739.54123     -50.899341      688.64189    
   4365000   294.3821       0.040035964    15.060887      730.3701      -49.250121      681.11998    
   4366000   308.9932       0.040035964    21.913156      766.62063     -51.49373       715.1269     
   4367000   303.86533      0.040035964    20.397556      753.89825     -60.144563      693.75368    
   4368000   284.61843      0.040035964    21.498868      706.14616     -56.344979      649.80118    
   4369000   298.40291      0.040035964    22.38778       740.34584     -56.323864      684.02198    
   4370000   308.13057      0.040035964    23.54457       764.48044     -54.564425      709.91602    
   4371000   297.04662      0.040035964    18.863413      736.98084     -57.812016      679.16883    
   4372000   288.4096       0.040035964    17.440141      715.55217     -60.792438      654.75973    
   4373000   303.90337      0.040035964    23.012158      753.99265     -59.317498      694.67515    
   4374000   306.52468      0.040035964    23.294842      760.49617     -61.581079      698.91509    
   4375000   297.35819      0.040035964    23.579631      737.75388     -56.171759      681.58212    
   4376000   300.89491      0.040035964    18.096846      746.52857     -62.074735      684.45383    
   4377000   311.09406      0.040035964    17.447617      771.83295     -64.217038      707.61591    
   4378000   295.29333      0.040035964    22.098991      732.63088     -64.921939      667.70894    
   4379000   286.1215       0.040035964    20.091751      709.87532     -63.054784      646.82054    
   4380000   301.12851      0.040035964    22.956098      747.10815     -64.79293       682.31522    
   4381000   309.64057      0.040035964    24.640465      768.2268      -58.425904      709.80089    
   4382000   301.20028      0.040035964    21.393717      747.28619     -59.012598      688.27359    
   4383000   279.65254      0.040035964    20.10012       693.82565     -50.820922      643.00473    
   4384000   295.72029      0.040035964    31.098483      733.6902      -54.335903      679.3543     
   4385000   302.40621      0.040035964    17.512443      750.27814     -52.475423      697.80272    
   4386000   283.81488      0.040035964    4.5551195      704.15253     -58.006697      646.14584    
   4387000   299.33371      0.040035964    26.079389      742.65519     -56.121665      686.53353    
   4388000   316.43952      0.040035964    21.782088      785.09518     -56.441195      728.65398    
   4389000   294.82104      0.040035964    21.508284      731.45913     -54.996032      676.46309    
   4390000   288.74837      0.040035964    17.373943      716.39267     -65.468081      650.92459    
   4391000   299.98603      0.040035964    27.053975      744.27362     -66.69436       677.57926    
   4392000   316.35504      0.040035964    12.885046      784.88557     -67.386582      717.49898    
   4393000   303.57578      0.040035964    16.198404      753.17988     -61.590414      691.58947    
   4394000   282.33819      0.040035964    18.753384      700.48884     -60.24207       640.24677    
   4395000   298.43822      0.040035964    26.79229       740.43344     -57.711017      682.72242    
   4396000   310.86355      0.040035964    21.228544      771.26105     -59.525949      711.7351     
   4397000   307.23357      0.040035964    18.443147      762.25496     -58.164254      704.09071    
   4398000   286.1413       0.040035964    11.09683       709.92445     -66.875183      643.04927    
   4399000   295.56371      0.040035964    21.660227      733.30172     -68.222444      665.07928    
   4400000   311.5693       0.040035964    21.333545      773.01202     -73.519183      699.49284    
   4401000   298.55614      0.040035964    18.212628      740.72602     -69.680737      671.04529    
   4402000   286.76545      0.040035964    5.4045177      711.47298     -59.318428      652.15456    
   4403000   308.53341      0.040035964    28.712306      765.47989     -62.543019      702.93687    
   4404000   316.76174      0.040035964    12.608842      785.8946      -57.849582      728.04502    
   4405000   291.70345      0.040035964   -0.19490085     723.72431     -55.701816      668.0225     
   4406000   289.59351      0.040035964    16.226258      718.48948     -57.820418      660.66906    
   4407000   305.63505      0.040035964    31.32943       758.28899     -60.972191      697.3168     
   4408000   300.46669      0.040035964    18.394886      745.46614     -62.378348      683.08779    
   4409000   302.42587      0.040035964    20.365548      750.32692     -63.779706      686.54721    
   4410000   305.35324      0.040035964    20.986593      757.5898      -64.97317       692.61663    
   4411000   303.5575       0.040035964    17.4343        753.13452     -66.165113      686.96941    
   4412000   294.5688       0.040035964    14.560203      730.83331     -63.355932      667.47738    
   4413000   295.29096      0.040035964    16.759593      732.62501     -68.925939      663.69907    
   4414000   303.59448      0.040035964    21.678395      753.22628     -77.553643      675.67264    
   4415000   315.41925      0.040035964    21.731129      782.56386     -67.008298      715.55556    
   4416000   295.34321      0.040035964    20.145525      732.75464     -69.490398      663.26425    
   4417000   291.40095      0.040035964    16.873155      722.97379     -65.870372      657.10342    
   4418000   310.3309       0.040035964    19.528428      769.93952     -65.827696      704.11182    
   4419000   309.53147      0.040035964    21.72731       767.95612     -62.310432      705.64568    
   4420000   292.54427      0.040035964    21.538214      725.81039     -64.968082      660.84231    
   4421000   297.16953      0.040035964    16.360841      737.28581     -73.340194      663.94561    
   4422000   304.39901      0.040035964    15.753683      755.22232     -62.708676      692.51365    
   4423000   294.15042      0.040035964    14.511381      729.79531     -66.310906      663.4844     
   4424000   300.20669      0.040035964    11.692408      744.82108     -65.992164      678.82892    
   4425000   302.93178      0.040035964    22.552051      751.5821      -64.083082      687.49902    
   4426000   307.94536      0.040035964    22.201996      764.02093     -62.8717        701.14923    
   4427000   297.32139      0.040035964    22.820306      737.66257     -48.561337      689.10123    
   4428000   296.56847      0.040035964    19.119116      735.79454     -54.261012      681.53353    
   4429000   301.13973      0.040035964    19.479019      747.13598     -51.052323      696.08365    
   4430000   301.75297      0.040035964    21.05191       748.65743     -45.634289      703.02314    
   4431000   290.78627      0.040035964    18.3284        721.44875     -49.018474      672.43028    
   4432000   311.46021      0.040035964    22.815822      772.74136     -49.769744      722.97162    
   4433000   300.87504      0.040035964    21.396467      746.47927     -52.336487      694.14278    
   4434000   288.92286      0.040035964    18.756994      716.82557     -56.673478      660.1521     
   4435000   297.5055       0.040035964    20.103765      738.11935     -61.576169      676.54318    
   4436000   302.94901      0.040035964    23.839614      751.62485     -56.408235      695.21662    
   4437000   297.78531      0.040035964    17.554222      738.81356     -60.987599      677.82596    
   4438000   295.35404      0.040035964    20.370298      732.78152     -66.615553      666.16596    
   4439000   301.57683      0.040035964    17.902698      748.22043     -58.465962      689.75447    
   4440000   302.36336      0.040035964    18.617589      750.17183     -54.796435      695.3754     
   4441000   300.83313      0.040035964    19.83613       746.3753      -55.894342      690.48095    
   4442000   300.94446      0.040035964    22.000924      746.6515      -58.951486      687.70001    
   4443000   306.06486      0.040035964    21.84526       759.35536     -56.781996      702.57337    
   4444000   287.54636      0.040035964    19.240136      713.41045     -60.856334      652.55412    
   4445000   287.83277      0.040035964    20.823325      714.12104     -63.435547      650.68549    
   4446000   303.17757      0.040035964    25.647089      752.1919      -56.592246      695.59966    
   4447000   322.8406       0.040035964    15.057311      800.97644     -65.699538      735.2769     
   4448000   300.44315      0.040035964    14.657461      745.40775     -67.365255      678.04249    
   4449000   291.60487      0.040035964    18.741569      723.47973     -66.898991      656.58073    
   4450000   298.84615      0.040035964    26.535573      741.44554     -68.154353      673.29119    
   4451000   307.37134      0.040035964    16.0563        762.59676     -72.203827      690.39293    
   4452000   317.23737      0.040035964    13.274511      787.07466     -70.968775      716.10588    
   4453000   298.86793      0.040035964    25.153933      741.49958     -67.137554      674.36203    
   4454000   292.16533      0.040035964    37.148625      724.87024     -68.794472      656.07577    
   4455000   323.001        0.040035964    13.25378       801.37439     -63.205201      738.16919    
   4456000   296.83823      0.040035964    5.8210087      736.46382     -60.61886       675.84496    
   4457000   295.93616      0.040035964    28.611014      734.22578     -69.659257      664.56652    
   4458000   320.15065      0.040035964    17.303917      794.3026      -63.703985      730.59861    
   4459000   303.84458      0.040035964    19.276301      753.84679     -68.364789      685.482      
   4460000   300.29713      0.040035964    29.064891      745.04547     -76.875797      668.16967    
   4461000   306.4937       0.040035964    21.18512       760.41932     -71.662693      688.75663    
   4462000   284.71581      0.040035964    17.07586       706.38778     -75.570525      630.81725    
   4463000   280.39167      0.040035964    19.253129      695.65946     -73.080784      622.57867    
   4464000   299.34771      0.040035964    19.351775      742.68991     -63.762339      678.92757    
   4465000   303.19974      0.040035964    20.389918      752.24692     -69.698034      682.54888    
   4466000   306.83283      0.040035964    22.212314      761.2607      -63.324558      697.93614    
   4467000   299.03697      0.040035964    15.367507      741.91896     -65.944967      675.97399    
   4468000   289.13613      0.040035964    19.299887      717.35472     -64.444189      652.91053    
   4469000   296.77994      0.040035964    22.57608       736.31921     -63.7699        672.54931    
   4470000   310.87114      0.040035964    25.112866      771.27987     -64.463577      706.81629    
   4471000   301.52867      0.040035964    22.434395      748.10093     -69.27031       678.83062    
   4472000   289.76555      0.040035964    29.530448      718.91632     -68.118318      650.798      
   4473000   291.11473      0.040035964    18.708222      722.26366     -70.188307      652.07536    
   4474000   305.84042      0.040035964    16.738466      758.7985      -70.161449      688.63705    
   4475000   309.10995      0.040035964    21.704735      766.9103      -64.585984      702.32431    
   4476000   313.47028      0.040035964    21.841056      777.7284      -75.829789      701.89861    
   4477000   293.80445      0.040035964    17.95039       728.93693     -80.501162      648.43577    
   4478000   288.73258      0.040035964    18.993705      716.35348     -71.751032      644.60245    
   4479000   304.60792      0.040035964    23.319137      755.74065     -73.633682      682.10696    
   4480000   308.71366      0.040035964    21.725413      765.92711     -71.267266      694.65984    
   4481000   292.54132      0.040035964    17.490567      725.80308     -69.5375        656.26558    
   4482000   302.84351      0.040035964    22.140546      751.36309     -66.230046      685.13304    
   4483000   306.8783       0.040035964    19.918423      761.37351     -69.002099      692.37141    
   4484000   291.12124      0.040035964    16.919101      722.27983     -71.004312      651.27551    
   4485000   293.11543      0.040035964    17.98016       727.22745     -73.808897      653.41856    
   4486000   295.82167      0.040035964    34.445282      733.94172     -76.217724      657.724      
   4487000   321.53164      0.040035964    23.866193      797.72886     -77.424411      720.30445    
   4488000   300.07559      0.040035964    15.956876      744.49581     -78.526492      665.96931    
   4489000   281.65507      0.040035964    19.28346       698.79399     -74.337772      624.45622    
   4490000   302.29216      0.040035964    23.505562      749.99519     -73.605507      676.38968    
   4491000   310.91131      0.040035964    19.310235      771.37952     -74.715654      696.66387    
   4492000   310.82747      0.040035964    21.134224      771.17151     -66.259145      704.91237    
   4493000   287.73015      0.040035964    22.689212      713.86644     -66.15028       647.71616    
   4494000   303.83876      0.040035964    17.720588      753.83235     -63.889268      689.94308    
   4495000   308.20433      0.040035964    23.447574      764.66345     -66.207557      698.45589    
   4496000   282.39581      0.040035964    19.147736      700.63179     -63.372039      637.25975    
   4497000   292.7735       0.040035964    14.78504       726.37913     -64.365771      662.01336    
   4498000   306.73641      0.040035964    17.060506      761.02149     -63.258123      697.76337    
   4499000   328.67035      0.040035964    23.700341      815.44021     -68.851067      746.58914    
   4500000   298.49372      0.040035964    19.736515      740.57115     -64.118224      676.45293    
   4501000   294.13759      0.040035964    3.6681769      729.76347     -65.381867      664.3816     
   4502000   291.78649      0.040035964    18.216244      723.93031     -73.710605      650.21971    
   4503000   297.59836      0.040035964    28.366104      738.34973     -69.807712      668.54202    
   4504000   286.59145      0.040035964    17.648154      711.04128     -69.905064      641.13622    
   4505000   314.15543      0.040035964    18.512225      779.42828     -69.871134      709.55714    
   4506000   297.84101      0.040035964    30.377194      738.95175     -70.012869      668.93888    
   4507000   304.03839      0.040035964    23.289675      754.32762     -68.102109      686.22551    
   4508000   304.02313      0.040035964    18.71422       754.28976     -69.774496      684.51527    
   4509000   309.6028       0.040035964    29.200711      768.13308     -69.14405       698.98903    
   4510000   289.21864      0.040035964    19.253551      717.55943     -59.349633      658.2098     
   4511000   296.84798      0.040035964    13.606126      736.48803     -62.319643      674.16838    
   4512000   302.23967      0.040035964    22.671606      749.86496     -65.685274      684.17969    
   4513000   304.96379      0.040035964    19.058496      756.62357     -68.657119      687.96645    
   4514000   295.83948      0.040035964    20.504591      733.9859      -67.55956       666.42635    
   4515000   291.93677      0.040035964    18.742064      724.30317     -67.132085      657.17108    
   4516000   302.63988      0.040035964    20.963724      750.85789     -60.776812      690.08108    
   4517000   302.53186      0.040035964    19.136626      750.58988     -62.219539      688.37034    
   4518000   298.31553      0.040035964    27.004659      740.12906     -60.826629      679.30244    
   4519000   303.66003      0.040035964    17.861675      753.3889      -63.786288      689.60261    
   4520000   300.64371      0.040035964    19.90277       745.90534     -63.621155      682.28419    
   4521000   297.97216      0.040035964    23.609417      739.27714     -64.239326      675.03781    
   4522000   300.24637      0.040035964    22.85301       744.91953     -62.533054      682.38648    
   4523000   314.32762      0.040035964    19.241552      779.85549     -59.363214      720.49228    
   4524000   299.8749       0.040035964    26.771461      743.99788     -60.233256      683.76462    
   4525000   288.37486      0.040035964    16.491215      715.46598     -62.220795      653.24519    
   4526000   293.84176      0.040035964    18.815013      729.02951     -59.985194      669.04432    
   4527000   311.34933      0.040035964    21.44398       772.46628     -57.572651      714.89363    
   4528000   291.02775      0.040035964    20.173684      722.04788     -63.094775      658.9531     
   4529000   295.70542      0.040035964    16.514874      733.6533      -65.257129      668.39617    
   4530000   301.20876      0.040035964    21.098331      747.30724     -59.523911      687.78333    
   4531000   311.0472       0.040035964    25.330835      771.71668     -67.424228      704.29245    
   4532000   297.09106      0.040035964    19.61723       737.09111     -63.56665       673.52446    
   4533000   296.6279       0.040035964    22.588071      735.94199     -65.965593      669.97639    
   4534000   305.55988      0.040035964    20.175716      758.10249     -70.359296      687.74319    
   4535000   296.18558      0.040035964    15.522665      734.84459     -73.185629      661.65896    
   4536000   288.51987      0.040035964    21.38317       715.82575     -66.655981      649.16977    
   4537000   305.03735      0.040035964    23.159557      756.80608     -69.811125      686.99496    
   4538000   290.81347      0.040035964    24.450702      721.51624     -70.624477      650.89176    
   4539000   293.24189      0.040035964    15.955773      727.54121     -65.309343      662.23187    
   4540000   295.66452      0.040035964    3.5726635      733.55183     -71.831601      661.72023    
   4541000   311.0669       0.040035964    23.485964      771.76554     -70.319153      701.44639    
   4542000   290.99028      0.040035964    21.602966      721.9549      -72.412475      649.54243    
   4543000   294.6472       0.040035964    17.296238      731.02783     -68.239769      662.78806    
   4544000   307.10186      0.040035964    25.30542       761.92819     -67.758618      694.16957    
   4545000   305.76818      0.040035964    26.342162      758.61928     -62.017499      696.60178    
   4546000   295.4294       0.040035964    17.574461      732.96849     -61.195766      671.77273    
   4547000   300.87468      0.040035964    11.013303      746.47838     -65.875721      680.60266    
   4548000   306.57866      0.040035964    22.527721      760.6301      -63.866733      696.76337    
   4549000   299.15688      0.040035964    20.715074      742.21647     -56.196535      686.01994    
   4550000   299.17717      0.040035964    22.558525      742.2668      -65.897385      676.36942    
   4551000   306.3849       0.040035964    17.932883      760.14938     -68.250773      691.89861    
   4552000   303.7228       0.040035964    17.503818      753.54463     -67.085783      686.45885    
   4553000   307.77564      0.040035964    26.622841      763.59986     -65.419075      698.18078    
   4554000   303.81082      0.040035964    19.082749      753.76302     -58.092477      695.67054    
   4555000   299.83825      0.040035964    9.8688952      743.90696     -67.774012      676.13295    
   4556000   305.0079       0.040035964    30.095751      756.73301     -72.836023      683.89699    
   4557000   296.92381      0.040035964    24.841735      736.67617     -74.610675      662.06549    
   4558000   305.48318      0.040035964    12.833995      757.9122      -71.547122      686.36508    
   4559000   312.76329      0.040035964    23.517123      775.97434     -63.710945      712.2634     
   4560000   297.55101      0.040035964    22.781953      738.23226     -61.434548      676.79771    
   4561000   289.60997      0.040035964    17.815238      718.53032     -61.717775      656.81254    
   4562000   308.92057      0.040035964    18.924883      766.44046     -68.75771       697.68275    
   4563000   311.61429      0.040035964    22.588068      773.12365     -66.974589      706.14906    
   4564000   297.36979      0.040035964    22.538267      737.78265     -62.484248      675.2984     
   4565000   286.97168      0.040035964    20.116116      711.98465     -65.084861      646.89979    
   4566000   299.15453      0.040035964    21.022157      742.21064     -62.29236       679.91828    
   4567000   315.21813      0.040035964    24.158888      782.06488     -62.151461      719.91342    
   4568000   301.7207       0.040035964    24.443729      748.57738     -69.436557      679.14082    
   4569000   284.75691      0.040035964    24.136387      706.48974     -70.719001      635.77074    
   4570000   309.90568      0.040035964    13.768113      768.88454     -69.422544      699.46199    
   4571000   315.86778      0.040035964    38.459244      783.67666     -59.344868      724.33179    
   4572000   296.15584      0.040035964    25.507958      734.7708      -59.9502        674.8206     
   4573000   285.88154      0.040035964    20.197957      709.27999     -66.057254      643.22274    
   4574000   298.62478      0.040035964    19.937954      740.89632     -69.080227      671.81609    
   4575000   306.46311      0.040035964    19.977044      760.34342     -68.455103      691.88832    
   4576000   309.89304      0.040035964    20.853789      768.85319     -79.196919      689.65627    
   4577000   295.32395      0.040035964    21.860798      732.70686     -81.6528        651.05406    
   4578000   289.30756      0.040035964    16.341621      717.78003     -81.023477      636.75656    
   4579000   304.76021      0.040035964    18.342982      756.11849     -77.716855      678.40163    
   4580000   297.2482       0.040035964    20.709045      737.48098     -76.488348      660.99263    
   4581000   298.82442      0.040035964    20.956522      741.39162     -80.593762      660.79786    
   4582000   299.47879      0.040035964    18.188974      743.01514     -81.927331      661.08781    
   4583000   300.82675      0.040035964    20.018688      746.35945     -82.502         663.85745    
   4584000   301.59256      0.040035964    30.193435      748.25945     -80.647148      667.6123     
   4585000   302.11645      0.040035964    18.613528      749.55923     -81.56265       667.99659    
   4586000   302.59533      0.040035964    18.52019       750.74736     -79.299306      671.44805    
   4587000   288.15279      0.040035964    18.530032      714.91502     -70.810622      644.1044     
   4588000   296.94817      0.040035964    18.722782      736.73659     -72.124864      664.61172    
   4589000   311.52646      0.040035964    18.959667      772.90573     -69.907451      702.99828    
   4590000   301.0114       0.040035964    21.921864      746.81759     -66.049476      680.76811    
   4591000   293.93656      0.040035964    21.528384      729.26471     -65.670991      663.59372    
   4592000   304.50887      0.040035964    16.084182      755.4949      -69.605047      685.88985    
   4593000   324.01805      0.040035964    21.861722      803.89771     -67.09865       736.79906    
   4594000   296.71582      0.040035964    20.893384      736.16014     -69.156881      667.00326    
   4595000   287.1936       0.040035964    25.169223      712.53523     -64.359252      648.17598    
   4596000   300.3846       0.040035964    20.46508       745.26247     -62.954772      682.3077     
   4597000   308.23718      0.040035964    21.978297      764.74493     -60.433926      704.31101    
   4598000   301.85251      0.040035964    21.979811      748.9044      -74.700579      674.20382    
   4599000   296.58343      0.040035964    15.097558      735.83167     -70.62377       665.2079     
   4600000   289.39868      0.040035964    22.747695      718.00611     -69.325263      648.68085    
   4601000   315.88922      0.040035964    22.982107      783.72986     -65.485108      718.24476    
   4602000   300.29062      0.040035964    27.366747      745.0293      -67.898441      677.13086    
   4603000   288.7694       0.040035964    15.533449      716.44485     -73.759127      642.68572    
   4604000   302.41664      0.040035964    18.447317      750.30403     -75.643069      674.66096    
   4605000   313.06074      0.040035964    25.626858      776.71232     -68.273066      708.43925    
   4606000   293.22895      0.040035964    16.810563      727.5091      -71.916392      655.59271    
   4607000   287.40145      0.040035964    16.377959      713.05091     -79.830966      633.21995    
   4608000   299.6315       0.040035964    19.552809      743.394       -73.467443      669.92656    
   4609000   316.74144      0.040035964    19.629624      785.84424     -73.590314      712.25393    
   4610000   300.33802      0.040035964    21.539773      745.14691     -68.265112      676.8818     
   4611000   296.5939       0.040035964    20.256376      735.85764     -63.077079      672.78056    
   4612000   282.09833      0.040035964    17.257796      699.89373     -62.179595      637.71413    
   4613000   306.03871      0.040035964    21.400642      759.29047     -64.746706      694.54377    
   4614000   308.05588      0.040035964    19.95642       764.29513     -67.660748      696.63439    
   4615000   291.78028      0.040035964    19.36813       723.91493     -63.036615      660.87831    
   4616000   302.01977      0.040035964    40.484446      749.31938     -67.114201      682.20518    
   4617000   310.87124      0.040035964    6.7649643      771.28011     -68.06156       703.21855    
   4618000   294.90345      0.040035964    13.914601      731.66359     -70.169932      661.49366    
   4619000   290.1099       0.040035964    20.586327      719.77066     -68.454826      651.31583    
   4620000   303.99304      0.040035964    29.497792      754.21512     -71.821771      682.39335    
   4621000   305.96859      0.040035964    13.855386      759.11651     -75.824173      683.29233    
   4622000   295.51845      0.040035964    9.7586322      733.18942     -83.903202      649.28622    
   4623000   297.64579      0.040035964    21.634561      738.46741     -78.6226        659.84481    
   4624000   303.15948      0.040035964    22.065402      752.14703     -81.724483      670.42254    
   4625000   303.37025      0.040035964    19.708557      752.66996     -71.878163      680.7918     
   4626000   300.5029       0.040035964    24.992019      745.55599     -69.051377      676.50461    
   4627000   318.45432      0.040035964    25.627614      790.09394     -70.446735      719.64721    
   4628000   304.64092      0.040035964    19.144085      755.82252     -64.569822      691.2527     
   4629000   289.91801      0.040035964    17.881515      719.29458     -58.760485      660.53409    
   4630000   296.79408      0.040035964    19.832083      736.35429     -58.481277      677.87301    
   4631000   297.52415      0.040035964    23.677963      738.16562     -59.557358      678.60826    
   4632000   299.83375      0.040035964    19.900381      743.89579     -65.471478      678.42431    
   4633000   299.60321      0.040035964    15.733999      743.32382     -62.584087      680.73973    
   4634000   286.76422      0.040035964    16.566674      711.46995     -61.513777      649.95617    
   4635000   309.47317      0.040035964    30.077978      767.81146     -59.867639      707.94382    
   4636000   299.5476       0.040035964    19.263811      743.18585     -62.048113      681.13774    
   4637000   277.2609       0.040035964    9.80064        687.89194     -65.536581      622.35536    
   4638000   302.85559      0.040035964    30.771849      751.39307     -62.148629      689.24444    
   4639000   302.76805      0.040035964    36.61672       751.17588     -66.010338      685.16554    
   4640000   300.446        0.040035964    13.29202       745.41481     -66.045594      679.36922    
   4641000   296.31493      0.040035964    28.945172      735.16551     -63.298462      671.86705    
   4642000   287.47899      0.040035964    35.704718      713.2433      -63.11594       650.12736    
   4643000   301.57018      0.040035964    30.050601      748.20394     -63.603368      684.60057    
   4644000   314.60607      0.040035964    21.010955      780.54633     -65.629356      714.91698    
   4645000   289.68985      0.040035964    9.0140385      718.72851     -67.649561      651.07895    
   4646000   293.13186      0.040035964    25.190878      727.26822     -68.395672      658.87254    
   4647000   315.07254      0.040035964    24.13048       781.70366     -72.047163      709.6565     
   4648000   305.51729      0.040035964    14.992769      757.99681     -68.353372      689.64343    
   4649000   280.98099      0.040035964    14.65587       697.12157     -66.820384      630.30119    
   4650000   300.32547      0.040035964    26.770261      745.11578     -71.379047      673.73673    
   4651000   318.88734      0.040035964    25.402472      791.16828     -69.571744      721.59654    
   4652000   293.23911      0.040035964    13.80273       727.53432     -73.894621      653.6397     
   4653000   289.37256      0.040035964    24.328185      717.9413      -64.033115      653.90819    
   4654000   315.08979      0.040035964    28.09882       781.74645     -61.97364       719.77281    
   4655000   302.26825      0.040035964    14.122496      749.93587     -66.016445      683.91942    
   4656000   286.53505      0.040035964    18.616848      710.90135     -60.368384      650.53296    
   4657000   303.29255      0.040035964    23.616694      752.47718     -69.697156      682.78002    
   4658000   306.45964      0.040035964    28.247589      760.33481     -71.546519      688.78829    
   4659000   302.21424      0.040035964    18.927582      749.80185     -72.973692      676.82816    
   4660000   288.85269      0.040035964    21.12906       716.65148     -72.04198       644.6095     
   4661000   319.19328      0.040035964    32.183891      791.92733     -75.253465      716.67386    
   4662000   307.66697      0.040035964    14.145687      763.33024     -74.05959       689.27065    
   4663000   288.86633      0.040035964    19.484219      716.68533     -76.863049      639.82228    
   4664000   298.95561      0.040035964    25.377231      741.71711     -69.950173      671.76693    
   4665000   300.18897      0.040035964    26.324618      744.77711     -77.588944      667.18817    
   4666000   309.18423      0.040035964    24.202175      767.09461     -73.807903      693.2867     
   4667000   305.87868      0.040035964    19.61999       758.89343     -73.603533      685.2899     
   4668000   288.15057      0.040035964    19.072172      714.9095      -75.43128       639.47822    
   4669000   297.14167      0.040035964    16.242373      737.21668     -72.673194      664.54348    
   4670000   302.41295      0.040035964    20.103993      750.29488     -75.545206      674.74967    
   4671000   299.60253      0.040035964    21.016283      743.32214     -72.232826      671.08931    
   4672000   299.79559      0.040035964    22.049774      743.80111     -70.05433       673.74678    
   4673000   304.77453      0.040035964    20.449845      756.154       -73.987751      682.16625    
   4674000   288.96848      0.040035964    32.282818      716.93876     -63.522283      653.41648    
   4675000   295.14954      0.040035964    21.091374      732.27415     -63.049061      669.22509    
   4676000   307.13338      0.040035964    16.574319      762.00637     -65.382345      696.62403    
   4677000   298.40136      0.040035964    19.163041      740.342       -66.865477      673.47652    
   4678000   290.87579      0.040035964    19.00535       721.67086     -65.313041      656.35782    
   4679000   299.21549      0.040035964    30.793541      742.36188     -59.408478      682.9534     
   4680000   300.77589      0.040035964    18.223399      746.23328     -62.454899      683.77839    
   4681000   305.96035      0.040035964    18.651465      759.09606     -62.316057      696.78001    
   4682000   296.85221      0.040035964    14.617141      736.49852     -67.655844      668.84268    
   4683000   294.5658       0.040035964    34.31863       730.82586     -62.998226      667.82763    
   4684000   309.70229      0.040035964    17.84234       768.37992     -66.633415      701.74651    
   4685000   293.11735      0.040035964    19.974355      727.23221     -57.26071       669.9715     
   4686000   299.85044      0.040035964    19.731265      743.9372      -59.939998      683.9972     
   4687000   304.09659      0.040035964    21.489859      754.47203     -59.480341      694.99169    
   4688000   299.42652      0.040035964    26.959704      742.88544     -58.662234      684.22321    
   4689000   282.07716      0.040035964    20.847701      699.8412      -61.047978      638.79322    
   4690000   295.12426      0.040035964    19.009063      732.21141     -63.379506      668.83191    
   4691000   315.13006      0.040035964    20.44608       781.84636     -65.954951      715.89141    
   4692000   302.55882      0.040035964    20.82227       750.65677     -61.632286      689.02448    
   4693000   294.30585      0.040035964    15.495029      730.18094     -59.786332      670.3946     
   4694000   298.83076      0.040035964    16.92134       741.40736     -62.873436      678.53392    
   4695000   297.36136      0.040035964    15.391643      737.76174     -64.790017      672.97172    
   4696000   299.7878       0.040035964    31.057754      743.7818      -61.517417      682.26438    
   4697000   305.09004      0.040035964    35.784407      756.9368      -68.613708      688.32309    
   4698000   303.86943      0.040035964    12.691232      753.90843     -81.183833      672.7246     
   4699000   290.92723      0.040035964    11.43888       721.79847     -73.317016      648.48145    
   4700000   312.57943      0.040035964    30.637104      775.51819     -67.123876      708.39431    
   4701000   308.09387      0.040035964    43.142039      764.38938     -63.875937      700.51345    
   4702000   291.41521      0.040035964    3.7006616      723.00916     -63.967404      659.04176    
   4703000   299.84794      0.040035964    33.863435      743.93101     -75.495868      668.43514    
   4704000   305.7879       0.040035964    34.854486      758.6682      -74.244691      684.42351    
   4705000   302.40874      0.040035964    14.391027      750.28441     -80.43037       669.85404    
   4706000   292.87041      0.040035964    16.515489      726.61957     -70.032693      656.58687    
   4707000   302.5685       0.040035964    24.291367      750.68079     -66.847181      683.83361    
   4708000   306.52965      0.040035964    10.957911      760.50852     -61.604112      698.9044     
   4709000   302.21924      0.040035964    11.531153      749.81426     -63.19841       686.61585    
   4710000   300.36815      0.040035964    6.6541173      745.22166     -69.334596      675.88706    
   4711000   292.75556      0.040035964    29.497148      726.33462     -65.093069      661.24155    
   4712000   321.60738      0.040035964    21.179912      797.91678     -70.218621      727.69815    
   4713000   294.08512      0.040035964    15.568138      729.63329     -65.275387      664.3579     
   4714000   299.24372      0.040035964    18.537625      742.43192     -70.489778      671.94214    
   4715000   294.12327      0.040035964    25.414718      729.72793     -70.976761      658.75117    
   4716000   318.21767      0.040035964    18.1792        789.50681     -66.281194      723.22562    
   4717000   304.89338      0.040035964    20.089931      756.44887     -69.987905      686.46097    
   4718000   293.72733      0.040035964    18.872125      728.74561     -62.768371      665.97724    
   4719000   300.02055      0.040035964    20.313552      744.35925     -65.748846      678.61041    
   4720000   301.89069      0.040035964    18.600047      748.99912     -67.309778      681.68935    
   4721000   296.30019      0.040035964    17.363649      735.12894     -68.257539      666.8714     
   4722000   292.66755      0.040035964    29.278574      726.11627     -70.24103       655.87524    
   4723000   306.37404      0.040035964    23.796091      760.12243     -76.555387      683.56704    
   4724000   307.13585      0.040035964    5.8545839      762.0125      -66.752592      695.25991    
   4725000   303.09021      0.040035964    20.052446      751.97516     -73.019804      678.95535    
   4726000   301.01173      0.040035964    25.319383      746.81841     -69.332709      677.4857     
   4727000   296.19549      0.040035964    22.110371      734.86917     -71.150638      663.71853    
   4728000   302.06815      0.040035964    18.008266      749.43941     -71.67865       677.76076    
   4729000   298.02896      0.040035964    19.23819       739.41807     -78.035604      661.38246    
   4730000   294.96788      0.040035964    24.002664      731.82343     -68.640292      663.18314    
   4731000   298.78244      0.040035964    31.849741      741.28747     -73.496046      667.79143    
   4732000   299.06786      0.040035964    18.395778      741.99561     -70.995679      670.99993    
   4733000   314.54828      0.040035964    12.830536      780.40296     -69.855753      710.54721    
   4734000   309.2395       0.040035964    17.554529      767.23171     -64.068874      703.16284    
   4735000   301.1676       0.040035964    20.165195      747.20511     -67.008358      680.19675    
   4736000   295.43408      0.040035964    24.214656      732.9801      -70.071919      662.90818    
   4737000   300.3255       0.040035964    18.497419      745.11584     -63.489585      681.62625    
   4738000   292.87947      0.040035964    15.32          726.64203     -68.863293      657.77874    
   4739000   303.64956      0.040035964    31.375955      753.36292     -67.407816      685.9551     
   4740000   300.7188       0.040035964    15.696338      746.09164     -69.226167      676.86548    
   4741000   289.63182      0.040035964    18.585276      718.58452     -69.272763      649.31176    
   4742000   287.40463      0.040035964    32.625733      713.05882     -71.545003      641.51382    
   4743000   319.45383      0.040035964    38.831152      792.57376     -63.093126      729.48063    
   4744000   300.22321      0.040035964    16.8384        744.86207     -72.114553      672.74752    
   4745000   286.07879      0.040035964    7.8219263      709.76937     -70.189486      639.57988    
   4746000   302.47571      0.040035964    29.381803      750.45056     -74.684388      675.76618    
   4747000   308.16527      0.040035964    28.568329      764.56653     -72.551883      692.01465    
   4748000   302.65963      0.040035964   -4.6973917      750.90688     -74.025331      676.88155    
   4749000   300.31062      0.040035964    21.280584      745.07892     -74.894264      670.18466    
   4750000   313.7468       0.040035964    28.29052       778.41446     -65.830829      712.58363    
   4751000   324.18654      0.040035964    21.245189      804.31574     -65.458357      738.85738    
   4752000   295.48724      0.040035964    20.733713      733.11198     -69.063188      664.0488     
   4753000   292.49035      0.040035964    19.492055      725.67663     -72.491351      653.18528    
   4754000   305.90058      0.040035964    22.216707      758.94777     -68.771988      690.17578    
   4755000   307.02286      0.040035964    23.266489      761.73218     -71.156051      690.57613    
   4756000   285.2715       0.040035964    18.958727      707.76646     -70.356729      637.40974    
   4757000   282.45896      0.040035964    20.045522      700.78846     -63.030628      637.75783    
   4758000   306.07101      0.040035964    16.527134      759.37062     -63.937463      695.43316    
   4759000   308.63453      0.040035964    23.995763      765.73077     -68.847342      696.88343    
   4760000   286.11089      0.040035964    16.032014      709.84902     -65.456544      644.39247    
   4761000   301.10853      0.040035964    19.937531      747.05856     -62.139384      684.91917    
   4762000   312.45741      0.040035964    25.30962       775.21544     -58.737042      716.4784     
   4763000   304.09374      0.040035964    25.996759      754.46496     -60.251007      694.21395    
   4764000   282.98175      0.040035964    17.50122       702.08553     -57.373416      644.71212    
   4765000   293.69238      0.040035964    14.308305      728.65889     -61.852292      666.8066     
   4766000   313.84521      0.040035964    32.701591      778.65862     -63.292197      715.36642    
   4767000   297.38927      0.040035964    23.09127       737.83097     -67.226325      670.60465    
   4768000   294.88013      0.040035964    14.829913      731.60572     -68.240495      663.36523    
   4769000   313.47406      0.040035964    23.220979      777.73778     -68.454569      709.28322    
   4770000   294.43288      0.040035964    31.720309      730.4961      -71.835422      658.66068    
   4771000   296.24451      0.040035964    9.2168763      734.99079     -75.920404      659.07039    
   4772000   305.78145      0.040035964    14.51338       758.6522      -78.88539       679.76681    
   4773000   300.03022      0.040035964    60.754842      744.38325     -80.045037      664.33822    
   4774000   290.97415      0.040035964    11.101134      721.9149      -80.741996      641.1729     
   4775000   295.68971      0.040035964   -5.7062837      733.61432     -83.984952      649.62937    
   4776000   312.08893      0.040035964    14.00641       774.30123     -77.865593      696.43563    
   4777000   305.65424      0.040035964    31.482115      758.33659     -76.470724      681.86587    
   4778000   296.33804      0.040035964    27.368433      735.22285     -71.511935      663.71092    
   4779000   304.47943      0.040035964    14.777435      755.42187     -73.412283      682.00959    
   4780000   305.56578      0.040035964    3.1266493      758.11712     -73.785959      684.33116    
   4781000   298.21243      0.040035964    29.937073      739.87326     -74.200619      665.67264    
   4782000   290.25975      0.040035964    29.9846        720.14245     -77.91996       642.22249    
   4783000   297.82587      0.040035964    19.869801      738.91419     -70.01173       668.90246    
   4784000   294.60746      0.040035964    7.835311       730.92922     -69.996089      660.93313    
   4785000   296.35871      0.040035964    24.656846      735.27413     -59.653852      675.62028    
   4786000   295.95435      0.040035964    24.623141      734.27091     -72.525127      661.74578    
   4787000   303.04526      0.040035964    17.461663      751.86365     -75.228558      676.63509    
   4788000   309.76855      0.040035964    16.728238      768.5443      -68.961666      699.58263    
   4789000   299.39773      0.040035964    28.314246      742.81402     -65.532461      677.28156    
   4790000   297.50486      0.040035964    21.075889      738.11775     -70.193101      667.92465    
   4791000   305.72181      0.040035964    12.821551      758.50424     -69.384909      689.11933    
   4792000   306.80765      0.040035964    38.755817      761.19823     -72.675884      688.52235    
   4793000   286.77859      0.040035964    19.002153      711.50559     -70.782672      640.72292    
   4794000   303.6834       0.040035964    10.755115      753.44688     -60.849477      692.5974     
   4795000   315.1293       0.040035964    25.764358      781.84448     -60.292781      721.5517     
   4796000   295.123        0.040035964    26.081219      732.20829     -60.23633       671.97196    
   4797000   292.29341      0.040035964    6.3967699      725.188       -58.635713      666.55229    
   4798000   316.65017      0.040035964    12.637213      785.61779     -50.528334      735.08946    
   4799000   304.85026      0.040035964    21.445406      756.3419      -60.511585      695.83031    
   4800000   285.21433      0.040035964    39.702645      707.6246      -63.728257      643.89635    
   4801000   291.50201      0.040035964    15.143944      723.22453     -67.496585      655.72794    
   4802000   309.61395      0.040035964    13.043961      768.16075     -61.020341      707.14041    
   4803000   305.34848      0.040035964    40.742219      757.57799     -64.234446      693.34354    
   4804000   297.46321      0.040035964    22.273181      738.01443     -68.639626      669.37481    
   4805000   307.39403      0.040035964    18.078725      762.65306     -65.541609      697.11145    
   4806000   304.75771      0.040035964    19.656837      756.11229     -66.600563      689.51172    
   4807000   292.04405      0.040035964    20.761499      724.56935     -65.086724      659.48262    
   4808000   292.70919      0.040035964    19.714572      726.21957     -69.040888      657.17868    
   4809000   306.42717      0.040035964    22.255875      760.25425     -74.916998      685.33725    
   4810000   305.50615      0.040035964    18.699065      757.96918     -73.891389      684.07779    
   4811000   288.30724      0.040035964    19.02428       715.29822     -69.333305      645.96491    
   4812000   312.40084      0.040035964    32.281294      775.07509     -68.393559      706.68153    
   4813000   305.048        0.040035964    15.580389      756.8325      -70.113431      686.71907    
   4814000   304.73687      0.040035964    16.519296      756.06057     -72.807392      683.25318    
   4815000   296.31649      0.040035964    31.982156      735.16939     -67.553997      667.61539    
   4816000   302.78743      0.040035964    31.155046      751.22396     -67.750581      683.47338    
   4817000   305.45515      0.040035964    12.31524       757.84266     -62.686009      695.15665    
   4818000   295.58998      0.040035964    9.338485       733.36688     -68.823067      664.54382    
   4819000   304.95449      0.040035964    53.422763      756.60049     -68.743059      687.85743    
   4820000   302.95455      0.040035964    10.18651       751.63859     -70.402985      681.23561    
   4821000   291.99857      0.040035964    14.899602      724.45649     -72.995084      651.46141    
   4822000   308.08104      0.040035964    20.665043      764.35755     -72.682935      691.67461    
   4823000   288.54395      0.040035964    1.5845417      715.8855      -80.535844      635.34966    
   4824000   298.48832      0.040035964    32.469985      740.55775     -83.04471       657.51304    
   4825000   313.0402       0.040035964    15.933921      776.66136     -80.370339      696.29102    
   4826000   290.3943       0.040035964    7.6056657      720.47626     -77.025021      643.45123    
   4827000   299.69203      0.040035964    46.112564      743.5442      -78.8197        664.72449    
   4828000   309.15638      0.040035964    33.537649      767.02549     -77.230418      689.79507    
   4829000   299.90022      0.040035964    18.755867      744.0607      -79.387804      664.6729     
   4830000   288.47045      0.040035964    15.507448      715.70314     -79.099569      636.60357    
   4831000   298.7026       0.040035964    29.332409      741.08938     -78.793478      662.2959     
   4832000   306.591        0.040035964    16.72364       760.66071     -81.427536      679.23318    
   4833000   298.45377      0.040035964    9.6923792      740.47202     -73.077818      667.3942     
   4834000   291.16761      0.040035964    24.271953      722.39486     -72.282654      650.11221    
   4835000   318.12553      0.040035964    28.770081      789.27822     -70.530654      718.74757    
   4836000   308.87677      0.040035964    10.23716       766.33178     -70.378255      695.95352    
   4837000   306.55676      0.040035964    15.879915      760.57577     -64.28625       696.28952    
   4838000   292.70124      0.040035964    29.397253      726.19984     -58.394719      667.80512    
   4839000   301.89451      0.040035964    54.080401      749.0086      -64.59359       684.41501    
   4840000   299.93477      0.040035964    20.185845      744.14644     -62.996828      681.14961    
   4841000   295.37154      0.040035964    15.034317      732.82493     -62.629754      670.19517    
   4842000   298.41643      0.040035964    23.255951      740.37938     -63.952151      676.42722    
   4843000   301.60466      0.040035964    22.13627       748.28948     -65.859199      682.43029    
   4844000   291.94327      0.040035964    6.2585441      724.31931     -66.301301      658.01801    
   4845000   297.32978      0.040035964    10.585793      737.68339     -64.187399      673.49599    
   4846000   295.55811      0.040035964    24.659847      733.28782     -60.497029      672.79079    
   4847000   305.10397      0.040035964    29.473823      756.97135     -59.532866      697.43848    
   4848000   306.93369      0.040035964    15.07403       761.51094     -61.673756      699.83718    
   4849000   300.88375      0.040035964    26.801777      746.50087     -57.927696      688.57317    
   4850000   300.11574      0.040035964    24.095609      744.59543     -62.613515      681.98192    
   4851000   299.22337      0.040035964    22.146407      742.38143     -55.698495      686.68294    
   4852000   295.14074      0.040035964    30.157102      732.25232     -59.613457      672.63887    
   4853000   288.8076       0.040035964    12.319636      716.53962     -64.884072      651.65555    
   4854000   311.26858      0.040035964    15.172644      772.26592     -63.677008      708.58891    
   4855000   303.80928      0.040035964    35.672664      753.75921     -60.180649      693.57856    
   4856000   292.19287      0.040035964    18.972099      724.93857     -65.441685      659.49689    
   4857000   305.68032      0.040035964    17.544968      758.40129     -76.770371      681.63092    
   4858000   302.0519       0.040035964    33.051653      749.39908     -78.845219      670.55386    
   4859000   289.54818      0.040035964    10.387372      718.37703     -73.399859      644.97717    
   4860000   297.79223      0.040035964    15.502888      738.83073     -72.014944      666.81579    
   4861000   302.66264      0.040035964    19.741187      750.91435     -64.986805      685.92754    
   4862000   297.35175      0.040035964    35.298034      737.73788     -66.226269      671.51162    
   4863000   305.70116      0.040035964    18.258603      758.453       -67.636665      690.81634    
   4864000   296.42562      0.040035964    15.367444      735.44013     -71.338657      664.10148    
   4865000   310.75032      0.040035964    28.401572      770.98012     -70.186628      700.79349    
   4866000   299.03237      0.040035964    25.467983      741.90755     -66.108972      675.79857    
   4867000   291.85975      0.040035964    4.6130511      724.11208     -70.229269      653.88281    
   4868000   313.14754      0.040035964    18.639879      776.92768     -63.276911      713.65077    
   4869000   304.53933      0.040035964    20.989186      755.57048     -66.933247      688.63723    
   4870000   291.66499      0.040035964    15.579291      723.62887     -64.986592      658.64228    
   4871000   294.24096      0.040035964    15.534478      730.01992     -66.417948      663.60197    
   4872000   315.2136       0.040035964    5.035504       782.05363     -59.352033      722.7016     
   4873000   313.52939      0.040035964    32.249206      777.87506     -73.455475      704.41959    
   4874000   291.51951      0.040035964    35.768692      723.26794     -72.134107      651.13383    
   4875000   306.75352      0.040035964    17.920376      761.06393     -77.667869      683.39606    
   4876000   298.85186      0.040035964    17.540141      741.4597      -76.395953      665.06375    
   4877000   298.24291      0.040035964    8.2937976      739.94888     -71.405383      668.54349    
   4878000   298.44218      0.040035964    27.461565      740.44328     -72.280044      668.16323    
   4879000   291.41739      0.040035964    38.534257      723.01457     -69.624262      653.39031    
   4880000   298.58482      0.040035964    16.061663      740.79717     -72.377027      668.42014    
   4881000   299.76188      0.040035964    19.055648      743.71748     -71.426948      672.29053    
   4882000   308.12607      0.040035964    25.826044      764.46927     -77.253336      687.21593    
   4883000   295.87183      0.040035964    26.242297      734.06616     -78.182496      655.88367    
   4884000   292.25457      0.040035964    16.058121      725.09164     -79.854567      645.23707    
   4885000   317.85568      0.040035964    7.7777933      788.6087      -75.295031      713.31367    
   4886000   310.17666      0.040035964    24.444986      769.55686     -77.189839      692.36702    
   4887000   280.11031      0.040035964    15.020763      694.96139     -74.269964      620.69143    
   4888000   289.91336      0.040035964    8.1568013      719.28304     -76.350006      642.93303    
   4889000   306.06366      0.040035964    24.432899      759.35238     -77.79355       681.55883    
   4890000   303.79538      0.040035964    22.485681      753.72472     -72.116427      681.60829    
   4891000   297.18198      0.040035964    2.8107793      737.31669     -71.606553      665.71014    
   4892000   305.2103       0.040035964    29.981478      757.23516     -74.794401      682.44076    
   4893000   294.13803      0.040035964    16.430352      729.76456     -74.704018      655.06055    
   4894000   308.29106      0.040035964    15.498828      764.87861     -70.404625      694.47398    
   4895000   294.17486      0.040035964    25.087929      729.85595     -70.466021      659.38993    
   4896000   298.15506      0.040035964    16.409983      739.73093     -72.163294      667.56763    
   4897000   311.27553      0.040035964    18.566641      772.28316     -67.453434      704.82973    
   4898000   301.92125      0.040035964    20.331999      749.07494     -66.101401      682.97354    
   4899000   283.23132      0.040035964    18.420333      702.70471     -63.484512      639.2202     
   4900000   308.63286      0.040035964    19.425158      765.72664     -63.292102      702.43453    
   4901000   309.18941      0.040035964    23.366419      767.10745     -69.717081      697.39037    
   4902000   285.22547      0.040035964    15.892096      707.65225     -70.196067      637.45618    
   4903000   300.38664      0.040035964    21.077822      745.26754     -68.397861      676.86968    
   4904000   308.34954      0.040035964    23.243125      765.0237      -76.374978      688.64872    
   4905000   296.23863      0.040035964    22.931583      734.9762      -77.278927      657.69728    
   4906000   295.07711      0.040035964    19.801163      732.09444     -73.363614      658.73083    
   4907000   296.04854      0.040035964    18.545575      734.50459     -70.538721      663.96587    
   4908000   313.60529      0.040035964    25.164371      778.06336     -69.945701      708.11766    
   4909000   300.39509      0.040035964    17.994551      745.2885      -74.211899      671.0766     
   4910000   291.79839      0.040035964    19.470603      723.95984     -68.823085      655.13675    
   4911000   300.02108      0.040035964    22.48341       744.36058     -63.558961      680.80162    
   4912000   312.82112      0.040035964    20.445477      776.11783     -63.212568      712.90526    
   4913000   297.58967      0.040035964    9.6009991      738.32816     -60.834124      677.49404    
   4914000   286.54464      0.040035964    18.68811       710.92515     -72.129754      638.7954     
   4915000   293.61044      0.040035964    26.571454      728.45559     -69.394084      659.06151    
   4916000   322.71101      0.040035964    20.534043      800.65492     -67.454601      733.20032    
   4917000   300.1365       0.040035964    12.998173      744.64694     -70.299317      674.34762    
   4918000   292.71264      0.040035964    36.453458      726.22814     -70.90338       655.32476    
   4919000   300.31304      0.040035964    19.85268       745.08494     -76.219433      668.8655     
   4920000   309.52608      0.040035964    18.33182       767.94273     -73.630288      694.31244    
   4921000   292.26142      0.040035964    21.708707      725.10864     -64.661465      660.44717    
   4922000   308.22263      0.040035964    20.037667      764.70885     -60.317229      704.39162    
   4923000   301.28062      0.040035964    19.068984      747.48552     -62.520802      684.96471    
   4924000   297.90869      0.040035964    23.758283      739.11968     -59.958397      679.16128    
   4925000   288.73589      0.040035964    17.378698      716.36171     -63.70862       652.65309    
   4926000   298.27636      0.040035964    21.490585      740.03186     -69.563474      670.46838    
   4927000   298.67372      0.040035964    16.76879       741.01774     -67.679115      673.33863    
   4928000   308.07766      0.040035964    18.672929      764.34916     -72.614886      691.73428    
   4929000   310.7634       0.040035964    28.530109      771.01256     -65.059         705.95356    
   4930000   303.6143       0.040035964    18.71328       753.27546     -68.98141       684.29405    
   4931000   302.71815      0.040035964    12.849695      751.05207     -68.603586      682.44849    
   4932000   302.32018      0.040035964    15.577919      750.0647      -66.256197      683.80851    
   4933000   295.69737      0.040035964    28.963608      733.63333     -66.390326      667.243      
   4934000   304.27964      0.040035964    17.50969       754.92618     -65.934088      688.99209    
   4935000   290.40618      0.040035964    16.553463      720.50574     -70.559774      649.94596    
   4936000   302.54501      0.040035964    25.713074      750.62252     -71.388428      679.23409    
   4937000   299.17614      0.040035964    15.048154      742.26426     -71.864943      670.39932    
   4938000   297.13462      0.040035964    19.41185       737.19918     -67.78755       669.41163    
   4939000   283.69969      0.040035964    20.174684      703.86674     -66.800769      637.06597    
   4940000   305.35642      0.040035964    19.65042       757.59769     -71.724967      685.87272    
   4941000   298.47054      0.040035964    21.758082      740.51364     -66.974642      673.53899    
   4942000   304.78993      0.040035964    21.392935      756.19222     -68.727288      687.46493    
   4943000   293.10457      0.040035964    18.164277      727.20052     -70.238669      656.96186    
   4944000   300.16785      0.040035964    22.083125      744.72471     -76.038484      668.68622    
   4945000   302.99967      0.040035964    22.351279      751.75054     -75.685808      676.06474    
   4946000   297.16139      0.040035964    18.931295      737.2656      -71.02742       666.23818    
   4947000   302.7669       0.040035964    17.752506      751.17302     -75.492093      675.68093    
   4948000   311.93742      0.040035964    21.014228      773.92535     -68.430247      705.4951     
   4949000   307.50532      0.040035964    19.519536      762.92917     -66.602314      696.32685    
   4950000   292.36724      0.040035964    20.830675      725.37119     -71.135152      654.23604    
   4951000   306.78769      0.040035964    19.756848      761.14872     -77.308954      683.83977    
   4952000   306.0337       0.040035964    19.737585      759.27805     -78.213969      681.06409    
   4953000   283.42435      0.040035964    17.577788      703.18363     -71.963256      631.22038    
   4954000   293.82545      0.040035964    19.126863      728.98903     -72.849101      656.13993    
   4955000   304.3275       0.040035964    25.103831      755.04492     -67.761297      687.28362    
   4956000   299.32737      0.040035964    21.481016      742.63945     -68.75533       673.88412    
   4957000   301.566        0.040035964    18.834046      748.19355     -71.766037      676.42751    
   4958000   300.59009      0.040035964    12.899267      745.77231     -67.370064      678.40225    
   4959000   295.27394      0.040035964    24.844076      732.58279     -74.799434      657.78336    
   4960000   302.78035      0.040035964    28.804722      751.20639     -68.961629      682.24476    
   4961000   305.70834      0.040035964    15.960812      758.47081     -67.113186      691.35763    
   4962000   299.66857      0.040035964    11.229794      743.48599     -64.503717      678.98228    
   4963000   300.78907      0.040035964    22.272086      746.26599     -66.379972      679.88601    
   4964000   304.86926      0.040035964    54.176725      756.38904     -70.730868      685.65818    
   4965000   315.30948      0.040035964    17.593935      782.29151     -66.361394      715.93011    
   4966000   295.27867      0.040035964    9.3630797      732.59452     -70.634788      661.95973    
   4967000   289.98366      0.040035964    11.092202      719.45745     -73.134304      646.32314    
   4968000   287.34662      0.040035964    32.625434      712.91488     -71.015976      641.8989     
   4969000   315.14829      0.040035964    20.672853      781.89159     -65.333936      716.55766    
   4970000   292.74094      0.040035964    15.216104      726.29834     -64.940529      661.35781    
   4971000   290.45817      0.040035964    22.742911      720.63474     -65.24192       655.39282    
   4972000   322.17599      0.040035964    26.007495      799.3275      -66.661585      732.66592    
   4973000   300.67794      0.040035964    18.147381      745.99026     -60.448209      685.54205    
   4974000   294.01065      0.040035964    20.101577      729.44852     -59.992689      669.45583    
   4975000   298.8616       0.040035964    23.58717       741.48387     -59.718833      681.76504    
   4976000   300.87113      0.040035964    18.595243      746.46958     -64.327505      682.14207    
   4977000   312.70986      0.040035964    20.530902      775.84178     -66.704789      709.13699    
   4978000   291.22207      0.040035964    17.822746      722.52998     -63.464011      659.06597    
   4979000   303.37474      0.040035964    18.751463      752.6811      -66.700727      685.98037    
   4980000   300.61825      0.040035964    21.976941      745.84217     -68.009863      677.83231    
   4981000   297.35949      0.040035964    19.29333       737.75709     -65.573692      672.1834     
   4982000   298.89042      0.040035964    22.772807      741.55538     -69.616579      671.9388     
   4983000   299.23072      0.040035964    16.239226      742.39967     -77.820159      664.57951    
   4984000   300.11224      0.040035964    20.698263      744.58675     -77.929813      666.65693    
   4985000   309.01949      0.040035964    28.653977      766.68588     -68.537972      698.14791    
   4986000   302.2108       0.040035964    21.369252      749.79333     -71.051124      678.74221    
   4987000   278.47833      0.040035964    5.9140604      690.91242     -67.48616       623.42626    
   4988000   302.71292      0.040035964    28.125942      751.03909     -65.916744      685.12235    
   4989000   313.26861      0.040035964    25.063102      777.22805     -60.035394      717.19266    
   4990000   298.51126      0.040035964    19.224239      740.61467     -62.353675      678.261      
   4991000   296.89967      0.040035964    14.901857      736.61626     -64.825232      671.79102    
   4992000   299.35591      0.040035964    34.411172      742.71028     -59.381824      683.32845    
   4993000   298.74033      0.040035964    22.881505      741.18298     -63.818872      677.36411    
   4994000   301.07731      0.040035964    19.085534      746.98111     -64.660081      682.32103    
   4995000   297.44146      0.040035964    14.019867      737.96046     -67.378238      670.58222    
   4996000   296.86165      0.040035964    24.186407      736.52194     -62.576838      673.94511    
   4997000   287.40963      0.040035964    14.353789      713.07121     -69.740948      643.33026    
   4998000   294.45847      0.040035964    27.232837      730.55959     -58.83737       671.72222    
   4999000   305.12658      0.040035964    20.070896      757.02745     -67.557048      689.4704     
   5000000   287.18744      0.040035964    16.128298      712.51995     -65.143613      647.37634    
   5001000   292.35978      0.040035964    27.764708      725.35266     -58.284942      667.06772    
   5002000   306.4448       0.040035964    21.382402      760.298       -61.1875        699.1105     
   5003000   299.07333      0.040035964    19.935387      742.00918     -71.2541        670.75508    
   5004000   301.26518      0.040035964    20.42003       747.44721     -62.495203      684.95201    
   5005000   300.67175      0.040035964    20.807312      745.9749      -61.535448      684.43946    
   5006000   297.66232      0.040035964    20.18191       738.50843     -64.7739        673.73453    
   5007000   289.6722       0.040035964    20.627173      718.68471     -71.024078      647.66063    
   5008000   289.12142      0.040035964    24.16445       717.31821     -66.541616      650.77659    
   5009000   300.77046      0.040035964    21.026209      746.2198      -62.948504      683.27129    
   5010000   321.56904      0.040035964    22.190457      797.82166     -65.497836      732.32383    
   5011000   292.01181      0.040035964    17.260392      724.48934     -70.454793      654.03455    
   5012000   301.18836      0.040035964    32.558071      747.25661     -62.482204      684.77441    
   5013000   307.65095      0.040035964    30.094126      763.2905      -71.25905       692.03144    
   5014000   300.3404       0.040035964    18.911139      745.15281     -68.247503      676.90531    
   5015000   304.04493      0.040035964    17.100276      754.34384     -70.227628      684.11622    
   5016000   303.84         0.040035964    18.315268      753.83542     -66.631556      687.20387    
   5017000   282.80565      0.040035964    24.411413      701.64861     -60.257941      641.39067    
   5018000   283.00241      0.040035964    21.681157      702.13679     -66.661292      635.4755     
   5019000   303.7871       0.040035964    21.774287      753.70417     -68.216316      685.48785    
   5020000   293.57575      0.040035964    12.111499      728.36953     -68.20094       660.16859    
   5021000   302.23699      0.040035964    23.348105      749.85831     -65.552784      684.30553    
   5022000   300.51761      0.040035964    22.341542      745.59248     -65.600916      679.99156    
   5023000   306.0123       0.040035964    26.568022      759.22495     -64.651422      694.57352    
   5024000   297.62751      0.040035964    12.295776      738.42207     -69.055525      669.36654    
   5025000   306.52485      0.040035964    13.702573      760.49661     -70.000036      690.49657    
   5026000   304.94168      0.040035964    24.238963      756.56872     -65.585217      690.98351    
   5027000   308.90964      0.040035964    16.75578       766.41334     -65.211527      701.20181    
   5028000   286.2428       0.040035964    13.043229      710.17628     -66.282062      643.89421    
   5029000   294.86497      0.040035964    30.404936      731.56813     -70.136236      661.43189    
   5030000   318.05019      0.040035964    22.012606      789.0913      -67.853654      721.23764    
   5031000   293.72616      0.040035964    11.972668      728.7427      -71.532437      657.21026    
   5032000   285.17983      0.040035964    15.929351      707.53902     -73.125151      634.41387    
   5033000   299.30047      0.040035964    22.308068      742.57271     -75.01784       667.55487    
   5034000   310.57779      0.040035964    22.575989      770.55207     -81.856563      688.69551    
   5035000   305.67598      0.040035964    19.58244       758.39054     -63.27132       695.11922    
   5036000   285.45426      0.040035964    17.726028      708.21989     -83.155773      625.06411    
   5037000   304.27129      0.040035964    17.034968      754.90547     -81.177073      673.72839    
   5038000   312.38379      0.040035964    22.002563      775.0328      -75.063254      699.96955    
   5039000   290.65539      0.040035964    18.681717      721.12403     -72.372948      648.75108    
   5040000   292.8457       0.040035964    21.932784      726.55825     -77.210335      649.34792    
   5041000   313.20534      0.040035964    14.398654      777.07107     -82.782872      694.2882     
   5042000   298.56008      0.040035964    21.291116      740.73578     -78.110246      662.62553    
   5043000   290.93838      0.040035964    17.026806      721.82614     -74.708023      647.11811    
   5044000   302.98683      0.040035964    22.505297      751.71867     -79.954353      671.76432    
   5045000   300.41671      0.040035964    21.847535      745.34213     -73.569547      671.77258    
   5046000   296.81625      0.040035964    18.18761       736.4093      -73.774273      662.63503    
   5047000   294.86095      0.040035964    20.182431      731.55815     -65.687163      665.87099    
   5048000   305.80276      0.040035964    27.549078      758.70508     -65.056371      693.64871    
   5049000   299.31679      0.040035964    25.357619      742.61321     -68.741108      673.8721     
   5050000   298.8033       0.040035964    20.470001      741.33923     -71.671375      669.66785    
   5051000   292.107        0.040035964    19.247043      724.72552     -65.799669      658.92585    
   5052000   301.8092       0.040035964   -0.29543301     748.79694     -70.569584      678.22736    
   5053000   305.43688      0.040035964    21.955435      757.79731     -66.842253      690.95506    
   5054000   291.46068      0.040035964    35.467976      723.12199     -70.166626      652.95536    
   5055000   299.50336      0.040035964    21.96056       743.0761      -74.942939      668.13316    
   5056000   289.47512      0.040035964    17.27075       718.19575     -74.030101      644.16565    
   5057000   321.37422      0.040035964    25.66482       797.33829     -76.452145      720.88614    
   5058000   297.48858      0.040035964    27.509557      738.07736     -76.603847      661.47351    
   5059000   289.34385      0.040035964    14.374522      717.87006     -74.960638      642.90942    
   5060000   305.53244      0.040035964    20.816908      758.0344      -71.242772      686.79163    
   5061000   311.55196      0.040035964    20.772304      772.969       -68.62033       704.34867    
   5062000   296.15949      0.040035964    26.504708      734.77986     -63.076427      671.70343    
   5063000   288.9322       0.040035964    20.696879      716.84876     -68.162412      648.68635    
   5064000   296.76314      0.040035964    9.9345031      736.27753     -66.81889       669.45864    
   5065000   303.14679      0.040035964    24.243276      752.11554     -62.940905      689.17463    
   5066000   306.65869      0.040035964    28.667932      760.82867     -63.224685      697.60399    
   5067000   299.07845      0.040035964    24.741232      742.02187     -67.129438      674.89244    
   5068000   290.51728      0.040035964    24.9198        720.78137     -60.701625      660.07975    
   5069000   284.90257      0.040035964    18.135448      706.85112     -66.606284      640.24484    
   5070000   297.2195       0.040035964    18.850525      737.40976     -61.323974      676.08579    
   5071000   307.29862      0.040035964    16.322977      762.41634     -65.378902      697.03744    
   5072000   300.07541      0.040035964    29.468709      744.49536     -61.670595      682.82477    
   5073000   294.28355      0.040035964    17.420989      730.1256      -60.109902      670.01569    
   5074000   316.37462      0.040035964    10.882844      784.93415     -64.271379      720.66277    
   5075000   305.05673      0.040035964    21.43148       756.85416     -63.62662       693.22754    
   5076000   290.85515      0.040035964    21.276525      721.61964     -64.209596      657.41005    
   5077000   274.96686      0.040035964    16.477399      682.20037     -65.692606      616.50776    
   5078000   300.14321      0.040035964    18.183823      744.66357     -62.599822      682.06375    
   5079000   310.33272      0.040035964    23.52613       769.94403     -54.850614      715.09342    
   5080000   295.1551       0.040035964    28.320986      732.28795     -59.187741      673.10021    
   5081000   294.44406      0.040035964    11.625149      730.52382     -64.345225      666.17859    
   5082000   315.19342      0.040035964    27.991184      782.00355     -65.788912      716.21464    
   5083000   308.7456       0.040035964    21.651603      766.00634     -68.152154      697.85419    
   5084000   308.23378      0.040035964    21.07981       764.73649     -68.580348      696.15614    
   5085000   298.54441      0.040035964    22.600434      740.69691     -63.307227      677.38968    
   5086000   311.77544      0.040035964    16.017626      773.52347     -64.192595      709.33088    
   5087000   295.09914      0.040035964    19.772162      732.14909     -61.611274      670.53782    
   5088000   306.8696       0.040035964    25.590402      761.35194     -61.686616      699.66533    
   5089000   295.67136      0.040035964    19.70261       733.56879     -69.359523      664.20926    
   5090000   300.88341      0.040035964    23.312381      746.50003     -64.863942      681.63609    
   5091000   305.96747      0.040035964    32.614409      759.11372     -59.534556      699.57916    
   5092000   298.3909       0.040035964    14.141828      740.31606     -60.548888      679.76717    
   5093000   285.68469      0.040035964    17.472422      708.79159     -61.283806      647.50779    
   5094000   308.53689      0.040035964    25.883871      765.48853     -61.826789      703.66174    
   5095000   316.1893       0.040035964    20.406381      784.47437     -57.442195      727.03217    
   5096000   293.79675      0.040035964    16.122017      728.91784     -63.477731      665.44011    
   5097000   288.47675      0.040035964    27.346037      715.71878     -59.047999      656.67078    
   5098000   312.58458      0.040035964    18.585696      775.53096     -64.00384       711.52712    
   5099000   297.993        0.040035964    20.216109      739.32885     -62.801901      676.52694    
   5100000   296.10103      0.040035964    17.474536      734.63482     -62.501787      672.13303    
   5101000   299.16953      0.040035964    16.862785      742.24786     -67.736637      674.51122    
   5102000   307.8822       0.040035964    17.097198      763.86422     -66.998437      696.86578    
   5103000   310.087        0.040035964    15.437189      769.33439     -62.218469      707.11592    
   5104000   305.22991      0.040035964    27.534613      757.28383     -60.655275      696.62855    
   5105000   306.52632      0.040035964    24.391374      760.50026     -61.645639      698.85462    
   5106000   286.98946      0.040035964    15.685273      712.02875     -63.543301      648.48545    
   5107000   295.59615      0.040035964    18.992384      733.3822      -64.042276      669.33993    
   5108000   309.6056       0.040035964    20.340634      768.14004     -65.79558       702.34446    
   5109000   308.80752      0.040035964    17.332126      766.15996     -71.181259      694.9787     
   5110000   284.21932      0.040035964    17.646548      705.15597     -65.239283      639.91668    
   5111000   303.96772      0.040035964    20.675538      754.1523      -70.400291      683.75201    
   5112000   316.69953      0.040035964    19.467169      785.74027     -65.562093      720.17818    
   5113000   297.58059      0.040035964    23.825865      738.30564     -68.332226      669.97341    
   5114000   282.10641      0.040035964    17.60774       699.91379     -67.649465      632.26432    
   5115000   316.35717      0.040035964    19.029157      784.89087     -69.711096      715.17977    
   5116000   307.34411      0.040035964    19.199022      762.52922     -64.49098       698.03824    
   5117000   298.53905      0.040035964    20.021456      740.68361     -69.9518        670.73181    
   5118000   294.41894      0.040035964    19.283097      730.46151     -71.328356      659.13316    
   5119000   301.43304      0.040035964    14.467557      747.86367     -68.960702      678.90297    
   5120000   302.86263      0.040035964    21.735788      751.41054     -61.910401      689.50014    
   5121000   304.29401      0.040035964    16.588903      754.96183     -62.969451      691.99238    
   5122000   300.01976      0.040035964    22.290346      744.35729     -62.877555      681.47973    
   5123000   304.83104      0.040035964    24.428485      756.29421     -63.068509      693.22571    
   5124000   307.04081      0.040035964    26.928378      761.77673     -62.968015      698.80871    
   5125000   302.22085      0.040035964    14.835421      749.81826     -63.280494      686.53777    
   5126000   290.85723      0.040035964    18.431357      721.62481     -67.710043      653.91477    
   5127000   315.22514      0.040035964    28.688328      782.08226     -64.98668       717.09558    
   5128000   303.08573      0.040035964    21.429105      751.96404     -66.401497      685.56254    
   5129000   307.64204      0.040035964    19.326632      763.26839     -64.149368      699.11902    
   5130000   304.14855      0.040035964    21.015491      754.60094     -65.979046      688.62189    
   5131000   292.43885      0.040035964    16.40096       725.54885     -70.95323       654.59562    
   5132000   300.72311      0.040035964    24.388774      746.10233     -66.878102      679.22422    
   5133000   311.37367      0.040035964    14.636959      772.52665     -71.936205      700.59045    
   5134000   292.28998      0.040035964    20.200121      725.1795      -69.670005      655.5095     
   5135000   300.27592      0.040035964    28.192554      744.99283     -73.283478      671.70935    
   5136000   300.6382       0.040035964    30.817105      745.89166     -73.471728      672.41993    
   5137000   305.92095      0.040035964    28.641841      758.99831     -68.726067      690.27224    
   5138000   295.25205      0.040035964    20.877957      732.52849     -69.083199      663.44529    
   5139000   294.95207      0.040035964    14.474317      731.78423     -72.395303      659.38892    
   5140000   304.1543       0.040035964    19.835754      754.6152      -76.842337      677.77286    
   5141000   308.13179      0.040035964    26.063243      764.48346     -70.533351      693.95011    
   5142000   316.58481      0.040035964    19.772855      785.45564     -71.475488      713.98015    
   5143000   295.64306      0.040035964    15.974884      733.49858     -75.187352      658.31123    
   5144000   300.15028      0.040035964    21.652889      744.68112     -68.647114      676.03401    
   5145000   306.44092      0.040035964    20.318431      760.28838     -78.437486      681.8509     
   5146000   282.1124       0.040035964    16.413785      699.92865     -78.218942      621.7097     
   5147000   292.78901      0.040035964    21.224618      726.41761     -73.665096      652.75252    
   5148000   298.69467      0.040035964    20.14043       741.06971     -69.377792      671.69192    
   5149000   304.84872      0.040035964    23.565614      756.33808     -70.87035       685.46773    
   5150000   305.24121      0.040035964    20.862926      757.31186     -68.209014      689.10285    
   5151000   293.92059      0.040035964    20.512784      729.22507     -68.36325       660.86182    
   5152000   299.33176      0.040035964    25.083344      742.65034     -68.270493      674.37985    
   5153000   310.76359      0.040035964    24.256306      771.01304     -63.7867        707.22634    
   5154000   309.47736      0.040035964    17.590544      767.82186     -64.507487      703.31438    
   5155000   292.61835      0.040035964    6.3466939      725.99419     -62.693724      663.30047    
   5156000   294.39451      0.040035964    21.687014      730.40089     -71.818787      658.5821     
   5157000   311.08097      0.040035964    24.469883      771.80046     -68.069999      703.73046    
   5158000   298.76309      0.040035964    18.876438      741.23945     -63.080213      678.15924    
   5159000   300.89192      0.040035964    17.17586       746.52115     -63.887118      682.63404    
   5160000   298.43996      0.040035964    21.201809      740.43777     -62.861721      677.57604    
   5161000   304.55774      0.040035964    22.692766      755.61615     -57.260923      698.35523    
   5162000   301.26996      0.040035964    21.51429       747.45907     -70.338075      677.121      
   5163000   290.1617       0.040035964    19.209456      719.89917     -73.926702      645.97247    
   5164000   308.25242      0.040035964    17.468383      764.78276     -71.598573      693.18418    
   5165000   311.42262      0.040035964    22.709776      772.6481      -78.267333      694.38076    
   5166000   288.82248      0.040035964    22.12893       716.57654     -76.988222      639.58832    
   5167000   291.33601      0.040035964    23.277299      722.81266     -76.301612      646.51105    
   5168000   312.71752      0.040035964    21.8415        775.86078     -85.095748      690.76503    
   5169000   301.21112      0.040035964    16.150858      747.31308     -79.565991      667.74709    
   5170000   275.39891      0.040035964    20.507575      683.27228     -69.228988      614.04329    
   5171000   303.23893      0.040035964    20.140016      752.34415     -78.831415      673.51273    
   5172000   312.29755      0.040035964    21.017345      774.81883     -72.327387      702.49144    
   5173000   306.11073      0.040035964    22.498318      759.46917     -75.555992      683.91318    
   5174000   280.48891      0.040035964    24.728098      695.90071     -73.944143      621.95656    
   5175000   293.35542      0.040035964    18.382958      727.82288     -69.408365      658.41452    
   5176000   319.19125      0.040035964    20.373222      791.9223      -77.781902      714.14039    
   5177000   301.39289      0.040035964    25.209278      747.76407     -76.673421      671.09064    
   5178000   295.51079      0.040035964    19.165341      733.17042     -74.378069      658.79235    
   5179000   308.32569      0.040035964    20.743083      764.96455     -74.220206      690.74434    
   5180000   289.80828      0.040035964    19.686398      719.02233     -70.493537      648.52879    
   5181000   273.92427      0.040035964    16.383529      679.61368     -75.064707      604.54897    
   5182000   307.07227      0.040035964    16.65947       761.85476     -78.031261      683.8235     
   5183000   305.29992      0.040035964    20.505935      757.45751     -72.752444      684.70507    
   5184000   301.00639      0.040035964    21.454227      746.80516     -71.603446      675.20172    
   5185000   302.14389      0.040035964    22.164423      749.62731     -79.615738      670.01157    
   5186000   295.43452      0.040035964    14.759183      732.98118     -73.886687      659.09449    
   5187000   315.75863      0.040035964    19.049615      783.40587     -70.421606      712.98426    
   5188000   285.51983      0.040035964    27.199488      708.38258     -75.499916      632.88266    
   5189000   289.55089      0.040035964    18.489636      718.38373     -69.53744       648.84629    
   5190000   314.87767      0.040035964    18.05816       781.22017     -76.577487      704.64269    
   5191000   307.87583      0.040035964    23.060789      763.84841     -73.075551      690.77286    
   5192000   290.7126       0.040035964    20.475179      721.26597     -69.217129      652.04884    
   5193000   294.81931      0.040035964    26.066622      731.45484     -70.077855      661.37698    
   5194000   310.89368      0.040035964    19.147909      771.3358      -69.258097      702.0777     
   5195000   300.46533      0.040035964    17.536013      745.46278     -70.136349      675.32643    
   5196000   288.54096      0.040035964    22.314506      715.87807     -68.887178      646.99089    
   5197000   302.7217       0.040035964    18.544145      751.06087     -71.047546      680.01333    
   5198000   311.27088      0.040035964    22.820523      772.27162     -72.712401      699.55922    
   5199000   299.80071      0.040035964    24.069554      743.81382     -65.08013       678.73369    
   5200000   299.39504      0.040035964    22.550771      742.80735     -66.569356      676.23799    
   5201000   290.20419      0.040035964    21.329236      720.00459     -65.266082      654.73851    
   5202000   291.13134      0.040035964    24.544529      722.30488     -57.993302      664.31158    
   5203000   300.94617      0.040035964    19.867653      746.65573     -66.947479      679.70826    
   5204000   312.96354      0.040035964    19.330646      776.47117     -70.174615      706.29655    
   5205000   281.54948      0.040035964    16.052763      698.53201     -72.973404      625.55861    
   5206000   299.07677      0.040035964    22.630388      742.01772     -68.710444      673.30727    
   5207000   302.90275      0.040035964    19.242484      751.51008     -61.185524      690.32456    
   5208000   293.28912      0.040035964    14.971937      727.65839     -63.735279      663.92311    
   5209000   309.97533      0.040035964    24.315511      769.05733     -63.966801      705.09053    
   5210000   314.89354      0.040035964    12.421168      781.25956     -65.240483      716.01908    
   5211000   297.82903      0.040035964    13.75433       738.92203     -68.628416      670.29361    
   5212000   294.01967      0.040035964    18.833056      729.4709      -65.793145      663.67775    
   5213000   302.69779      0.040035964    22.382722      751.00157     -71.081316      679.92025    
   5214000   296.04881      0.040035964    19.398597      734.50525     -63.066936      671.43831    
   5215000   296.17401      0.040035964    13.504397      734.81587     -63.440432      671.37544    
   5216000   299.24641      0.040035964    21.871658      742.43858     -64.972923      677.46566    
   5217000   296.97205      0.040035964    20.13279       736.79584     -66.357585      670.43825    
   5218000   302.81204      0.040035964    21.807164      751.28502     -68.093268      683.19175    
   5219000   301.47563      0.040035964    19.899626      747.96934     -66.695342      681.274      
   5220000   308.74963      0.040035964    20.614434      766.01634     -60.678076      705.33826    
   5221000   299.50646      0.040035964    27.911721      743.08378     -70.525744      672.55803    
   5222000   301.56861      0.040035964    14.051769      748.20004     -68.981402      679.21864    
   5223000   293.36609      0.040035964    21.888661      727.84935     -68.686391      659.16296    
   5224000   300.87312      0.040035964    29.065527      746.47451     -64.145709      682.3288     
   5225000   300.45328      0.040035964    16.399807      745.43286     -65.563573      679.86929    
   5226000   297.55661      0.040035964    20.87385       738.24616     -68.48105       669.76511    
   5227000   297.04818      0.040035964    20.581126      736.98473     -69.531535      667.4532     
   5228000   307.31418      0.040035964    27.060644      762.45496     -66.779705      695.67526    
   5229000   304.33006      0.040035964    21.226921      755.05127     -65.352706      689.69856    
   5230000   305.04064      0.040035964    19.899521      756.81423     -64.600521      692.21371    
   5231000   289.58807      0.040035964    17.709319      718.476       -59.26025       659.21575    
   5232000   279.52548      0.040035964    26.497247      693.51042     -56.424924      637.08549    
   5233000   303.88905      0.040035964    20.743023      753.9571      -57.08644       696.87066    
   5234000   311.83809      0.040035964    18.879294      773.6789      -57.575626      716.10328    
   5235000   293.01187      0.040035964    16.641333      726.97054     -60.44575       666.52479    
   5236000   299.27729      0.040035964    18.414901      742.5152      -64.968474      677.54673    
   5237000   303.5769       0.040035964    23.08078       753.18267     -62.761372      690.4213     
   5238000   298.67466      0.040035964    22.508175      741.02007     -70.955466      670.06461    
   5239000   315.49919      0.040035964    21.251236      782.76218     -66.058013      716.70417    
   5240000   305.67552      0.040035964    18.625041      758.38939     -61.312303      697.07709    
   5241000   298.44053      0.040035964    14.795886      740.43919     -66.060159      674.37903    
   5242000   301.29746      0.040035964    22.937358      747.52731     -70.979701      676.54761    
   5243000   289.56612      0.040035964    21.535844      718.42151     -72.622691      645.79882    
   5244000   299.39562      0.040035964    17.203989      742.8088      -62.717994      680.0908     
   5245000   301.93988      0.040035964    20.177943      749.12117     -59.255358      689.86582    
   5246000   319.09596      0.040035964    29.171571      791.68588     -63.341417      728.34447    
   5247000   308.70212      0.040035964    28.77138       765.89847     -66.131722      699.76675    
   5248000   282.38721      0.040035964    14.436347      700.61044     -58.336644      642.2738     
   5249000   290.47673      0.040035964    18.090094      720.68077     -58.506336      662.17444    
   5250000   310.99985      0.040035964    17.992093      771.59921     -61.685828      709.91338    
   5251000   305.93913      0.040035964    32.236691      759.04341     -60.861474      698.18194    
   5252000   291.76908      0.040035964    27.456254      723.88713     -64.067673      659.81946    
   5253000   304.38795      0.040035964    16.361443      755.19488     -66.76121       688.43367    
   5254000   311.48926      0.040035964    27.956931      772.81343     -63.619655      709.19377    
   5255000   286.13291      0.040035964    31.147481      709.90364     -62.708922      647.19472    
   5256000   297.38259      0.040035964    17.402001      737.81441     -64.035047      673.77936    
   5257000   311.24504      0.040035964    18.219207      772.20752     -64.106219      708.1013     
   5258000   301.92337      0.040035964    23.886821      749.0802      -58.778223      690.30197    
   5259000   290.20348      0.040035964    16.44919       720.00283     -63.791423      656.2114     
   5260000   309.61978      0.040035964    12.932998      768.17521     -67.866144      700.30906    
   5261000   305.27888      0.040035964    22.363305      757.40533     -66.715251      690.69008    
   5262000   284.6443       0.040035964    29.737193      706.21035     -67.135775      639.07457    
   5263000   297.15065      0.040035964    9.4505013      737.23896     -64.088007      673.15095    
   5264000   303.54795      0.040035964    17.601615      753.11083     -69.503784      683.60705    
   5265000   304.83364      0.040035964    31.017881      756.30065     -68.970265      687.33039    
   5266000   301.60687      0.040035964    32.735581      748.29495     -58.672882      689.62207    
   5267000   294.89202      0.040035964    22.718312      731.63523     -51.313572      680.32166    
   5268000   299.59284      0.040035964    14.492769      743.2981      -53.285025      690.01307    
   5269000   301.28824      0.040035964    19.793907      747.50444     -59.563609      687.94083    
   5270000   302.85528      0.040035964    22.366668      751.3923      -64.364051      687.02825    
   5271000   304.71278      0.040035964    21.843837      756.00081     -60.288149      695.71266    
   5272000   290.38958      0.040035964    12.966465      720.46454     -63.807967      656.65658    
   5273000   309.52859      0.040035964    18.34574       767.94895     -63.231801      704.71715    
   5274000   313.22452      0.040035964    20.135734      777.11867     -68.748774      708.3699     
   5275000   298.79685      0.040035964    24.066519      741.32322     -64.871256      676.45196    
   5276000   284.35909      0.040035964    25.972295      705.50275     -59.157382      646.34536    
   5277000   299.27141      0.040035964    6.8727794      742.50061     -66.944167      675.55645    
   5278000   311.94605      0.040035964    19.868819      773.94675     -70.016983      703.92977    
   5279000   306.86811      0.040035964    27.15498       761.34825     -64.638166      696.71009    
   5280000   288.44035      0.040035964    24.399526      715.62845     -64.627062      651.00139    
   5281000   300.00532      0.040035964    15.194786      744.32147     -67.829909      676.49156    
   5282000   306.7674       0.040035964    21.182706      761.09839     -63.544917      697.55347    
   5283000   292.6328       0.040035964    20.945588      726.03004     -71.156135      654.87391    
   5284000   288.26551      0.040035964    22.138645      715.19468     -67.249466      647.94521    
   5285000   300.97524      0.040035964    16.135235      746.72787     -64.18243       682.54544    
   5286000   318.9087       0.040035964    15.244481      791.22127     -61.482261      729.73901    
   5287000   303.58829      0.040035964    20.968669      753.21092     -60.471422      692.7395     
   5288000   288.38523      0.040035964    25.942014      715.4917      -55.1148        660.3769     
   5289000   293.02212      0.040035964    17.422331      726.99597     -58.216094      668.77987    
   5290000   311.21323      0.040035964    19.497541      772.12861     -57.26165       714.86696    
   5291000   307.44587      0.040035964    18.971258      762.78168     -54.075877      708.70581    
   5292000   289.4252       0.040035964    20.660521      718.07191     -54.450424      663.62149    
   5293000   304.55446      0.040035964    17.625298      755.60801     -57.860989      697.74702    
   5294000   321.26841      0.040035964    20.806127      797.07579     -69.374879      727.70091    
   5295000   292.92902      0.040035964    22.577236      726.76498     -70.746282      656.0187     
   5296000   297.94378      0.040035964    21.418491      739.20673     -69.867056      669.33968    
   5297000   300.36439      0.040035964    14.815768      745.21234     -71.475183      673.73716    
   5298000   315.72508      0.040035964    24.402926      783.32263     -63.254014      720.06862    
   5299000   300.54459      0.040035964    22.710341      745.65941     -65.487481      680.17193    
   5300000   305.59935      0.040035964    19.34783       758.2004      -69.657642      688.54276    
   5301000   295.59559      0.040035964    20.198785      733.3808      -69.769437      663.61136    
   5302000   310.72127      0.040035964    22.232556      770.90803     -67.784824      703.12321    
   5303000   293.55704      0.040035964    21.18027       728.32311     -65.044023      663.27909    
   5304000   296.04052      0.040035964    18.775467      734.48469     -66.9129        667.57179    
   5305000   304.60971      0.040035964    16.991239      755.74508     -65.57969       690.16539    
   5306000   298.40653      0.040035964    20.361936      740.35483     -66.714433      673.6404     
   5307000   297.63421      0.040035964    18.415431      738.43868     -63.047916      675.39076    
   5308000   298.5138       0.040035964    17.755466      740.62097     -66.81026       673.81071    
   5309000   297.13629      0.040035964    16.066285      737.20331     -69.937127      667.26619    
   5310000   297.55835      0.040035964    18.294674      738.25046     -68.75796       669.4925     
   5311000   301.32935      0.040035964    22.196758      747.60643     -70.650162      676.95627    
   5312000   307.25523      0.040035964    21.959483      762.3087      -73.23977       689.06894    
   5313000   303.66399      0.040035964    13.568362      753.39874     -81.064755      672.33398    
   5314000   300.11067      0.040035964    20.697544      744.58283     -79.334357      665.24848    
   5315000   295.291        0.040035964    26.918223      732.62512     -83.295899      649.32922    
   5316000   300.95984      0.040035964    23.322971      746.68967     -84.034565      662.6551     
   5317000   301.21272      0.040035964    16.658208      747.31706     -77.286432      670.03063    
   5318000   296.37239      0.040035964    21.670715      735.30807     -72.848212      662.45986    
   5319000   320.73823      0.040035964    21.774721      795.7604      -75.284305      720.4761     
   5320000   296.88043      0.040035964    19.666148      736.56853     -76.417845      660.15068    
   5321000   284.77749      0.040035964    20.533455      706.54081     -67.875219      638.66559    
   5322000   309.8777       0.040035964    24.414585      768.81511     -68.307256      700.50785    
   5323000   300.04865      0.040035964    17.610983      744.42896     -69.204055      675.2249     
   5324000   286.97803      0.040035964    15.190464      712.0004      -67.826028      644.17437    
   5325000   309.58794      0.040035964    20.716728      768.09621     -69.245504      698.85071    
   5326000   309.64327      0.040035964    24.148074      768.23349     -60.188404      708.04509    
   5327000   300.94744      0.040035964    23.928273      746.65891     -62.510557      684.14835    
   5328000   314.89839      0.040035964    29.363931      781.27159     -54.384291      726.8873     
   5329000   294.95332      0.040035964    16.299926      731.78732     -54.536186      677.25114    
   5330000   301.48985      0.040035964    24.513626      748.00462     -56.670729      691.33389    
   5331000   307.20042      0.040035964    22.611353      762.17272     -55.659642      706.51307    
   5332000   300.14916      0.040035964    7.6544651      744.67835     -51.15281       693.52554    
   5333000   299.19151      0.040035964    11.981586      742.30239     -60.424246      681.87815    
   5334000   302.02378      0.040035964    26.846272      749.32931     -65.725093      683.60422    
   5335000   306.14633      0.040035964    15.878494      759.55747     -58.711484      700.84599    
   5336000   303.18009      0.040035964    7.350793       752.19815     -54.022705      698.17545    
   5337000   300.54305      0.040035964    16.976477      745.6556      -51.976679      693.67892    
   5338000   297.68798      0.040035964    25.550759      738.57208     -53.256218      685.31586    
   5339000   306.06242      0.040035964    30.725537      759.3493      -48.449984      710.89932    
   5340000   301.74127      0.040035964    12.27736       748.6284      -56.67024       691.95816    
   5341000   291.57028      0.040035964    15.688245      723.3939      -57.558353      665.83555    
   5342000   296.97564      0.040035964    22.627313      736.80476     -53.807583      682.99718    
   5343000   294.95317      0.040035964    10.636226      731.78696     -57.500104      674.28685    
   5344000   284.68954      0.040035964    6.5416194      706.3226      -59.225063      647.09753    
   5345000   300.55841      0.040035964    23.753397      745.6937      -52.119609      693.57409    
   5346000   311.54317      0.040035964    26.89101       772.94719     -53.920199      719.02699    
   5347000   292.31417      0.040035964    14.303949      725.23951     -54.413419      670.82609    
   5348000   296.73307      0.040035964    30.936533      736.20293     -56.763887      679.43904    
   5349000   302.24478      0.040035964    33.944837      749.87764     -57.710001      692.16764    
   5350000   303.62823      0.040035964    17.225722      753.31        -58.489461      694.82054    
   5351000   297.28773      0.040035964    21.974993      737.57905     -55.425244      682.1538     
   5352000   308.88991      0.040035964    25.664275      766.36438     -61.974575      704.3898     
   5353000   300.563        0.040035964    20.037003      745.7051      -62.274473      683.43063    
   5354000   299.4492       0.040035964    12.617279      742.94172     -58.567009      684.37471    
   5355000   309.21444      0.040035964    39.18751       767.16955     -55.879403      711.29015    
   5356000   302.51682      0.040035964    17.6658        750.55258     -57.530256      693.02232    
   5357000   297.68188      0.040035964    15.386336      738.55695     -58.270452      680.2865     
   5358000   301.68686      0.040035964    15.951151      748.49341     -62.24609       686.24732    
   5359000   308.54969      0.040035964    36.973007      765.52029     -67.444338      698.07595    
   5360000   302.47494      0.040035964    11.640532      750.44865     -70.030866      680.41779    
   5361000   290.20243      0.040035964    17.288295      720.00023     -63.028737      656.97149    
   5362000   308.74692      0.040035964    43.543695      766.00961     -61.91234       704.09727    
   5363000   309.26635      0.040035964    24.648722      767.29833     -62.797767      704.50057    
   5364000   301.89308      0.040035964    3.3708816      749.00506     -64.730952      684.27411    
   5365000   288.89996      0.040035964    25.123124      716.76877     -62.529535      654.23923    
   5366000   271.44948      0.040035964    39.262408      673.47364     -66.52986       606.94378    
   5367000   310.80615      0.040035964    68.612181      771.11864     -67.106048      704.01259    
   5368000   304.81285      0.040035964    12.748995      756.24907     -58.758766      697.49031    
   5369000   296.17312      0.040035964    33.676485      734.81367     -64.037773      670.7759     
   5370000   299.37144      0.040035964    22.647057      742.7488      -62.095356      680.65344    
   5371000   291.82741      0.040035964    13.960589      724.03184     -66.559866      657.47198    
   5372000   306.7636       0.040035964    25.654392      761.08896     -62.187376      698.90158    
   5373000   306.4247       0.040035964    21.743325      760.24812     -61.121561      699.12656    
   5374000   296.67587      0.040035964    21.8737        736.061       -63.428523      672.63248    
   5375000   294.19309      0.040035964    10.93196       729.90117     -63.50086       666.40031    
   5376000   290.47366      0.040035964    15.800341      720.67317     -64.227654      656.44551    
   5377000   312.29599      0.040035964    26.759625      774.81496     -66.919604      707.89536    
   5378000   299.58885      0.040035964    6.0718693      743.28819     -63.555485      679.73271    
   5379000   290.92219      0.040035964    6.6900416      721.78598     -62.085229      659.70075    
   5380000   301.65204      0.040035964    27.34716       748.40702     -60.906417      687.50061    
   5381000   299.65022      0.040035964    10.554956      743.44046     -57.883412      685.55705    
   5382000   300.43911      0.040035964    10.814123      745.39772     -61.959982      683.43774    
   5383000   296.21408      0.040035964    12.652715      734.91529     -63.33086       671.58443    
   5384000   299.61037      0.040035964    26.587907      743.3416      -70.190098      673.1515     
   5385000   299.27196      0.040035964    25.702912      742.50197     -66.709367      675.79261    
   5386000   300.91023      0.040035964    13.06377       746.56658     -71.944648      674.62193    
   5387000   298.29766      0.040035964    30.222006      740.08471     -71.800544      668.28416    
   5388000   299.29982      0.040035964    15.060575      742.5711      -66.833866      675.73723    
   5389000   288.34006      0.040035964    14.764518      715.37964     -76.392227      638.98742    
   5390000   315.21883      0.040035964    24.996782      782.06661     -66.063911      716.0027     
   5391000   301.10855      0.040035964    15.956355      747.05861     -62.51046       684.54815    
   5392000   290.10182      0.040035964    18.082531      719.75062     -71.179212      648.57141    
   5393000   312.47629      0.040035964    20.408854      775.2623      -67.972275      707.29002    
   5394000   305.60146      0.040035964    9.9728277      758.20565     -68.771551      689.43409    
   5395000   295.59873      0.040035964    12.321923      733.3886      -73.405779      659.98282    
   5396000   295.82423      0.040035964    30.435126      733.94808     -73.178358      660.76972    
   5397000   306.16311      0.040035964    19.550151      759.59912     -64.595516      695.0036     
   5398000   296.50621      0.040035964    17.462141      735.64007     -64.108539      671.53154    
   5399000   297.6576       0.040035964    20.936111      738.49672     -67.057413      671.43931    
   5400000   303.39809      0.040035964    20.218569      752.73903     -63.380107      689.35892    
   5401000   300.63726      0.040035964    22.114697      745.88934     -60.865068      685.02427    
   5402000   296.50737      0.040035964    24.057331      735.64295     -68.120217      667.52274    
   5403000   290.76226      0.040035964    12.734529      721.38917     -70.34435       651.04482    
   5404000   304.65658      0.040035964    18.617872      755.86138     -74.293866      681.56752    
   5405000   298.43313      0.040035964    44.555879      740.42083     -71.367349      669.05348    
   5406000   291.88548      0.040035964    22.798734      724.17592     -74.589295      649.58662    
   5407000   299.41732      0.040035964    20.989067      742.86262     -81.213347      661.64927    
   5408000   306.58954      0.040035964    31.130454      760.65711     -80.751435      679.90567    
   5409000   300.90276      0.040035964    17.041262      746.54805     -79.892505      666.65554    
   5410000   309.27523      0.040035964    23.92324       767.32037     -79.693528      687.62685    
   5411000   284.56791      0.040035964    25.184423      706.02083     -75.562752      630.45808    
   5412000   309.46734      0.040035964    16.840548      767.79699     -66.882913      700.91408    
   5413000   301.2404       0.040035964    17.81533       747.38575     -69.11675       678.269      
   5414000   295.65752      0.040035964    23.84966       733.53446     -62.485554      671.0489     
   5415000   285.33773      0.040035964    30.776204      707.93076     -71.550763      636.38       
   5416000   294.58095      0.040035964    16.630607      730.86346     -66.995468      663.868      
   5417000   297.63755      0.040035964    13.42673       738.44696     -65.190134      673.25683    
   5418000   302.90252      0.040035964    24.956402      751.5095      -67.470413      684.03909    
   5419000   301.07132      0.040035964    25.229549      746.96625     -68.384389      678.58186    
   5420000   294.76443      0.040035964    12.70995       731.31867     -73.028238      658.29043    
   5421000   293.81663      0.040035964    15.63448       728.96717     -70.452258      658.51491    
   5422000   303.34522      0.040035964    22.955243      752.60784     -66.080743      686.5271     
   5423000   294.11327      0.040035964    23.494242      729.70314     -70.122818      659.58032    
   5424000   303.2038       0.040035964    20.337327      752.25698     -63.255108      689.00188    
   5425000   299.24151      0.040035964    20.0034        742.42643     -65.825213      676.60121    
   5426000   303.94505      0.040035964    20.885447      754.09606     -67.994037      686.10202    
   5427000   305.03433      0.040035964    17.519068      756.79857     -66.980275      689.8183     
   5428000   294.3778       0.040035964    18.061396      730.35944     -61.79403       668.56541    
   5429000   291.21283      0.040035964    20.328774      722.50706     -63.443173      659.06389    
   5430000   309.648        0.040035964    19.615798      768.24522     -64.551181      703.69404    
   5431000   318.57599      0.040035964    21.298668      790.3958      -66.445798      723.95001    
   5432000   301.65153      0.040035964    19.538478      748.40575     -63.96688       684.43887    
   5433000   293.61261      0.040035964    22.704894      728.46098     -67.452541      661.00844    
   5434000   304.92279      0.040035964    10.740963      756.52186     -72.898678      683.62318    
   5435000   312.09792      0.040035964    21.292778      774.32353     -70.724166      703.59937    
   5436000   294.04509      0.040035964    32.428741      729.53398     -72.186962      657.34702    
   5437000   300.14486      0.040035964    22.00799       744.66767     -68.821638      675.84604    
   5438000   306.50489      0.040035964    11.853392      760.44708     -60.278264      700.16881    
   5439000   299.7528       0.040035964    24.023621      743.69496     -55.24722       688.44774    
   5440000   294.63123      0.040035964    26.748713      730.9882      -56.897626      674.09058    
   5441000   280.95196      0.040035964    13.649564      697.04957     -59.960596      637.08897    
   5442000   290.87761      0.040035964    20.778799      721.67536     -57.402762      664.2726     
   5443000   308.25991      0.040035964    12.370382      764.80135     -57.338692      707.46265    
   5444000   295.46372      0.040035964    28.821163      733.05364     -59.097472      673.95617    
   5445000   287.87104      0.040035964    11.659778      714.21597     -65.579369      648.63661    
   5446000   304.63886      0.040035964    18.344744      755.81742     -58.278797      697.53862    
   5447000   304.33025      0.040035964    24.552784      755.05175     -64.374988      690.67676    
   5448000   295.7201       0.040035964    9.7513532      733.68972     -66.798103      666.89162    
   5449000   306.48015      0.040035964    14.08216       760.3857      -68.737366      691.64833    
   5450000   306.26117      0.040035964    23.165363      759.84241     -66.630608      693.2118     
   5451000   295.08454      0.040035964    20.295814      732.11287     -71.686252      660.42662    
   5452000   294.30559      0.040035964    15.615184      730.18029     -65.80491       664.37538    
   5453000   308.06042      0.040035964    16.898443      764.30638     -57.748008      706.55837    
   5454000   306.96234      0.040035964    22.57327       761.58204     -62.284829      699.29721    
   5455000   299.86966      0.040035964    27.240868      743.98488     -59.766307      684.21857    
   5456000   285.96659      0.040035964   -1.3110125      709.49099     -68.864923      640.62607    
   5457000   302.24984      0.040035964    5.1325338      749.89019     -68.428966      681.46122    
   5458000   301.0729       0.040035964    18.944466      746.97017     -64.948125      682.02205    
   5459000   311.75273      0.040035964    40.717144      773.46711     -67.133         706.33411    
   5460000   299.7888       0.040035964    24.325896      743.78428     -67.267053      676.51723    
   5461000   302.62935      0.040035964    10.227869      750.83177     -63.585343      687.24642    
   5462000   305.04401      0.040035964    36.026669      756.82261     -68.826348      687.99626    
   5463000   287.02297      0.040035964    23.654441      712.1119      -67.107891      645.00401    
   5464000   291.29739      0.040035964    14.933365      722.71686     -71.402514      651.31435    
   5465000   304.5071       0.040035964    24.938525      755.49052     -67.510351      687.98017    
   5466000   305.58068      0.040035964    27.526145      758.1541      -68.915027      689.23907    
   5467000   289.70189      0.040035964    11.735516      718.75838     -71.048718      647.70966    
   5468000   317.44784      0.040035964    10.906627      787.59683     -70.970886      716.62595    
   5469000   312.60697      0.040035964    23.01882       775.5865      -65.976987      709.60951    
   5470000   286.7301       0.040035964    20.536407      711.38528     -60.455246      650.93003    
   5471000   294.04334      0.040035964    19.8118        729.52964     -61.393151      668.13648    
   5472000   313.34167      0.040035964    19.376443      777.40932     -68.461266      708.94805    
   5473000   293.30255      0.040035964    19.287303      727.69171     -66.02114       661.67057    
   5474000   303.71262      0.040035964    19.569931      753.51939     -71.091883      682.42751    
   5475000   300.9211       0.040035964    17.167621      746.59353     -66.725836      679.8677     
   5476000   304.18901      0.040035964    19.704112      754.70133     -61.232882      693.46844    
   5477000   288.09089      0.040035964    20.501667      714.76145     -67.628273      647.13318    
   5478000   296.38744      0.040035964    22.226192      735.3454      -65.123128      670.22227    
   5479000   306.30412      0.040035964    24.228327      759.94897     -66.48466       693.46431    
   5480000   295.70803      0.040035964    20.04211       733.65977     -63.715712      669.94406    
   5481000   301.61903      0.040035964    17.914777      748.32514     -63.507192      684.81795    
   5482000   296.06437      0.040035964    17.057703      734.54386     -74.638335      659.90553    
   5483000   310.95244      0.040035964    33.147833      771.48157     -68.123353      703.35822    
   5484000   303.05812      0.040035964    18.687723      751.89556     -69.518047      682.37751    
   5485000   286.38878      0.040035964    16.120012      710.53846     -67.783732      642.75473    
   5486000   306.20819      0.040035964    19.886682      759.71095     -68.568129      691.14282    
   5487000   307.05288      0.040035964    23.279873      761.80667     -59.330244      702.47643    
   5488000   301.68505      0.040035964    20.283793      748.48892     -62.832967      685.65596    
   5489000   299.79831      0.040035964    22.814128      743.80786     -61.581005      682.22685    
   5490000   301.79445      0.040035964    22.514727      748.76034     -78.587239      670.1731     
   5491000   305.59102      0.040035964    9.8665442      758.17974     -74.947242      683.2325     
   5492000   293.38828      0.040035964    8.4831117      727.90442     -63.92715       663.97727    
   5493000   313.6078       0.040035964    24.832339      778.06961     -62.162651      715.90696    
   5494000   301.84143      0.040035964    30.391712      748.87692     -68.131323      680.7456     
   5495000   301.81036      0.040035964    17.052797      748.79983     -78.847924      669.95191    
   5496000   305.43313      0.040035964    15.236092      757.788       -71.55084       686.23716    
   5497000   297.81863      0.040035964    15.423446      738.89623     -64.375352      674.52088    
   5498000   301.55216      0.040035964    25.775433      748.15922     -66.125871      682.03335    
   5499000   305.96226      0.040035964    19.896078      759.1008      -64.214918      694.88588    
   5500000   300.53922      0.040035964    21.691794      745.64609     -64.102788      681.54331    
   5501000   291.92409      0.040035964    18.390638      724.27171     -60.998436      663.27328    
   5502000   281.68443      0.040035964    18.684764      698.86683     -67.044658      631.82217    
   5503000   297.78141      0.040035964    19.36758       738.80389     -63.34743       675.45646    
   5504000   311.83227      0.040035964    26.039398      773.66446     -64.869871      708.79459    
   5505000   296.01854      0.040035964    21.781278      734.43017     -63.612878      670.81729    
   5506000   301.46693      0.040035964    15.603824      747.94775     -66.058786      681.88897    
   5507000   306.67427      0.040035964    16.509505      760.86732     -61.93496       698.93236    
   5508000   292.93337      0.040035964    30.37777       726.77577     -54.071428      672.70434    
   5509000   287.91653      0.040035964    24.880396      714.32885     -57.09614       657.23271    
   5510000   312.03811      0.040035964    17.456494      774.17516     -51.350399      722.82476    
   5511000   298.30527      0.040035964    14.051197      740.1036      -52.087296      688.0163     
   5512000   282.98719      0.040035964    30.51914       702.09902     -54.520315      647.57871    
   5513000   305.20943      0.040035964    18.111864      757.23301     -51.84339       705.38962    
   5514000   302.66276      0.040035964    4.2392408      750.91464     -58.934262      691.98038    
   5515000   295.40008      0.040035964    37.891633      732.89573     -63.554008      669.34172    
   5516000   307.32637      0.040035964    28.859141      762.48519     -62.579036      699.90616    
   5517000   302.89354      0.040035964    11.596818      751.48723     -65.423131      686.0641     
   5518000   279.72353      0.040035964    36.236046      694.0018      -76.160918      617.84088    
   5519000   295.53124      0.040035964    27.478502      733.22114     -68.119283      665.10186    
   5520000   299.34515      0.040035964    21.707111      742.68356     -70.520774      672.16279    
   5521000   310.09665      0.040035964    19.31748       769.35832     -67.213459      702.14487    
   5522000   304.21228      0.040035964    20.147012      754.75905     -69.581359      685.17769    
   5523000   300.96749      0.040035964    13.018235      746.70864     -72.002118      674.70652    
   5524000   299.94923      0.040035964    20.439208      744.18231     -73.275818      670.90649    
   5525000   308.18563      0.040035964    32.82152       764.61704     -69.02595       695.59109    
   5526000   293.21002      0.040035964    21.952972      727.46215     -64.695985      662.76616    
   5527000   293.46389      0.040035964    17.101602      728.09201     -67.99          660.10201    
   5528000   300.7865       0.040035964    20.691808      746.2596      -71.68228       674.57732    
   5529000   310.62889      0.040035964    28.235981      770.67884     -67.386043      703.2928     
   5530000   288.38438      0.040035964    15.042904      715.48959     -69.912674      645.57692    
   5531000   286.78274      0.040035964    11.502011      711.51589     -65.548006      645.96789    
   5532000   296.63963      0.040035964    22.214871      735.9711      -61.771051      674.20005    
   5533000   306.07631      0.040035964    22.78425       759.38376     -67.754368      691.62939    
   5534000   301.77575      0.040035964    25.066665      748.71395     -69.242601      679.47135    
   5535000   291.2913       0.040035964    16.438791      722.70175     -67.185607      655.51615    
   5536000   301.17461      0.040035964    10.607469      747.22251     -66.935351      680.28716    
   5537000   307.34785      0.040035964    20.245061      762.53848     -80.586207      681.95227    
   5538000   300.93021      0.040035964    19.555981      746.61615     -89.211898      657.40426    
   5539000   287.96516      0.040035964    15.837315      714.44951     -90.469035      623.98048    
   5540000   293.31907      0.040035964    18.354202      727.73269     -82.597762      645.13493    
   5541000   308.94901      0.040035964    21.435702      766.51102     -80.147614      686.3634     
   5542000   285.9833       0.040035964    14.851237      709.53246     -80.530323      629.00213    
   5543000   293.85081      0.040035964    15.804905      729.05197     -86.159521      642.89244    
   5544000   309.85019      0.040035964    25.745628      768.74685     -93.908583      674.83827    
   5545000   298.1503       0.040035964    20.802977      739.71911     -84.838564      654.88055    
   5546000   296.44487      0.040035964    12.846375      735.4879      -79.994829      655.49307    
   5547000   304.69627      0.040035964    23.897266      755.95984     -86.683734      669.27611    
   5548000   301.40155      0.040035964    22.62816       747.78555     -84.664589      663.12096    
   5549000   290.34673      0.040035964    20.233951      720.35825     -94.175285      626.18297    
   5550000   294.91511      0.040035964    17.635793      731.69252     -91.564507      640.12801    
   5551000   310.803        0.040035964    25.276693      771.1108      -88.408672      682.70213    
   5552000   298.72236      0.040035964    29.313415      741.13841     -89.85682       651.28159    
   5553000   309.09401      0.040035964    19.19184       766.87076     -86.743432      680.12733    
   5554000   300.524        0.040035964    16.099088      745.60833     -90.220263      655.38807    
   5555000   289.24105      0.040035964    20.425749      717.61501     -89.449622      628.16539    
   5556000   298.41202      0.040035964    45.01556       740.36845     -94.076294      646.29215    
   5557000   315.29664      0.040035964    15.962378      782.25965     -84.748201      697.51145    
   5558000   303.14631      0.040035964    18.22858       752.11435     -78.671939      673.44242    
   5559000   298.70537      0.040035964    18.333242      741.09627     -81.891984      659.20429    
   5560000   295.83151      0.040035964    22.392244      733.96613     -85.349284      648.61685    
   5561000   302.48283      0.040035964    20.456466      750.46824     -77.522448      672.94579    
   5562000   309.02939      0.040035964    18.764489      766.71044     -80.615231      686.09521    
   5563000   295.02122      0.040035964    17.778527      731.95578     -83.4355        648.52028    
   5564000   305.21563      0.040035964    20.053333      757.24839     -81.482672      675.76572    
   5565000   313.27923      0.040035964    23.77977       777.2544      -73.045475      704.20892    
   5566000   306.008        0.040035964    16.711205      759.21427     -87.015181      672.19909    
   5567000   283.26428      0.040035964    16.86901       702.78648     -86.221453      616.56503    
   5568000   279.37326      0.040035964    14.14868       693.13277     -80.337597      612.79517    
   5569000   314.18152      0.040035964    15.190466      779.49301     -69.144156      710.34885    
   5570000   313.26223      0.040035964    22.157427      777.21224     -70.207825      707.00441    
   5571000   293.50158      0.040035964    20.945536      728.18551     -72.982656      655.20286    
   5572000   305.71121      0.040035964    16.615376      758.47793     -68.112863      690.36506    
   5573000   318.92714      0.040035964    19.857795      791.26703     -70.560403      720.70663    
   5574000   286.20957      0.040035964    19.703552      710.09384     -70.040971      640.05287    
   5575000   297.20761      0.040035964    19.919161      737.38027     -63.26849       674.11178    
   5576000   315.47406      0.040035964    25.91863       782.69984     -70.779987      711.91985    
   5577000   302.85873      0.040035964    37.019014      751.40085     -69.321044      682.07981    
   5578000   290.89484      0.040035964    31.163364      721.71812     -74.52599       647.19213    
   5579000   289.80095      0.040035964    9.8529653      719.00415     -68.032802      650.97135    
   5580000   311.58963      0.040035964    19.76006       773.06246     -72.255098      700.80736    
   5581000   302.10805      0.040035964    31.294487      749.53841     -71.258611      678.2798     
   5582000   290.27696      0.040035964    10.667153      720.18515     -73.769919      646.41523    
   5583000   306.04644      0.040035964    22.164997      759.30967     -69.958865      689.3508     
   5584000   304.15402      0.040035964    26.37963       754.61452     -67.406492      687.20803    
   5585000   315.29271      0.040035964    25.480613      782.2499      -63.403215      718.84669    
   5586000   292.05925      0.040035964    17.195129      724.60706     -61.503375      663.10369    
   5587000   302.31435      0.040035964   -1.9631113      750.05023     -66.940937      683.10929    
   5588000   311.43856      0.040035964    32.84407       772.68766     -67.082085      705.60558    
   5589000   292.62461      0.040035964    20.762841      726.00973     -64.533056      661.47668    
   5590000   298.88251      0.040035964    17.960892      741.53574     -63.635043      677.9007     
   5591000   305.54857      0.040035964    22.163024      758.07443     -69.691199      688.38323    
   5592000   289.42703      0.040035964    18.553535      718.07643     -68.50599       649.57044    
   5593000   282.62687      0.040035964    21.271523      701.20504     -51.723896      649.48115    
   5594000   308.48686      0.040035964    16.806539      765.3644      -57.387836      707.97656    
   5595000   297.57138      0.040035964    22.87969       738.2828      -63.912712      674.37009    
   5596000   293.88667      0.040035964    36.678061      729.14093     -64.496708      664.64423    
   5597000   305.79184      0.040035964    21.027328      758.67799     -67.233939      691.44405    
   5598000   291.79459      0.040035964   -2.8678509      723.95042     -65.732294      658.21812    
   5599000   307.84631      0.040035964    21.082634      763.77518     -71.596271      692.17891    
   5600000   308.39192      0.040035964    27.499959      765.12886     -64.88203       700.24683    
   5601000   303.78054      0.040035964    19.156112      753.6879      -64.638351      689.04955    
   5602000   293.16544      0.040035964    12.652102      727.35153     -61.199405      666.15212    
   5603000   300.27527      0.040035964    17.239902      744.99121     -67.56659       677.42462    
   5604000   318.60846      0.040035964    19.530194      790.47638     -77.498623      712.97776    
   5605000   299.88476      0.040035964    32.254567      744.02236     -65.677427      678.34493    
   5606000   291.13556      0.040035964    13.057586      722.31534     -67.285538      655.0298     
   5607000   308.69627      0.040035964    12.228955      765.88396     -69.493653      696.39031    
   5608000   315.10687      0.040035964    28.507677      781.78882     -67.233051      714.55577    
   5609000   292.16783      0.040035964    29.305618      724.87644     -69.115286      655.76116    
   5610000   289.53361      0.040035964    23.643429      718.34086     -70.327085      648.01378    
   5611000   293.15555      0.040035964    10.935699      727.32699     -69.983337      657.34366    
   5612000   312.68839      0.040035964    18.527823      775.7885      -65.837142      709.95136    
   5613000   302.87691      0.040035964    23.381515      751.44596     -70.172685      681.27328    
   5614000   297.34442      0.040035964    23.575568      737.71969     -67.496733      670.22296    
   5615000   301.55683      0.040035964    19.358377      748.17082     -64.542532      683.62828    
   5616000   288.4095       0.040035964    19.928527      715.55192     -61.693443      653.85848    
   5617000   297.11836      0.040035964    28.508894      737.15885     -59.047344      678.11151    
   5618000   301.45692      0.040035964    7.308274       747.92293     -68.730039      679.19289    
   5619000   298.88201      0.040035964    10.675583      741.53451     -67.674167      673.86035    
   5620000   300.65437      0.040035964    23.910725      745.93178     -64.219254      681.71252    
   5621000   297.93755      0.040035964    33.842034      739.19128     -64.553564      674.63771    
   5622000   305.11729      0.040035964    20.2475        757.00441     -72.241514      684.76289    
   5623000   293.22946      0.040035964    6.814082       727.51037     -69.034333      658.47604    
   5624000   300.92667      0.040035964    24.339271      746.60737     -58.78589       687.82148    
   5625000   295.76539      0.040035964    28.933138      733.80209     -63.72763       670.07446    
   5626000   302.18784      0.040035964    20.331437      749.73637     -67.181465      682.55491    
   5627000   289.7029       0.040035964    14.621464      718.76088     -64.492025      654.26885    
   5628000   295.64997      0.040035964    35.583615      733.51574     -61.470887      672.04485    
   5629000   299.54887      0.040035964    23.640096      743.189       -61.068305      682.1207     
   5630000   288.05873      0.040035964   -25.709443      714.68165     -63.582479      651.09917    
   5631000   299.75955      0.040035964    6.7807265      743.71171     -60.537514      683.1742     
   5632000   296.06272      0.040035964    10.283062      734.53976     -61.341574      673.19819    
   5633000   304.09648      0.040035964    27.227765      754.47175     -59.439771      695.03198    
   5634000   310.20013      0.040035964    27.482663      769.61506     -60.309361      709.3057     
   5635000   289.63664      0.040035964    1.7380977      718.5965      -66.078912      652.51759    
   5636000   289.29787      0.040035964    12.050029      717.75599     -56.35154       661.40445    
   5637000   318.93491      0.040035964    31.405855      791.2863      -58.578393      732.70791    
   5638000   304.63308      0.040035964    5.9461405      755.80306     -58.218252      697.58481    
   5639000   288.12798      0.040035964    11.073092      714.85346     -55.069745      659.78372    
   5640000   292.4939       0.040035964    21.758318      725.68543     -56.435098      669.25033    
   5641000   311.98818      0.040035964    21.708376      774.05128     -60.898493      713.15279    
   5642000   315.22242      0.040035964    11.251758      782.07552     -62.997681      719.07784    
   5643000   301.76328      0.040035964   -13.226451      748.68301     -61.019043      687.66396    
   5644000   296.70261      0.040035964    19.852285      736.12735     -63.880018      672.24733    
   5645000   310.69849      0.040035964    23.877576      770.85151     -58.458222      712.39329    
   5646000   300.90825      0.040035964   -0.54031904     746.56165     -60.827571      685.73408    
   5647000   298.45351      0.040035964   -15.978352      740.47138     -63.774409      676.69697    
   5648000   296.28863      0.040035964    19.813928      735.10027     -57.617281      677.48299    
   5649000   298.52515      0.040035964    48.496631      740.64912     -64.364027      676.28509    
   5650000   304.01597      0.040035964    24.122006      754.272       -60.091719      694.18028    
   5651000   282.08612      0.040035964    3.4531152      699.86344     -65.891654      633.97178    
   5652000   301.67939      0.040035964    23.574018      748.47488     -65.432219      683.04266    
   5653000   312.93348      0.040035964    26.73761       776.39659     -65.13146       711.26513    
   5654000   289.83196      0.040035964    14.984438      719.08108     -60.537772      658.54331    
   5655000   292.22821      0.040035964    21.327217      725.02626     -61.888921      663.13734    
   5656000   307.19393      0.040035964    30.772144      762.1566      -65.212816      696.94379    
   5657000   302.63846      0.040035964    13.111314      750.85437     -68.542764      682.31161    
   5658000   290.85554      0.040035964    18.980651      721.6206      -63.556339      658.06426    
   5659000   292.26243      0.040035964    24.543623      725.11113     -65.568744      659.54239    
   5660000   310.35861      0.040035964    17.958742      770.00827     -69.942471      700.0658     
   5661000   299.88422      0.040035964    20.307675      744.02102     -70.378529      673.64249    
   5662000   285.09596      0.040035964    20.517397      707.33095     -76.472299      630.85865    
   5663000   295.93683      0.040035964    18.68531       734.22743     -71.117386      663.11004    
   5664000   306.41787      0.040035964    20.75268       760.23119     -69.320635      690.91055    
   5665000   302.22553      0.040035964    17.229299      749.82988     -73.081098      676.74878    
   5666000   299.26484      0.040035964    22.53511       742.48433     -78.42632       664.05801    
   5667000   294.0129       0.040035964    22.116541      729.45412     -76.918271      652.53585    
   5668000   316.40166      0.040035964    7.3530497      785.00125     -76.72107       708.28017    
   5669000   300.94408      0.040035964    16.041133      746.65055     -74.497177      672.15337    
   5670000   291.37874      0.040035964    24.209064      722.91869     -80.107338      642.81135    
   5671000   305.8626       0.040035964    22.559241      758.85353     -80.962265      677.89127    
   5672000   310.13611      0.040035964    13.917173      769.45623     -76.682134      692.7741     
   5673000   296.96186      0.040035964    21.516013      736.77055     -82.02867       654.74188    
   5674000   313.70221      0.040035964    26.604332      778.30383     -75.968589      702.33525    
   5675000   288.80326      0.040035964    20.772428      716.52885     -79.793623      636.73522    
   5676000   297.34869      0.040035964    21.643576      737.73031     -77.958996      659.77131    
   5677000   313.23182      0.040035964    16.320413      777.13678     -76.545729      700.59105    
   5678000   298.64416      0.040035964    23.896664      740.9444      -74.684459      666.25994    
   5679000   298.67562      0.040035964    18.047766      741.02244     -75.737746      665.28469    
   5680000   315.79169      0.040035964    19.087454      783.48788     -74.068942      709.41894    
   5681000   302.34378      0.040035964    22.433229      750.12324     -73.345004      676.77824    
   5682000   291.1022       0.040035964    19.870909      722.23258     -67.330415      654.90217    
   5683000   309.46833      0.040035964    18.499099      767.79946     -64.158291      703.64117    
   5684000   292.30985      0.040035964    12.816018      725.22879     -61.563166      663.66562    
   5685000   299.7026       0.040035964    21.28137       743.57041     -70.643431      672.92698    
   5686000   292.73103      0.040035964    22.288549      726.27376     -58.819419      667.45435    
   5687000   307.70793      0.040035964    18.207722      763.43185     -62.850535      700.58132    
   5688000   306.0266       0.040035964    19.127711      759.26042     -67.201968      692.05845    
   5689000   287.88856      0.040035964    23.460694      714.25946     -64.017172      650.24229    
   5690000   313.03559      0.040035964    14.739498      776.64993     -67.330676      709.31925    
   5691000   304.98281      0.040035964    22.239306      756.67076     -65.738522      690.93223    
   5692000   294.385        0.040035964    20.07625       730.37729     -69.926116      660.45118    
   5693000   295.97562      0.040035964    22.402053      734.32367     -77.635336      656.68833    
   5694000   313.23618      0.040035964    22.852119      777.1476      -78.693118      698.45448    
   5695000   307.50193      0.040035964    15.626955      762.92076     -82.74437       680.17639    
   5696000   295.85083      0.040035964    19.113636      734.01407     -79.169725      654.84435    
   5697000   269.45144      0.040035964    16.523672      668.51645     -77.312273      591.20418    
   5698000   297.84765      0.040035964    25.954321      738.96823     -66.912688      672.05554    
   5699000   300.67075      0.040035964    19.178131      745.97242     -75.571075      670.40134    
   5700000   308.88668      0.040035964    19.245625      766.35638     -76.560588      689.79579    
   5701000   290.56147      0.040035964    18.145144      720.89102     -73.915955      646.97506    
   5702000   294.84948      0.040035964    18.50669       731.52968     -69.933785      661.5959     
   5703000   307.94206      0.040035964    18.384502      764.01273     -62.164914      701.84782    
   5704000   307.7042       0.040035964    21.810854      763.4226      -63.55015       699.87245    
   5705000   290.52983      0.040035964    21.538184      720.81253     -71.76607       649.04646    
   5706000   302.11542      0.040035964    19.971304      749.55669     -69.282188      680.2745     
   5707000   290.31473      0.040035964    21.342018      720.27884     -73.24545       647.03339    
   5708000   304.15535      0.040035964    12.053685      754.61781     -66.653522      687.96428    
   5709000   304.70863      0.040035964    19.261532      755.9905      -64.665317      691.32518    
   5710000   301.36712      0.040035964    25.732298      747.70012     -63.875071      683.82505    
   5711000   298.65279      0.040035964    9.4859006      740.9658      -68.190042      672.77576    
   5712000   313.91885      0.040035964   -7.0861754      778.84131     -67.52942       711.31189    
   5713000   303.67293      0.040035964    23.566207      753.4209      -60.235079      693.18583    
   5714000   288.68244      0.040035964    20.714394      716.2291      -55.155451      661.07365    
   5715000   297.55513      0.040035964    13.87911       738.24247     -59.346003      678.89647    
   5716000   299.19843      0.040035964    7.9044369      742.31955     -63.531539      678.78801    
   5717000   307.04878      0.040035964    19.773381      761.7965      -60.463817      701.33268    
   5718000   298.98386      0.040035964    28.053364      741.7872      -54.570178      687.21702    
   5719000   289.60599      0.040035964    18.980534      718.52044     -66.130741      652.3897     
   5720000   309.1686       0.040035964    22.712822      767.05582     -68.304318      698.7515     
   5721000   304.95839      0.040035964    23.539515      756.61018     -64.234923      692.37526    
   5722000   298.88818      0.040035964    21.639676      741.54981     -61.98379       679.56602    
   5723000   299.87066      0.040035964    19.07887       743.98738     -72.863556      671.12383    
   5724000   304.38206      0.040035964    18.580926      755.18028     -62.321043      692.85924    
   5725000   297.69216      0.040035964    18.809948      738.58244     -67.827395      670.75505    
   5726000   298.33235      0.040035964    23.225745      740.17078     -68.469821      671.70096    
   5727000   303.79441      0.040035964    18.627351      753.72229     -68.857874      684.86442    
   5728000   308.09337      0.040035964    11.843435      764.38813     -64.427628      699.9605     
   5729000   298.67653      0.040035964    20.550868      741.02471     -65.959814      675.0649     
   5730000   319.85775      0.040035964    29.078417      793.5759      -58.538473      735.03743    
   5731000   301.92399      0.040035964    21.894772      749.08173     -55.473126      693.6086     
   5732000   293.95724      0.040035964    5.9123617      729.31601     -59.965358      669.35065    
   5733000   288.0517       0.040035964    25.459264      714.6642      -64.383395      650.2808     
   5734000   318.84047      0.040035964    44.35356       791.052       -69.333936      721.71807    
   5735000   312.51299      0.040035964    29.658065      775.35335     -64.198876      711.15447    
   5736000   292.50182      0.040035964    12.725149      725.70509     -70.801344      654.90374    
   5737000   296.99307      0.040035964    8.0946626      736.84799     -72.000999      664.847      
   5738000   301.44534      0.040035964    15.636454      747.8942      -70.708006      677.18619    
   5739000   295.61309      0.040035964    31.785749      733.42423     -73.064755      660.35948    
   5740000   301.54421      0.040035964    20.818473      748.13951     -74.191219      673.94829    
   5741000   291.28323      0.040035964    21.035765      722.68173     -71.19098       651.49075    
   5742000   301.82174      0.040035964    18.899149      748.82806     -69.835765      678.9923     
   5743000   303.12222      0.040035964    21.385028      752.05457     -68.865331      683.18924    
   5744000   296.34702      0.040035964    13.691181      735.24512     -71.476784      663.76834    
   5745000   296.49456      0.040035964    21.349241      735.61117     -76.222343      659.38882    
   5746000   310.85196      0.040035964    21.132039      771.23229     -75.184889      696.0474     
   5747000   295.71967      0.040035964    20.823687      733.68866     -81.939359      651.7493     
   5748000   297.62678      0.040035964    21.172128      738.42025     -84.497797      653.92246    
   5749000   297.46712      0.040035964    19.107818      738.02411     -76.467907      661.55621    
   5750000   312.14404      0.040035964    19.376948      774.43796     -77.121732      697.31623    
   5751000   298.2235       0.040035964    24.806725      739.90073     -68.295596      671.60513    
   5752000   290.97253      0.040035964    16.739836      721.91088     -71.153986      650.75689    
   5753000   309.28175      0.040035964    19.35152       767.33655     -70.482118      696.85444    
   5754000   298.72703      0.040035964    21.169919      741.14999     -66.581775      674.56822    
   5755000   293.37164      0.040035964    18.755142      727.86312     -75.119475      652.74365    
   5756000   298.45352      0.040035964    20.979238      740.47142     -68.411789      672.05963    
   5757000   311.88586      0.040035964    19.105076      773.79741     -66.036732      707.76067    
   5758000   288.4526       0.040035964    21.497848      715.65884     -65.638138      650.0207     
   5759000   281.56274      0.040035964    27.902788      698.56491     -66.65069       631.91422    
   5760000   307.06739      0.040035964    16.26753       761.84266     -68.665901      693.17675    
   5761000   313.58175      0.040035964    17.503213      778.00496     -67.962139      710.04282    
   5762000   301.49129      0.040035964    22.459863      748.00819     -73.70062       674.30757    
   5763000   290.72613      0.040035964    16.993407      721.29953     -63.435771      657.86376    
   5764000   312.29501      0.040035964    19.147293      774.81253     -68.93046       705.88207    
   5765000   318.98292      0.040035964    24.00052       791.40543     -66.050962      725.35446    
   5766000   297.24289      0.040035964    20.428576      737.46779     -62.898406      674.56939    
   5767000   300.61021      0.040035964    17.356529      745.82222     -67.961694      677.86052    
   5768000   300.18157      0.040035964    24.084189      744.75874     -66.515294      678.24345    
   5769000   301.07065      0.040035964    22.379605      746.96459     -66.169645      680.79494    
   5770000   296.70827      0.040035964    8.587675       736.14141     -64.556184      671.58522    
   5771000   305.06415      0.040035964    21.319378      756.87256     -59.62811       697.24445    
   5772000   292.73571      0.040035964    22.976777      726.28537     -62.755727      663.52965    
   5773000   297.00032      0.040035964    14.918275      736.86597     -65.254398      671.61157    
   5774000   293.141        0.040035964    21.305167      727.2909      -58.855971      668.43493    
   5775000   301.97097      0.040035964    21.017939      749.1983      -70.820321      678.37798    
   5776000   289.87919      0.040035964    16.764451      719.19825     -64.565609      654.63264    
   5777000   300.75789      0.040035964    22.396194      746.18861     -65.860551      680.32806    
   5778000   313.19314      0.040035964    21.082232      777.04082     -64.614288      712.42653    
   5779000   299.44565      0.040035964    18.343736      742.93291     -67.549807      675.3831     
   5780000   297.96501      0.040035964    24.70971       739.2594      -61.072768      678.18663    
   5781000   301.76119      0.040035964    30.765196      748.67782     -67.785095      680.89273    
   5782000   294.06754      0.040035964    20.195553      729.58966     -68.6936        660.89606    
   5783000   299.93077      0.040035964    12.504126      744.1365      -67.832279      676.30422    
   5784000   293.26326      0.040035964    20.486673      727.59423     -66.851124      660.74311    
   5785000   305.50438      0.040035964    25.97733       757.96478     -64.761302      693.20348    
   5786000   299.50085      0.040035964    18.083745      743.06986     -68.356886      674.71298    
   5787000   306.14025      0.040035964    19.164139      759.54239     -68.324391      691.218      
   5788000   308.90007      0.040035964    23.786778      766.38959     -69.200247      697.18934    
   5789000   280.11029      0.040035964    21.350749      694.96135     -66.919826      628.04152    
   5790000   294.90216      0.040035964    19.21571       731.66038     -70.317234      661.34314    
   5791000   312.10315      0.040035964    19.044611      774.33651     -68.298602      706.03791    
   5792000   301.12906      0.040035964    18.960025      747.1095      -72.825316      674.28418    
   5793000   295.83686      0.040035964    19.517315      733.97941     -66.219525      667.75988    
   5794000   301.53089      0.040035964    21.582315      748.10644     -65.680694      682.42575    
   5795000   298.56927      0.040035964    21.850428      740.75858     -60.200396      680.55818    
   5796000   304.06588      0.040035964    19.764916      754.39582     -67.077944      687.31787    
   5797000   314.32437      0.040035964    27.284404      779.84743     -64.832724      715.01471    
   5798000   299.00667      0.040035964    22.548311      741.8438      -69.338471      672.50533    
   5799000   297.54398      0.040035964    21.89758       738.21481     -69.853462      668.36135    
   5800000   313.93923      0.040035964    25.39803       778.89189     -72.002162      706.88973    
   5801000   303.97609      0.040035964    20.790013      754.17305     -68.584954      685.5881     
   5802000   297.09804      0.040035964    21.197934      737.10843     -71.518738      665.58969    
   5803000   312.20087      0.040035964    18.760421      774.57897     -68.626854      705.95211    
   5804000   299.17103      0.040035964    15.023942      742.25158     -67.086463      675.16512    
   5805000   298.90816      0.040035964    19.715173      741.59938     -65.294314      676.30507    
   5806000   295.37543      0.040035964    13.98476       732.83457     -65.642923      667.19165    
   5807000   293.13747      0.040035964    20.999801      727.28215     -73.723822      653.55833    
   5808000   292.89697      0.040035964    19.445292      726.68545     -69.341035      657.34442    
   5809000   296.15799      0.040035964    12.011152      734.77613     -64.431459      670.34467    
   5810000   302.12854      0.040035964    22.507979      749.58923     -69.530849      680.05838    
   5811000   312.87376      0.040035964    20.568899      776.24843     -71.764161      704.48427    
   5812000   294.07446      0.040035964    18.920034      729.60684     -71.078121      658.52872    
   5813000   302.28345      0.040035964    21.409406      749.97358     -68.670248      681.30334    
   5814000   298.94469      0.040035964    20.147927      741.69002     -70.927448      670.76257    
   5815000   296.52998      0.040035964    21.970742      735.69904     -69.762515      665.93653    
   5816000   309.46255      0.040035964    20.475469      767.78511     -66.386733      701.39838    
   5817000   305.95771      0.040035964    25.915384      759.08952     -69.719181      689.37034    
   5818000   297.92651      0.040035964    23.29954       739.16389     -68.377179      670.78671    
   5819000   296.94128      0.040035964    15.740077      736.71949     -65.847134      670.87236    
   5820000   305.58604      0.040035964    15.375304      758.16738     -72.27592       685.89146    
   5821000   312.73052      0.040035964    16.143548      775.89305     -75.713223      700.17983    
   5822000   301.5099       0.040035964    25.16216       748.05437     -75.507498      672.54688    
   5823000   285.66573      0.040035964    12.6367        708.74455     -73.699768      635.04478    
   5824000   304.58396      0.040035964    13.789483      755.68119     -77.234145      678.44705    
   5825000   316.98815      0.040035964    23.776526      786.45634     -74.922551      711.53379    
   5826000   299.74301      0.040035964    24.985734      743.67067     -77.631685      666.03899    
   5827000   292.1123       0.040035964    20.797752      724.73868     -73.111529      651.62715    
   5828000   304.29336      0.040035964    19.895992      754.96021     -72.503443      682.45677    
   5829000   314.97259      0.040035964    21.680866      781.45569     -77.014797      704.44089    
   5830000   307.95985      0.040035964    21.650603      764.05688     -73.308173      690.7487     
   5831000   299.9738       0.040035964    11.398227      744.24328     -76.109563      668.13371    
   5832000   301.56726      0.040035964    20.705298      748.1967      -77.57729       670.61941    
   5833000   297.57832      0.040035964    24.825224      738.30002     -71.52195       666.77807    
   5834000   302.67561      0.040035964    19.008741      750.94653     -72.071612      678.87492    
   5835000   303.29767      0.040035964    20.447518      752.48989     -71.357671      681.13222    
   5836000   292.20886      0.040035964    9.6124787      724.97824     -67.181815      657.79642    
   5837000   306.60171      0.040035964    17.167396      760.68731     -70.423415      690.26389    
   5838000   297.13466      0.040035964    22.398067      737.19928     -65.521638      671.67765    
   5839000   288.60807      0.040035964    19.374775      716.04457     -64.955562      651.08901    
   5840000   303.143        0.040035964    22.377706      752.10614     -70.075044      682.0311     
   5841000   303.09418      0.040035964    22.519859      751.98502     -72.25386       679.73116    
   5842000   304.03925      0.040035964    20.332626      754.32976     -71.837549      682.49222    
   5843000   299.5012       0.040035964    8.1481344      743.07074     -72.413505      670.65723    
   5844000   309.17219      0.040035964    11.221506      767.06472     -67.528597      699.53612    
   5845000   294.72893      0.040035964    25.700473      731.23061     -70.918507      660.3121     
   5846000   305.55545      0.040035964    20.495676      758.09149     -65.32924       692.76225    
   5847000   294.90622      0.040035964    17.582233      731.67046     -67.582213      664.08825    
   5848000   300.61079      0.040035964    20.378829      745.82365     -62.326406      683.49724    
   5849000   300.92493      0.040035964    22.205229      746.60304     -60.553678      686.04936    
   5850000   293.72742      0.040035964    14.911319      728.74583     -64.447664      664.29817    
   5851000   312.17374      0.040035964    11.22192       774.51166     -66.448886      708.06278    
   5852000   296.74694      0.040035964    19.841662      736.23733     -63.352792      672.88454    
   5853000   317.69602      0.040035964    28.568446      788.21257     -60.366436      727.84613    
   5854000   301.52133      0.040035964    18.669422      748.08274     -62.649955      685.43279    
   5855000   288.22741      0.040035964    20.76197       715.10016     -62.432452      652.6677     
   5856000   305.81447      0.040035964    19.748867      758.73413     -66.575928      692.1582     
   5857000   302.69661      0.040035964    18.841356      750.99863     -72.944781      678.05385    
   5858000   288.31518      0.040035964    18.387321      715.31792     -67.909987      647.40793    
   5859000   303.43901      0.040035964    22.71156       752.84055     -63.121717      689.71883    
   5860000   324.15503      0.040035964    24.903898      804.23758     -64.243947      739.99363    
   5861000   296.98643      0.040035964    19.59941       736.83153     -62.821834      674.0097     
   5862000   296.34642      0.040035964    22.419449      735.24365     -67.305138      667.93851    
   5863000   288.15259      0.040035964    22.439501      714.91452     -62.074699      652.83982    
   5864000   317.75634      0.040035964    20.438332      788.36225     -57.425151      730.93709    
   5865000   307.97591      0.040035964    11.87728       764.09673     -53.066143      711.03058    
   5866000   291.04061      0.040035964    16.256856      722.07976     -56.820347      665.25942    
   5867000   281.24425      0.040035964    30.997952      697.77474     -54.308378      643.46636    
   5868000   305.05115      0.040035964    24.36571       756.84032     -65.318327      691.52199    
   5869000   311.34939      0.040035964    14.729418      772.46642     -63.098616      709.36781    
   5870000   291.57572      0.040035964    15.248072      723.4074      -68.789157      654.61825    
   5871000   283.71868      0.040035964    34.539954      703.91387     -64.214251      639.69962    
   5872000   309.87328      0.040035964    52.508156      768.80416     -65.006262      703.7979     
   5873000   304.19542      0.040035964    8.8999182      754.71723     -64.947444      689.76979    
   5874000   297.36971      0.040035964    7.2223666      737.78246     -62.709703      675.07275    
   5875000   301.5679       0.040035964    19.19394       748.19827     -63.942492      684.25578    
   5876000   306.2817       0.040035964    30.403901      759.89335     -68.755801      691.13755    
   5877000   313.16795      0.040035964    26.084049      776.97832     -74.585902      702.39242    
   5878000   289.19519      0.040035964    10.619733      717.50125     -79.103476      638.39777    
   5879000   300.99583      0.040035964    30.805769      746.77896     -78.529522      668.24944    
   5880000   305.46688      0.040035964    26.868427      757.87175     -75.051838      682.81991    
   5881000   300.71204      0.040035964    15.003019      746.07486     -72.535256      673.5396     
   5882000   297.1564       0.040035964    10.957352      737.25322     -74.385012      662.86821    
   5883000   287.57999      0.040035964    31.325038      713.49387     -70.428721      643.06515    
   5884000   288.41256      0.040035964    37.754927      715.55951     -79.172998      636.38651    
   5885000   313.26855      0.040035964    24.224281      777.22791     -68.643181      708.58472    
   5886000   299.14644      0.040035964    3.709207       742.19056     -76.02184       666.16872    
   5887000   285.23501      0.040035964    26.960691      707.67591     -69.459744      638.21617    
   5888000   302.71728      0.040035964    25.829865      751.04992     -65.974585      685.07534    
   5889000   313.32551      0.040035964    13.444959      777.36922     -70.989962      706.37926    
   5890000   288.89566      0.040035964    22.003391      716.75809     -66.359165      650.39893    
   5891000   300.76758      0.040035964    31.671175      746.21266     -65.187316      681.02534    
   5892000   305.56251      0.040035964    16.571177      758.109       -64.792803      693.3162     
   5893000   282.55803      0.040035964    17.072528      701.03425     -63.793211      637.24104    
   5894000   282.4866       0.040035964    17.986783      700.85705     -60.08497       640.77208    
   5895000   293.04982      0.040035964    35.001636      727.06468     -66.095921      660.96876    
   5896000   305.62205      0.040035964    18.135427      758.25672     -65.557372      692.69935    
   5897000   304.47681      0.040035964    17.793364      755.41535     -65.588845      689.82651    
   5898000   280.69677      0.040035964    19.89831       696.41642     -64.056781      632.35963    
   5899000   300.75022      0.040035964    16.908502      746.16958     -73.990687      672.1789     
   5900000   287.12342      0.040035964    25.294569      712.36111     -65.42529       646.93582    
   5901000   304.15398      0.040035964    22.505858      754.61441     -66.557692      688.05672    
   5902000   299.7988       0.040035964    14.68136       743.80909     -69.407351      674.40174    
   5903000   295.24955      0.040035964    17.014303      732.52227     -68.919363      663.60291    
   5904000   303.53653      0.040035964    26.712077      753.08251     -67.292387      685.79012    
   5905000   307.31003      0.040035964    20.344643      762.44466     -65.962669      696.48199    
   5906000   294.96686      0.040035964    23.604362      731.82091     -67.191611      664.6293     
   5907000   290.67133      0.040035964    19.744238      721.16358     -66.078633      655.08495    
   5908000   306.14188      0.040035964    21.176529      759.54645     -69.791578      689.75488    
   5909000   306.28324      0.040035964    21.220521      759.89716     -69.920204      689.97695    
   5910000   305.46598      0.040035964    20.612935      757.86953     -67.974051      689.89548    
   5911000   303.97315      0.040035964    20.821886      754.16577     -72.978074      681.1877     
   5912000   297.48196      0.040035964    17.930543      738.06093     -65.45604       672.60489    
   5913000   306.12225      0.040035964    20.592022      759.49775     -66.323469      693.17428    
   5914000   299.30979      0.040035964    21.169906      742.59584     -65.426278      677.16957    
   5915000   285.63604      0.040035964    16.473126      708.67089     -70.30379       638.3671     
   5916000   300.31068      0.040035964    23.444807      745.07908     -69.219187      675.85989    
   5917000   311.0038       0.040035964    25.347755      771.609       -64.709202      706.8998     
   5918000   310.86153      0.040035964    20.172169      771.25603     -68.850081      702.40595    
   5919000   289.405        0.040035964    19.961745      718.02179     -67.577962      650.44383    
   5920000   294.75953      0.040035964    20.239818      731.30652     -62.588534      668.71799    
   5921000   322.80107      0.040035964    19.47029       800.87836     -65.609         735.26936    
   5922000   300.86794      0.040035964    18.078643      746.46165     -70.432283      676.02937    
   5923000   279.61204      0.040035964    17.201353      693.72519     -62.05623       631.66896    
   5924000   297.62958      0.040035964    15.640392      738.42719     -60.801519      677.62568    
   5925000   306.81801      0.040035964    20.316222      761.22394     -62.116693      699.10725    
   5926000   303.38358      0.040035964    21.878714      752.70302     -70.054155      682.64886    
   5927000   300.00466      0.040035964    20.673339      744.31984     -71.304386      673.01545    
   5928000   290.49251      0.040035964    20.141501      720.71991     -66.887661      653.83225    
   5929000   280.36219      0.040035964    16.693785      695.58631     -66.041658      629.54465    
   5930000   298.25497      0.040035964    17.565226      739.9788      -73.387413      666.59138    
   5931000   299.96774      0.040035964    21.546108      744.22824     -70.942554      673.28569    
   5932000   318.36182      0.040035964    19.879308      789.86445     -73.982278      715.88218    
   5933000   296.41994      0.040035964    19.937648      735.42605     -78.315022      657.11103    
   5934000   286.60161      0.040035964    17.111813      711.06649     -68.910309      642.15618    
   5935000   299.26333      0.040035964    18.41591       742.48058     -68.061635      674.41895    
   5936000   310.8295       0.040035964    22.528204      771.17655     -61.206603      709.96995    
   5937000   299.07633      0.040035964    23.48412       742.01661     -68.808766      673.20784    
   5938000   291.13123      0.040035964    19.148805      722.3046      -66.469595      655.835      
   5939000   309.93596      0.040035964    21.472221      768.95966     -61.317965      707.6417     
   5940000   293.6096       0.040035964    24.678764      728.45352     -60.82067       667.63285    
   5941000   293.92247      0.040035964    19.218652      729.22976     -61.397057      667.8327     
   5942000   312.96842      0.040035964    19.364389      776.48329     -59.455204      717.02808    
   5943000   315.07342      0.040035964    27.058891      781.70585     -58.191174      723.51467    
   5944000   301.72975      0.040035964    20.849953      748.59981     -66.398911      682.2009     
   5945000   290.69885      0.040035964    16.515235      721.23185     -64.800729      656.43112    
   5946000   290.93363      0.040035964    21.203937      721.81436     -60.360224      661.45414    
   5947000   303.21919      0.040035964    19.462375      752.29518     -65.932308      686.36287    
   5948000   296.02272      0.040035964    17.945276      734.44052     -62.354538      672.08598    
   5949000   306.1636       0.040035964    20.75896       759.60033     -60.747685      698.85265    
   5950000   297.70772      0.040035964    19.565982      738.62106     -59.652163      678.9689     
   5951000   303.51404      0.040035964    22.170073      753.02669     -57.40976       695.61693    
   5952000   315.64751      0.040035964    22.965877      783.13016     -59.770313      723.35985    
   5953000   304.41543      0.040035964    19.661733      755.26306     -68.454652      686.80841    
   5954000   304.75882      0.040035964    18.249881      756.11503     -60.278483      695.83655    
   5955000   306.16084      0.040035964    24.071923      759.59348     -63.521663      696.07182    
   5956000   296.12056      0.040035964    19.220061      734.68328     -60.111617      674.57166    
   5957000   301.00315      0.040035964    12.106198      746.79711     -61.700879      685.09623    
   5958000   312.99476      0.040035964    19.703442      776.54863     -58.873691      717.67494    
   5959000   303.77599      0.040035964    19.974449      753.6766      -69.424025      684.25258    
   5960000   287.9464       0.040035964    18.353957      714.40296     -63.412814      650.99015    
   5961000   294.4934       0.040035964    22.54892       730.64623     -62.785929      667.8603     
   5962000   309.59549      0.040035964    25.281973      768.11495     -64.450545      703.6644     
   5963000   315.07506      0.040035964    21.521897      781.70992     -59.960892      721.74902    
   5964000   290.54627      0.040035964    19.575379      720.8533      -56.64663       664.20667    
   5965000   311.52893      0.040035964    21.844536      772.91187     -62.48779       710.42408    
   5966000   302.0442       0.040035964    16.216962      749.37998     -61.60823       687.77175    
   5967000   309.92886      0.040035964    24.023729      768.94204     -61.829855      707.11218    
   5968000   312.40951      0.040035964    22.958575      775.0966      -60.075798      715.02081    
   5969000   293.22645      0.040035964    24.19348       727.5029      -61.781879      665.72102    
   5970000   299.68688      0.040035964    18.864562      743.53142     -60.583884      682.94753    
   5971000   295.50092      0.040035964    21.100846      733.14594     -61.91103       671.23491    
   5972000   313.69692      0.040035964    18.987365      778.2907      -67.557598      710.7331     
   5973000   297.19703      0.040035964    18.770967      737.35402     -71.726307      665.62772    
   5974000   288.48781      0.040035964    19.757303      715.74621     -67.935438      647.81077    
   5975000   298.56384      0.040035964    24.901362      740.74512     -69.96149       670.78363    
   5976000   311.82811      0.040035964    22.341266      773.65414     -80.092255      693.56189    
   5977000   293.84732      0.040035964    13.775809      729.04331     -71.163189      657.88012    
   5978000   301.97034      0.040035964    30.317389      749.19674     -66.676362      682.52038    
   5979000   301.77363      0.040035964    15.415671      748.7087      -64.085305      684.62339    
   5980000   311.19098      0.040035964    17.881795      772.0734      -66.097709      705.97569    
   5981000   297.49564      0.040035964    17.699896      738.09488     -62.857849      675.23703    
   5982000   294.73914      0.040035964    25.569662      731.25592     -64.386197      666.86972    
   5983000   309.00148      0.040035964    23.619536      766.64119     -72.728251      693.91294    
   5984000   307.15054      0.040035964    22.152425      762.04897     -75.008323      687.04064    
   5985000   293.32873      0.040035964    19.4112        727.75667     -77.727754      650.02891    
   5986000   311.16084      0.040035964    27.517259      771.99862     -75.355674      696.64294    
   5987000   302.6651       0.040035964    22.965262      750.92047     -84.451468      666.469      
   5988000   293.46745      0.040035964    12.196982      728.10083     -78.907071      649.19376    
   5989000   303.37677      0.040035964    18.336471      752.68614     -76.109826      676.57631    
   5990000   298.63272      0.040035964    23.049679      740.91602     -77.613309      663.30271    
   5991000   298.02807      0.040035964    18.94179       739.41587     -79.506305      659.90956    
   5992000   294.03385      0.040035964    13.280455      729.50608     -82.701951      646.80413    
   5993000   288.49143      0.040035964    16.278491      715.75519     -81.988605      633.76658    
   5994000   303.1525       0.040035964    24.055978      752.1297      -89.37603       662.75367    
   5995000   305.22713      0.040035964    22.101217      757.27692     -80.681429      676.5955     
   5996000   304.58795      0.040035964    7.4805579      755.69111     -88.116614      667.57449    
   5997000   294.18434      0.040035964    18.623102      729.87945     -78.225839      651.65361    
   5998000   299.04977      0.040035964    25.396692      741.95072     -78.061555      663.88917    
   5999000   306.20978      0.040035964    18.539799      759.7149      -82.224441      677.49046    
   6000000   298.22446      0.040035964    14.884969      739.90311     -77.767955      662.13516    
   6001000   299.68932      0.040035964    17.009855      743.53747     -75.023399      668.51407    
   6002000   300.51383      0.040035964    16.563766      745.5831      -76.341888      669.24122    
   6003000   300.32708      0.040035964    17.777512      745.11977     -73.831689      671.28808    
   6004000   300.77989      0.040035964    24.693703      746.2432      -77.355948      668.88725    
   6005000   293.91525      0.040035964    23.317124      729.21184     -77.968722      651.24312    
   6006000   302.04843      0.040035964    23.211023      749.39047     -80.285217      669.10525    
   6007000   312.41413      0.040035964    23.178404      775.10807     -79.083656      696.02442    
   6008000   297.19835      0.040035964    20.228168      737.35731     -79.64188       657.71543    
   6009000   284.40981      0.040035964    13.738829      705.62858     -77.637008      627.99157    
   6010000   303.76476      0.040035964    19.694608      753.64875     -72.499883      681.14887    
   6011000   303.20327      0.040035964    18.768027      752.25566     -74.143798      678.11186    
   6012000   298.36294      0.040035964    25.324152      740.24667     -68.080413      672.16626    
   6013000   305.67347      0.040035964    30.47901       758.3843      -67.187571      691.19673    
   6014000   311.81462      0.040035964    16.608804      773.62067     -69.174823      704.44585    
   6015000   292.26316      0.040035964    19.211784      725.11295     -74.622736      650.49021    
   6016000   301.77446      0.040035964    20.087101      748.71074     -74.325413      674.38533    
   6017000   324.09729      0.040035964    22.724679      804.09431     -71.525419      732.56889    
   6018000   297.25962      0.040035964    19.918266      737.50932     -64.824407      672.68491    
   6019000   291.65922      0.040035964    21.111627      723.61456     -71.455842      652.15872    
   6020000   297.45727      0.040035964    19.417865      737.99969     -62.955962      675.04373    
   6021000   302.6608       0.040035964    23.9449        750.90979     -67.269768      683.64002    
   6022000   303.74274      0.040035964    20.214047      753.5941      -75.036325      678.55778    
   6023000   302.30194      0.040035964    3.7564529      750.01945     -70.995555      679.0239     
   6024000   291.66508      0.040035964    29.176943      723.6291      -71.904183      651.72492    
   6025000   300.52461      0.040035964    22.982763      745.60984     -63.612006      681.99783    
   6026000   304.05739      0.040035964    18.572068      754.37476     -71.726446      682.64832    
   6027000   302.82244      0.040035964    17.839305      751.31082     -66.072513      685.23831    
   6028000   294.88487      0.040035964    19.227074      731.61749     -60.660418      670.95707    
   6029000   299.86429      0.040035964    23.337401      743.97157     -62.399314      681.57225    
   6030000   307.49041      0.040035964    11.886258      762.89219     -66.934473      695.95771    
   6031000   288.36186      0.040035964    17.650857      715.43372     -72.782307      642.65141    
   6032000   302.19635      0.040035964    26.202357      749.75748     -68.995436      680.76205    
   6033000   289.08936      0.040035964    20.595223      717.23867     -73.990472      643.2482     
   6034000   283.74257      0.040035964    19.744869      703.97313     -74.644464      629.32867    
   6035000   309.2678       0.040035964    22.540261      767.30194     -66.692349      700.60959    
   6036000   312.56527      0.040035964    20.628849      775.48306     -67.678462      707.8046     
   6037000   296.13914      0.040035964    21.700836      734.72938     -65.53112       669.19826    
   6038000   302.37938      0.040035964    16.995735      750.21157     -71.48574       678.72583    
   6039000   311.41122      0.040035964    26.139436      772.61982     -76.733522      695.8863     
   6040000   296.15899      0.040035964    19.684338      734.77861     -72.570116      662.2085     
   6041000   303.92509      0.040035964    2.7317233      754.04654     -76.536137      677.5104     
   6042000   294.36801      0.040035964    32.235582      730.33515     -79.141196      651.19395    
   6043000   295.3637       0.040035964    31.37139       732.80548     -82.738206      650.06728    
   6044000   292.9152       0.040035964    6.5239836      726.73067     -76.421972      650.3087     
   6045000   307.86319      0.040035964    5.2143255      763.81707     -76.911275      686.90579    
   6046000   306.22526      0.040035964    20.92465       759.75331     -74.894133      684.85918    
   6047000   306.65716      0.040035964    31.148624      760.82487     -71.82416       689.00071    
   6048000   297.18153      0.040035964    36.109808      737.31556     -81.105608      656.20995    
   6049000   294.60258      0.040035964    16.678904      730.91711     -75.584512      655.3326     
   6050000   287.20982      0.040035964    15.74301       712.57549     -72.26034       640.31515    
   6051000   310.35501      0.040035964    27.731501      769.99933     -75.060023      694.9393     
   6052000   307.97603      0.040035964    19.547779      764.09702     -75.930315      688.1667     
   6053000   307.62916      0.040035964    23.585035      763.23641     -69.428823      693.80759    
   6054000   297.06491      0.040035964    27.028815      737.02622     -75.289758      661.73646    
   6055000   287.91496      0.040035964    40.81947       714.32495     -83.425978      630.89897    
   6056000   303.29117      0.040035964    8.43617        752.47376     -75.82575       676.64801    
   6057000   309.76954      0.040035964    31.709095      768.54678     -69.450481      699.0963     
   6058000   295.06707      0.040035964    19.277978      732.06952     -70.044754      662.02477    
   6059000   301.66191      0.040035964    17.228009      748.43152     -69.299707      679.13182    
   6060000   311.63144      0.040035964    3.5806168      773.1662      -65.259783      707.90642    
   6061000   306.16381      0.040035964    20.130154      759.60085     -71.221152      688.3797     
   6062000   295.84506      0.040035964    26.401048      733.99974     -71.69217       662.30757    
   6063000   296.62742      0.040035964    22.421002      735.94081     -75.435759      660.50505    
   6064000   306.98378      0.040035964    11.798052      761.63522     -77.293668      684.34156    
   6065000   300.31229      0.040035964    21.106042      745.08306     -80.867009      664.21605    
   6066000   304.10513      0.040035964    20.872904      754.49322     -78.198997      676.29422    
   6067000   313.85193      0.040035964    25.720174      778.67528     -69.638507      709.03678    
   6068000   287.63356      0.040035964    12.718738      713.6268      -72.138275      641.48853    
   6069000   298.54815      0.040035964    7.2601421      740.70619     -62.982763      677.72343    
   6070000   311.47528      0.040035964    19.3334        772.77875     -68.310397      704.46835    
   6071000   305.0919       0.040035964    20.08836       756.94141     -67.913499      689.02791    
   6072000   296.03525      0.040035964    18.825958      734.47161     -71.276989      663.19462    
   6073000   295.4363       0.040035964    19.179477      732.98561     -75.195255      657.79035    
   6074000   316.05772      0.040035964    20.525077      784.1479      -75.446676      708.70123    
   6075000   292.85115      0.040035964    19.062714      726.57179     -71.401483      655.1703     
   6076000   292.57243      0.040035964    16.980505      725.88028     -73.571133      652.30914    
   6077000   295.18913      0.040035964    20.118822      732.37236     -78.284294      654.08806    
   6078000   300.64693      0.040035964    20.459503      745.91332     -77.013526      668.89979    
   6079000   294.5589       0.040035964    18.980849      730.80876     -64.885803      665.92296    
   6080000   299.5967       0.040035964    19.170666      743.30766     -69.701562      673.6061     
   6081000   300.84818      0.040035964    17.257743      746.41264     -72.914846      673.49779    
   6082000   298.96859      0.040035964    14.467193      741.74931     -73.486084      668.26323    
   6083000   299.79665      0.040035964    18.000298      743.80375     -71.376481      672.42726    
   6084000   314.9032       0.040035964    24.993306      781.28352     -68.941977      712.34154    
   6085000   292.17052      0.040035964    25.342248      724.88311     -73.803502      651.07961    
   6086000   296.27667      0.040035964    16.253648      735.07059     -69.832887      665.2377     
   6087000   308.57566      0.040035964    19.079793      765.58473     -66.8931        698.69163    
   6088000   296.75928      0.040035964    28.736158      736.26794     -67.41815       668.8498     
   6089000   290.4076       0.040035964    16.609029      720.50927     -57.315715      663.19356    
   6090000   311.334        0.040035964    21.913589      772.42823     -55.140508      717.28772    
   6091000   298.01601      0.040035964    20.393719      739.38595     -64.180235      675.20571    
   6092000   277.72643      0.040035964    20.132972      689.04693     -63.313741      625.73318    
   6093000   299.67953      0.040035964    22.205207      743.51317     -61.623213      681.88995    
   6094000   318.30294      0.040035964    25.521381      789.71836     -58.059149      731.65921    
   6095000   310.78131      0.040035964    18.903916      771.057       -59.638674      711.41833    
   6096000   296.02375      0.040035964    25.84986       734.44308     -61.66204       672.78104    
   6097000   291.8088       0.040035964    19.624097      723.98568     -63.920104      660.06558    
   6098000   296.92788      0.040035964    25.179397      736.68626     -61.986588      674.69967    
   6099000   309.10702      0.040035964    19.766263      766.90303     -67.796011      699.10702    
   6100000   288.4901       0.040035964    18.54031       715.75189     -63.404871      652.34702    
   6101000   304.19651      0.040035964    22.50148       754.71993     -62.911692      691.80824    
   6102000   309.78877      0.040035964    15.799557      768.59448     -66.904197      701.69028    
   6103000   303.85439      0.040035964    21.039806      753.87111     -66.044855      687.82625    
   6104000   300.5368       0.040035964    20.097585      745.64008     -70.634038      675.00605    
   6105000   300.49072      0.040035964    18.959594      745.52575     -71.049435      674.47631    
   6106000   294.17343      0.040035964    15.8843        729.8524      -73.621799      656.2306     
   6107000   305.23924      0.040035964    21.416513      757.30697     -64.704375      692.6026     
   6108000   302.5478       0.040035964    20.029847      750.62944     -70.469869      680.15957    
   6109000   305.338        0.040035964    19.94019       757.552       -71.36519       686.18681    
   6110000   299.00031      0.040035964    19.274649      741.828       -72.50251       669.32549    
   6111000   297.76227      0.040035964    21.320365      738.7564      -73.110699      665.6457     
   6112000   311.15421      0.040035964    27.181886      771.98216     -72.160708      699.82145    
   6113000   303.62264      0.040035964    21.766602      753.29615     -64.293884      689.00226    
   6114000   300.14902      0.040035964    22.357716      744.67798     -71.17026       673.50772    
   6115000   305.3842       0.040035964    31.367945      757.66661     -66.458419      691.20819    
   6116000   294.86168      0.040035964    56.537474      731.55996     -66.57246       664.9875     
   6117000   302.42297      0.040035964    8.3812082      750.31972     -71.792188      678.52753    
   6118000   298.14347      0.040035964    21.249968      739.70216     -69.034231      670.66793    
   6119000   293.00334      0.040035964    18.861091      726.94935     -63.458805      663.49055    
   6120000   312.2803       0.040035964    24.010067      774.77603     -53.318825      721.4572     
   6121000   304.59543      0.040035964    11.836961      755.70967     -60.570543      695.13912    
   6122000   278.59186      0.040035964   -5.9706415      691.19408     -65.434246      625.75984    
   6123000   295.7862       0.040035964    27.526975      733.85371     -65.813589      668.04012    
   6124000   319.20113      0.040035964    27.464341      791.94681     -62.823521      729.12328    
   6125000   293.66926      0.040035964    2.6570912      728.60154     -60.269941      668.3316     
   6126000   290.97668      0.040035964    31.578997      721.92116     -64.968897      656.95227    
   6127000   310.92314      0.040035964    19.235767      771.40889     -70.965525      700.44336    
   6128000   306.55906      0.040035964    16.789492      760.58149     -63.34159       697.2399     
   6129000   297.0764       0.040035964    6.5876318      737.05474     -65.2452        671.80954    
   6130000   283.72789      0.040035964    45.74957       703.93671     -67.774971      636.16174    
   6131000   315.62581      0.040035964    25.096066      783.07633     -61.717653      721.35868    
   6132000   304.39773      0.040035964    22.162525      755.21915     -59.804491      695.41466    
   6133000   301.37749      0.040035964    21.190157      747.72585     -72.675919      675.04993    
   6134000   306.66273      0.040035964    20.254783      760.83869     -70.361145      690.47755    
   6135000   285.51753      0.040035964    16.676344      708.37687     -76.401465      631.9754     
   6136000   305.86239      0.040035964    23.655004      758.85302     -75.827153      683.02586    
   6137000   313.13829      0.040035964    25.404873      776.90474     -64.10455       712.80019    
   6138000   301.89483      0.040035964    8.6908841      749.00938     -72.408608      676.60077    
   6139000   295.19962      0.040035964    21.266739      732.3984      -66.337542      666.06086    
   6140000   315.64193      0.040035964    29.291725      783.11633     -69.891592      713.22474    
   6141000   316.20955      0.040035964    17.445885      784.52461     -74.310618      710.21399    
   6142000   284.50132      0.040035964    21.484059      705.85562     -68.930013      636.9256     
   6143000   316.26236      0.040035964    20.233041      784.65563     -70.359405      714.29622    
   6144000   309.90503      0.040035964    9.3234182      768.88293     -69.442554      699.44038    
   6145000   298.19856      0.040035964    14.295121      739.83884     -71.14163       668.69721    
   6146000   286.93691      0.040035964    21.791249      711.89838     -66.455365      645.44302    
   6147000   318.41359      0.040035964    27.482103      789.99289     -65.760657      724.23224    
   6148000   307.63498      0.040035964    18.521808      763.25086     -64.476697      698.77416    
   6149000   298.29492      0.040035964    9.3503413      740.07791     -61.841676      678.23624    
   6150000   303.8724       0.040035964    34.740332      753.91581     -56.809311      697.1065     
   6151000   305.73325      0.040035964    17.694077      758.53261     -58.035127      700.49749    
   6152000   295.50305      0.040035964    6.1397746      733.1512      -61.333642      671.81756    
   6153000   298.08243      0.040035964    24.24942       739.55071     -62.683351      676.86736    
   6154000   307.55884      0.040035964    26.038867      763.06196     -66.879542      696.18241    
   6155000   303.06229      0.040035964    20.620057      751.90591     -65.348329      686.55758    
   6156000   292.16888      0.040035964    5.6541916      724.87904     -66.386774      658.49227    
   6157000   304.53589      0.040035964    15.550732      755.56195     -67.871834      687.69011    
   6158000   296.7639       0.040035964    31.72095       736.27943     -74.224577      662.05485    
   6159000   294.13869      0.040035964    17.997333      729.76619     -79.54287       650.22332    
   6160000   293.59941      0.040035964    13.116281      728.42823     -71.394939      657.03329    
   6161000   277.83863      0.040035964    22.997062      689.3253      -67.531071      621.79423    
   6162000   307.22828      0.040035964    24.512147      762.24183     -72.565006      689.67682    
   6163000   316.3074       0.040035964    14.903786      784.76737     -70.890309      713.87706    
   6164000   292.11748      0.040035964    19.829642      724.75152     -66.649979      658.10154    
   6165000   293.66128      0.040035964    18.697661      728.58173     -66.742319      661.83942    
   6166000   308.43698      0.040035964    19.600345      765.24064     -62.366058      702.87458    
   6167000   299.43427      0.040035964    20.989664      742.90469     -63.009335      679.89535    
   6168000   295.60581      0.040035964    23.941602      733.40617     -60.121344      673.28482    
   6169000   308.46433      0.040035964    18.008603      765.30851     -67.754815      697.55369    
   6170000   300.42011      0.040035964    12.746387      745.35058     -67.892307      677.45827    
   6171000   300.65868      0.040035964    23.414776      745.94248     -67.594149      678.34833    
   6172000   301.2055       0.040035964    25.511361      747.29914     -61.685639      685.6135     
   6173000   310.19551      0.040035964    22.16547       769.6036      -67.475637      702.12797    
   6174000   297.31769      0.040035964    20.35972       737.65338     -63.389563      674.26382    
   6175000   299.29574      0.040035964    20.972493      742.56099     -71.208452      671.35254    
   6176000   316.29645      0.040035964    22.297687      784.74021     -63.230722      721.50949    
   6177000   300.84605      0.040035964    19.231171      746.40734     -71.266928      675.14042    
   6178000   292.704        0.040035964    15.71217       726.20669     -70.356384      655.8503     
   6179000   317.69264      0.040035964    23.637786      788.20421     -76.10362       712.10059    
   6180000   303.90553      0.040035964    19.434589      753.99799     -71.950739      682.04725    
   6181000   285.36338      0.040035964    16.880141      707.99441     -75.149945      632.84447    
   6182000   299.19131      0.040035964    19.93069       742.30189     -73.547605      668.75429    
   6183000   304.63009      0.040035964    18.240261      755.79564     -81.961011      673.83463    
   6184000   308.08078      0.040035964    18.488113      764.3569      -79.148006      685.2089     
   6185000   295.55405      0.040035964    37.877386      733.27774     -65.716532      667.5612     
   6186000   291.49419      0.040035964    16.614192      723.20511     -65.322918      657.88219    
   6187000   300.68654      0.040035964    17.450192      746.01159     -68.291906      677.71968    
   6188000   308.9404       0.040035964    18.71293       766.48965     -74.351555      692.1381     
   6189000   301.78896      0.040035964    21.895342      748.74674     -71.548358      677.19838    
   6190000   292.31262      0.040035964    22.698669      725.23567     -70.811457      654.42422    
   6191000   302.18389      0.040035964    16.878323      749.72656     -68.935779      680.79078    
   6192000   309.90201      0.040035964    25.428629      768.87542     -70.204113      698.6713     
   6193000   290.19639      0.040035964    34.431024      719.98524     -71.926858      648.05838    
   6194000   296.26624      0.040035964    16.048677      735.04471     -74.543706      660.50101    
   6195000   304.89661      0.040035964    9.7024848      756.4569      -65.889851      690.56705    
   6196000   294.22085      0.040035964    26.514526      729.97004     -65.422426      664.54762    
   6197000   297.28686      0.040035964    21.287334      737.5769      -73.989318      663.58758    
   6198000   294.91439      0.040035964    20.886288      731.69073     -75.409447      656.28128    
   6199000   297.67353      0.040035964    8.3807981      738.53624     -74.568156      663.96809    
   6200000   313.26162      0.040035964    21.243315      777.21072     -74.967801      702.24292    
   6201000   299.82461      0.040035964    23.066285      743.87313     -68.116883      675.75625    
   6202000   285.62884      0.040035964    27.025108      708.65302     -74.93802       633.715      
   6203000   292.63855      0.040035964    25.901639      726.04432     -67.136212      658.90811    
   6204000   307.55811      0.040035964    10.860274      763.06014     -68.000757      695.05939    
   6205000   318.79127      0.040035964    25.307597      790.92993     -64.772746      726.15719    
   6206000   304.69061      0.040035964    30.019094      755.9458      -68.863874      687.08192    
   6207000   290.21373      0.040035964    21.19577       720.02827     -74.485319      645.54295    
   6208000   299.6728       0.040035964    14.976133      743.49648     -68.733536      674.76295    
   6209000   308.59442      0.040035964    19.628791      765.63125     -64.391879      701.23937    
   6210000   290.16037      0.040035964    35.26501       719.89589     -65.145397      654.75049    
   6211000   296.29129      0.040035964    18.817824      735.10686     -66.567114      668.53975    
   6212000   310.10887      0.040035964    18.95039       769.38865     -66.706704      702.68195    
   6213000   310.61837      0.040035964    19.509108      770.65274     -73.071358      697.58138    
   6214000   300.3814       0.040035964    18.616682      745.25452     -65.466317      679.7882     
   6215000   279.84811      0.040035964    18.69967       694.31088     -64.479218      629.83166    
   6216000   300.30815      0.040035964    11.546252      745.07281     -69.586162      675.48665    
   6217000   307.96102      0.040035964    21.220486      764.05977     -64.660229      699.39954    
   6218000   297.64257      0.040035964    21.561088      738.45943     -67.701856      670.75757    
   6219000   290.72392      0.040035964    15.729985      721.29406     -68.281625      653.01243    
   6220000   294.63838      0.040035964    19.904801      731.00593     -68.829734      662.1762     
   6221000   312.78331      0.040035964    21.52657       776.024       -63.347422      712.67658    
   6222000   301.28125      0.040035964    18.954865      747.48708     -64.453067      683.03401    
   6223000   302.17418      0.040035964    27.90828       749.70246     -68.779593      680.92287    
   6224000   305.87391      0.040035964    21.191359      758.88159     -69.912963      688.96863    
   6225000   295.91635      0.040035964    20.729351      734.17662     -66.381659      667.79496    
   6226000   305.47528      0.040035964    22.806079      757.89258     -71.713648      686.17893    
   6227000   305.58554      0.040035964    23.642777      758.16615     -71.920403      686.24574    
   6228000   304.57464      0.040035964    22.784423      755.65807     -73.736748      681.92133    
   6229000   293.70421      0.040035964    20.676961      728.68824     -74.533238      654.155      
   6230000   291.6431       0.040035964    27.68772       723.57458     -76.961216      646.61336    
   6231000   302.66609      0.040035964    16.821844      750.92292     -78.099021      672.8239     
   6232000   312.06778      0.040035964    20.854134      774.24877     -80.130625      694.11814    
   6233000   292.94536      0.040035964    18.314457      726.80551     -81.726126      645.07938    
   6234000   291.94449      0.040035964    22.497333      724.32233     -78.379635      645.9427     
   6235000   298.67005      0.040035964    18.911364      741.00863     -76.650379      664.35825    
   6236000   311.53996      0.040035964    25.78608       772.93924     -62.649307      710.28993    
   6237000   293.70763      0.040035964    17.38197       728.69672     -68.228376      660.46834    
   6238000   296.79663      0.040035964    19.265537      736.36063     -68.046381      668.31425    
   6239000   296.13335      0.040035964    26.313817      734.71501     -68.968461      665.74655    
   6240000   311.45672      0.040035964    20.63774       772.73271     -67.292874      705.43983    
   6241000   301.8704       0.040035964    16.149016      748.94879     -69.753487      679.1953     
   6242000   276.75811      0.040035964    17.744461      686.64451     -72.584735      614.05977    
   6243000   298.23932      0.040035964    20.794511      739.93996     -67.410207      672.52976    
   6244000   311.35711      0.040035964    23.729016      772.48557     -72.569895      699.91568    
   6245000   291.81036      0.040035964    20.391301      723.98956     -72.314046      651.67551    
   6246000   291.4257       0.040035964    19.037985      723.0352      -73.843109      649.19209    
   6247000   297.80815      0.040035964    18.255014      738.87023     -74.927178      663.94306    
   6248000   298.61419      0.040035964    26.482976      740.87004     -67.101889      673.76815    
   6249000   303.02907      0.040035964    17.160703      751.82348     -71.373124      680.45036    
   6250000   289.87311      0.040035964    17.298298      719.18318     -75.829158      643.35402    
   6251000   296.18898      0.040035964    25.237863      734.85303     -69.000293      665.85274    
   6252000   310.19632      0.040035964    20.598738      769.60561     -68.122981      701.48263    
   6253000   307.25892      0.040035964    21.603633      762.31784     -67.452978      694.86486    
   6254000   291.4718       0.040035964    20.676517      723.14956     -78.049465      645.1001     
   6255000   290.92997      0.040035964    16.358764      721.80528     -69.963035      651.84225    
   6256000   304.76981      0.040035964    20.146092      756.1423      -75.514209      680.62809    
   6257000   299.46473      0.040035964    24.771344      742.98024     -68.58617       674.39407    
   6258000   299.56168      0.040035964    18.818772      743.2208      -73.977591      669.24321    
   6259000   301.13466      0.040035964    22.812744      747.1234      -74.016924      673.10647    
   6260000   305.76513      0.040035964    20.125643      758.61172     -79.846086      678.76563    
   6261000   316.42689      0.040035964    24.96902       785.06383     -77.141318      707.92251    
   6262000   314.20858      0.040035964    22.17214       779.56015     -78.70773       700.85242    
   6263000   299.95748      0.040035964    18.301216      744.20277     -79.486114      664.71666    
   6264000   297.08602      0.040035964    15.644028      737.07861     -77.155587      659.92302    
   6265000   301.6701       0.040035964    21.546713      748.45183     -72.883828      675.568      
   6266000   294.05715      0.040035964    23.122353      729.5639      -71.750519      657.81338    
   6267000   299.28841      0.040035964    13.766553      742.54279     -69.196412      673.34637    
   6268000   305.9873       0.040035964    18.423422      759.16292     -73.751734      685.41119    
   6269000   295.13937      0.040035964    23.207948      732.24892     -80.13689       652.11203    
   6270000   300.85102      0.040035964    19.894091      746.41967     -83.097385      663.32229    
   6271000   304.5729       0.040035964    20.766125      755.65377     -82.327678      673.32609    
   6272000   298.23107      0.040035964    21.641093      739.91951     -70.794237      669.12527    
   6273000   300.77997      0.040035964    21.993559      746.24339     -75.329971      670.91342    
   6274000   306.04683      0.040035964    14.056573      759.31062     -79.505884      679.80473    
   6275000   300.76801      0.040035964    18.912246      746.21373     -64.409339      681.80439    
   6276000   296.97172      0.040035964    19.863527      736.79501     -66.250378      670.54464    
   6277000   302.35638      0.040035964    22.012704      750.15451     -63.869996      686.28452    
   6278000   296.24817      0.040035964    26.04934       734.99987     -62.694982      672.30489    
   6279000   292.45596      0.040035964    19.435872      725.59129     -62.574969      663.01632    
   6280000   282.29735      0.040035964    23.129671      700.3875      -69.030453      631.35704    
   6281000   313.83962      0.040035964    22.085167      778.64474     -66.721569      711.92317    
   6282000   292.96511      0.040035964    21.734598      726.85452     -70.44973       656.40479    
   6283000   300.99489      0.040035964    18.751525      746.77662     -80.652428      666.12419    
   6284000   317.15446      0.040035964    19.887932      786.86896     -82.371548      704.49742    
   6285000   293.60284      0.040035964    17.562091      728.43674     -77.305749      651.13099    
   6286000   300.75418      0.040035964    24.203623      746.17941     -80.116115      666.06329    
   6287000   310.16682      0.040035964    19.887614      769.53242     -75.840509      693.69191    
   6288000   292.39118      0.040035964    14.717152      725.43057     -71.134421      654.29615    
   6289000   299.61641      0.040035964    20.395645      743.35657     -73.95572       669.40085    
   6290000   304.04759      0.040035964    31.485052      754.35046     -69.623861      684.72659    
   6291000   296.35587      0.040035964    27.762415      735.26708     -69.86975       665.39733    
   6292000   304.61195      0.040035964   -3.2145873      755.75063     -71.80731       683.94332    
   6293000   303.89198      0.040035964    5.181586       753.96439     -74.185906      679.77848    
   6294000   300.44581      0.040035964    15.537269      745.41434     -66.014537      679.3998     
   6295000   289.46303      0.040035964    52.731191      718.16574     -70.405894      647.75985    
   6296000   298.71298      0.040035964    25.71974       741.11514     -68.561427      672.55371    
   6297000   314.85553      0.040035964    2.076976       781.16526     -71.766377      709.39888    
   6298000   294.31135      0.040035964    9.9221148      730.19458     -65.62599       664.56859    
   6299000   288.39045      0.040035964    45.434372      715.50465     -64.781172      650.72348    
   6300000   300.35193      0.040035964    22.52769       745.18143     -66.856114      678.32531    
   6301000   293.0723       0.040035964    11.94883       727.12045     -68.07159       659.04886    
   6302000   316.57324      0.040035964    47.549861      785.42693     -68.918487      716.50844    
   6303000   293.54754      0.040035964    12.975247      728.29954     -72.356858      655.94269    
   6304000   281.5404       0.040035964   -2.9731975      698.5095      -70.796992      627.71251    
   6305000   295.8675       0.040035964    34.111807      734.05543     -71.369951      662.68547    
   6306000   316.51838      0.040035964    19.481851      785.29083     -70.009084      715.28175    
   6307000   298.44299      0.040035964    17.363447      740.44529     -64.81537       675.62992    
   6308000   289.82396      0.040035964    54.03021       719.06123     -67.837599      651.22363    
   6309000   300.56641      0.040035964    14.712067      745.71355     -66.469815      679.24373    
   6310000   308.82222      0.040035964    19.323685      766.19644     -69.014245      697.1822     
   6311000   303.83631      0.040035964    8.6133459      753.82625     -73.210645      680.61561    
   6312000   270.18634      0.040035964    14.805484      670.33975     -60.896544      609.4432     
   6313000   299.2894       0.040035964    20.082128      742.54525     -74.542783      668.00247    
   6314000   298.21047      0.040035964    11.652422      739.86839     -68.667273      671.20112    
   6315000   286.82303      0.040035964    12.778431      711.61584     -70.275862      641.33998    
   6316000   293.54209      0.040035964    16.181627      728.28602     -66.458127      661.8279     
   6317000   306.71954      0.040035964    16.667673      760.97962     -66.551092      694.42853    
   6318000   310.97733      0.040035964    22.771791      771.54334     -68.731147      702.81219    
   6319000   294.0863       0.040035964    29.067091      729.63621     -69.204771      660.43144    
   6320000   298.53464      0.040035964    19.469352      740.67266     -70.504628      670.16804    
   6321000   304.63171      0.040035964    16.786005      755.79967     -72.054708      683.74496    
   6322000   318.25607      0.040035964    21.52383       789.60207     -70.567397      719.03467    
   6323000   293.84919      0.040035964    32.324412      729.04794     -66.761186      662.28675    
   6324000   282.63955      0.040035964    19.356359      701.23652     -67.845971      633.39055    
   6325000   303.63667      0.040035964    19.301156      753.33094     -70.40544       682.9255     
   6326000   296.36306      0.040035964    31.586663      735.28491     -68.612063      666.67285    
   6327000   297.09948      0.040035964    19.912675      737.112       -69.974061      667.13794    
   6328000   297.8667       0.040035964    7.4544726      739.01551     -63.464478      675.55103    
   6329000   298.69521      0.040035964    38.959544      741.07106     -62.57736       678.4937     
   6330000   296.03125      0.040035964    19.490906      734.46169     -63.984271      670.47742    
   6331000   299.27557      0.040035964    21.156322      742.51094     -65.314634      677.1963     
   6332000   299.92075      0.040035964    17.946374      744.11166     -69.591393      674.52026    
   6333000   308.72029      0.040035964    22.432761      765.94354     -68.849667      697.09387    
   6334000   293.74089      0.040035964    19.521158      728.77925     -69.262766      659.51649    
   6335000   292.78315      0.040035964    21.183787      726.40306     -65.165017      661.23804    
   6336000   300.93468      0.040035964    19.897583      746.62725     -64.404076      682.22317    
   6337000   309.96559      0.040035964    24.781547      769.03318     -67.64429       701.38889    
   6338000   295.05493      0.040035964    17.01056       732.03942     -60.306095      671.73333    
   6339000   300.35186      0.040035964    17.942858      745.18125     -58.469274      686.71198    
   6340000   304.9344       0.040035964    21.538398      756.55064     -61.784928      694.76571    
   6341000   305.07388      0.040035964    20.509312      756.89672     -68.754861      688.14185    
   6342000   294.80588      0.040035964    18.724379      731.42152     -59.307078      672.11444    
   6343000   297.08069      0.040035964    16.95048       737.06538     -56.011939      681.05344    
   6344000   315.38115      0.040035964    19.323439      782.46932     -59.10776       723.36156    
   6345000   284.51869      0.040035964    20.576768      705.89871     -55.374738      650.52397    
   6346000   295.3144       0.040035964    18.23865       732.68316     -56.109736      676.57343    
   6347000   307.76853      0.040035964    22.023198      763.5822      -52.586669      710.99553    
   6348000   300.53934      0.040035964    23.831014      745.64638     -57.041309      688.60507    
   6349000   290.14041      0.040035964    22.207636      719.84634     -57.518327      662.32802    
   6350000   301.55369      0.040035964    20.799364      748.16302     -58.618308      689.54471    
   6351000   307.6545       0.040035964    22.966254      763.29929     -58.149801      705.14949    
   6352000   295.58035      0.040035964    13.33391       733.34299     -60.699814      672.64317    
   6353000   295.94759      0.040035964    26.918518      734.25413     -60.571603      673.68253    
   6354000   307.66649      0.040035964    25.287292      763.32904     -66.590542      696.7385     
   6355000   300.71449      0.040035964    13.673125      746.08093     -71.826249      674.25468    
   6356000   299.05651      0.040035964    19.773968      741.96744     -69.16844       672.799      
   6357000   289.40812      0.040035964    19.538552      718.02951     -71.066727      646.96279    
   6358000   303.96516      0.040035964    23.544651      754.14594     -65.786184      688.35975    
   6359000   319.42152      0.040035964    16.757734      792.49359     -61.315755      731.17784    
   6360000   298.56312      0.040035964    14.132748      740.74333     -57.915369      682.82796    
   6361000   289.79294      0.040035964    16.523625      718.98428     -60.555774      658.4285     
   6362000   294.64993      0.040035964    21.254747      731.03459     -67.26671       663.76788    
   6363000   302.24473      0.040035964    28.074979      749.87751     -67.306206      682.5713     
   6364000   301.20051      0.040035964    19.733243      747.28678     -58.539587      688.74719    
   6365000   308.57111      0.040035964    22.001648      765.57342     -60.354252      705.21917    
   6366000   304.36064      0.040035964    22.218432      755.12714     -66.408692      688.71845    
   6367000   297.74832      0.040035964    23.701233      738.72178     -63.880452      674.84133    
   6368000   315.06106      0.040035964    13.20019       781.67518     -73.330187      708.34499    
   6369000   296.86054      0.040035964    19.291936      736.51917     -73.00016       663.51901    
   6370000   287.80533      0.040035964    30.221418      714.05295     -73.201477      640.85147    
   6371000   291.67033      0.040035964    23.925493      723.64212     -69.474518      654.1676     
   6372000   307.58436      0.040035964    18.787962      763.12527     -70.663515      692.46175    
   6373000   302.90968      0.040035964    18.380607      751.52727     -69.898549      681.62872    
   6374000   283.39782      0.040035964    16.907993      703.1178      -65.22033       637.89747    
   6375000   301.92167      0.040035964    20.037858      749.07599     -68.684692      680.39129    
   6376000   323.51222      0.040035964    24.407473      802.64273     -59.621727      743.021      
   6377000   298.93684      0.040035964    33.560024      741.67054     -65.298809      676.37173    
   6378000   283.16572      0.040035964    7.4554036      702.54195     -62.261242      640.2807     
   6379000   315.92753      0.040035964    6.6201794      783.82491     -66.848663      716.97625    
   6380000   307.80314      0.040035964    21.503966      763.66809     -65.738788      697.9293     
   6381000   290.32946      0.040035964    24.167385      720.3154      -59.441543      660.87385    
   6382000   294.0667       0.040035964    12.75211       729.58759     -60.646926      668.94067    
   6383000   304.93779      0.040035964    21.133339      756.55907     -65.778762      690.78031    
   6384000   296.48234      0.040035964    26.542258      735.58085     -62.300828      673.28002    
   6385000   290.80159      0.040035964    8.8849471      721.48675     -68.19197       653.29479    
   6386000   304.79383      0.040035964    23.058037      756.20188     -66.517532      689.68435    
   6387000   306.28959      0.040035964    21.835921      759.91292     -66.901388      693.01153    
   6388000   302.93787      0.040035964    14.824743      751.5972      -64.876327      686.72088    
   6389000   304.77059      0.040035964    18.964932      756.14422     -69.352582      686.79164    
   6390000   290.88706      0.040035964    19.699519      721.69881     -66.089171      655.60964    
   6391000   303.03801      0.040035964    23.837821      751.84567     -67.66918       684.17649    
   6392000   300.82969      0.040035964    16.775355      746.36676     -62.754596      683.61217    
   6393000   284.28988      0.040035964    22.062937      705.33102     -62.818094      642.51293    
   6394000   303.20951      0.040035964    19.726226      752.27116     -64.424216      687.84694    
   6395000   300.68112      0.040035964    18.146591      745.99814     -62.540559      683.45758    
   6396000   296.69513      0.040035964    22.536521      736.10878     -67.336216      668.77257    
   6397000   302.84098      0.040035964    26.070143      751.35682     -64.498397      686.85842    
   6398000   305.72037      0.040035964    19.466776      758.50067     -58.050785      700.44988    
   6399000   293.13372      0.040035964    17.682015      727.27284     -67.946292      659.32655    
   6400000   304.15102      0.040035964    22.875869      754.60708     -71.369592      683.23748    
   6401000   301.66736      0.040035964    22.022975      748.44504     -73.117249      675.32779    
   6402000   297.23218      0.040035964    20.816563      737.44123     -69.609903      667.83133    
   6403000   288.29768      0.040035964    12.207382      715.27449     -74.202464      641.07203    
   6404000   308.6631       0.040035964    16.044869      765.80166     -78.031443      687.77022    
   6405000   296.4241       0.040035964    19.455221      735.43637     -74.989041      660.44733    
   6406000   299.54125      0.040035964    21.489867      743.17011     -78.929189      664.24092    
   6407000   312.26987      0.040035964    23.372068      774.75016     -70.290344      704.45981    
   6408000   319.76108      0.040035964    6.3922453      793.33606     -64.145744      729.19031    
   6409000   276.91683      0.040035964    15.4372        687.03828     -75.649168      611.38912    
   6410000   293.2576       0.040035964    22.936824      727.5802      -68.524564      659.05564    
   6411000   304.67705      0.040035964    18.521472      755.91217     -71.910735      684.00143    
   6412000   310.02481      0.040035964    26.77034       769.18011     -68.884451      700.29566    
   6413000   282.88114      0.040035964    20.533678      701.83591     -68.185163      633.65074    
   6414000   297.15381      0.040035964    20.35415       737.24679     -64.986295      672.26049    
   6415000   306.25696      0.040035964    18.920518      759.83195     -76.250463      683.58149    
   6416000   299.96885      0.040035964    23.963521      744.23098     -76.179494      668.05148    
   6417000   302.4557       0.040035964    21.34559       750.40092     -76.355957      674.04496    
   6418000   298.74627      0.040035964    18.336004      741.19772     -76.999622      664.1981     
   6419000   298.62623      0.040035964    19.504195      740.8999      -70.367356      670.53254    
   6420000   290.92258      0.040035964    18.721743      721.78693     -74.334947      647.45198    
   6421000   298.80773      0.040035964    23.11304       741.35022     -76.854797      664.49542    
   6422000   295.31215      0.040035964    26.171006      732.67758     -77.111542      655.56604    
   6423000   305.23561      0.040035964    28.359047      757.29796     -78.570831      678.72712    
   6424000   292.65104      0.040035964    19.286908      726.0753      -77.373159      648.70214    
   6425000   284.45707      0.040035964    16.897435      705.74583     -75.443943      630.30188    
   6426000   314.1653       0.040035964    22.002827      779.45278     -75.784314      703.66846    
   6427000   302.20914      0.040035964    24.471075      749.7892      -70.493485      679.29572    
   6428000   293.27135      0.040035964    18.714668      727.61432     -75.594242      652.02007    
   6429000   292.52413      0.040035964    4.6667108      725.76044     -74.140539      651.6199     
   6430000   302.43161      0.040035964    19.564846      750.34116     -78.840143      671.50101    
   6431000   303.07402      0.040035964    23.786961      751.935       -79.853561      672.08144    
   6432000   295.73598      0.040035964    21.61013       733.72912     -76.482496      657.24662    
   6433000   298.30181      0.040035964    13.315         740.09501     -68.147899      671.94711    
   6434000   297.90314      0.040035964    17.905735      739.10589     -63.203017      675.90287    
   6435000   311.71425      0.040035964    21.744489      773.37166     -60.427675      712.94398    
   6436000   306.40596      0.040035964    22.405676      760.20164     -66.047357      694.15428    
   6437000   294.43524      0.040035964    20.008797      730.50195     -70.765429      659.73652    
   6438000   295.89589      0.040035964    21.484542      734.12586     -77.458101      656.66776    
   6439000   308.3633       0.040035964    21.634859      765.05785     -88.192337      676.86551    
   6440000   304.22536      0.040035964    27.328661      754.79151     -83.355554      671.43596    
   6441000   281.56671      0.040035964    17.968808      698.57478     -79.247883      619.3269     
   6442000   287.36011      0.040035964    18.889725      712.94836     -80.678903      632.26945    
   6443000   308.96728      0.040035964    21.545425      766.55633     -72.701322      693.85501    
   6444000   307.75508      0.040035964    18.220061      763.54885     -76.895215      686.65363    
   6445000   296.3796       0.040035964    18.856027      735.32596     -69.43166       665.8943     
   6446000   282.77488      0.040035964    18.264425      701.57228     -68.888192      632.68409    
   6447000   309.752        0.040035964    22.203311      768.50324     -65.373654      703.12958    
   6448000   302.26769      0.040035964    19.818291      749.93446     -61.545437      688.38903    
   6449000   296.06127      0.040035964    19.930016      734.53617     -67.785294      666.75087    
   6450000   283.4725       0.040035964    23.330871      703.3031      -68.489266      634.81383    
   6451000   306.03403      0.040035964    20.659486      759.27886     -73.261156      686.01771    
   6452000   314.08012      0.040035964    21.030614      779.24144     -71.916426      707.32501    
   6453000   300.20936      0.040035964    28.24973       744.8277      -72.974527      671.85318    
   6454000   297.255        0.040035964    26.006929      737.49785     -69.22709       668.27076    
   6455000   300.851        0.040035964    17.963131      746.41963     -71.635735      674.7839     
   6456000   302.53739      0.040035964    26.322418      750.60359     -73.292521      677.31107    
   6457000   297.57536      0.040035964    19.651651      738.29267     -71.582978      666.70969    
   6458000   307.31309      0.040035964    8.5275986      762.45226     -62.761802      699.69045    
   6459000   303.30329      0.040035964    31.587893      752.50381     -60.159719      692.34409    
   6460000   296.53666      0.040035964    24.291654      735.71564     -61.547856      674.16778    
   6461000   300.69066      0.040035964   -6.7138142      746.0218      -65.71658       680.30522    
   6462000   309.752        0.040035964    4.8057066      768.50325     -64.603166      703.90008    
   6463000   304.50615      0.040035964    18.582178      755.48816     -66.534351      688.95381    
   6464000   296.69555      0.040035964    44.134072      736.10983     -68.842089      667.26774    
   6465000   302.14938      0.040035964    15.739415      749.64095     -66.155998      683.48495    
   6466000   306.14445      0.040035964    16.785813      759.55281     -71.891509      687.6613     
   6467000   310.76384      0.040035964    24.30447       771.01366     -70.785645      700.22802    
   6468000   288.78656      0.040035964    27.463348      716.48742     -71.376666      645.11076    
   6469000   290.02653      0.040035964    14.396452      719.5638      -64.587654      654.97615    
   6470000   316.67914      0.040035964    2.9358368      785.68968     -74.252495      711.43718    
   6471000   305.69182      0.040035964    21.121122      758.42983     -67.665412      690.76441    
   6472000   290.70497      0.040035964    20.922696      721.24704     -65.424825      655.82222    
   6473000   298.58961      0.040035964    17.251237      740.80906     -70.45971       670.34935    
   6474000   297.91678      0.040035964    18.387573      739.13974     -70.993019      668.14672    
   6475000   302.92341      0.040035964    21.622283      751.56134     -69.780389      681.78095    
   6476000   301.11883      0.040035964    23.433156      747.08412     -71.129621      675.9545     
   6477000   283.84513      0.040035964    19.19747       704.22759     -64.088556      640.13903    
   6478000   319.22644      0.040035964    15.246772      792.00959     -68.220459      723.78913    
   6479000   300.53005      0.040035964    21.706525      745.62333     -59.840622      685.78271    
   6480000   300.4019       0.040035964    26.361627      745.3054      -58.436183      686.86922    
   6481000   302.33351      0.040035964    23.99887       750.09778     -57.155954      692.94182    
   6482000   311.34303      0.040035964    21.145773      772.45063     -55.246569      717.20406    
   6483000   295.66543      0.040035964    21.083466      733.55409     -61.128164      672.42593    
   6484000   279.41444      0.040035964    16.375026      693.23493     -65.754837      627.48009    
   6485000   294.72361      0.040035964    20.617209      731.21741     -63.219028      667.99838    
   6486000   299.09725      0.040035964    21.985084      742.06852     -61.511818      680.5567     
   6487000   294.62167      0.040035964    17.588195      730.96448     -66.459875      664.50461    
   6488000   298.26736      0.040035964    15.132874      740.00955     -64.754678      675.25487    
   6489000   297.71654      0.040035964    19.350407      738.64295     -64.894767      673.74818    
   6490000   297.83861      0.040035964    24.452617      738.94579     -66.62621       672.31958    
   6491000   296.56591      0.040035964    23.330073      735.7882      -64.190373      671.59782    
   6492000   293.61078      0.040035964    21.573521      728.45644     -65.111269      663.34517    
   6493000   294.15019      0.040035964    17.692135      729.79472     -71.13382       658.6609     
   6494000   296.2075       0.040035964    22.481957      734.89897     -70.24012       664.65885    
   6495000   313.66655      0.040035964    20.412359      778.21535     -68.966701      709.24865    
   6496000   300.68273      0.040035964    14.512147      746.00215     -65.789683      680.21247    
   6497000   299.5758       0.040035964    32.097563      743.25581     -63.967676      679.28813    
   6498000   306.55206      0.040035964    21.44671       760.5641      -73.725299      686.8388     
   6499000   294.20394      0.040035964    17.572677      729.92809     -70.833565      659.09452    
   6500000   304.91207      0.040035964    21.269042      756.49525     -64.777047      691.7182     
   6501000   306.65182      0.040035964    21.877345      760.81161     -66.330832      694.48078    
   6502000   308.33129      0.040035964    23.909787      764.97843     -62.006868      702.97156    
   6503000   295.94148      0.040035964    20.673446      734.23897     -65.967583      668.27138    
   6504000   297.16843      0.040035964    18.973391      737.28306     -63.189306      674.09375    
   6505000   307.52715      0.040035964    19.996044      762.98333     -69.043965      693.93936    
   6506000   293.28184      0.040035964    20.999365      727.64033     -63.714996      663.92534    
   6507000   301.77532      0.040035964    21.189091      748.71288     -63.064922      685.64796    
   6508000   307.36035      0.040035964    22.534113      762.56949     -64.568638      698.00086    
   6509000   292.93269      0.040035964    18.392121      726.77407     -69.370066      657.40401    
   6510000   280.87305      0.040035964    17.765364      696.85378     -71.340524      625.51326    
   6511000   313.14226      0.040035964    21.348612      776.91458     -72.539383      704.3752     
   6512000   307.35519      0.040035964    4.1270982      762.55669     -75.431038      687.12565    
   6513000   289.39965      0.040035964    15.091494      718.0085      -71.703614      646.30489    
   6514000   300.75902      0.040035964    21.837653      746.19142     -66.305058      679.88636    
   6515000   319.0209       0.040035964    12.88261       791.49964     -70.437848      721.06179    
   6516000   295.09755      0.040035964    19.698744      732.14515     -68.748793      663.39636    
   6517000   295.87852      0.040035964    24.123858      734.08278     -74.239195      659.84358    
   6518000   314.45864      0.040035964    20.812677      780.18055     -68.753373      711.42718    
   6519000   292.37691      0.040035964    20.802224      725.39517     -66.703553      658.69161    
   6520000   289.43988      0.040035964    24.735898      718.10833     -65.90408       652.20425    
   6521000   303.77914      0.040035964    18.708007      753.68442     -62.078913      691.60551    
   6522000   302.11954      0.040035964    20.452536      749.5669      -59.042783      690.52412    
   6523000   298.59582      0.040035964    15.043579      740.82445     -60.877407      679.94705    
   6524000   300.33839      0.040035964    22.233945      745.14783     -58.874544      686.27328    
   6525000   303.28849      0.040035964    22.533435      752.4671      -57.657691      694.80941    
   6526000   310.25463      0.040035964    21.045474      769.7503      -64.575581      705.17472    
   6527000   298.07954      0.040035964    15.45571       739.54356     -63.560727      675.98284    
   6528000   300.87315      0.040035964    23.21699       746.47458     -68.72281       677.75177    
   6529000   300.37707      0.040035964    20.442158      745.2438      -69.046021      676.19778    
   6530000   304.09127      0.040035964    21.091233      754.45882     -75.174981      679.28384    
   6531000   311.68463      0.040035964    21.686301      773.29816     -65.716185      707.58198    
   6532000   308.19438      0.040035964    20.560559      764.63876     -69.034923      695.60384    
   6533000   298.77058      0.040035964    27.45492       741.25805     -66.019106      675.23895    
   6534000   306.13196      0.040035964    35.777259      759.52184     -67.936713      691.58513    
   6535000   305.43085      0.040035964    17.813727      757.78236     -58.876676      698.90569    
   6536000   292.98066      0.040035964    20.468375      726.89309     -63.360885      663.53221    
   6537000   298.51835      0.040035964    36.642386      740.63226     -64.703537      675.92872    
   6538000   303.31346      0.040035964    23.726515      752.52906     -67.513867      685.01519    
   6539000   304.97922      0.040035964    20.587597      756.66185     -76.685533      679.97631    
   6540000   293.93672      0.040035964    22.064223      729.2651      -68.248065      661.01703    
   6541000   303.59193      0.040035964    24.381338      753.21995     -72.283625      680.93632    
   6542000   309.71553      0.040035964    12.495988      768.41278     -59.025936      709.38684    
   6543000   305.43401      0.040035964    18.382708      757.7902      -56.033226      701.75698    
   6544000   298.12578      0.040035964    24.678806      739.65828     -60.353462      679.30481    
   6545000   300.06473      0.040035964    20.220913      744.46886     -63.713215      680.75564    
   6546000   286.9421       0.040035964    17.855811      711.91127     -66.734899      645.17637    
   6547000   299.32258      0.040035964    17.483531      742.62757     -67.644838      674.98273    
   6548000   303.33191      0.040035964    19.085235      752.57484     -61.449713      691.12513    
   6549000   310.52225      0.040035964    19.291489      770.41427     -71.443763      698.9705     
   6550000   294.80388      0.040035964    22.11522       731.41656     -66.227442      665.18911    
   6551000   297.14901      0.040035964    17.522902      737.23488     -69.173286      668.0616     
   6552000   306.93609      0.040035964    23.911269      761.51691     -66.311174      695.20574    
   6553000   308.17718      0.040035964    20.690793      764.59607     -66.101332      698.49473    
   6554000   296.84231      0.040035964    11.801425      736.47395     -68.605465      667.86848    
   6555000   284.84899      0.040035964    23.399009      706.71821     -66.122899      640.59531    
   6556000   318.95956      0.040035964    18.100089      791.34747     -63.017872      728.3296     
   6557000   291.83145      0.040035964    7.8874281      724.04186     -70.156094      653.88577    
   6558000   295.08972      0.040035964    34.347377      732.12573     -75.839319      656.28641    
   6559000   306.10672      0.040035964    23.112273      759.45921     -70.138431      689.32078    
   6560000   307.78855      0.040035964    5.9788091      763.63187     -72.756628      690.87524    
   6561000   286.24908      0.040035964    27.440248      710.19187     -74.017492      636.17437    
   6562000   302.72389      0.040035964    34.304748      751.06632     -74.749893      676.31643    
   6563000   300.93372      0.040035964    22.753995      746.62486     -69.276531      677.34833    
   6564000   310.84338      0.040035964    7.5426779      771.211       -70.592897      700.6181     
   6565000   297.15586      0.040035964    23.144202      737.25187     -73.575878      663.67599    
   6566000   300.53513      0.040035964    26.316561      745.63593     -72.58608       673.04985    
   6567000   307.28342      0.040035964    11.69827       762.37865     -67.296989      695.08166    
   6568000   292.99018      0.040035964    10.653422      726.91671     -69.47766       657.43905    
   6569000   296.51539      0.040035964    28.338577      735.66285     -60.417818      675.24503    
   6570000   299.25526      0.040035964   -6.4418527      742.46054     -67.626215      674.83433    
   6571000   291.49977      0.040035964    20.010446      723.21896     -70.095754      653.12321    
   6572000   302.64251      0.040035964    25.997411      750.8644      -69.124379      681.74003    
   6573000   308.6033       0.040035964    23.813668      765.65328     -73.816649      691.83663    
   6574000   294.98903      0.040035964    14.754681      731.87591     -73.703865      658.17204    
   6575000   300.95707      0.040035964    19.597899      746.68279     -72.948352      673.73444    
   6576000   299.52095      0.040035964    25.867811      743.11973     -62.144366      680.97536    
   6577000   301.99545      0.040035964    23.153213      749.25904     -66.98713       682.27191    
   6578000   311.36401      0.040035964    24.155973      772.50269     -64.276194      708.2265     
   6579000   303.96381      0.040035964    13.459712      754.1426      -62.07951       692.06309    
   6580000   287.21473      0.040035964    21.01604       712.58766     -56.668515      655.91914    
   6581000   286.59761      0.040035964    26.74679       711.05657     -61.804277      649.2523     
   6582000   320.34323      0.040035964    21.500361      794.78038     -65.259306      729.52108    
   6583000   294.95427      0.040035964    20.448948      731.78966     -68.379753      663.40991    
   6584000   290.20629      0.040035964    22.384419      720.0098      -67.578091      652.43171    
   6585000   286.84052      0.040035964    21.617579      711.65924     -65.184432      646.4748     
   6586000   298.46766      0.040035964    22.34114       740.5065      -78.980252      661.52625    
   6587000   299.22563      0.040035964    13.796326      742.38705     -73.16086       669.22619    
   6588000   290.0144       0.040035964    12.932781      719.53373     -78.064573      641.46915    
   6589000   297.47326      0.040035964    23.817357      738.03936     -70.406011      667.63335    
   6590000   297.41548      0.040035964    27.438331      737.896       -60.87878       677.01722    
   6591000   312.05586      0.040035964    10.751882      774.2192      -63.80196       710.41724    
   6592000   295.12317      0.040035964    15.647396      732.20872     -60.609794      671.59893    
   6593000   284.61591      0.040035964    18.789842      706.13992     -63.443228      642.69669    
   6594000   304.81613      0.040035964    24.16646       756.25721     -62.776814      693.48039    
   6595000   308.3574       0.040035964    21.729287      765.0432      -68.386157      696.65705    
   6596000   308.23556      0.040035964    20.984862      764.74092     -68.698946      696.04197    
   6597000   297.70846      0.040035964    19.007949      738.6229      -68.297667      670.32523    
   6598000   312.20237      0.040035964    19.82207       774.58267     -62.892312      711.69036    
   6599000   315.1543       0.040035964    40.800554      781.9065      -58.785651      723.12085    
   6600000   297.33277      0.040035964    13.0065        737.6908      -66.658001      671.0328     
   6601000   296.81488      0.040035964    12.446842      736.4059      -63.84441       672.56149    
   6602000   305.29058      0.040035964    33.518564      757.43434     -70.602909      686.83143    
   6603000   304.09291      0.040035964    18.943635      754.4629      -71.474747      682.98815    
   6604000   294.63261      0.040035964    19.352599      730.99162     -67.603369      663.38825    
   6605000   296.59945      0.040035964    26.216523      735.87141     -68.641705      667.2297     
   6606000   310.03754      0.040035964    22.065016      769.21169     -70.330576      698.88111    
   6607000   292.67183      0.040035964    16.251398      726.12689     -64.882131      661.24476    
   6608000   302.06393      0.040035964    27.913366      749.42894     -62.783167      686.64577    
   6609000   302.92167      0.040035964    28.288795      751.55701     -54.834058      696.72295    
   6610000   312.94063      0.040035964    6.5424335      776.41432     -61.016139      715.39818    
   6611000   293.21948      0.040035964    23.198923      727.48561     -60.186219      667.29939    
   6612000   307.65794      0.040035964    23.175174      763.30784     -57.995139      705.3127     
   6613000   302.90214      0.040035964    15.703036      751.50855     -58.711863      692.79669    
   6614000   286.74023      0.040035964    19.21272       711.41042     -52.443824      658.96659    
   6615000   291.15931      0.040035964    23.13477       722.37426     -50.933461      671.4408     
   6616000   307.44117      0.040035964    37.102429      762.77002     -61.915144      700.85487    
   6617000   306.26241      0.040035964    30.248338      759.84549     -61.34555       698.49994    
   6618000   306.76863      0.040035964    13.755677      761.10143     -59.555239      701.54619    
   6619000   282.36848      0.040035964    20.09478       700.56397     -60.429505      640.13447    
   6620000   310.89564      0.040035964    31.659964      771.34065     -63.25946       708.08119    
   6621000   304.31832      0.040035964    19.105131      755.02215     -59.196399      695.82575    
   6622000   286.36761      0.040035964    23.60213       710.48594     -53.474165      657.01178    
   6623000   297.54885      0.040035964    22.033266      738.2269      -58.815829      679.41107    
   6624000   309.49856      0.040035964    23.120367      767.87446     -60.375093      707.49937    
   6625000   318.02905      0.040035964    19.904786      789.03885     -61.700763      727.33809    
   6626000   284.04876      0.040035964    20.044232      704.7328      -63.17266       641.56014    
   6627000   296.28146      0.040035964    18.224498      735.08247     -65.320015      669.76246    
   6628000   303.94899      0.040035964    20.293996      754.10582     -64.842001      689.26382    
   6629000   295.4015       0.040035964    22.858374      732.89927     -63.846014      669.05325    
   6630000   301.42447      0.040035964    19.087038      747.84243     -66.034119      681.80831    
   6631000   294.90296      0.040035964    20.234469      731.66238     -67.622333      664.04005    
   6632000   299.52488      0.040035964    20.427852      743.12948     -64.855667      678.27381    
   6633000   309.123        0.040035964    21.294579      766.94268     -70.351781      696.5909     
   6634000   301.50079      0.040035964    21.393393      748.03177     -60.7786        687.25317    
   6635000   293.59445      0.040035964    17.828335      728.41593     -67.513886      660.90204    
   6636000   314.98464      0.040035964    20.836345      781.48558     -74.658673      706.82691    
   6637000   306.40629      0.040035964    24.340499      760.20245     -72.266095      687.93636    
   6638000   290.39924      0.040035964    18.304771      720.48851     -67.006594      653.48192    
   6639000   298.26058      0.040035964    18.93058       739.99273     -67.315149      672.67758    
   6640000   313.72618      0.040035964    24.751042      778.36329     -71.871077      706.49221    
   6641000   309.79843      0.040035964    15.395561      768.61844     -66.976021      701.64242    
   6642000   299.18135      0.040035964    22.489402      742.27718     -63.25698       679.0202     
   6643000   296.30469      0.040035964    16.990969      735.14011     -66.803911      668.3362     
   6644000   297.53886      0.040035964    19.154924      738.20211     -73.92371       664.2784     
   6645000   300.09705      0.040035964    20.855036      744.54906     -76.694347      667.85472    
   6646000   297.61897      0.040035964    20.78174       738.40087     -69.012309      669.38856    
   6647000   300.40199      0.040035964    19.141387      745.30562     -65.567371      679.73824    
   6648000   310.08205      0.040035964    25.011655      769.3221      -73.413367      695.90874    
   6649000   297.41607      0.040035964    10.395118      737.89747     -66.516658      671.38081    
   6650000   295.49199      0.040035964    20.897952      733.12378     -75.451767      657.67202    
   6651000   300.78436      0.040035964    21.795303      746.25429     -72.333122      673.92117    
   6652000   308.463        0.040035964    22.928621      765.30522     -68.478548      696.82667    
   6653000   306.60979      0.040035964    8.389457       760.70734     -63.773422      696.93392    
   6654000   279.22553      0.040035964    12.012446      692.76625     -63.472048      629.2942     
   6655000   296.81632      0.040035964    24.914701      736.40947     -65.47493       670.93454    
   6656000   313.59481      0.040035964    20.888243      778.03738     -78.78887       699.24851    
   6657000   294.64673      0.040035964    18.529011      731.02665     -76.849953      654.1767     
   6658000   289.89447      0.040035964    17.527691      719.23618     -77.719575      641.5166     
   6659000   302.12057      0.040035964    15.753895      749.56947     -76.647042      672.92242    
   6660000   313.58579      0.040035964    16.267305      778.01499     -73.33406       704.68093    
   6661000   305.14968      0.040035964    26.415212      757.08477     -71.716156      685.36861    
   6662000   292.52929      0.040035964    27.995022      725.77323     -67.895524      657.87771    
   6663000   294.22809      0.040035964    15.009325      729.988       -70.473029      659.51497    
   6664000   301.80484      0.040035964    19.283516      748.78613     -67.382173      681.40395    
   6665000   297.38084      0.040035964    22.772477      737.81005     -67.201456      670.6086     
   6666000   299.12118      0.040035964    16.090337      742.12789     -69.40336       672.72453    
   6667000   300.44309      0.040035964    19.835673      745.40759     -68.466062      676.94153    
   6668000   302.94015      0.040035964    19.468149      751.60286     -73.640287      677.96258    
   6669000   296.16388      0.040035964    26.544246      734.79074     -73.445899      661.34484    
   6670000   309.99227      0.040035964    14.92308       769.09936     -73.122316      695.97704    
   6671000   301.11993      0.040035964    18.42676       747.08686     -72.208988      674.87787    
   6672000   293.11905      0.040035964    18.389775      727.23645     -66.605422      660.63103    
   6673000   305.26748      0.040035964    37.742893      757.37703     -60.741897      696.63513    
   6674000   304.2674       0.040035964    23.872789      754.8958      -62.976639      691.91916    
   6675000   300.36415      0.040035964    14.915844      745.21174     -73.409665      671.80207    
   6676000   283.57029      0.040035964    19.142339      703.5457      -68.093252      635.45245    
   6677000   288.54795      0.040035964    18.244805      715.89541     -72.307082      643.58833    
   6678000   315.69486      0.040035964    17.960128      783.24764     -73.157681      710.08996    
   6679000   300.65278      0.040035964    20.543382      745.92784     -72.256861      673.67098    
   6680000   290.07189      0.040035964    21.044675      719.67636     -73.370674      646.30568    
   6681000   286.24235      0.040035964    5.7233066      710.17516     -74.26506       635.9101     
   6682000   315.72926      0.040035964    18.47029       783.333       -76.685528      706.64747    
   6683000   295.49747      0.040035964    28.650162      733.13738     -65.989008      667.14837    
   6684000   285.06505      0.040035964    20.94864       707.25425     -68.224189      639.03006    
   6685000   302.10217      0.040035964    6.7301953      749.5238      -67.5832        681.9406     
   6686000   311.91969      0.040035964    31.365494      773.88134     -66.282717      707.59863    
   6687000   291.1058       0.040035964    44.955549      722.24152     -67.958464      654.28306    
   6688000   292.43887      0.040035964    27.7108        725.5489      -71.816644      653.73225    
   6689000   299.44562      0.040035964    9.6751578      742.93283     -70.792718      672.14011    
   6690000   309.6715       0.040035964    14.300271      768.30353     -66.897835      701.4057     
   6691000   300.80093      0.040035964    27.146786      746.2954      -64.387491      681.90791    
   6692000   314.08152      0.040035964    38.274269      779.24491     -65.246927      713.99799    
   6693000   292.63512      0.040035964    24.830857      726.0358      -67.34955       658.68625    
   6694000   296.4213       0.040035964   -0.67612286     735.42942     -65.598878      669.83055    
   6695000   296.28219      0.040035964    26.440539      735.08429     -67.940219      667.14407    
   6696000   285.34026      0.040035964    27.043306      707.93706     -65.142281      642.79478    
   6697000   302.23309      0.040035964    12.407364      749.84863     -72.86874       676.97989    
   6698000   305.13053      0.040035964    15.987952      757.03725     -66.936591      690.10066    
   6699000   298.54413      0.040035964    43.886         740.69623     -63.124782      677.57145    
   6700000   298.75399      0.040035964    13.296748      741.21688     -71.427572      669.78931    
   6701000   296.83405      0.040035964    15.641751      736.45346     -71.830843      664.62262    
   6702000   296.34994      0.040035964    14.948338      735.25238     -70.170295      665.08209    
   6703000   309.61793      0.040035964    22.596771      768.17063     -66.900016      701.27061    
   6704000   283.72897      0.040035964    25.209291      703.9394      -65.324496      638.61491    
   6705000   292.38292      0.040035964    16.201682      725.41009     -68.340176      657.06991    
   6706000   315.12048      0.040035964    17.4602        781.8226      -62.681583      719.14102    
   6707000   303.8671       0.040035964    22.888481      753.90264     -63.153455      690.74919    
   6708000   283.63026      0.040035964    19.477633      703.6945      -63.79825       639.89625    
   6709000   294.11927      0.040035964    19.635604      729.71802     -60.903281      668.81474    
   6710000   306.72671      0.040035964    20.554974      760.99743     -57.990003      703.00743    
   6711000   319.54931      0.040035964    22.25132       792.81065     -64.735635      728.07502    
   6712000   291.00207      0.040035964    17.754217      721.98415     -64.852914      657.13123    
   6713000   291.793        0.040035964    18.587955      723.94648     -62.414381      661.5321     
   6714000   304.1376       0.040035964    21.043661      754.57376     -65.271516      689.30224    
   6715000   310.91373      0.040035964    21.602266      771.38553     -72.956124      698.4294     
   6716000   294.34809      0.040035964    22.423206      730.28572     -69.449604      660.83612    
   6717000   288.89069      0.040035964    20.469451      716.74577     -67.468588      649.27718    
   6718000   306.35825      0.040035964    15.583002      760.08327     -68.591043      691.49223    
   6719000   304.94592      0.040035964    23.052395      756.57922     -66.040684      690.53854    
   6720000   291.79282      0.040035964    23.782105      723.94604     -63.171495      660.77454    
   6721000   301.28355      0.040035964    2.5178857      747.49278     -57.737981      689.7548     
   6722000   305.6804       0.040035964    25.047489      758.40151     -61.486522      696.91498    
   6723000   287.22407      0.040035964    10.755091      712.61083     -65.638828      646.972      
   6724000   295.56469      0.040035964    17.051181      733.30416     -69.570997      663.73316    
   6725000   298.30128      0.040035964    18.229554      740.09371     -67.32348       672.77023    
   6726000   301.92672      0.040035964    32.779506      749.08852     -63.967189      685.12133    
   6727000   292.96266      0.040035964    21.358597      726.84844     -70.096691      656.75174    
   6728000   300.66444      0.040035964    20.420914      745.95675     -62.524235      683.43252    
   6729000   299.48419      0.040035964    20.10116       743.02852     -65.56577       677.46275    
   6730000   308.00268      0.040035964    22.515021      764.16313     -55.966363      708.19677    
   6731000   310.97285      0.040035964    21.927587      771.53221     -61.59571       709.9365     
   6732000   295.8247       0.040035964    18.010595      733.94924     -61.884405      672.06484    
   6733000   278.19341      0.040035964    20.411605      690.20552     -64.97219       625.23333    
   6734000   307.57099      0.040035964    31.39944       763.0921      -65.764177      697.32792    
   6735000   310.15835      0.040035964    16.61557       769.51142     -70.826939      698.68448    
   6736000   288.21657      0.040035964    17.648821      715.07325     -75.838757      639.23449    
   6737000   291.65393      0.040035964    23.946682      723.60145     -76.383433      647.21802    
   6738000   302.61103      0.040035964    27.491277      750.78632     -69.351336      681.43498    
   6739000   308.14157      0.040035964    15.912807      764.50773     -71.09687       693.41086    
   6740000   299.08524      0.040035964    9.7841952      742.03873     -72.458483      669.58025    
   6741000   291.96264      0.040035964    43.01931       724.36735     -72.164606      652.20275    
   6742000   297.78475      0.040035964    11.061119      738.81218     -70.63197       668.18021    
   6743000   298.08966      0.040035964    14.467992      739.56866     -68.434025      671.13463    
   6744000   302.34599      0.040035964    24.533804      750.12873     -73.571018      676.55771    
   6745000   310.24105      0.040035964    20.608225      769.71659     -71.298658      698.41794    
   6746000   298.56917      0.040035964    17.785745      740.75833     -72.05813       668.7002     
   6747000   305.53066      0.040035964    31.44058       758.02998     -70.660909      687.36907    
   6748000   307.20612      0.040035964    21.729614      762.18686     -70.198888      691.98797    
   6749000   289.81613      0.040035964    20.247081      719.04181     -75.678659      643.36315    
   6750000   292.68481      0.040035964    18.136482      726.15907     -80.245518      645.91355    
   6751000   289.57082      0.040035964    16.225254      718.43319     -78.398982      640.03421    
   6752000   300.59206      0.040035964    19.702963      745.77718     -74.226851      671.55033    
   6753000   299.15795      0.040035964    17.765389      742.21911     -72.31968       669.89943    
   6754000   300.66074      0.040035964    19.357342      745.94757     -71.218279      674.72929    
   6755000   305.13361      0.040035964    23.602272      757.0449      -73.517221      683.52768    
   6756000   298.30915      0.040035964    16.944674      740.11323     -67.281274      672.83196    
   6757000   303.02296      0.040035964    20.28812       751.8083      -67.725121      684.08318    
   6758000   295.36626      0.040035964    20.92115       732.81182     -68.288017      664.52381    
   6759000   293.64522      0.040035964    14.593823      728.54189     -62.884457      665.65744    
   6760000   298.82337      0.040035964    15.867126      741.38902     -66.063585      675.32543    
   6761000   306.29258      0.040035964    21.80937       759.92033     -63.398999      696.52133    
   6762000   305.83779      0.040035964    26.976154      758.79198     -75.933455      682.85853    
   6763000   296.28786      0.040035964    26.488518      735.09834     -70.298719      664.79962    
   6764000   292.52775      0.040035964    18.465122      725.76941     -64.679482      661.08993    
   6765000   310.01436      0.040035964    20.438635      769.15417     -69.147075      700.00709    
   6766000   305.65917      0.040035964    24.939089      758.34883     -71.092375      687.25646    
   6767000   296.05641      0.040035964    21.428035      734.52412     -62.850228      671.67389    
   6768000   297.17559      0.040035964    11.044474      737.30083     -60.017837      677.283      
   6769000   306.02216      0.040035964    20.158811      759.24941     -58.707538      700.54187    
   6770000   298.36782      0.040035964    25.78107       740.25879     -53.271663      686.98713    
   6771000   294.31607      0.040035964    17.075767      730.20628     -64.485701      665.72058    
   6772000   303.42847      0.040035964    20.491174      752.8144      -61.666328      691.14808    
   6773000   314.48441      0.040035964    26.572918      780.24448     -60.596943      719.64754    
   6774000   288.76314      0.040035964    22.004051      716.42931     -64.077136      652.35217    
   6775000   298.36089      0.040035964    18.685685      740.24158     -60.664664      679.57692    
   6776000   311.0718       0.040035964    18.300779      771.77771     -65.982963      705.79475    
   6777000   285.37557      0.040035964    17.549342      708.02465     -66.586284      641.43837    
   6778000   299.8016       0.040035964    19.132446      743.81604     -55.757641      688.0584     
   6779000   317.26494      0.040035964    22.10122       787.14306     -60.203515      726.93955    
   6780000   292.67448      0.040035964    20.587868      726.13346     -59.041718      667.09175    
   6781000   294.06943      0.040035964    18.824092      729.59437     -62.416789      667.17758    
   6782000   315.65122      0.040035964    23.077964      783.13937     -57.773256      725.36611    
   6783000   300.803        0.040035964    19.382401      746.30052     -62.302096      683.99843    
   6784000   292.98288      0.040035964    18.68976       726.8986      -62.165027      664.73357    
   6785000   307.39449      0.040035964    22.661482      762.65421     -65.765526      696.88869    
   6786000   307.25256      0.040035964    22.405725      762.30207     -68.089         694.21307    
   6787000   306.8928       0.040035964    23.253585      761.40949     -73.690245      687.71925    
   6788000   300.54273      0.040035964    18.91004       745.6548      -72.405695      673.24911    
   6789000   290.74401      0.040035964    14.671399      721.3439      -71.61751       649.72639    
   6790000   311.96588      0.040035964    40.225708      773.99595     -69.683292      704.31266    
   6791000   306.30807      0.040035964    12.815841      759.95875     -69.723482      690.23527    
   6792000   297.62998      0.040035964    10.426118      738.42819     -69.83013       668.59806    
   6793000   305.24576      0.040035964   -6.4382198      757.32314     -68.444206      688.87894    
   6794000   287.29909      0.040035964    14.048301      712.79696     -68.477261      644.3197     
   6795000   296.52763      0.040035964    25.766777      735.69324     -71.249778      664.44346    
   6796000   307.92738      0.040035964    18.995656      763.97631     -76.634807      687.34151    
   6797000   297.31919      0.040035964    13.984356      737.6571      -75.828808      661.8283     
   6798000   293.05105      0.040035964    18.80718       727.06772     -66.649387      660.41834    
   6799000   301.31086      0.040035964    25.09658       747.56054     -64.142693      683.41785    
   6800000   319.00598      0.040035964    11.391319      791.46263     -63.39723       728.0654     
   6801000   296.61454      0.040035964    15.527502      735.90885     -62.429977      673.47887    
   6802000   286.23805      0.040035964    26.31438       710.16449     -60.613195      649.5513     
   6803000   316.23904      0.040035964    23.530237      784.59777     -65.425629      719.17214    
   6804000   287.09254      0.040035964    7.6614561      712.28452     -63.270787      649.01373    
   6805000   295.24263      0.040035964    27.481302      732.50511     -66.038805      666.46631    
   6806000   306.55428      0.040035964    26.076771      760.56963     -71.175081      689.39454    
   6807000   317.78513      0.040035964    20.284517      788.43367     -64.961908      723.47177    
   6808000   296.05154      0.040035964    12.080604      734.51204     -65.678219      668.83382    
   6809000   294.00102      0.040035964    39.39105       729.42464     -64.248322      665.17632    
   6810000   298.17507      0.040035964    15.876021      739.78056     -66.281688      673.49887    
   6811000   305.864        0.040035964    20.901527      758.85702     -63.216582      695.64044    
   6812000   308.75719      0.040035964    22.387339      766.03511     -68.761671      697.27343    
   6813000   299.53617      0.040035964    23.973417      743.15751     -65.498242      677.65926    
   6814000   302.44579      0.040035964    17.097904      750.37634     -67.274715      683.10163    
   6815000   290.11182      0.040035964    22.966426      719.77542     -63.375237      656.40018    
   6816000   295.669        0.040035964    24.406016      733.56294     -67.874641      665.6883     
   6817000   300.20042      0.040035964    23.374288      744.80553     -65.408384      679.39715    
   6818000   300.71675      0.040035964    24.070243      746.08654     -64.669114      681.41742    
   6819000   292.15891      0.040035964    20.411659      724.85431     -62.588372      662.26594    
   6820000   299.60075      0.040035964    15.975445      743.31772     -59.875274      683.44245    
   6821000   302.69624      0.040035964    25.272376      750.99772     -57.715642      693.28207    
   6822000   300.60902      0.040035964    19.74609       745.81926     -59.907876      685.91138    
   6823000   306.85071      0.040035964    19.673953      761.30507     -56.776679      704.52839    
   6824000   318.5508       0.040035964    22.772895      790.33331     -58.278182      732.05513    
   6825000   304.60352      0.040035964    20.801776      755.72972     -62.45972       693.27       
   6826000   295.78596      0.040035964    21.563546      733.85312     -68.080144      665.77297    
   6827000   288.35512      0.040035964    16.898344      715.417       -63.207638      652.20937    
   6828000   290.37044      0.040035964    15.769107      720.41707     -62.524753      657.89232    
   6829000   299.7892       0.040035964    19.676431      743.78526     -62.630786      681.15447    
   6830000   304.83652      0.040035964    34.396833      756.30782     -65.813875      690.49394    
   6831000   298.1354       0.040035964    20.530713      739.68215     -62.40655       677.2756     
   6832000   292.53028      0.040035964    19.02047       725.7757      -62.094608      663.68109    
   6833000   293.16776      0.040035964    14.569246      727.35728     -65.861004      661.49628    
   6834000   302.67642      0.040035964    6.0544129      750.94855     -64.582504      686.36605    
   6835000   309.67293      0.040035964    20.329116      768.30707     -58.948352      709.35872    
   6836000   295.12424      0.040035964    20.384435      732.21137     -63.049894      669.16147    
   6837000   293.88815      0.040035964    19.704031      729.14461     -61.393868      667.75074    
   6838000   316.98846      0.040035964    22.260139      786.45711     -59.668725      726.78838    
   6839000   305.08114      0.040035964    20.203948      756.91473     -55.651308      701.26342    
   6840000   299.06595      0.040035964    20.413126      741.99087     -60.118966      681.8719     
   6841000   310.44893      0.040035964    30.038159      770.23235     -60.490474      709.74188    
   6842000   313.90757      0.040035964    16.663069      778.81333     -57.278445      721.53489    
   6843000   300.37454      0.040035964    7.0721414      745.2375      -65.548559      679.68895    
   6844000   287.97122      0.040035964    19.907219      714.46452     -65.360414      649.10411    
   6845000   318.79015      0.040035964    27.534438      790.92714     -62.640397      728.28675    
   6846000   304.17158      0.040035964    19.095601      754.65807     -60.520759      694.13731    
   6847000   296.1615       0.040035964    18.500868      734.78485     -62.900152      671.8847     
   6848000   285.48927      0.040035964    19.062299      708.30675     -69.707961      638.59878    
   6849000   314.31454      0.040035964    23.418245      779.82304     -62.939543      716.8835     
   6850000   305.0655       0.040035964    15.167822      756.87591     -65.327675      691.54823    
   6851000   290.52294      0.040035964    20.833668      720.79541     -65.848848      654.94656    
   6852000   294.70429      0.040035964    31.338269      731.16948     -68.718978      662.4505     
   6853000   311.77877      0.040035964    30.878055      773.53172     -68.399218      705.13251    
   6854000   313.20488      0.040035964    10.984492      777.06994     -62.781535      714.2884     
   6855000   301.26694      0.040035964    26.641285      747.45157     -65.475441      681.97613    
   6856000   303.81508      0.040035964    21.847005      753.77358     -66.925865      686.84772    
   6857000   312.301        0.040035964    9.6050593      774.82739     -59.074556      715.75284    
   6858000   293.75057      0.040035964    20.59183       728.80327     -69.416284      659.38698    
   6859000   294.46799      0.040035964    27.084716      730.5832      -64.470357      666.11284    
   6860000   305.65261      0.040035964    19.390814      758.33255     -64.185598      694.14695    
   6861000   293.88105      0.040035964    18.729877      729.127       -62.072389      667.05461    
   6862000   280.21799      0.040035964    19.833937      695.22856     -62.12832       633.10024    
   6863000   298.59464      0.040035964    22.833542      740.82153     -61.897888      678.92364    
   6864000   309.02177      0.040035964    18.554435      766.69154     -62.778732      703.91281    
   6865000   295.77662      0.040035964    13.852295      733.82996     -65.033418      668.79654    
   6866000   291.05764      0.040035964    19.592529      722.12202     -68.150997      653.97102    
   6867000   307.19524      0.040035964    22.875668      762.15986     -57.044491      705.11537    
   6868000   297.93037      0.040035964    15.746171      739.17345     -52.934188      686.23927    
   6869000   303.73954      0.040035964    20.277132      753.58618     -63.62973       689.95645    
   6870000   301.72825      0.040035964    21.643336      748.59611     -57.845051      690.75106    
   6871000   295.02159      0.040035964    18.377221      731.9567      -63.105445      668.85126    
   6872000   299.93719      0.040035964    17.745826      744.15244     -62.691415      681.46102    
   6873000   292.98599      0.040035964    21.279904      726.90632     -60.626861      666.27946    
   6874000   303.68173      0.040035964    22.259194      753.44274     -65.899521      687.54322    
   6875000   292.97423      0.040035964    15.049591      726.87713     -66.247443      660.62969    
   6876000   282.57126      0.040035964    14.486953      701.06708     -67.371149      633.69593    
   6877000   306.67786      0.040035964    24.18414       760.87623     -60.675496      700.20073    
   6878000   311.40836      0.040035964    24.366189      772.61273     -51.932913      720.67982    
   6879000   287.14369      0.040035964    17.48631       712.4114      -58.796088      653.61531    
   6880000   297.42717      0.040035964    18.837905      737.92501     -62.156565      675.76844    
   6881000   299.27613      0.040035964    22.703572      742.51233     -57.786855      684.72547    
   6882000   309.03155      0.040035964    20.432826      766.71579     -57.153621      709.56217    
   6883000   295.94033      0.040035964    20.564892      734.23612     -59.258821      674.9773     
   6884000   305.66371      0.040035964    22.61639       758.36009     -61.72489       696.6352     
   6885000   307.35078      0.040035964    19.4887        762.54575     -69.216102      693.32965    
   6886000   285.08514      0.040035964    20.372285      707.30409     -71.714099      635.58999    
   6887000   287.37018      0.040035964    19.748243      712.97333     -63.643078      649.33025    
   6888000   296.61633      0.040035964    19.903912      735.9133      -71.621523      664.29177    
   6889000   302.30069      0.040035964    19.711168      750.01635     -68.057867      681.95848    
   6890000   291.34562      0.040035964    12.187989      722.83652     -68.123735      654.71278    
   6891000   300.20321      0.040035964    20.72846       744.81244     -65.595305      679.21713    
   6892000   298.01856      0.040035964    24.424901      739.39225     -68.694048      670.69821    
   6893000   296.20379      0.040035964    22.175317      734.88977     -64.465569      670.4242     
   6894000   297.70642      0.040035964    18.618314      738.61784     -68.102375      670.51546    
   6895000   320.31981      0.040035964    19.688763      794.72227     -71.482444      723.23983    
   6896000   306.44171      0.040035964    23.808534      760.29032     -66.879611      693.41071    
   6897000   297.10068      0.040035964    25.370192      737.11499     -60.423825      676.69116    
   6898000   295.15257      0.040035964    13.092911      732.28166     -65.596244      666.68541    
   6899000   303.69301      0.040035964    18.889687      753.47074     -56.990615      696.48013    
   6900000   299.02046      0.040035964    21.438804      741.87799     -63.410104      678.46789    
   6901000   306.4686       0.040035964    26.409541      760.35704     -59.78049       700.57655    
   6902000   296.85605      0.040035964    21.67752       736.50805     -52.688575      683.81948    
   6903000   291.04836      0.040035964    18.598679      722.099       -62.83196       659.26704    
   6904000   309.99679      0.040035964    24.591497      769.11058     -58.431172      710.67941    
   6905000   306.63077      0.040035964    19.01435       760.75938     -60.818205      699.94118    
   6906000   297.68738      0.040035964    21.81615       738.57059     -65.002912      673.56767    
   6907000   283.80204      0.040035964    20.255273      704.12069     -74.177758      629.94293    
   6908000   300.79121      0.040035964    21.330359      746.27129     -75.873499      670.3978     
   6909000   300.17861      0.040035964    18.342358      744.7514      -72.643183      672.10822    
   6910000   303.38845      0.040035964    19.166804      752.71511     -66.261284      686.45383    
   6911000   297.46632      0.040035964    18.26957       738.02213     -70.428133      667.594      
   6912000   292.50495      0.040035964    21.578834      725.71285     -70.192302      655.52055    
   6913000   324.38729      0.040035964    25.404598      804.81382     -75.728385      729.08544    
   6914000   302.52765      0.040035964    15.608252      750.57944     -68.639738      681.9397     
   6915000   296.18935      0.040035964    17.81499       734.85394     -64.629172      670.22477    
   6916000   286.14488      0.040035964    21.302303      709.93335     -64.712576      645.22077    
   6917000   306.23653      0.040035964    24.921612      759.78128     -66.368025      693.41325    
   6918000   289.98585      0.040035964    19.201725      719.46289     -72.821164      646.64172    
   6919000   288.65253      0.040035964    19.729745      716.15487     -73.376366      642.77851    
   6920000   309.92368      0.040035964    26.12617       768.92919     -65.670207      703.25899    
   6921000   307.7162       0.040035964    19.582465      763.45238     -66.665682      696.7867     
   6922000   294.43553      0.040035964    20.828776      730.50267     -61.247506      669.25517    
   6923000   300.78292      0.040035964    17.0832        746.25072     -58.869784      687.38094    
   6924000   313.63788      0.040035964    23.750257      778.14422     -61.447174      716.69705    
   6925000   298.3849       0.040035964    25.136122      740.30115     -54.540623      685.76053    
   6926000   296.60683      0.040035964    20.592396      735.88971     -57.472289      678.41742    
   6927000   289.46467      0.040035964    14.622829      718.16983     -58.330402      659.83943    
   6928000   303.28183      0.040035964    18.535306      752.45058     -61.37114       691.07944    
   6929000   296.77332      0.040035964    23.16165       736.30279     -55.555972      680.74681    
   6930000   293.59052      0.040035964    18.439184      728.40616     -61.109688      667.29648    
   6931000   300.21218      0.040035964    7.8941729      744.83468     -58.937791      685.89689    
   6932000   299.51486      0.040035964    30.216735      743.10461     -54.663749      688.44086    
   6933000   290.70411      0.040035964    12.299135      721.2449      -57.854373      663.39053    
   6934000   309.82766      0.040035964    8.5752901      768.69097     -58.169011      710.52196    
   6935000   301.07907      0.040035964    24.529184      746.98548     -60.023793      686.96169    
   6936000   304.03442      0.040035964    32.079257      754.31777     -61.041248      693.27652    
   6937000   299.34441      0.040035964    34.578205      742.68173     -61.143378      681.53836    
   6938000   294.62179      0.040035964    19.781629      730.96478     -55.886626      675.07815    
   6939000   310.70882      0.040035964    21.278071      770.87715     -56.849948      714.0272     
   6940000   301.06803      0.040035964    29.382296      746.95808     -61.931694      685.02639    
   6941000   307.19477      0.040035964    13.925526      762.15868     -68.798937      693.35975    
   6942000   314.97126      0.040035964    27.148232      781.45238     -59.707138      721.74525    
   6943000   297.67063      0.040035964    32.255344      738.52904     -58.357706      680.17134    
   6944000   300.39742      0.040035964    20.993334      745.29429     -60.586841      684.70745    
   6945000   294.19676      0.040035964    20.305589      729.91027     -56.513181      673.39709    
   6946000   299.44291      0.040035964    21.594763      742.9261      -56.611995      686.31411    
   6947000   310.56054      0.040035964    22.746901      770.50927     -61.677701      708.83157    
   6948000   290.69922      0.040035964    19.186883      721.23277     -55.86912       665.36366    
   6949000   295.30476      0.040035964    21.163669      732.65924     -57.596381      675.06286    
   6950000   297.66419      0.040035964    20.160764      738.51306     -64.626748      673.88631    
   6951000   301.2746       0.040035964    22.389718      747.47059     -62.014809      685.45578    
   6952000   307.02121      0.040035964    22.145204      761.7281      -59.762411      701.96569    
   6953000   304.64976      0.040035964    23.830638      755.84445     -67.574257      688.2702     
   6954000   297.5692       0.040035964    11.934678      738.27739     -69.172753      669.10463    
   6955000   304.11789      0.040035964    22.34984       754.52488     -71.144825      683.38006    
   6956000   299.38277      0.040035964    18.426455      742.77691     -70.455414      672.3215     
   6957000   305.6874       0.040035964    20.830627      758.41887     -63.810586      694.60828    
   6958000   291.85181      0.040035964    18.874951      724.0924      -60.148146      663.94425    
   6959000   296.48748      0.040035964    14.46792       735.59361     -63.961679      671.63193    
   6960000   310.69484      0.040035964    13.462388      770.84245     -64.425581      706.41687    
   6961000   314.43937      0.040035964    26.512277      780.13274     -68.22322       711.90952    
   6962000   288.23711      0.040035964    23.700923      715.12422     -68.520206      646.60401    
   6963000   293.50437      0.040035964    16.943576      728.19243     -71.619604      656.57282    
   6964000   305.5782       0.040035964    18.863985      758.14795     -73.431252      684.7167     
   6965000   311.8408       0.040035964    18.53236       773.68563     -72.967398      700.71823    
   6966000   299.08813      0.040035964    24.552996      742.04589     -62.975698      679.07019    
   6967000   296.22044      0.040035964    18.977972      734.93107     -65.247412      669.68366    
   6968000   306.17662      0.040035964    15.578278      759.63262     -63.375912      696.25671    
   6969000   306.29288      0.040035964    21.832824      759.92108     -64.699787      695.22129    
   6970000   293.03834      0.040035964    26.92449       727.03621     -66.23363       660.80258    
   6971000   295.3187       0.040035964    19.295257      732.69385     -61.928186      670.76566    
   6972000   296.00106      0.040035964    18.929171      734.38679     -58.590169      675.79662    
   6973000   305.99929      0.040035964    23.264967      759.19268     -59.024222      700.16846    
   6974000   298.02636      0.040035964    17.570444      739.41162     -64.268474      675.14314    
   6975000   299.7181       0.040035964    19.002596      743.60887     -62.66152       680.94735    
   6976000   312.57148      0.040035964    28.58359       775.49846     -63.645242      711.85322    
   6977000   303.23291      0.040035964    18.361473      752.3292      -61.591886      690.73732    
   6978000   294.01924      0.040035964    18.695109      729.46985     -65.311757      664.15809    
   6979000   297.59306      0.040035964    23.360685      738.33659     -61.767745      676.56884    
   6980000   302.91112      0.040035964    23.258493      751.53084     -65.743128      685.78771    
   6981000   302.24953      0.040035964    3.1787194      749.88942     -66.750869      683.13855    
   6982000   301.47852      0.040035964    9.5535616      747.97651     -64.532734      683.44378    
   6983000   300.48961      0.040035964    22.612267      745.52301     -68.397222      677.12579    
   6984000   309.87607      0.040035964    29.673613      768.81108     -66.969475      701.84161    
   6985000   304.76477      0.040035964    23.573695      756.12979     -57.959532      698.17025    
   6986000   295.96086      0.040035964    16.002398      734.28704     -67.294083      666.99296    
   6987000   290.20596      0.040035964    27.201468      720.00899     -67.268247      652.74074    
   6988000   300.06889      0.040035964    47.379042      744.47918     -60.156314      684.32286    
   6989000   310.67662      0.040035964    17.631083      770.79727     -69.425897      701.37137    
   6990000   294.45413      0.040035964   -0.86200481     730.54882     -63.739216      666.80961    
   6991000   288.16385      0.040035964    24.683227      714.94245     -67.554008      647.38844    
   6992000   302.61767      0.040035964    32.795459      750.80279     -64.610772      686.19202    
   6993000   303.96747      0.040035964    22.118583      754.15167     -63.73141       690.42026    
   6994000   293.98149      0.040035964    17.108001      729.37619     -57.386757      671.98943    
   6995000   305.05652      0.040035964    17.544394      756.85363     -61.317498      695.53613    
   6996000   297.96732      0.040035964    22.057923      739.26513     -62.602479      676.66265    
   6997000   297.9412       0.040035964    21.952692      739.20033     -61.201756      677.99857    
   6998000   300.6194       0.040035964    17.575398      745.84502     -65.666955      680.17806    
   6999000   291.9047       0.040035964    23.044774      724.22362     -66.768333      657.45528    
   7000000   298.659        0.040035964    20.437968      740.98122     -69.302291      671.67893    
   7001000   300.90955      0.040035964    12.850077      746.56489     -66.238828      680.32606    
   7002000   297.73496      0.040035964    21.633298      738.68864     -57.854809      680.83383    
   7003000   302.90251      0.040035964    19.484732      751.50948     -65.249669      686.25981    
   7004000   298.63001      0.040035964    20.42934       740.9093      -66.709036      674.20026    
   7005000   310.66576      0.040035964    22.447157      770.77032     -68.769518      702.00081    
   7006000   303.45732      0.040035964    21.754937      752.88597     -72.255895      680.63008    
   7007000   305.60632      0.040035964    23.485135      758.2177      -66.789879      691.42782    
   7008000   294.96459      0.040035964    17.861121      731.81528     -74.221717      657.59356    
   7009000   298.04647      0.040035964    19.572236      739.46152     -69.591551      669.86997    
   7010000   305.45469      0.040035964    19.319028      757.84152     -66.152955      691.68856    
   7011000   291.0174       0.040035964    25.732168      722.02219     -65.413301      656.60888    
   7012000   304.20645      0.040035964    17.469196      754.74458     -66.99566       687.74892    
   7013000   308.67933      0.040035964    24.088043      765.84194     -64.044864      701.79707    
   7014000   297.28297      0.040035964    23.340355      737.56723     -66.499435      671.0678     
   7015000   309.58653      0.040035964    24.724896      768.09271     -63.603137      704.48958    
   7016000   304.63355      0.040035964    7.0778389      755.80424     -62.786506      693.01774    
   7017000   307.48696      0.040035964    22.396865      762.88363     -59.986361      702.89727    
   7018000   298.98573      0.040035964    23.529683      741.79183     -71.284733      670.5071     
   7019000   310.67085      0.040035964    17.610198      770.78295     -69.644177      701.13877    
   7020000   293.07133      0.040035964    21.527127      727.11806     -60.48362       666.63444    
   7021000   298.70275      0.040035964    30.770378      741.08976     -62.296133      678.79363    
   7022000   312.59954      0.040035964    24.428906      775.56807     -61.902487      713.66558    
   7023000   305.59921      0.040035964    19.550263      758.20006     -62.416304      695.78376    
   7024000   288.18685      0.040035964    16.393788      714.99951     -58.73156       656.26795    
   7025000   314.74844      0.040035964    22.798352      780.89955     -61.09041       719.80914    
   7026000   318.24587      0.040035964    23.165117      789.57677     -57.270224      732.30655    
   7027000   287.07317      0.040035964    13.479499      712.23644     -60.532456      651.70399    
   7028000   294.39331      0.040035964    27.663597      730.39792     -57.511766      672.88615    
   7029000   309.16643      0.040035964    23.978436      767.05043     -57.458091      709.59233    
   7030000   293.19274      0.040035964    15.641857      727.41926     -55.574404      671.84486    
   7031000   286.30119      0.040035964    22.971435      710.32113     -56.818613      653.50252    
   7032000   300.02597      0.040035964    42.411362      744.37269     -67.014904      677.35779    
   7033000   303.71614      0.040035964    26.988147      753.52813     -65.177425      688.3507     
   7034000   300.17735      0.040035964    12.628496      744.74828     -61.420364      683.32792    
   7035000   296.97416      0.040035964    22.850782      736.80108     -67.847332      668.95375    
   7036000   304.13378      0.040035964    22.181395      754.56429     -61.398511      693.16578    
   7037000   295.95947      0.040035964    20.3271        734.2836      -60.197369      674.08623    
   7038000   297.62707      0.040035964    18.084818      738.42097     -63.682535      674.73843    
   7039000   304.65884      0.040035964    23.042905      755.86697     -59.102599      696.76437    
   7040000   309.59015      0.040035964    25.419025      768.10169     -62.565784      705.53591    
   7041000   299.66893      0.040035964    22.49303       743.48688     -62.759181      680.7277     
   7042000   305.36791      0.040035964    20.067074      757.62621     -65.381102      692.24511    
   7043000   303.05482      0.040035964    20.584911      751.88736     -70.276875      681.61048    
   7044000   286.12829      0.040035964    21.472806      709.89218     -67.011654      642.88052    
   7045000   306.74177      0.040035964    21.192669      761.03479     -61.85009       699.1847     
   7046000   307.33343      0.040035964    21.128427      762.50271     -67.947811      694.5549     
   7047000   295.19992      0.040035964    25.779379      732.39914     -58.632123      673.76702    
   7048000   291.5036       0.040035964    20.325229      723.22847     -70.12132       653.10715    
   7049000   301.04197      0.040035964    22.796686      746.89343     -65.083045      681.81039    
   7050000   304.11939      0.040035964    24.622138      754.52859     -66.909999      687.61859    
   7051000   295.12308      0.040035964    12.152431      732.2085      -68.503179      663.70532    
   7052000   301.10674      0.040035964    19.161293      747.05412     -64.694492      682.35963    
   7053000   309.95021      0.040035964    20.949523      768.99501     -66.008981      702.98602    
   7054000   300.73355      0.040035964    25.194276      746.12823     -59.988185      686.14004    
   7055000   294.65299      0.040035964    19.944716      731.0422      -61.552176      669.49002    
   7056000   295.36453      0.040035964    22.458152      732.80755     -58.455202      674.35234    
   7057000   308.24634      0.040035964    24.26636       764.76766     -59.207037      705.56063    
   7058000   309.04003      0.040035964    3.244976       766.73683     -60.470763      706.26607    
   7059000   277.77952      0.040035964    12.670647      689.17864     -67.964533      621.2141     
   7060000   296.35507      0.040035964    29.230046      735.2651      -65.971628      669.29348    
   7061000   329.57377      0.040035964    26.19452       817.68161     -62.638178      755.04344    
   7062000   312.91211      0.040035964    20.40495       776.34358     -61.649934      714.69365    
   7063000   296.34306      0.040035964    4.4766915      735.23529     -69.498888      665.7364     
   7064000   288.75929      0.040035964    13.177287      716.41977     -67.889581      648.53019    
   7065000   306.05117      0.040035964    31.178278      759.32139     -64.542697      694.77869    
   7066000   311.35528      0.040035964    21.793258      772.48102     -65.797045      706.68398    
   7067000   284.80238      0.040035964    15.23162       706.60255     -67.988783      638.61377    
   7068000   297.88919      0.040035964    31.717843      739.07129     -68.194773      670.87652    
   7069000   311.21666      0.040035964    22.090413      772.13711     -62.745411      709.3917     
   7070000   308.03771      0.040035964   -17.115791      764.25005     -60.947881      703.30217    
   7071000   286.64735      0.040035964    10.575017      711.17998     -59.847977      651.332      
   7072000   288.21279      0.040035964    28.555245      715.06389     -59.448535      655.61535    
   7073000   312.06791      0.040035964    23.279205      774.24908     -69.135207      705.11387    
   7074000   310.40962      0.040035964    13.508923      770.13481     -66.884538      703.25027    
   7075000   284.53439      0.040035964    14.0908        705.93767     -65.412746      640.52492    
   7076000   299.3451       0.040035964    21.823288      742.68344     -62.858354      679.82509    
   7077000   309.01314      0.040035964    28.458398      766.67011     -67.314053      699.35606    
   7078000   308.61031      0.040035964    20.101529      765.67068     -64.136266      701.53442    
   7079000   297.80528      0.040035964    15.808537      738.8631      -59.418841      679.44426    
   7080000   297.03832      0.040035964    13.221913      736.96027     -65.027208      671.93306    
   7081000   290.40189      0.040035964    20.547779      720.4951      -57.541546      662.95355    
   7082000   300.82398      0.040035964    20.186482      746.35259     -61.80966       684.54293    
   7083000   308.63526      0.040035964    21.836577      765.7326      -57.264123      708.46847    
   7084000   304.84402      0.040035964    21.393322      756.32642     -65.388145      690.93827    
   7085000   292.77744      0.040035964    17.711906      726.38891     -67.595494      658.79341    
   7086000   302.41635      0.040035964    17.566538      750.30331     -73.907742      676.39557    
   7087000   287.6808       0.040035964    22.526552      713.74398     -76.264937      637.47905    
   7088000   307.69429      0.040035964    17.915708      763.39801     -81.393184      682.00483    
   7089000   309.93239      0.040035964    21.441658      768.9508      -70.082566      698.86824    
   7090000   298.63002      0.040035964    11.063039      740.9093      -75.601701      665.3076     
   7091000   284.67532      0.040035964    23.237446      706.28732     -71.943804      634.34351    
   7092000   288.05993      0.040035964    32.175285      714.68463     -70.21887       644.46576    
   7093000   306.41878      0.040035964    23.754499      760.23345     -68.994932      691.23852    
   7094000   302.76005      0.040035964    11.915468      751.15602     -65.849521      685.3065     
   7095000   302.31672      0.040035964    19.811739      750.05613     -64.61716       685.43897    
   7096000   300.01022      0.040035964    20.659002      744.33362     -64.34415       679.98947    
   7097000   291.22834      0.040035964    19.374199      722.54555     -64.660269      657.88528    
   7098000   309.46504      0.040035964    21.328971      767.79131     -64.123263      703.66804    
   7099000   317.36627      0.040035964    24.183072      787.39446     -63.49341       723.90105    
   7100000   308.09414      0.040035964    22.597209      764.39006     -64.512511      699.87755    
   7101000   297.76756      0.040035964    19.602361      738.76952     -63.107288      675.66223    
   7102000   296.25467      0.040035964    19.740986      735.01601     -61.376916      673.63909    
   7103000   304.67218      0.040035964    28.491112      755.90008     -59.459605      696.44048    
   7104000   300.06745      0.040035964    20.102502      744.47561     -59.033156      685.44245    
   7105000   312.29602      0.040035964    9.2539541      774.81503     -52.947443      721.86759    
   7106000   301.29993      0.040035964    23.32046       747.53343     -60.110204      687.42323    
   7107000   301.92694      0.040035964    24.963912      749.08907     -65.93429       683.15478    
   7108000   294.51791      0.040035964    20.747493      730.70706     -62.77397       667.93309    
   7109000   288.04831      0.040035964    11.175566      714.65579     -65.511471      649.14432    
   7110000   312.59891      0.040035964    25.068498      775.56651     -59.310082      716.25643    
   7111000   303.48708      0.040035964    21.939579      752.95981     -64.379413      688.5804     
   7112000   276.75642      0.040035964    17.801359      686.64032     -64.672579      621.96774    
   7113000   295.97891      0.040035964    16.06999       734.33183     -61.383027      672.9488     
   7114000   297.03381      0.040035964    19.81903       736.94908     -64.472686      672.47639    
   7115000   302.14978      0.040035964    35.734512      749.64193     -68.340193      681.30174    
   7116000   301.4935       0.040035964    16.407996      748.01369     -66.559068      681.45462    
   7117000   316.49795      0.040035964    23.716423      785.24015     -65.102726      720.13742    
   7118000   301.0271       0.040035964    22.059793      746.85653     -56.719399      690.13713    
   7119000   292.432        0.040035964    20.389342      725.53186     -65.434743      660.09712    
   7120000   299.30458      0.040035964    23.986805      742.58291     -64.073308      678.5096     
   7121000   302.85669      0.040035964    20.810784      751.39579     -67.799882      683.5959     
   7122000   297.03335      0.040035964    16.423246      736.94794     -67.690302      669.25764    
   7123000   312.31725      0.040035964    24.775999      774.8677      -58.77628       716.09142    
   7124000   302.31453      0.040035964    21.242929      750.05069     -63.226799      686.82389    
   7125000   292.39458      0.040035964    12.188056      725.43901     -68.239323      657.19969    
   7126000   307.4205       0.040035964    15.888154      762.71872     -66.629507      696.08922    
   7127000   295.8978       0.040035964    20.406763      734.1306      -71.656783      662.47382    
   7128000   289.15296      0.040035964    27.642485      717.39647     -61.155018      656.24145    
   7129000   301.2408       0.040035964    20.581996      747.38674     -59.907696      687.47904    
   7130000   322.39849      0.040035964    8.9841922      799.87955     -65.771286      734.10826    
   7131000   297.27243      0.040035964    19.869092      737.5411      -62.615391      674.92571    
   7132000   290.17445      0.040035964    25.056243      719.93081     -63.990056      655.94075    
   7133000   299.82249      0.040035964    14.706018      743.86787     -65.254618      678.61325    
   7134000   315.50529      0.040035964    21.390853      782.77732     -71.570693      711.20663    
   7135000   292.79034      0.040035964    20.357901      726.42092     -64.406112      662.0148     
   7136000   295.35497      0.040035964    18.773912      732.78381     -63.323239      669.46057    
   7137000   290.937        0.040035964    20.871523      721.82272     -66.476245      655.34648    
   7138000   308.75342      0.040035964    23.745536      766.02574     -67.087951      698.93779    
   7139000   296.26496      0.040035964    21.862506      735.04152     -63.692037      671.34948    
   7140000   290.67304      0.040035964    21.736401      721.16784     -61.490805      659.67703    
   7141000   284.67391      0.040035964    17.641836      706.28381     -57.005686      649.27812    
   7142000   297.8068       0.040035964    14.684184      738.86689     -63.289284      675.5776     
   7143000   308.6148       0.040035964    25.124434      765.68183     -61.921936      703.75989    
   7144000   291.20214      0.040035964    21.507458      722.48053     -58.511128      663.9694     
   7145000   322.83348      0.040035964    19.800617      800.95877     -58.864385      742.09438    
   7146000   307.19837      0.040035964    21.535409      762.16763     -59.438276      702.72936    
   7147000   294.45555      0.040035964    27.138363      730.55233     -64.187961      666.36437    
   7148000   294.352        0.040035964    19.793388      730.29543     -64.421815      665.87362    
   7149000   299.9889       0.040035964    13.913134      744.28074     -72.277373      672.00337    
   7150000   309.88299      0.040035964    17.788148      768.82823     -64.305241      704.52299    
   7151000   294.7716       0.040035964    28.545098      731.33646     -59.167289      672.16917    
   7152000   288.51739      0.040035964    19.676414      715.8196      -61.154062      654.66554    
   7153000   302.8233       0.040035964    16.595257      751.31296     -60.094461      691.2185     
   7154000   309.11079      0.040035964    13.855452      766.9124      -60.666721      706.24568    
   7155000   295.11708      0.040035964    23.503063      732.1936      -64.452335      667.74127    
   7156000   308.55327      0.040035964    21.525325      765.52916     -64.45418       701.07498    
   7157000   302.796        0.040035964    11.200629      751.24523     -64.040856      687.20437    
   7158000   310.28607      0.040035964    13.711907      769.82828     -68.003974      701.82431    
   7159000   298.97661      0.040035964    24.342499      741.76921     -67.673471      674.09574    
   7160000   293.245        0.040035964    22.560188      727.54894     -68.809112      658.73983    
   7161000   276.724        0.040035964    23.142197      686.55988     -65.821992      620.73789    
   7162000   287.76168      0.040035964    14.87756       713.94465     -70.052787      643.89186    
   7163000   319.92332      0.040035964    9.913532       793.73857     -67.302209      726.43636    
   7164000   303.08388      0.040035964    36.463073      751.95947     -63.213612      688.74586    
   7165000   284.59843      0.040035964    17.276102      706.09656     -60.778277      645.31828    
   7166000   308.57563      0.040035964    16.687312      765.58464     -62.397157      703.18748    
   7167000   300.92547      0.040035964    20.42395       746.60439     -65.527914      681.07647    
   7168000   294.94443      0.040035964    17.869948      731.76526     -64.692522      667.07274    
   7169000   299.94061      0.040035964    14.838099      744.16093     -71.716564      672.44436    
   7170000   317.64106      0.040035964    20.813264      788.07622     -75.915302      712.16092    
   7171000   291.40463      0.040035964    37.560921      722.98292     -67.909259      655.07367    
   7172000   299.60745      0.040035964    17.92943       743.33435     -74.036547      669.2978     
   7173000   302.79241      0.040035964    22.455201      751.23631     -65.034199      686.20211    
   7174000   284.21965      0.040035964    13.485811      705.15679     -71.578525      633.57827    
   7175000   302.98637      0.040035964    13.766097      751.71753     -67.394737      684.32279    
   7176000   308.59379      0.040035964    22.229762      765.62969     -67.222626      698.40706    
   7177000   297.28746      0.040035964    20.201936      737.57837     -71.838633      665.73974    
   7178000   295.73399      0.040035964    22.99126       733.72417     -67.103729      666.62044    
   7179000   323.35518      0.040035964    24.571493      802.25312     -62.785838      739.46728    
   7180000   305.81753      0.040035964    23.97817       758.74171     -61.819991      696.92172    
   7181000   285.2139       0.040035964    20.487256      707.62356     -68.837964      638.7856     
   7182000   300.57075      0.040035964    25.006208      745.72432     -60.617252      685.10707    
   7183000   316.70461      0.040035964    20.449498      785.75287     -64.418298      721.33457    
   7184000   290.31758      0.040035964    20.584672      720.28591     -66.954062      653.33185    
   7185000   296.52595      0.040035964    19.338616      735.68906     -57.551322      678.13774    
   7186000   298.92039      0.040035964    18.549222      741.62972     -61.406203      680.22352    
   7187000   283.37746      0.040035964    19.199087      703.06729     -64.13101       638.93628    
   7188000   306.76639      0.040035964    24.850158      761.09586     -68.849989      692.24587    
   7189000   313.28254      0.040035964    25.146618      777.26263     -66.965291      710.29734    
   7190000   300.62793      0.040035964    17.942429      745.86618     -63.821179      682.045      
   7191000   270.07682      0.040035964    17.96339       670.06803     -70.599452      599.46858    
   7192000   299.29039      0.040035964    20.576018      742.5477      -70.410517      672.13719    
   7193000   303.37521      0.040035964    22.34116       752.68225     -68.398293      684.28396    
   7194000   296.61797      0.040035964    20.192446      735.91735     -74.653835      661.26351    
   7195000   285.50939      0.040035964    18.505913      708.35668     -74.344047      634.01263    
   7196000   301.94805      0.040035964    20.103474      749.14143     -69.723501      679.41793    
   7197000   309.81904      0.040035964    20.515606      768.66957     -75.921771      692.7478     
   7198000   286.50837      0.040035964    16.396414      710.83518     -71.826606      639.00857    
   7199000   292.10133      0.040035964    23.302935      724.71146     -75.785821      648.92564    
   7200000   301.05192      0.040035964    25.031893      746.9181      -73.003865      673.91424    
   7201000   308.13181      0.040035964    25.242662      764.4835      -67.744585      696.73892    
   7202000   295.07002      0.040035964    19.907616      732.07685     -69.970473      662.10638    
   7203000   304.22218      0.040035964    21.692107      754.78362     -64.664477      690.11914    
   7204000   301.93769      0.040035964    17.260882      749.11573     -71.619395      677.49634    
   7205000   291.29171      0.040035964    19.080348      722.70276     -76.122031      646.58073    
   7206000   305.66005      0.040035964    30.207515      758.35102     -74.14532       684.2057     
   7207000   306.34151      0.040035964    24.941954      760.04174     -67.394364      692.64738    
   7208000   305.66199      0.040035964    19.4907        758.35582     -69.976011      688.37981    
   7209000   284.53343      0.040035964    21.338882      705.93529     -71.771086      634.16421    
   7210000   291.53386      0.040035964    22.213451      723.30354     -68.262898      655.04065    
   7211000   304.59612      0.040035964    22.712873      755.71137     -72.579755      683.13162    
   7212000   306.56541      0.040035964    23.78018       760.59723     -61.568272      699.02895    
   7213000   294.04841      0.040035964    18.690438      729.54222     -73.88257       655.65965    
   7214000   312.23261      0.040035964    19.457662      774.65771     -68.980147      705.67756    
   7215000   297.30591      0.040035964    21.386477      737.62416     -68.766953      668.85721    
   7216000   291.19073      0.040035964    22.645127      722.45223     -70.734027      651.71821    
   7217000   302.52343      0.040035964    22.670867      750.56898     -71.827239      678.74174    
   7218000   301.35586      0.040035964    19.631923      747.6722      -74.334924      673.33727    
   7219000   301.6728       0.040035964    28.986968      748.45853     -75.651647      672.80688    
   7220000   303.2538       0.040035964    15.893598      752.38104     -72.996716      679.38432    
   7221000   312.06073      0.040035964    20.770397      774.23127     -70.141124      704.09015    
   7222000   300.54076      0.040035964    20.514246      745.64991     -68.007323      677.64259    
   7223000   305.15489      0.040035964    19.348024      757.09769     -70.954928      686.14276    
   7224000   306.40137      0.040035964    21.110837      760.19024     -70.483544      689.70669    
   7225000   292.36753      0.040035964    17.913907      725.3719      -72.892367      652.47953    
   7226000   305.83366      0.040035964    25.255135      758.78175     -73.165387      685.61636    
   7227000   307.21073      0.040035964    19.459913      762.19829     -71.273938      690.92435    
   7228000   298.79534      0.040035964    25.146829      741.31947     -72.855414      668.46406    
   7229000   301.44094      0.040035964    26.02852       747.88329     -70.733761      677.14953    
   7230000   303.76666      0.040035964    21.991231      753.65346     -66.596007      687.05745    
   7231000   293.04651      0.040035964    14.13513       727.05647     -65.617892      661.43858    
   7232000   306.27624      0.040035964    19.310809      759.8798      -66.59758       693.28222    
   7233000   307.94131      0.040035964    19.974936      764.01088     -62.029752      701.98113    
   7234000   289.52533      0.040035964    21.496415      718.32033     -63.300216      655.02011    
   7235000   300.58476      0.040035964    19.743553      745.75907     -62.934705      682.82437    
   7236000   300.01285      0.040035964    19.524328      744.34015     -61.581326      682.75883    
   7237000   292.31314      0.040035964    20.954216      725.23695     -64.877878      660.35907    
   7238000   311.27651      0.040035964    23.212424      772.2856      -71.980152      700.30545    
   7239000   301.43421      0.040035964    21.994188      747.86658     -71.830303      676.03628    
   7240000   287.41306      0.040035964    13.273532      713.07972     -75.490666      637.58905    
   7241000   304.05497      0.040035964    16.131088      754.36877     -78.292055      676.07672    
   7242000   318.0409       0.040035964    23.325271      789.06824     -79.220169      709.84807    
   7243000   299.48253      0.040035964    20.459149      743.02441     -69.2499        673.77451    
   7244000   297.09929      0.040035964    11.588373      737.11152     -75.260343      661.85118    
   7245000   308.38205      0.040035964    24.372267      765.10437     -67.968305      697.13606    
   7246000   302.50026      0.040035964    20.203271      750.51149     -68.653503      681.85799    
   7247000   300.05715      0.040035964    33.365946      744.45006     -69.5761        674.87396    
   7248000   305.86625      0.040035964    12.59612       758.8626      -61.613182      697.24942    
   7249000   316.2131       0.040035964    8.4017315      784.53342     -66.213633      718.31979    
   7250000   311.03252      0.040035964    7.0183475      771.68025     -65.716085      705.96416    
   7251000   294.6645       0.040035964    27.913406      731.07075     -62.509994      668.56076    
   7252000   302.36303      0.040035964    20.242248      750.17101     -66.097313      684.0737     
   7253000   307.37187      0.040035964    18.877433      762.59807     -66.782896      695.81518    
   7254000   301.62835      0.040035964    18.146776      748.34825     -68.602091      679.74616    
   7255000   305.21139      0.040035964    22.012645      757.23788     -64.773325      692.46455    
   7256000   296.08973      0.040035964    19.715954      734.60679     -67.982276      666.62452    
   7257000   307.25853      0.040035964    21.040771      762.31687     -65.383104      696.93377    
   7258000   292.39812      0.040035964    19.295773      725.44778     -58.884122      666.56366    
   7259000   285.89255      0.040035964    19.222724      709.30729     -57.317868      651.98943    
   7260000   310.07364      0.040035964    20.752006      769.30125     -59.144067      710.15718    
   7261000   312.04813      0.040035964    35.425099      774.20001     -60.197642      714.00237    
   7262000   286.78656      0.040035964    18.858315      711.52535     -61.336712      650.18864    
   7263000   304.00823      0.040035964    22.406758      754.2528      -69.495575      684.75722    
   7264000   307.03378      0.040035964    20.228191      761.75926     -66.941088      694.81817    
   7265000   297.11548      0.040035964    15.512043      737.15169     -68.861483      668.29021    
   7266000   285.33831      0.040035964    20.638391      707.93222     -63.514071      644.41815    
   7267000   304.92934      0.040035964    22.269283      756.53811     -60.508469      696.02964    
   7268000   302.4721       0.040035964    21.346577      750.44161     -64.546717      685.89489    
   7269000   287.33619      0.040035964    20.849654      712.88901     -62.2382        650.65081    
   7270000   292.70186      0.040035964    19.161672      726.20138     -69.589393      656.61198    
   7271000   304.60016      0.040035964    26.674653      755.72139     -65.490591      690.2308     
   7272000   306.00253      0.040035964    14.284204      759.20071     -67.350934      691.84977    
   7273000   297.99066      0.040035964    11.734418      739.32305     -64.846931      674.47612    
   7274000   293.6316       0.040035964    20.968614      728.5081      -60.907417      667.60069    
   7275000   315.0682       0.040035964    33.793047      781.6929      -69.446458      712.24644    
   7276000   310.97844      0.040035964    17.843498      771.54608     -70.194074      701.352      
   7277000   297.47683      0.040035964    18.481991      738.04821     -67.201993      670.84622    
   7278000   288.20847      0.040035964    20.572124      715.05316     -75.892285      639.16088    
   7279000   315.90577      0.040035964    37.544504      783.77093     -68.438508      715.33242    
   7280000   305.33715      0.040035964    24.897218      757.54989     -61.909462      695.64043    
   7281000   294.82176      0.040035964    53.610353      731.4609      -68.736496      662.72441    
   7282000   300.71255      0.040035964    4.9574351      746.07612     -69.693267      676.38286    
   7283000   285.75163      0.040035964    13.456833      708.95768     -72.522693      636.43499    
   7284000   299.10033      0.040035964    49.087972      742.07616     -73.020167      669.05599    
   7285000   311.89506      0.040035964    21.747039      773.82024     -75.12233       698.69791    
   7286000   306.53409      0.040035964   -0.015269197    760.51953     -76.082806      684.43673    
   7287000   290.1573       0.040035964    20.278793      719.88826     -71.16208       648.72618    
   7288000   304.4288       0.040035964    30.649383      755.29624     -76.969174      678.32707    
   7289000   294.56593      0.040035964    24.64318       730.8262      -74.559946      656.26625    
   7290000   312.00091      0.040035964    9.5107593      774.08287     -68.182331      705.90054    
   7291000   298.43111      0.040035964    17.991553      740.41581     -64.827156      675.58865    
   7292000   295.29152      0.040035964    30.515627      732.62641     -69.117676      663.50873    
   7293000   301.20438      0.040035964    25.148005      747.29637     -70.270092      677.02628    
   7294000   309.1249       0.040035964    29.363869      766.94739     -71.091081      695.85631    
   7295000   308.83279      0.040035964    20.936348      766.22267     -77.085342      689.13733    
   7296000   294.42234      0.040035964    9.9657092      730.46995     -78.735164      651.73479    
   7297000   295.62257      0.040035964    26.478203      733.44774     -78.115153      655.33259    
   7298000   321.47042      0.040035964    20.691361      797.57696     -75.966151      721.61081    
   7299000   295.22462      0.040035964    17.961858      732.46043     -72.284758      660.17567    
   7300000   295.30388      0.040035964    13.459508      732.65705     -84.000676      648.65638    
   7301000   284.26503      0.040035964    21.680605      705.26939     -79.864183      625.4052     
   7302000   300.8137       0.040035964    20.699591      746.32709     -81.326886      665.0002     
   7303000   313.78762      0.040035964    13.949831      778.51574     -77.871519      700.64422    
   7304000   291.22574      0.040035964    20.705744      722.53909     -69.268705      653.27039    
   7305000   280.9879       0.040035964    18.804675      697.13873     -70.417182      626.72154    
   7306000   296.20144      0.040035964    24.368341      734.88394     -75.586994      659.29695    
   7307000   300.31966      0.040035964    20.613531      745.10136     -74.965571      670.13579    
   7308000   299.0357       0.040035964    15.658439      741.91581     -75.200797      666.71501    
   7309000   298.26595      0.040035964    12.651603      740.00605     -78.822908      661.18314    
   7310000   300.71357      0.040035964    16.147997      746.07866     -69.384194      676.69447    
   7311000   292.28915      0.040035964    33.267485      725.17743     -70.815787      654.36164    
   7312000   302.58589      0.040035964    28.564138      750.72394     -71.785912      678.93802    
   7313000   311.433        0.040035964    21.897829      772.67386     -73.995046      698.67882    
   7314000   298.18979      0.040035964    14.069138      739.81709     -74.886527      664.93056    
   7315000   280.06262      0.040035964    17.233919      694.84308     -75.984362      618.85872    
   7316000   303.23509      0.040035964    22.124843      752.33461     -69.21546       683.11915    
   7317000   314.4703       0.040035964    19.323766      780.20949     -67.910863      712.29863    
   7318000   280.31044      0.040035964    16.813462      695.45794     -63.547354      631.91058    
   7319000   291.5583       0.040035964    17.290088      723.36417     -68.122223      655.24194    
   7320000   308.86261      0.040035964    16.991152      766.29665     -69.306995      696.98965    
   7321000   305.09062      0.040035964    23.531961      756.93824     -70.418275      686.51997    
   7322000   303.47272      0.040035964    31.938693      752.92418     -66.986622      685.93756    
   7323000   290.79688      0.040035964    20.02914       721.47507     -76.619513      644.85556    
   7324000   306.27613      0.040035964    10.617583      759.87952     -70.780678      689.09884    
   7325000   314.36428      0.040035964    21.283078      779.94645     -74.827732      705.11872    
   7326000   292.25495      0.040035964    20.964376      725.09259     -79.182892      645.9097     
   7327000   289.22993      0.040035964    19.324805      717.58742     -78.091011      639.49641    
   7328000   304.52556      0.040035964    17.405055      755.53631     -70.212551      685.32376    
   7329000   307.8185       0.040035964    31.911119      763.70619     -75.153278      688.55291    
   7330000   294.03976      0.040035964    21.634392      729.52074     -72.071867      657.44888    
   7331000   289.00449      0.040035964    13.317835      717.02811     -64.39501       652.6331     
   7332000   302.99415      0.040035964    15.820542      751.73684     -66.359762      685.37708    
   7333000   302.29723      0.040035964    35.77418       750.00776     -66.013977      683.99379    
   7334000   303.93261      0.040035964    20.332156      754.06519     -71.096944      682.96824    
   7335000   296.92262      0.040035964    17.876565      736.6732      -69.624136      667.04907    
   7336000   297.80682      0.040035964    4.1130943      738.86692     -67.355713      671.51121    
   7337000   305.7122       0.040035964    29.419523      758.48039     -65.23416       693.24623    
   7338000   300.57453      0.040035964    18.36622       745.73369     -68.866254      676.86743    
   7339000   300.32222      0.040035964    14.429446      745.10772     -67.474863      677.63285    
   7340000   291.02447      0.040035964    12.577933      722.03974     -69.320589      652.71915    
   7341000   305.00508      0.040035964    23.384521      756.72601     -64.366282      692.35973    
   7342000   301.30873      0.040035964    20.475223      747.55526     -60.337709      687.21755    
   7343000   297.96858      0.040035964    19.857244      739.26827     -58.622107      680.64616    
   7344000   306.45609      0.040035964    14.218507      760.326       -57.990988      702.33502    
   7345000   308.11084      0.040035964    36.215253      764.43149     -56.448299      707.98319    
   7346000   294.58813      0.040035964    24.971055      730.88128     -57.284203      673.59708    
   7347000   292.80268      0.040035964    21.123009      726.45151     -58.619282      667.83223    
   7348000   285.88526      0.040035964    19.622266      709.28921     -59.365788      649.92342    
   7349000   306.33012      0.040035964    19.17607       760.01347     -59.885631      700.12784    
   7350000   298.58368      0.040035964    25.131308      740.79434     -55.438807      685.35553    
   7351000   297.72487      0.040035964    22.482813      738.66362     -55.348124      683.31549    
   7352000   296.75655      0.040035964    27.742263      736.26119     -57.642408      678.61878    
   7353000   302.8465       0.040035964    19.571759      751.37051     -53.642972      697.72754    
   7354000   295.20702      0.040035964    6.6864344      732.41674     -60.992841      671.4239     
   7355000   293.29758      0.040035964    18.189364      727.67939     -48.539861      679.13953    
   7356000   298.31095      0.040035964    25.292569      740.1177      -62.780476      677.33722    
   7357000   304.0132       0.040035964    22.502506      754.26513     -55.802777      698.46235    
   7358000   304.8969       0.040035964    6.1903597      756.45761     -56.002449      700.45516    
   7359000   300.25692      0.040035964    20.169787      744.9457      -53.286235      691.65946    
   7360000   296.1281       0.040035964    24.580696      734.70198     -68.636664      666.06532    
   7361000   304.40036      0.040035964    31.864979      755.22567     -65.875343      689.35033    
   7362000   320.53491      0.040035964    24.444913      795.25596     -66.800603      728.45535    
   7363000   299.52184      0.040035964    8.0443735      743.12194     -59.926365      683.19557    
   7364000   291.09989      0.040035964    14.183954      722.22684     -67.986947      654.2399     
   7365000   303.55721      0.040035964    35.654154      753.1338      -61.908867      691.22494    
   7366000   311.63922      0.040035964    17.346351      773.1855      -57.084303      716.1012     
   7367000   296.8313       0.040035964    4.4722157      736.44663     -56.568757      679.87787    
   7368000   289.65264      0.040035964    22.586543      718.63617     -62.060794      656.57538    
   7369000   297.18104      0.040035964    25.163434      737.31434     -66.551306      670.76303    
   7370000   308.83485      0.040035964    21.157805      766.22777     -66.4542        699.77357    
   7371000   311.03732      0.040035964    19.838787      771.69216     -66.857054      704.8351     
   7372000   302.29944      0.040035964    18.881862      750.01325     -68.547391      681.46586    
   7373000   293.63741      0.040035964    18.625461      728.5225      -65.066513      663.45599    
   7374000   298.4831       0.040035964    22.90999       740.54481     -69.95608       670.58873    
   7375000   307.47616      0.040035964    21.424527      762.85682     -65.216153      697.64067    
   7376000   302.29445      0.040035964    24.065152      750.00087     -59.593672      690.4072     
   7377000   289.77206      0.040035964    13.22263       718.93246     -67.342356      651.59011    
   7378000   288.81462      0.040035964    22.600158      716.55704     -64.609218      651.94782    
   7379000   312.89098      0.040035964    22.504274      776.29115     -62.950098      713.34105    
   7380000   300.16158      0.040035964    8.943862       744.70917     -64.026342      680.68282    
   7381000   290.87548      0.040035964    21.3132        721.67009     -67.532973      654.13712    
   7382000   298.14541      0.040035964    22.438541      739.70698     -64.646076      675.0609     
   7383000   307.52682      0.040035964    18.394462      762.98252     -64.792064      698.19046    
   7384000   301.85075      0.040035964    9.7128212      748.90004     -64.861858      684.03818    
   7385000   286.05368      0.040035964    17.871892      709.70707     -69.662828      640.04424    
   7386000   302.7324       0.040035964    22.297559      751.08743     -62.086288      689.00114    
   7387000   304.79115      0.040035964    19.084156      756.19524     -60.798654      695.39658    
   7388000   292.34247      0.040035964    18.471558      725.30971     -58.763353      666.54636    
   7389000   295.78419      0.040035964    24.405114      733.84873     -57.171994      676.67673    
   7390000   305.97683      0.040035964    26.701712      759.13694     -53.456093      705.68085    
   7391000   298.54288      0.040035964    19.071208      740.69313     -57.589634      683.10349    
   7392000   292.63185      0.040035964    18.508743      726.02769     -53.793548      672.23414    
   7393000   300.05384      0.040035964    21.553699      744.44184     -60.470561      683.97128    
   7394000   297.46573      0.040035964    25.350046      738.02067     -64.085002      673.93567    
   7395000   299.19648      0.040035964    20.859615      742.31471     -61.986505      680.3282     
   7396000   311.23349      0.040035964    14.664524      772.17886     -61.289575      710.88929    
   7397000   308.11058      0.040035964    23.504514      764.43084     -53.018579      711.41226    
   7398000   293.15956      0.040035964    22.586212      727.33696     -57.383575      669.95339    
   7399000   304.29449      0.040035964    20.570965      754.96302     -64.820826      690.14219    
   7400000   299.87145      0.040035964    9.6527251      743.98933     -67.529546      676.45978    
   7401000   293.16989      0.040035964    22.179815      727.36257     -67.092459      660.27011    
   7402000   296.04829      0.040035964    20.197955      734.50397     -68.93681       665.56716    
   7403000   303.87639      0.040035964    14.017188      753.9257      -70.612808      683.3129     
   7404000   302.35417      0.040035964    21.660989      750.14903     -68.00525       682.14378    
   7405000   299.61614      0.040035964    24.593706      743.35591     -79.156957      664.19895    
   7406000   285.47408      0.040035964    15.89057       708.26906     -84.267576      624.00149    
   7407000   297.36786      0.040035964    16.855902      737.77786     -74.033723      663.74414    
   7408000   307.47429      0.040035964    20.280524      762.85218     -67.581707      695.27048    
   7409000   297.26137      0.040035964    20.0531        737.51365     -70.580804      666.93284    
   7410000   291.09319      0.040035964    22.218908      722.21022     -68.294373      653.91585    
   7411000   304.61274      0.040035964    20.42057       755.75259     -69.036149      686.71644    
   7412000   304.14008      0.040035964    15.352143      754.57993     -70.954956      683.62497    
   7413000   296.19894      0.040035964    20.900663      734.87774     -71.306701      663.57104    
   7414000   300.87608      0.040035964    15.324091      746.48185     -77.427892      669.05395    
   7415000   294.75437      0.040035964    17.937322      731.29372     -77.640037      653.65368    
   7416000   310.31825      0.040035964    24.582889      769.90813     -74.033294      695.87484    
   7417000   296.40604      0.040035964    8.1103379      735.39155     -71.893476      663.49807    
   7418000   299.57505      0.040035964    14.303083      743.25396     -71.882938      671.37103    
   7419000   298.90108      0.040035964    21.362277      741.58183     -69.714387      671.86744    
   7420000   310.972        0.040035964    22.517918      771.53011     -72.364088      699.16602    
   7421000   309.67143      0.040035964    23.204326      768.30334     -70.336828      697.96652    
   7422000   294.54714      0.040035964    23.454008      730.77957     -63.574491      667.20508    
   7423000   297.67495      0.040035964    23.139614      738.53974     -71.588133      666.95161    
   7424000   306.87545      0.040035964    20.265522      761.36646     -70.692927      690.67353    
   7425000   295.89944      0.040035964    19.871095      734.13467     -71.117935      663.01673    
   7426000   293.94933      0.040035964    18.312507      729.2964      -71.196318      658.10008    
   7427000   314.42551      0.040035964    34.752963      780.09835     -68.190127      711.90822    
   7428000   297.80805      0.040035964    18.731588      738.86999     -74.825674      664.04431    
   7429000   293.6285       0.040035964    25.216305      728.5004      -71.861429      656.63897    
   7430000   287.79095      0.040035964    18.771156      714.01728     -71.184644      642.83263    
   7431000   309.8109       0.040035964    16.584987      768.64937     -72.379614      696.26976    
   7432000   308.00878      0.040035964    28.050027      764.17828     -70.163079      694.01521    
   7433000   295.56226      0.040035964    14.53917       733.29811     -73.335128      659.96298    
   7434000   275.3619       0.040035964    2.9081518      683.18045     -84.32461       598.85584    
   7435000   312.26075      0.040035964    11.127824      774.72752     -79.509905      695.21761    
   7436000   300.3627       0.040035964    22.893644      745.20814     -71.818199      673.38994    
   7437000   289.5624       0.040035964    21.196831      718.41229     -75.069048      643.34324    
   7438000   292.27195      0.040035964    21.542976      725.13477     -84.27945       640.85532    
   7439000   302.27485      0.040035964    19.528711      749.95223     -79.024727      670.92751    
   7440000   310.03044      0.040035964    20.491143      769.19406     -71.779837      697.41422    
   7441000   293.50914      0.040035964    9.5174329      728.20427     -76.307267      651.897      
   7442000   276.49082      0.040035964    22.688976      685.98134     -70.987007      614.99434    
   7443000   306.33706      0.040035964    22.551893      760.03069     -67.974448      692.05624    
   7444000   311.36874      0.040035964    14.796447      772.51443     -74.35356       698.16087    
   7445000   310.46579      0.040035964    24.988544      770.27419     -76.692627      693.58156    
   7446000   309.31187      0.040035964    16.117442      767.41128     -66.196381      701.2149     
   7447000   288.93865      0.040035964    12.445972      716.86476     -63.184792      653.67997    
   7448000   284.2989       0.040035964    23.247284      705.35341     -65.550178      639.80323    
   7449000   298.21668      0.040035964    43.728654      739.8838      -62.067836      677.81597    
   7450000   309.46581      0.040035964    4.7533301      767.7932      -64.357273      703.43593    
   7451000   298.81933      0.040035964    6.2532407      741.37899     -66.438262      674.94073    
   7452000   290.19666      0.040035964    39.74585       719.98592     -62.77225       657.21367    
   7453000   306.30555      0.040035964    36.234616      759.95252     -64.083451      695.86907    
   7454000   313.24541      0.040035964    2.8710668      777.1705      -65.085618      712.08488    
   7455000   300.5734       0.040035964   -6.1722735      745.73088     -59.755962      685.97492    
   7456000   292.62751      0.040035964    5.354335       726.01692     -69.050766      656.96615    
   7457000   300.27987      0.040035964    34.932942      745.00264     -67.218535      677.78411    
   7458000   305.43363      0.040035964    23.396146      757.78926     -66.974665      690.8146     
   7459000   304.69968      0.040035964    14.767881      755.96832     -63.846032      692.12229    
   7460000   290.56205      0.040035964    15.326172      720.89245     -61.902929      658.98952    
   7461000   298.55         0.040035964    13.450088      740.71078     -70.581612      670.12917    
   7462000   297.10157      0.040035964    25.956823      737.11719     -77.088044      660.02914    
   7463000   297.63041      0.040035964    20.764914      738.42925     -81.422519      657.00673    
   7464000   316.58672      0.040035964    15.890052      785.46039     -73.567152      711.89324    
   7465000   296.34829      0.040035964    14.381371      735.24828     -75.373008      659.87527    
   7466000   287.75303      0.040035964    16.530193      713.9232      -69.173695      644.7495     
   7467000   292.01456      0.040035964    27.830268      724.49616     -59.806031      664.69013    
   7468000   312.89476      0.040035964    22.621072      776.30052     -58.06285       718.23767    
   7469000   313.41545      0.040035964    25.699058      777.59238     -60.034143      717.55823    
   7470000   297.67145      0.040035964    20.439659      738.53107     -58.874908      679.65616    
   7471000   293.14189      0.040035964    22.589248      727.29311     -61.369068      665.92404    
   7472000   307.47267      0.040035964    20.232777      762.84817     -57.808114      705.04006    
   7473000   298.64327      0.040035964    19.782807      740.94219     -59.616916      681.32527    
   7474000   298.25666      0.040035964    21.723072      739.98301     -52.357854      687.62515    
   7475000   306.85497      0.040035964    17.077901      761.31565     -56.083284      705.23237    
   7476000   303.63509      0.040035964    22.823433      753.32702     -58.471322      694.8557     
   7477000   291.34384      0.040035964    26.958482      722.8321      -56.12484       666.70726    
   7478000   295.94337      0.040035964    12.601701      734.24367     -59.515776      674.72789    
   7479000   301.53782      0.040035964    9.9961054      748.12365     -61.115112      687.00854    
   7480000   290.07095      0.040035964    17.659988      719.67402     -53.616571      666.05745    
   7481000   309.80564      0.040035964    20.425937      768.63633     -56.68748       711.94885    
   7482000   305.84247      0.040035964    21.473843      758.80359     -54.488275      704.31532    
   7483000   288.65339      0.040035964    20.922259      716.15703     -62.074629      654.0824     
   7484000   302.5529       0.040035964    23.619598      750.64208     -62.798477      687.8436     
   7485000   314.3675       0.040035964    22.1479        779.95443     -62.093965      717.86046    
   7486000   285.10794      0.040035964    22.704389      707.36066     -65.56583       641.79483    
   7487000   289.8428       0.040035964    18.212568      719.10797     -62.969349      656.13863    
   7488000   306.45907      0.040035964    18.837203      760.3334      -60.514771      699.81863    
   7489000   308.88554      0.040035964    20.944237      766.35353     -64.002433      702.3511     
   7490000   289.56583      0.040035964    21.74117       718.4208      -60.946587      657.47421    
   7491000   294.36235      0.040035964    22.55153       730.32109     -63.828037      666.49306    
   7492000   307.20333      0.040035964    23.752954      762.17992     -63.973007      698.20691    
   7493000   312.50814      0.040035964    22.204002      775.34131     -60.850693      714.49062    
   7494000   306.81746      0.040035964    20.005692      761.22257     -60.822958      700.39961    
   7495000   291.15857      0.040035964    23.906801      722.37243     -51.419606      670.95282    
   7496000   293.36983      0.040035964    21.086071      727.85865     -59.15661       668.70204    
   7497000   294.58491      0.040035964    22.438656      730.87327     -57.058408      673.81486    
   7498000   297.77977      0.040035964    21.097595      738.79982     -55.736445      683.06337    
   7499000   297.3426       0.040035964    26.968955      737.71518     -60.853876      676.86131    
   7500000   299.16898      0.040035964    3.9831668      742.24648     -61.185484      681.061      
   7501000   305.05267      0.040035964    19.588679      756.84408     -62.398577      694.44551    
   7502000   290.59767      0.040035964    21.506718      720.98084     -66.950809      654.03003    
   7503000   298.9407       0.040035964    14.083968      741.68011     -69.244866      672.43524    
   7504000   303.03032      0.040035964    20.734697      751.82659     -68.98537       682.84122    
   7505000   281.18269      0.040035964    22.543741      697.62201     -66.443062      631.17894    
   7506000   285.50585      0.040035964    16.783167      708.34787     -67.178978      641.1689     
   7507000   296.25217      0.040035964    17.494377      735.00981     -70.629827      664.37998    
   7508000   299.14515      0.040035964    21.283853      742.18737     -60.532362      681.65501    
   7509000   311.75527      0.040035964    20.026101      773.47341     -65.543858      707.92955    
   7510000   300.16827      0.040035964    19.490468      744.72576     -62.075967      682.64979    
   7511000   285.9507       0.040035964    16.371978      709.45156     -60.21105       649.24051    
   7512000   308.83943      0.040035964    22.267122      766.23915     -62.300354      703.93879    
   7513000   306.65006      0.040035964    21.858184      760.80725     -64.48874       696.31851    
   7514000   287.20239      0.040035964    19.207758      712.55704     -58.421669      654.13537    
   7515000   301.83717      0.040035964    19.019356      748.86633     -56.273574      692.59276    
   7516000   303.01908      0.040035964    20.965435      751.7987      -55.297927      696.50077    
   7517000   305.90621      0.040035964    21.338416      758.96173     -58.277293      700.68444    
   7518000   295.85821      0.040035964    21.920495      734.03239     -56.847991      677.1844     
   7519000   308.46102      0.040035964    19.547365      765.30029     -65.004159      700.29613    
   7520000   289.11866      0.040035964    15.144241      717.31138     -70.700932      646.61044    
   7521000   293.89241      0.040035964    16.691528      729.15518     -70.71051       658.44467    
   7522000   320.49712      0.040035964    13.548244      795.16218     -64.918061      730.24412    
   7523000   300.85044      0.040035964    19.443535      746.41823     -63.479832      682.9384     
   7524000   293.06831      0.040035964    25.575677      727.11056     -67.914168      659.19639    
   7525000   293.35885      0.040035964    13.324732      727.83138     -65.174359      662.65702    
   7526000   303.72858      0.040035964    19.863003      753.55897     -60.787862      692.77111    
   7527000   307.93114      0.040035964    23.157288      763.98566     -64.707727      699.27793    
   7528000   309.94037      0.040035964    12.93853       768.97061     -63.147653      705.82295    
   7529000   297.44203      0.040035964    17.692392      737.96188     -65.926659      672.03522    
   7530000   303.71193      0.040035964    27.865102      753.51766     -56.498772      697.01889    
   7531000   301.52397      0.040035964    21.757285      748.08927     -54.775474      693.3138     
   7532000   289.07071      0.040035964    17.554399      717.1924      -65.503951      651.68845    
   7533000   285.15744      0.040035964    22.714843      707.48346     -51.25706       656.2264     
   7534000   303.2504       0.040035964    14.101971      752.37261     -68.406536      683.96607    
   7535000   302.9302       0.040035964    20.660506      751.57817     -61.398863      690.1793     
   7536000   293.31122      0.040035964    20.298155      727.71321     -63.50146       664.21175    
   7537000   299.10373      0.040035964    20.228252      742.08461     -65.973027      676.11158    
   7538000   307.15504      0.040035964    23.797883      762.06013     -70.268949      691.79118    
   7539000   304.42185      0.040035964    22.322178      755.27901     -73.126928      682.15208    
   7540000   298.31173      0.040035964    18.277103      740.11963     -68.385228      671.7344     
   7541000   286.24518      0.040035964    19.599378      710.18218     -64.837688      645.34449    
   7542000   302.35673      0.040035964    23.193355      750.15538     -73.503997      676.65138    
   7543000   306.28997      0.040035964    18.977049      759.91385     -68.815186      691.09867    
   7544000   289.87479      0.040035964    16.712575      719.18735     -67.737168      651.45019    
   7545000   289.3875       0.040035964    18.514002      717.97836     -66.991606      650.98676    
   7546000   311.15876      0.040035964    19.756248      771.99346     -70.215593      701.77787    
   7547000   305.50554      0.040035964    19.391294      757.96767     -72.558891      685.40878    
   7548000   298.84671      0.040035964    22.29752       741.44692     -65.331825      676.1151     
   7549000   295.2819       0.040035964    20.053352      732.60253     -58.429948      674.17258    
   7550000   304.98911      0.040035964    20.431103      756.68639     -58.24773       698.43866    
   7551000   309.19184      0.040035964    20.71047       767.11347     -54.935462      712.17801    
   7552000   281.76853      0.040035964    18.441763      699.07549     -57.786725      641.28876    
   7553000   299.27515      0.040035964    21.944758      742.50989     -58.815228      683.69466    
   7554000   316.8958       0.040035964    22.764465      786.2272      -58.420678      727.80653    
   7555000   310.69545      0.040035964    24.777115      770.84397     -58.718384      712.12559    
   7556000   283.33752      0.040035964    20.051707      702.96819     -60.047595      642.9206     
   7557000   301.80029      0.040035964    15.125391      748.77484     -56.045479      692.72936    
   7558000   310.26982      0.040035964    18.357533      769.78798     -60.022539      709.76544    
   7559000   301.787        0.040035964    22.063794      748.74186     -59.634667      689.1072     
   7560000   296.93176      0.040035964    20.757862      736.69588     -55.456206      681.23968    
   7561000   291.72998      0.040035964    19.042379      723.79013     -60.654131      663.136      
   7562000   300.97225      0.040035964    15.554168      746.72046     -58.03921       688.68125    
   7563000   303.08523      0.040035964    20.754156      751.96281     -57.41506       694.54775    
   7564000   304.41425      0.040035964    25.040049      755.26015     -55.353899      699.90625    
   7565000   302.06411      0.040035964    23.151043      749.42939     -49.846331      699.58306    
   7566000   307.52519      0.040035964    13.199235      762.97848     -53.579812      709.39867    
   7567000   312.02983      0.040035964    20.282911      774.15461     -49.63079       724.52382    
   7568000   308.52737      0.040035964    18.131521      765.46492     -53.262471      712.20245    
   7569000   299.22148      0.040035964    21.092738      742.37673     -58.486239      683.89049    
   7570000   293.93827      0.040035964    20.457997      729.26896     -63.3231        665.94586    
   7571000   306.2804       0.040035964    22.032544      759.89011     -61.981099      697.90901    
   7572000   294.33262      0.040035964    23.111192      730.24735     -68.513562      661.73379    
   7573000   294.03734      0.040035964    26.05275       729.51475     -65.533744      663.98101    
   7574000   301.56528      0.040035964    16.402899      748.19178     -64.018384      684.17339    
   7575000   290.07366      0.040035964    18.60824       719.68075     -68.190364      651.49039    
   7576000   289.7992       0.040035964    24.647245      718.99981     -66.750031      652.24978    
   7577000   298.88484      0.040035964    17.490451      741.54152     -67.264788      674.27673    
   7578000   302.91556      0.040035964    18.338997      751.54185     -70.62756       680.91429    
   7579000   312.88922      0.040035964    21.08499       776.28677     -72.602156      703.68461    
   7580000   293.91282      0.040035964    22.491706      729.20582     -73.418758      655.78706    
   7581000   298.86823      0.040035964    6.1293761      741.50031     -68.838864      672.66144    
   7582000   316.7949       0.040035964    26.421719      785.97688     -65.307482      720.6694     
   7583000   313.84576      0.040035964    22.037972      778.65997     -71.743068      706.9169     
   7584000   294.16799      0.040035964    22.006263      729.8389      -67.701879      662.13702    
   7585000   291.18656      0.040035964    16.540426      722.44188     -68.536249      653.90563    
   7586000   291.32835      0.040035964    21.230971      722.79366     -64.930535      657.86312    
   7587000   304.88514      0.040035964    19.579664      756.42843     -65.343321      691.08511    
   7588000   311.04195      0.040035964    19.363905      771.70366     -69.709983      701.99368    
   7589000   297.55898      0.040035964    23.364655      738.25202     -65.063356      673.18867    
   7590000   290.89297      0.040035964    14.482361      721.71348     -66.904203      654.80928    
   7591000   308.98219      0.040035964    23.435441      766.59333     -68.064041      698.52929    
   7592000   303.69652      0.040035964    20.851159      753.47944     -66.751918      686.72752    
   7593000   300.57107      0.040035964    17.687092      745.72512     -73.332748      672.39237    
   7594000   310.84414      0.040035964    20.682653      771.21288     -72.436762      698.77612    
   7595000   290.29737      0.040035964    19.858152      720.23577     -63.575055      656.66072    
   7596000   294.1795       0.040035964    19.518201      729.86745     -67.307395      662.56006    
   7597000   310.14334      0.040035964    20.380146      769.47419     -67.967599      701.50659    
   7598000   314.31561      0.040035964    19.323395      779.8257      -68.204653      711.62105    
   7599000   308.52232      0.040035964    27.179414      765.45238     -56.755403      708.69698    
   7600000   295.61421      0.040035964    19.034407      733.42699     -53.539914      679.88708    
   7601000   296.92672      0.040035964    16.232729      736.68338     -63.550727      673.13265    
   7602000   303.22992      0.040035964    22.607934      752.3218      -63.731264      688.59054    
   7603000   298.5155       0.040035964    9.3710237      740.62517     -61.899408      678.72577    
   7604000   302.58665      0.040035964    26.877247      750.72582     -58.561617      692.1642     
   7605000   306.51458      0.040035964    28.321715      760.47112     -60.108529      700.36259    
   7606000   304.48621      0.040035964    13.459545      755.43868     -59.541972      695.89671    
   7607000   295.69119      0.040035964    16.853945      733.61799     -61.75407       671.86392    
   7608000   298.2259       0.040035964    25.069665      739.90668     -61.227306      678.67938    
   7609000   304.9467       0.040035964    21.740561      756.58118     -60.034447      696.54673    
   7610000   291.84541      0.040035964    11.850845      724.0765      -60.874388      663.20212    
   7611000   296.13536      0.040035964    23.166071      734.72        -58.676139      676.04386    
   7612000   305.01752      0.040035964    20.445904      756.75686     -64.911908      691.84496    
   7613000   302.59438      0.040035964    23.969087      750.74499     -57.620263      693.12473    
   7614000   320.10428      0.040035964    40.884431      794.18754     -54.628714      739.55883    
   7615000   295.75684      0.040035964    4.0270097      733.78088     -58.945189      674.83569    
   7616000   289.61872      0.040035964    31.169573      718.55203     -58.148509      660.40352    
   7617000   306.10649      0.040035964    23.702273      759.45863     -53.441101      706.01753    
   7618000   308.33912      0.040035964    13.392352      764.99786     -61.174012      703.82385    
   7619000   284.52794      0.040035964    1.4136586      705.92166     -55.697023      650.22464    
   7620000   291.83258      0.040035964    22.129921      724.04467     -61.714375      662.33029    
   7621000   310.2665       0.040035964    25.570012      769.77975     -66.368313      703.41144    
   7622000   301.97136      0.040035964    23.654086      749.19927     -62.609587      686.58968    
   7623000   299.17647      0.040035964    21.618057      742.26507     -63.195424      679.06965    
   7624000   308.26196      0.040035964    12.081494      764.80642     -64.936761      699.86966    
   7625000   301.36919      0.040035964    24.800924      747.70528     -64.124803      683.58047    
   7626000   315.76571      0.040035964    25.790069      783.42342     -64.371823      719.0516     
   7627000   297.83211      0.040035964    15.746506      738.92966     -60.62249       678.30717    
   7628000   306.64779      0.040035964    21.361941      760.80161     -56.634155      704.16746    
   7629000   286.92491      0.040035964    14.667747      711.86862     -60.099883      651.76873    
   7630000   300.96964      0.040035964    21.776831      746.71398     -54.629846      692.08414    
   7631000   313.77139      0.040035964    19.875711      778.47547     -58.734077      719.74139    
   7632000   286.93265      0.040035964    21.066794      711.88781     -64.030652      647.85716    
   7633000   281.23986      0.040035964    18.68357       697.76385     -67.292815      630.47103    
   7634000   282.29255      0.040035964    13.945124      700.37561     -74.138983      626.23663    
   7635000   285.36643      0.040035964    18.6335        708.00199     -67.036676      640.96531    
   7636000   301.45269      0.040035964    17.760248      747.91244     -75.318987      672.59345    
   7637000   299.77753      0.040035964    21.907218      743.75632     -70.083889      673.67243    
   7638000   308.01836      0.040035964    25.372754      764.20205     -69.097777      695.10427    
   7639000   297.75586      0.040035964    18.649669      738.7405      -70.413691      668.32681    
   7640000   295.32985      0.040035964    17.21987       732.72151     -64.159464      668.56204    
   7641000   305.88296      0.040035964    23.522354      758.90405     -61.157618      697.74644    
   7642000   302.92173      0.040035964    23.846131      751.55716     -58.477075      693.08009    
   7643000   295.75507      0.040035964    18.185093      733.77649     -63.415051      670.36144    
   7644000   293.277        0.040035964    17.127661      727.62833     -63.084411      664.54392    
   7645000   303.5767       0.040035964    20.986919      753.18215     -68.285902      684.89625    
   7646000   298.59215      0.040035964    21.09348       740.81535     -61.442516      679.37283    
   7647000   296.71679      0.040035964    17.332827      736.16253     -60.629287      675.53324    
   7648000   306.18505      0.040035964    17.210369      759.65355     -61.679701      697.97385    
   7649000   316.45671      0.040035964    27.87911       785.13782     -60.823129      724.31469    
   7650000   293.73921      0.040035964    27.860609      728.77507     -60.150535      668.62453    
   7651000   288.76361      0.040035964    18.295613      716.43047     -64.173074      652.25739    
   7652000   309.47808      0.040035964    20.961114      767.82365     -65.662333      702.16131    
   7653000   302.93226      0.040035964    24.382017      751.58328     -64.506011      687.07727    
   7654000   291.14865      0.040035964    21.353695      722.34784     -64.558072      657.78977    
   7655000   291.65134      0.040035964    14.851513      723.59501     -67.177855      656.41715    
   7656000   295.59963      0.040035964    13.412223      733.39083     -66.061969      667.32886    
   7657000   310.57138      0.040035964    24.07451       770.53616     -69.847271      700.68889    
   7658000   289.04302      0.040035964    19.91752       717.12369     -65.336476      651.78722    
   7659000   290.40227      0.040035964    16.326983      720.49604     -68.29101       652.20503    
   7660000   306.80608      0.040035964    22.449988      761.19433     -70.444713      690.74962    
   7661000   289.93875      0.040035964    25.709141      719.34603     -77.499798      641.84623    
   7662000   288.07245      0.040035964    12.022093      714.71568     -68.666189      646.04949    
   7663000   314.65256      0.040035964    17.819162      780.66168     -70.699558      709.96213    
   7664000   299.09398      0.040035964    28.967354      742.06042     -65.677311      676.3831     
   7665000   285.86758      0.040035964    12.744216      709.24535     -64.043962      645.20138    
   7666000   308.58196      0.040035964    19.040114      765.60035     -61.348244      704.25211    
   7667000   305.60338      0.040035964    28.015176      758.2104      -65.175082      693.03532    
   7668000   278.97931      0.040035964    14.767345      692.15535     -54.179882      637.97547    
   7669000   307.87806      0.040035964    4.7509267      763.85396     -65.432105      698.42185    
   7670000   318.21774      0.040035964    20.698085      789.50698     -59.03972       730.46726    
   7671000   299.40999      0.040035964    24.33465       742.84443     -57.942523      684.90191    
   7672000   300.44272      0.040035964    19.804047      745.40668     -73.524004      671.88267    
   7673000   306.23556      0.040035964    16.634893      759.77886     -79.110971      680.66789    
   7674000   295.25427      0.040035964    20.460793      732.53397     -75.512343      657.02163    
   7675000   301.19361      0.040035964    8.8142219      747.26965     -68.669369      678.60028    
   7676000   302.11312      0.040035964    19.319474      749.55098     -63.151401      686.39958    
   7677000   309.06815      0.040035964    25.304294      766.80659     -59.938892      706.8677     
   7678000   299.07274      0.040035964    18.728628      742.0077      -64.845099      677.1626     
   7679000   290.43168      0.040035964    7.836701       720.569       -59.490342      661.07866    
   7680000   307.78891      0.040035964    21.017004      763.63277     -57.571714      706.06106    
   7681000   310.60821      0.040035964    22.544532      770.62753     -59.164391      711.46314    
   7682000   300.6501       0.040035964    18.914079      745.92119     -60.924502      684.99669    
   7683000   301.55121      0.040035964    21.62397       748.15685     -57.031241      691.12561    
   7684000   302.73515      0.040035964    21.347574      751.09425     -56.616125      694.47812    
   7685000   316.60842      0.040035964    23.307616      785.51421     -60.694467      724.81975    
   7686000   298.03334      0.040035964    24.278254      739.42892     -60.594185      678.83474    
   7687000   296.39086      0.040035964    19.506575      735.35389     -56.973855      678.38004    
   7688000   296.4607       0.040035964    26.324765      735.52717     -56.359513      679.16766    
   7689000   308.93883      0.040035964    23.572286      766.48576     -53.575056      712.9107     
   7690000   298.32893      0.040035964    11.97999       740.1623      -57.353261      682.80904    
   7691000   305.6191       0.040035964    23.479313      758.24942     -50.585005      707.66441    
   7692000   291.4705       0.040035964    28.932375      723.14634     -63.717951      659.42839    
   7693000   319.30728      0.040035964    32.832654      792.21017     -55.369495      736.84068    
   7694000   300.85218      0.040035964    12.918822      746.42255     -60.831428      685.59112    
   7695000   285.96917      0.040035964    16.870493      709.49738     -61.332642      648.16474    
   7696000   291.47494      0.040035964    33.017719      723.15736     -56.306623      666.85074    
   7697000   304.62397      0.040035964    20.141217      755.78047     -66.212727      689.56774    
   7698000   297.66656      0.040035964    24.608728      738.51895     -59.757584      678.76137    
   7699000   291.12435      0.040035964    16.460316      722.28755     -58.020297      664.26725    
   7700000   305.54827      0.040035964    21.064723      758.07368     -62.78808       695.2856     
   7701000   307.40777      0.040035964    19.175381      762.68716     -63.899904      698.78725    
   7702000   299.93224      0.040035964    24.415614      744.14015     -57.058151      687.082      
   7703000   312.60771      0.040035964    23.953643      775.58835     -62.103872      713.48448    
   7704000   288.45754      0.040035964    22.298276      715.67112     -63.776903      651.89421    
   7705000   307.87521      0.040035964    18.809664      763.84687     -68.266388      695.58048    
   7706000   314.02459      0.040035964    24.195537      779.10366     -67.648002      711.45566    
   7707000   299.92246      0.040035964    20.468436      744.11589     -66.676532      677.43936    
   7708000   301.63609      0.040035964    17.44656       748.36745     -65.204712      683.16274    
   7709000   285.20685      0.040035964    18.637388      707.60605     -54.971485      652.63457    
   7710000   300.12027      0.040035964    21.061459      744.60667     -62.156373      682.4503     
   7711000   303.39304      0.040035964    21.199789      752.72651     -55.045977      697.68053    
   7712000   290.86527      0.040035964    20.495021      721.64475     -58.899705      662.74505    
   7713000   302.44255      0.040035964    18.618211      750.36831     -58.662545      691.70576    
   7714000   304.10466      0.040035964    23.764758      754.49204     -55.333923      699.15812    
   7715000   311.90825      0.040035964    23.827398      773.85297     -59.834978      714.018      
   7716000   298.35236      0.040035964    19.411538      740.22042     -63.169465      677.05096    
   7717000   286.92857      0.040035964    13.75471       711.87768     -61.058984      650.8187     
   7718000   301.66871      0.040035964    27.223722      748.44839     -66.636311      681.81208    
   7719000   320.30747      0.040035964    28.113606      794.69167     -61.034324      733.65734    
   7720000   305.31472      0.040035964    11.601037      757.49425     -60.635679      696.85857    
   7721000   279.91676      0.040035964    9.5042952      694.4812      -58.999354      635.48184    
   7722000   295.59989      0.040035964    24.748693      733.39148     -53.255939      680.13554    
   7723000   322.65157      0.040035964    13.707244      800.50743     -59.226439      741.28099    
   7724000   302.111        0.040035964    20.902819      749.54572     -60.59494       688.95078    
   7725000   288.79123      0.040035964    20.971308      716.499       -64.124389      652.37461    
   7726000   286.49623      0.040035964    22.054046      710.80505     -68.043664      642.76139    
   7727000   312.96429      0.040035964    21.938003      776.47304     -69.089877      707.38316    
   7728000   303.22722      0.040035964    15.164772      752.31509     -71.000066      681.31502    
   7729000   292.18467      0.040035964    19.947436      724.91821     -75.773131      649.14508    
   7730000   299.78836      0.040035964    23.452897      743.78319     -71.074468      672.70872    
   7731000   319.06727      0.040035964    25.30593       791.61469     -65.502544      726.11214    
   7732000   306.1666       0.040035964    21.25889       759.60776     -64.675684      694.93208    
   7733000   291.67227      0.040035964    7.3628163      723.64693     -64.479558      659.16738    
   7734000   296.87872      0.040035964    22.660943      736.5643      -61.931985      674.63231    
   7735000   297.41748      0.040035964    18.658358      737.90096     -57.811567      680.08939    
   7736000   315.817        0.040035964    19.293765      783.55069     -67.487915      716.06277    
   7737000   289.33628      0.040035964    18.979242      717.85128     -59.202019      658.64926    
   7738000   295.83997      0.040035964    24.315624      733.98712     -59.048907      674.93821    
   7739000   301.87783      0.040035964    18.731012      748.96721     -58.480013      690.4872     
   7740000   306.0472       0.040035964    17.97415       759.31153     -59.266709      700.04482    
   7741000   274.07232      0.040035964    6.9283253      679.98097     -63.943944      616.03703    
   7742000   292.70059      0.040035964    27.86889       726.19823     -64.746299      661.45193    
   7743000   307.39251      0.040035964    28.892744      762.64929     -63.442618      699.20667    
   7744000   305.2336       0.040035964    30.775526      757.29297     -61.47229       695.82068    
   7745000   318.04134      0.040035964    20.483296      789.06933     -63.832842      725.23649    
   7746000   290.11769      0.040035964    27.086753      719.78997     -72.20941       647.58056    
   7747000   299.58313      0.040035964    23.885958      743.27399     -64.53221       678.74178    
   7748000   306.14732      0.040035964   -1.3922392      759.55995     -70.347876      689.21207    
   7749000   301.58108      0.040035964    20.409144      748.23097     -64.385658      683.84531    
   7750000   295.62979      0.040035964    20.338019      733.46567     -63.591895      669.87377    
   7751000   325.72693      0.040035964    20.870071      808.13749     -61.678639      746.45885    
   7752000   288.67646      0.040035964    19.272933      716.21426     -72.113818      644.10045    
   7753000   293.6419       0.040035964    16.400982      728.53365     -71.507475      657.02618    
   7754000   303.6654       0.040035964    22.807942      753.40223     -71.50577       681.89646    
   7755000   306.05592      0.040035964    22.739479      759.33317     -70.973718      688.35945    
   7756000   314.11328      0.040035964    22.008706      779.3237      -65.181527      714.14217    
   7757000   295.93813      0.040035964    20.2584        734.23065     -65.306224      668.92442    
   7758000   283.99892      0.040035964    17.80644       704.60915     -71.142047      633.4671     
   7759000   311.99969      0.040035964    28.004873      774.07982     -69.725111      704.35471    
   7760000   290.75531      0.040035964    25.777073      721.37193     -59.772664      661.59927    
   7761000   300.44499      0.040035964    16.983891      745.41229     -65.796853      679.61544    
   7762000   300.41878      0.040035964    12.311314      745.34727     -60.301643      685.04563    
   7763000   299.41436      0.040035964    24.908887      742.85528     -53.236085      689.61919    
   7764000   303.41421      0.040035964    20.974295      752.77901     -59.933817      692.8452     
   7765000   295.62521      0.040035964    24.573211      733.4543      -59.004532      674.44977    
   7766000   294.12903      0.040035964    18.633366      729.74223     -56.750846      672.99138    
   7767000   299.3261       0.040035964    20.693338      742.6363      -55.043849      687.59245    
   7768000   301.73411      0.040035964    29.832368      748.61064     -64.500669      684.10997    
   7769000   295.63622      0.040035964    19.241326      733.4816      -64.56841       668.91319    
   7770000   310.75937      0.040035964    19.327649      771.00257     -63.308618      707.69395    
   7771000   302.71107      0.040035964    22.889453      751.0345      -64.182772      686.85173    
   7772000   275.89542      0.040035964    10.207604      684.50414     -66.65981       617.84433    
   7773000   299.45834      0.040035964    9.6831957      742.9644      -63.007509      679.95689    
   7774000   306.66942      0.040035964    10.137186      760.85528     -70.118514      690.73676    
   7775000   313.15539      0.040035964    22.950942      776.94715     -70.309665      706.63749    
   7776000   292.79654      0.040035964    21.954145      726.43629     -68.862701      657.57359    
   7777000   310.87738      0.040035964    9.8245734      771.29535     -60.993196      710.30215    
   7778000   310.62025      0.040035964    38.304035      770.65739     -64.124613      706.53278    
   7779000   291.97556      0.040035964    34.419536      724.39942     -60.615197      663.78422    
   7780000   292.18831      0.040035964    13.615596      724.92726     -65.135859      659.7914     
   7781000   302.37698      0.040035964    15.897994      750.20562     -62.931934      687.27368    
   7782000   307.08333      0.040035964    22.768524      761.88221     -59.327847      702.55437    
   7783000   298.06933      0.040035964    24.56691       739.51823     -60.544241      678.97399    
   7784000   293.24831      0.040035964    23.69124       727.55714     -57.778958      669.77818    
   7785000   308.56926      0.040035964    24.118363      765.56884     -58.787101      706.78173    
   7786000   292.59204      0.040035964    22.574959      725.9289      -64.971248      660.95766    
   7787000   292.1679       0.040035964    6.3761451      724.87663     -59.558984      665.31764    
   7788000   309.57242      0.040035964    25.542037      768.05771     -59.578409      708.47931    
   7789000   291.84523      0.040035964    27.766769      724.07606     -58.546565      665.5295     
   7790000   281.36377      0.040035964    17.656865      698.07127     -60.903483      637.16778    
   7791000   306.80264      0.040035964    15.562658      761.1858      -60.375059      700.81074    
   7792000   308.39755      0.040035964    12.390649      765.14282     -56.715914      708.4269     
   7793000   306.15464      0.040035964    18.66721       759.57811     -59.02912       700.54899    
   7794000   295.32567      0.040035964    22.809773      732.71112     -64.365199      668.34592    
   7795000   293.79071      0.040035964    6.4398768      728.90285     -65.636907      663.26594    
   7796000   302.73565      0.040035964    17.991183      751.09549     -57.58616       693.50933    
   7797000   298.05701      0.040035964    33.255762      739.48765     -52.599129      686.88852    
   7798000   282.23575      0.040035964    18.806843      700.23467     -60.201458      640.03321    
   7799000   295.15674      0.040035964    20.261512      732.29202     -61.175949      671.11607    
   7800000   306.06481      0.040035964    19.398753      759.35524     -60.054092      699.30115    
   7801000   309.20791      0.040035964    22.15798       767.15336     -61.534169      705.61919    
   7802000   290.63702      0.040035964    18.402507      721.07847     -60.614659      660.46381    
   7803000   292.82777      0.040035964    21.483338      726.51376     -63.600399      662.91336    
   7804000   309.31496      0.040035964    29.239224      767.41895     -64.057048      703.3619     
   7805000   308.67725      0.040035964    23.42057       765.83677     -60.034305      705.80246    
   7806000   294.0039       0.040035964    16.603537      729.43177     -52.969577      676.4622     
   7807000   288.0505       0.040035964    20.397645      714.66124     -58.020511      656.64073    
   7808000   322.34167      0.040035964    21.188977      799.73857     -62.310171      737.42839    
   7809000   318.08065      0.040035964    25.203514      789.16687     -66.319278      722.84759    
   7810000   299.27198      0.040035964    21.087386      742.50204     -66.698574      675.80347    
   7811000   310.54468      0.040035964    22.507916      770.46992     -68.058378      702.41154    
   7812000   305.54253      0.040035964    17.61667       758.05944     -70.587368      687.47207    
   7813000   291.8448       0.040035964    25.9008        724.075       -71.411583      652.66342    
   7814000   303.46973      0.040035964    20.304731      752.91677     -64.217588      688.69918    
   7815000   294.04202      0.040035964    12.369625      729.52636     -64.48272       665.04364    
   7816000   301.26271      0.040035964    26.06565       747.4411      -71.595773      675.84533    
   7817000   296.37972      0.040035964    21.869616      735.32625     -72.688251      662.638      
   7818000   288.60929      0.040035964    16.346979      716.0476      -69.545908      646.50169    
   7819000   298.67222      0.040035964    13.163321      741.01402     -68.684314      672.3297     
   7820000   299.14997      0.040035964    22.71119       742.19933     -63.937165      678.26216    
   7821000   307.5655       0.040035964    21.041258      763.07849     -70.125303      692.95318    
   7822000   296.99677      0.040035964    15.601613      736.85716     -68.725564      668.1316     
   7823000   287.51813      0.040035964    22.867071      713.3404      -69.573255      643.76714    
   7824000   300.90222      0.040035964    31.665984      746.5467      -71.4016        675.1451     
   7825000   305.16171      0.040035964    22.081754      757.11462     -67.413777      689.70084    
   7826000   301.36805      0.040035964    13.182394      747.70244     -71.720011      675.98243    
   7827000   298.6252       0.040035964    19.46899       740.89735     -64.850465      676.04689    
   7828000   290.81511      0.040035964    25.759727      721.52031     -70.698739      650.82157    
   7829000   297.87741      0.040035964    27.60123       739.04205     -67.233432      671.80862    
   7830000   313.96767      0.040035964    9.4201844      778.96244     -67.556063      711.40637    
   7831000   292.11784      0.040035964    21.740825      724.75241     -63.29969       661.45272    
   7832000   301.12252      0.040035964    24.010544      747.09327     -61.822825      685.27045    
   7833000   309.61749      0.040035964    19.586019      768.16953     -65.78845       702.38108    
   7834000   294.7736       0.040035964    19.44382       731.34143     -59.000804      672.34062    
   7835000   294.3415       0.040035964    21.124325      730.26938     -55.399015      674.87036    
   7836000   304.44916      0.040035964    23.66398       755.34677     -55.102406      700.24436    
   7837000   311.59291      0.040035964    21.310852      773.0706      -59.193836      713.87677    
   7838000   297.08211      0.040035964    15.428016      737.0689      -57.205337      679.86356    
   7839000   299.84504      0.040035964    18.423646      743.92381     -64.759505      679.1643     
   7840000   301.79975      0.040035964    25.839353      748.77349     -64.711008      684.06248    
   7841000   293.69693      0.040035964    27.544996      728.67019     -67.947369      660.72282    
   7842000   305.98103      0.040035964    3.8510952      759.14736     -66.889713      692.25765    
   7843000   297.15034      0.040035964    15.800177      737.23817     -59.219375      678.0188     
   7844000   296.77175      0.040035964    41.253928      736.29889     -59.364823      676.93407    
   7845000   301.82963      0.040035964    21.097799      748.84762     -65.014837      683.83278    
   7846000   299.33193      0.040035964    16.629773      742.65076     -59.449003      683.20175    
   7847000   292.96071      0.040035964    15.921872      726.84359     -63.962926      662.88067    
   7848000   307.52946      0.040035964    24.019274      762.98908     -67.974078      695.015      
   7849000   314.93627      0.040035964    17.830068      781.36558     -60.823257      720.54232    
   7850000   288.92171      0.040035964    9.7186275      716.82272     -68.959952      647.86277    
   7851000   293.63295      0.040035964    19.03444       728.51145     -76.243856      652.26759    
   7852000   301.0062       0.040035964    21.873057      746.80467     -71.890321      674.91435    
   7853000   307.05154      0.040035964    30.225886      761.80334     -73.219052      688.58429    
   7854000   298.01261      0.040035964   -5.9677594      739.3775      -70.430837      668.94666    
   7855000   301.93622      0.040035964    21.156618      749.11209     -68.464058      680.64804    
   7856000   313.79155      0.040035964    18.623258      778.52548     -67.125711      711.39977    
   7857000   293.97737      0.040035964    15.251419      729.36595     -62.785225      666.58073    
   7858000   290.9503       0.040035964    21.913327      721.85572     -67.15067       654.70505    
   7859000   293.09843      0.040035964    41.434288      727.18527     -77.313378      649.8719     
   7860000   305.65462      0.040035964    20.564804      758.33754     -79.354395      678.98315    
   7861000   293.4227       0.040035964    31.168016      727.9898      -75.65785       652.33195    
   7862000   310.87218      0.040035964    35.562934      771.28244     -77.902938      693.3795     
   7863000   309.52304      0.040035964    26.074433      767.9352      -70.353168      697.58203    
   7864000   315.15554      0.040035964    12.378847      781.90959     -74.164032      707.74556    
   7865000   294.0522       0.040035964    9.0765994      729.55162     -71.839857      657.71176    
   7866000   296.72557      0.040035964    32.530932      736.18432     -66.947394      669.23693    
   7867000   307.17857      0.040035964    36.185645      762.11851     -65.926928      696.19158    
   7868000   301.09484      0.040035964    14.185646      747.0246      -64.449974      682.57463    
   7869000   286.44049      0.040035964    14.612939      710.66675     -65.131083      645.53567    
   7870000   305.46416      0.040035964    25.058964      757.86499     -62.692341      695.17265    
   7871000   295.54862      0.040035964    27.863197      733.26428     -67.760377      665.5039     
   7872000   293.90866      0.040035964    22.055962      729.19548     -59.224914      669.97056    
   7873000   302.76568      0.040035964    35.666926      751.17        -63.547033      687.62297    
   7874000   327.0563       0.040035964    43.032023      811.4357      -62.973234      748.46247    
   7875000   310.24489      0.040035964    8.4357705      769.72612     -64.932962      704.79316    
   7876000   288.65145      0.040035964    15.1956        716.15221     -62.096495      654.05571    
   7877000   301.11353      0.040035964    21.732493      747.07097     -58.191848      688.87912    
   7878000   312.51422      0.040035964    29.769232      775.3564      -62.828292      712.52811    
   7879000   312.98917      0.040035964    16.387303      776.53476     -66.149818      710.38495    
   7880000   280.77428      0.040035964    15.158766      696.60872     -64.984148      631.62458    
   7881000   299.8156       0.040035964    24.377454      743.85076     -61.567836      682.28293    
   7882000   299.57043      0.040035964    16.50713       743.2425      -60.935954      682.30655    
   7883000   306.4516       0.040035964    9.9854289      760.31488     -61.212814      699.10206    
   7884000   297.23885      0.040035964    18.901035      737.45777     -61.152133      676.30564    
   7885000   298.63584      0.040035964    22.096354      740.92376     -73.225446      667.69831    
   7886000   306.37252      0.040035964    22.117087      760.11867     -69.522791      690.59588    
   7887000   295.38959      0.040035964    17.679765      732.86972     -77.697236      655.17248    
   7888000   307.01891      0.040035964    22.237892      761.72238     -69.251635      692.47074    
   7889000   304.06055      0.040035964    21.609165      754.3826      -70.186625      684.19598    
   7890000   307.65509      0.040035964    23.270738      763.30076     -64.321339      698.97942    
   7891000   293.08948      0.040035964    21.656096      727.16307     -59.99797       667.1651     
   7892000   298.9284       0.040035964    22.048049      741.64961     -66.694937      674.95467    
   7893000   307.4148       0.040035964    18.900676      762.7046      -60.852449      701.85215    
   7894000   289.87275      0.040035964    17.072273      719.18228     -61.575623      657.60666    
   7895000   301.61227      0.040035964    19.040006      748.30836     -59.705774      688.60258    
   7896000   318.47213      0.040035964    21.865526      790.13814     -53.211473      736.92666    
   7897000   302.38303      0.040035964    19.180726      750.22063     -63.283318      686.93731    
   7898000   293.97364      0.040035964    19.757493      729.3567      -53.958388      675.39832    
   7899000   301.86358      0.040035964    16.517248      748.93185     -68.029556      680.9023     
   7900000   313.23875      0.040035964    8.8618153      777.15397     -59.151794      718.00218    
   7901000   300.98232      0.040035964    29.934208      746.74543     -59.467843      687.27758    
   7902000   287.61031      0.040035964    20.151347      713.5691      -58.021034      655.54807    
   7903000   295.71305      0.040035964    11.782771      733.67224     -59.520664      674.15158    
   7904000   303.02688      0.040035964    20.573465      751.81804     -60.691702      691.12634    
   7905000   291.7066       0.040035964    24.939318      723.73212     -60.046502      663.68562    
   7906000   290.70137      0.040035964    19.021096      721.2381      -58.36065       662.87745    
   7907000   299.95442      0.040035964    15.142104      744.19519     -58.343995      685.85119    
   7908000   311.19456      0.040035964    13.712341      772.08229     -57.993895      714.08839    
   7909000   293.29915      0.040035964    26.612046      727.68329     -59.251011      668.43227    
   7910000   306.39456      0.040035964    10.54445       760.17335     -55.201868      704.97148    
   7911000   311.48303      0.040035964    31.656048      772.79799     -58.144396      714.65359    
   7912000   297.66133      0.040035964    19.828775      738.50598     -63.6137        674.89228    
   7913000   300.36844      0.040035964    15.764339      745.22239     -57.964045      687.25834    
   7914000   296.90932      0.040035964    23.099093      736.6402      -61.667729      674.97247    
   7915000   298.24224      0.040035964    23.445984      739.94721     -61.004428      678.94279    
   7916000   300.19997      0.040035964    15.881155      744.80439     -65.038198      679.76619    
   7917000   304.69863      0.040035964    21.092196      755.96569     -66.696387      689.26931    
   7918000   284.42357      0.040035964    19.98524       705.66272     -58.849726      646.81299    
   7919000   296.31357      0.040035964    24.002971      735.16215     -56.132719      679.02943    
   7920000   313.09179      0.040035964    18.41571       776.78937     -54.892345      721.89703    
   7921000   302.16643      0.040035964    20.067637      749.68323     -61.484167      688.19907    
   7922000   296.74802      0.040035964    20.699583      736.24003     -59.327244      676.91279    
   7923000   295.55497      0.040035964    19.40928       733.28003     -62.714006      670.56602    
   7924000   305.7571       0.040035964    18.967555      758.59179     -74.17925       684.41253    
   7925000   290.6708       0.040035964    18.48491       721.16228     -72.377298      648.78498    
   7926000   299.88633      0.040035964    24.18475       744.02624     -66.732654      677.29358    
   7927000   311.1972       0.040035964    23.785108      772.08883     -66.022769      706.06606    
   7928000   303.64988      0.040035964    22.074992      753.36373     -76.359207      677.00452    
   7929000   286.74954      0.040035964    16.365318      711.43352     -72.707016      638.7265     
   7930000   290.32128      0.040035964    21.754889      720.2951      -67.458137      652.83696    
   7931000   305.24018      0.040035964    20.75713       757.30929     -73.907036      683.40226    
   7932000   307.17175      0.040035964    26.665077      762.10158     -76.833         685.26858    
   7933000   297.32713      0.040035964    20.876294      737.67681     -72.870238      664.80658    
   7934000   312.35539      0.040035964    16.97847       774.96232     -65.496756      709.46557    
   7935000   288.4268       0.040035964    29.392351      715.59484     -63.842409      651.75243    
   7936000   293.82542      0.040035964    16.131628      728.98897     -62.833156      666.15581    
   7937000   302.27038      0.040035964    18.183085      749.94115     -67.013004      682.92814    
   7938000   305.66537      0.040035964    19.248007      758.36421     -72.674194      685.69002    
   7939000   296.09547      0.040035964    22.59654       734.62103     -67.313607      667.30742    
   7940000   312.89971      0.040035964    20.575487      776.31281     -67.66073       708.65208    
   7941000   302.39558      0.040035964    19.57684       750.25178     -72.049545      678.20223    
   7942000   293.07149      0.040035964    17.262974      727.11844     -75.019064      652.09938    
   7943000   317.64392      0.040035964    23.591858      788.08333     -66.770295      721.31303    
   7944000   308.75018      0.040035964    27.669647      766.01771     -68.560342      697.45737    
   7945000   293.85197      0.040035964    13.668883      729.05483     -66.95123       662.1036     
   7946000   320.96707      0.040035964    20.858059      796.32815     -66.004193      730.32395    
   7947000   302.33601      0.040035964    22.7891        750.10397     -57.256263      692.84771    
   7948000   295.42921      0.040035964    22.037401      732.96802     -58.340654      674.62737    
   7949000   305.14165      0.040035964    22.194235      757.06485     -57.149008      699.91584    
   7950000   305.74107      0.040035964    20.624402      758.55201     -60.28027       698.27174    
   7951000   316.79339      0.040035964    23.106362      785.97313     -57.105996      728.86713    
   7952000   295.46006      0.040035964    20.861229      733.04456     -61.44792       671.59664    
   7953000   300.06556      0.040035964    18.644606      744.47093     -62.421483      682.04944    
   7954000   302.51884      0.040035964    21.14134       750.55759     -62.819694      687.7379     
   7955000   296.52162      0.040035964    18.165777      735.67831     -66.276851      669.40146    
   7956000   308.60133      0.040035964    27.022656      765.64842     -59.968769      705.67965    
   7957000   304.18722      0.040035964    20.402408      754.69687     -65.803807      688.89307    
   7958000   309.2236       0.040035964    22.318678      767.19228     -64.184055      703.00822    
   7959000   294.4187       0.040035964    18.500899      730.46091     -63.11136       667.34955    
   7960000   297.16992      0.040035964    19.303844      737.28676     -64.223899      673.06286    
   7961000   285.56865      0.040035964    20.942047      708.50369     -64.47704       644.02665    
   7962000   303.90872      0.040035964    19.916858      754.0059      -66.614049      687.39185    
   7963000   310.48726      0.040035964    18.994186      770.32746     -69.522826      700.80463    
   7964000   293.25184      0.040035964    15.595901      727.56589     -69.594078      657.97181    
   7965000   297.53663      0.040035964    18.833612      738.19658     -66.997426      671.19915    
   7966000   298.29393      0.040035964    25.720909      740.07546     -68.660623      671.41484    
   7967000   305.05636      0.040035964    25.857126      756.85324     -66.554959      690.29828    
   7968000   317.15711      0.040035964    21.158003      786.87554     -53.289919      733.58562    
   7969000   296.21235      0.040035964    14.496423      734.91101     -56.839286      678.07172    
   7970000   287.24702      0.040035964    23.67238       712.66778     -64.603363      648.06442    
   7971000   309.7025       0.040035964    33.350149      768.38044     -58.076625      710.30381    
   7972000   309.30903      0.040035964    18.982703      767.40423     -58.761344      708.64289    
   7973000   281.56987      0.040035964    15.20658       698.58261     -60.462262      638.12034    
   7974000   289.94908      0.040035964    26.340837      719.37167     -60.647933      658.72373    
   7975000   313.21251      0.040035964    20.48118       777.08886     -62.042223      715.04664    
   7976000   308.96027      0.040035964    24.054531      766.53894     -68.712809      697.82614    
   7977000   297.67409      0.040035964    16.698525      738.53762     -66.11285       672.42477    
   7978000   308.30332      0.040035964    18.049445      764.90904     -65.798507      699.11053    
   7979000   292.52307      0.040035964    17.126555      725.75781     -64.610062      661.14774    
   7980000   295.0645       0.040035964    22.027694      732.06317     -71.034375      661.02879    
   7981000   316.88448      0.040035964    17.482586      786.19912     -66.906748      719.29238    
   7982000   301.16846      0.040035964    17.076805      747.20726     -68.627357      678.5799     
   7983000   282.91964      0.040035964    18.568598      701.93143     -69.504783      632.42665    
   7984000   308.51255      0.040035964    16.27731       765.42813     -65.458658      699.96947    
   7985000   305.99714      0.040035964    23.400591      759.18734     -70.664999      688.52234    
   7986000   284.96979      0.040035964    16.188388      707.0179      -72.954403      634.0635     
   7987000   301.43507      0.040035964    6.2612428      747.86873     -64.396535      683.47219    
   7988000   307.47054      0.040035964    22.472488      762.84289     -69.264308      693.57858    
   7989000   301.92675      0.040035964    14.607464      749.0886      -70.165634      678.92296    
   7990000   297.28316      0.040035964    19.563508      737.56772     -73.912005      663.65572    
   7991000   307.42472      0.040035964    30.770599      762.72921     -69.401018      693.32819    
   7992000   284.05627      0.040035964    28.154083      704.75145     -69.793939      634.95751    
   7993000   296.29419      0.040035964    17.865753      735.11404     -62.82319       672.29085    
   7994000   294.77411      0.040035964    14.056092      731.3427      -62.122359      669.22035    
   7995000   313.11906      0.040035964    21.11807       776.85702     -65.155894      711.70112    
   7996000   298.56371      0.040035964    19.964047      740.7448      -66.277465      674.46733    
   7997000   288.82215      0.040035964    24.949395      716.57572     -68.911577      647.66415    
   7998000   280.02268      0.040035964    12.477896      694.74399     -71.646484      623.0975     
   7999000   306.25691      0.040035964    13.6223        759.83185     -74.205676      685.62617    
   8000000   306.17526      0.040035964    24.910123      759.62925     -70.737122      688.89213    
Loop time of 14342.1 on 1 procs for 8000000 steps with 1500 atoms

Performance: 12.048 ns/day, 1.992 hours/ns, 557.798 timesteps/s, 836.697 katom-step/s
99.6% CPU use with 1 MPI tasks x 1 OpenMP threads

MPI task timing breakdown:
Section |  min time  |  avg time  |  max time  |%varavg| %total
---------------------------------------------------------------
Pair    | 1251.2     | 1251.2     | 1251.2     |   0.0 |  8.72
Bond    | 356.19     | 356.19     | 356.19     |   0.0 |  2.48
Kspace  | 11085      | 11085      | 11085      |   0.0 | 77.29
Neigh   | 0.06593    | 0.06593    | 0.06593    |   0.0 |  0.00
Comm    | 57.422     | 57.422     | 57.422     |   0.0 |  0.40
Output  | 0.26593    | 0.26593    | 0.26593    |   0.0 |  0.00
Modify  | 1557.9     | 1557.9     | 1557.9     |   0.0 | 10.86
Other   |            | 33.72      |            |       |  0.24

Nlocal:           1500 ave        1500 max        1500 min
Histogram: 1 0 0 0 0 0 0 0 0 0
Nghost:           1690 ave        1690 max        1690 min
Histogram: 1 0 0 0 0 0 0 0 0 0
Neighs:              0 ave           0 max           0 min
Histogram: 1 0 0 0 0 0 0 0 0 0

Total # of neighbors = 0
Ave neighs/atom = 0
Ave special neighs/atom = 2
Neighbor list builds = 29597
Dangerous builds = 0
write_data	last_conf.data pair ij
System init for write_data ...
PPPM initialization ...
  using 12-bit tables for long-range coulomb (src/kspace.cpp:342)
  G vector (1/distance) = 0.17795223
  grid = 24 24 24
  stencil order = 5
  estimated absolute RMS force accuracy = 0.028170818
  estimated relative force accuracy = 8.483558e-05
  using double precision FFTW3
  3d grid and FFT values/proc = 24389 13824
Generated 1 of 1 mixed pair_coeff terms from arithmetic mixing rule
Total wall time: 3:59:02
