LAMMPS (29 Aug 2024 - Update 1)
  using 1 OpenMP thread(s) per MPI task
package gpu 1 gpuID 0
# GCMC for CO2 molecular fluid, rigid/small/nvt dynamics
# Rigid CO2 TraPPE model
# [Potoff and J.I. Siepmann, Vapor-liquid equilibria of
# mixtures containing alkanes, carbon dioxide and
# nitrogen AIChE J., 47,1676-1682 (2001)].

# global model settings

units           real
atom_style      full
boundary        p p p
pair_style      lj/cut/coul/long  12
pair_modify     mix arithmetic shift yes
kspace_style    pppm 1.0e-4
bond_style      harmonic
angle_style     harmonic
neigh_modify    one 4000

# box, start molecules on simple cubic lattice
region          mbox block 0 ${lbox} 0 ${lbox} 0 ${lbox} units box
region          mbox block 0 90 0 ${lbox} 0 ${lbox} units box
region          mbox block 0 90 0 90 0 ${lbox} units box
region          mbox block 0 90 0 90 0 90 units box
create_box      2 mbox                                       bond/types 1                                angle/types 1                               extra/bond/per/atom 2                       extra/angle/per/atom 1                      extra/special/per/atom 2
Created orthogonal box = (0 0 0) to (90 90 90)
  1 by 1 by 1 MPI processor grid
molecule        co2mol ../CO2.txt
Read molecule template co2mol:
# CO2 molecule file. TraPPE model.
  1 molecules
  0 fragments
  3 atoms with max type 2
  2 bonds with max type 1
  1 angles with max type 1
  0 dihedrals with max type 0
  0 impropers with max type 0
create_atoms   	0 random ${nmols} 34578 mbox mol co2mol 464563 overlap 1.2
create_atoms   	0 random 500 34578 mbox mol co2mol 464563 overlap 1.2
Created 1500 atoms
  using lattice units in orthogonal box = (0 0 0) to (90 90 90)
  create_atoms CPU = 0.014 seconds

# rigid CO2 TraPPE model

pair_coeff      1   1  0.053649   2.800
pair_coeff      2   2  0.156973   3.050
bond_coeff      1       0       1.16
angle_coeff     1       0       180

# masses

mass 1 12.0107
mass 2 15.9994

write_data init_conf.data  pair ij
System init for write_data ...
PPPM initialization ...
  using 12-bit tables for long-range coulomb (src/kspace.cpp:342)
  G vector (1/distance) = 0.18386167
  grid = 24 24 24
  stencil order = 5
  estimated absolute RMS force accuracy = 0.023168919
  estimated relative force accuracy = 6.977251e-05
  using double precision FFTW3
  3d grid and FFT values/proc = 24389 13824
Generated 1 of 1 mixed pair_coeff terms from arithmetic mixing rule

# MD settings

group           co2 type 1 2
1500 atoms in group co2
velocity       	all create 300 54654
timestep        0.25

# rigid constraints with thermostat
fix             myrigidnvt co2 rigid/nvt molecule temp 300 300 $(100*dt)
fix             myrigidnvt co2 rigid/nvt molecule temp 300 300 25
  500 rigid bodies with 1500 atoms

thermo 1000
thermo_style custom step temp density press ke pe etotal


variable    mvol equal vol
variable    mden equal density
variable	mtmp equal temp
variable    mpre equal press

fix mydat all ave/time 1 4000 4000 v_mtmp v_mden v_mpre file statistics.dat ## every 1ps

run 8000000 ## 1ns

CITE-CITE-CITE-CITE-CITE-CITE-CITE-CITE-CITE-CITE-CITE-CITE-CITE

Your simulation uses code contributions which should be cited:

- GPU package (short-range, long-range and three-body potentials): doi:10.1016/j.cpc.2010.12.021, doi:10.1016/j.cpc.2011.10.012, doi:10.1016/j.cpc.2013.08.002, doi:10.1016/j.commatsci.2014.10.068, doi:10.1016/j.cpc.2016.10.020, doi:10.3233/APC200086

@Article{Brown11,
 author = {W. M. Brown and P. Wang and S. J. Plimpton and A. N. Tharrington},
 title = {Implementing Molecular Dynamics on Hybrid High Performance Computers---Short Range Forces},
 journal = {Comput.\ Phys.\ Commun.},
 year =    2011,
 volume =  182,
 pages =   {898--911},
 doi =     {10.1016/j.cpc.2010.12.021}
}

@Article{Brown12,
 author = {W. M. Brown and A. Kohlmeyer and S. J. Plimpton and A. N. Tharrington},
 title = {Implementing Molecular Dynamics on Hybrid High Performance Computers - Particle-Particle Particle-Mesh},
 journal = {Comput.\ Phys.\ Commun.},
 year =    2012,
 volume =  183,
 doi =     {10.1016/j.cpc.2011.10.012},
 pages =   {449--459}
}

@Article{Brown13,
 author = {W. M. Brown and Y. Masako},
 title = {Implementing Molecular Dynamics on Hybrid High Performance Computers---Three-Body Potentials},
 journal = {Comput.\ Phys.\ Commun.},
 year =    2013,
 volume =  184,
 pages =   {2785--2793},
 doi =     {10.1016/j.cpc.2013.08.002},
}

@Article{Trung15,
 author = {T. D. Nguyen and S. J. Plimpton},
 title = {Accelerating Dissipative Particle Dynamics Simulations for Soft Matter Systems},
 journal = {Comput.\ Mater.\ Sci.},
 year =    2015,
 doi =     {10.1016/j.commatsci.2014.10.068},
 volume =  100,
 pages =   {173--180}
}

@Article{Trung17,
 author = {T. D. Nguyen},
 title = {{GPU}-Accelerated {T}ersoff Potentials for Massively Parallel
    Molecular Dynamics Simulations},
 journal = {Comput.\ Phys.\ Commun.},
 year =    2017,
 doi =     {10.1016/j.cpc.2016.10.020},
 volume =  212,
 pages =   {113--122}
}

@inproceedings{Nikolskiy19,
 author = {V. Nikolskiy and V. Stegailov},
 title = {{GPU} Acceleration of Four-Site Water Models in {LAMMPS}},
 booktitle = {Proceedings of the International Conference on Parallel
    Computing (ParCo 2019), Prague, Czech Republic},
 doi =     {10.3233/APC200086},
 year =    2019
}

CITE-CITE-CITE-CITE-CITE-CITE-CITE-CITE-CITE-CITE-CITE-CITE-CITE

PPPM initialization ...
  using 12-bit tables for long-range coulomb (src/kspace.cpp:342)
  G vector (1/distance) = 0.18386167
  grid = 24 24 24
  stencil order = 5
  estimated absolute RMS force accuracy = 0.023168919
  estimated relative force accuracy = 6.977251e-05
  using double precision FFTW3
  3d grid and FFT values/proc = 24389 13824
Generated 1 of 1 mixed pair_coeff terms from arithmetic mixing rule
Per MPI rank memory allocation (min/avg/max) = 9.636 | 9.636 | 9.636 Mbytes
   Step          Temp         Density         Press          KinEng         PotEng         TotEng    
         0   305.00001      0.050123105   -1190.8286      756.71342      13723.437      14480.15     
      1000   313.64127      0.050123105    10.615209      778.15262     -67.047209      711.10542    
      2000   303.84547      0.050123105    27.913666      753.84899     -85.790066      668.05893    
      3000   284.90336      0.050123105    30.947686      706.8531      -81.446557      625.40654    
      4000   311.34823      0.050123105    23.994293      772.46355     -105.62151      666.84203    
      5000   308.93335      0.050123105    28.919616      766.47216     -114.00373      652.46843    
      6000   305.89748      0.050123105    23.524668      758.94008     -120.42972      638.51036    
      7000   300.87118      0.050123105    24.687577      746.4697      -123.33379      623.13591    
      8000   297.61714      0.050123105    24.12158       738.39634     -126.87435      611.52199    
      9000   292.44363      0.050123105    24.708043      725.5607      -135.4501       590.1106     
     10000   307.47079      0.050123105    23.099703      762.84351     -145.0874       617.75611    
     11000   297.5743       0.050123105    25.11952       738.29003     -144.19785      594.09218    
     12000   291.07448      0.050123105   -5.7185066      722.16381     -146.2578       575.90601    
     13000   306.08556      0.050123105    37.970582      759.4067      -151.35992      608.04678    
     14000   303.85056      0.050123105    34.439082      753.86162     -147.79092      606.0707     
     15000   302.39404      0.050123105    51.598701      750.24794     -155.03376      595.21418    
     16000   297.17033      0.050123105    34.543803      737.28779     -162.82057      574.46722    
     17000   279.92145      0.050123105   -25.118167      694.49283     -166.33231      528.16052    
     18000   303.9082       0.050123105    32.264974      754.00462     -163.14206      590.86256    
     19000   312.04438      0.050123105    21.946417      774.19072     -166.23052      607.9602     
     20000   283.55482      0.050123105    40.618669      703.50732     -166.28047      537.22685    
     21000   291.56053      0.050123105    24.680383      723.3697      -170.64717      552.72254    
     22000   306.86582      0.050123105    27.984011      761.34257     -160.63294      600.70963    
     23000   303.00933      0.050123105    38.341516      751.7745      -182.33533      569.43917    
     24000   300.89846      0.050123105    9.2367958      746.53736     -186.49934      560.03803    
     25000   292.1391       0.050123105    19.470336      724.80515     -180.30115      544.504      
     26000   308.39236      0.050123105    43.399262      765.12994     -185.78554      579.3444     
     27000   305.72837      0.050123105    29.943157      758.52051     -182.77177      575.74874    
     28000   281.22456      0.050123105    13.594819      697.72588     -180.10731      517.61857    
     29000   306.56045      0.050123105    21.868503      760.58493     -186.19033      574.3946     
     30000   298.34296      0.050123105    24.93046       740.19711     -186.84598      553.35112    
     31000   279.60628      0.050123105    32.9647        693.71089     -191.87362      501.83727    
     32000   286.82025      0.050123105    19.258157      711.60894     -197.79639      513.81255    
     33000   303.26389      0.050123105    12.938351      752.40607     -196.66589      555.74018    
     34000   302.67201      0.050123105    8.5561359      750.93759     -203.95853      546.97906    
     35000   318.39184      0.050123105    14.079123      789.93892     -207.48334      582.45558    
     36000   297.33808      0.050123105    26.374402      737.70397     -208.12873      529.57524    
     37000   303.32292      0.050123105   -7.4891551      752.55251     -203.24762      549.30489    
     38000   302.65993      0.050123105    11.946044      750.90762     -206.2379       544.66972    
     39000   300.26371      0.050123105    41.280261      744.96254     -198.69256      546.26998    
     40000   298.12046      0.050123105    21.050089      739.64508     -194.20636      545.43872    
     41000   296.08261      0.050123105    7.0822101      734.58912     -198.43349      536.15563    
     42000   301.74985      0.050123105    48.628648      748.6497      -186.50516      562.14454    
     43000   305.0477       0.050123105    31.812094      756.83174     -187.82433      569.00741    
     44000   299.98418      0.050123105    3.2014855      744.26902     -201.43688      542.83214    
     45000   302.63655      0.050123105    26.857996      750.84963     -215.12824      535.72139    
     46000   299.13579      0.050123105    36.617288      742.16413     -211.34754      530.81659    
     47000   290.52565      0.050123105    17.190225      720.80215     -204.27567      516.52648    
     48000   312.65145      0.050123105    18.575271      775.69688     -196.71778      578.97909    
     49000   310.33391      0.050123105    28.884955      769.94697     -192.92         577.02697    
     50000   290.30561      0.050123105    18.180662      720.25623     -195.77272      524.4835     
     51000   288.08733      0.050123105    21.980539      714.75261     -192.36828      522.38433    
     52000   300.17017      0.050123105    18.531838      744.73047     -203.15013      541.58034    
     53000   310.83064      0.050123105    23.520266      771.17939     -202.08961      569.08977    
     54000   284.96765      0.050123105    14.930743      707.01259     -200.01015      507.00244    
     55000   298.33072      0.050123105    20.109076      740.16674     -192.51392      547.65282    
     56000   300.02279      0.050123105    25.659888      744.36482     -201.52312      542.8417     
     57000   304.46943      0.050123105    22.429587      755.39705     -192.88173      562.51531    
     58000   306.09377      0.050123105    19.933683      759.42708     -197.6643       561.76278    
     59000   313.5827       0.050123105    24.756763      778.00733     -199.08494      578.92239    
     60000   297.83225      0.050123105    27.023852      738.93003     -185.62363      553.3064     
     61000   296.83818      0.050123105    19.834867      736.4637      -191.01278      545.45091    
     62000   294.69953      0.050123105    12.628343      731.15765     -193.68797      537.46968    
     63000   299.0809       0.050123105    27.177504      742.02795     -191.27499      550.75296    
     64000   297.28264      0.050123105    28.345851      737.56642     -188.91051      548.65591    
     65000   294.79536      0.050123105    23.641831      731.39541     -192.29559      539.09982    
     66000   315.91989      0.050123105    29.67475       783.80596     -198.88694      584.91902    
     67000   295.58164      0.050123105    29.061031      733.3462      -195.79353      537.55268    
     68000   294.10527      0.050123105    20.60785       729.68328     -191.59746      538.08582    
     69000   316.49384      0.050123105    18.027324      785.22994     -187.3577       597.87224    
     70000   292.69625      0.050123105    26.728807      726.18746     -178.6616       547.52587    
     71000   287.35777      0.050123105    14.053831      712.94255     -186.13826      526.80429    
     72000   292.57638      0.050123105    20.611712      725.89006     -185.0654       540.82466    
     73000   308.55647      0.050123105    28.054835      765.53711     -182.55661      582.9805     
     74000   300.70807      0.050123105    26.299495      746.06502     -181.15919      564.90583    
     75000   289.4543       0.050123105    23.192572      718.14409     -173.10053      545.04356    
     76000   285.89382      0.050123105    25.576857      709.31046     -173.58335      535.72711    
     77000   306.97901      0.050123105    17.806678      761.6234      -184.40359      577.21981    
     78000   296.56498      0.050123105    43.424776      735.7859      -177.56854      558.21736    
     79000   290.30696      0.050123105    14.813063      720.25957     -181.1669       539.09267    
     80000   311.70389      0.050123105    3.0893809      773.34595     -177.20101      596.14494    
     81000   304.12141      0.050123105    30.757009      754.53361     -176.45929      578.07432    
     82000   302.80247      0.050123105    36.692846      751.26129     -166.22986      585.03143    
     83000   296.48485      0.050123105    20.839994      735.58708     -165.9691       569.61799    
     84000   310.37659      0.050123105    20.473795      770.05286     -163.08174      606.97112    
     85000   290.22063      0.050123105    22.761249      720.04538     -157.6191       562.42629    
     86000   293.06784      0.050123105    21.079396      727.10939     -158.85309      568.2563     
     87000   315.76272      0.050123105    27.113459      783.41601     -158.36261      625.05339    
     88000   309.86418      0.050123105    23.269903      768.78158     -170.61708      598.1645     
     89000   287.27699      0.050123105    15.881373      712.74212     -158.84081      553.90131    
     90000   290.34624      0.050123105    23.713056      720.35703     -158.62421      561.73282    
     91000   309.34528      0.050123105    23.137772      767.49417     -161.43358      606.06059    
     92000   310.27469      0.050123105    23.278274      769.80006     -168.99506      600.805      
     93000   285.56144      0.050123105    23.468649      708.48582     -162.31929      546.16652    
     94000   297.40697      0.050123105    24.356567      737.87488     -164.73004      573.14484    
     95000   309.25316      0.050123105    24.917651      767.26561     -163.66702      603.5986     
     96000   307.03767      0.050123105    9.3568798      761.76893     -162.20583      599.5631     
     97000   284.17144      0.050123105    15.604123      705.03718     -158.40151      546.63567    
     98000   300.61874      0.050123105    24.09362       745.84338     -166.91004      578.93334    
     99000   314.35898      0.050123105    27.635015      779.93329     -166.43893      613.49436    
    100000   295.15342      0.050123105    17.821793      732.28377     -161.81818      570.46559    
    101000   291.30097      0.050123105    21.711959      722.72574     -153.30459      569.42115    
    102000   299.06825      0.050123105    28.489405      741.99657     -154.74237      587.2542     
    103000   309.19366      0.050123105    26.356242      767.11799     -152.90555      614.21244    
    104000   304.22722      0.050123105    23.491238      754.79612     -155.46524      599.33088    
    105000   291.59556      0.050123105    21.545769      723.45663     -155.4158       568.04083    
    106000   297.46259      0.050123105    21.518217      738.01288     -148.40939      589.60349    
    107000   305.18153      0.050123105    24.780995      757.16378     -147.087        610.07678    
    108000   312.99213      0.050123105    29.888527      776.5421      -140.99956      635.54255    
    109000   294.14712      0.050123105    23.843442      729.78712     -139.36928      590.41784    
    110000   294.27825      0.050123105    16.804504      730.11245     -137.48727      592.62518    
    111000   304.36709      0.050123105    27.830861      755.14314     -128.78265      626.36049    
    112000   297.88266      0.050123105    15.749859      739.05509     -141.37387      597.68122    
    113000   292.61216      0.050123105    21.733164      725.97885     -142.2756       583.70325    
    114000   302.94963      0.050123105    30.886105      751.62638     -141.16079      610.46559    
    115000   308.59415      0.050123105    16.481824      765.63059     -146.03872      619.59187    
    116000   302.44995      0.050123105    22.774112      750.38666     -134.37353      616.01313    
    117000   291.1825       0.050123105    33.208018      722.4318      -132.10099      590.33081    
    118000   305.33543      0.050123105    18.766895      757.54561     -132.78612      624.75948    
    119000   301.83623      0.050123105    7.0972418      748.864       -131.36056      617.50344    
    120000   293.40699      0.050123105    47.385094      727.95084     -142.90496      585.04588    
    121000   306.89695      0.050123105    22.328306      761.41978     -137.4205       623.99929    
    122000   304.86259      0.050123105    20.726481      756.37249     -138.8549       617.51758    
    123000   299.74527      0.050123105    26.761181      743.67627     -147.06111      596.61515    
    124000   315.08203      0.050123105    25.87384       781.72721     -143.83436      637.89285    
    125000   299.34569      0.050123105   -2.7493038      742.68491     -134.04995      608.63496    
    126000   293.40451      0.050123105    31.08128       727.94467     -125.13646      602.80821    
    127000   298.67781      0.050123105    41.967855      741.02788     -123.54745      617.48044    
    128000   315.69145      0.050123105    46.680406      783.23918     -124.70351      658.53567    
    129000   300.7354       0.050123105   -8.1077056      746.13281     -122.37549      623.75732    
    130000   294.88804      0.050123105    5.8909975      731.62535     -127.81431      603.81104    
    131000   289.80609      0.050123105    7.8177496      719.01691     -128.26308      590.75383    
    132000   304.98054      0.050123105    43.458111      756.66512     -118.9497       637.71542    
    133000   298.81735      0.050123105    22.475353      741.37409     -114.08294      627.29115    
    134000   305.51408      0.050123105    28.637274      757.98886     -115.84079      642.14808    
    135000   305.05507      0.050123105    16.695697      756.85004     -118.39987      638.45017    
    136000   293.2367       0.050123105    23.47107       727.52833     -125.8542       601.67413    
    137000   303.53463      0.050123105    32.734838      753.0778      -123.88725      629.19054    
    138000   303.47349      0.050123105    23.787316      752.92609     -121.66418      631.26191    
    139000   294.07768      0.050123105    20.793793      729.61482     -105.22045      624.39438    
    140000   298.19971      0.050123105    25.853597      739.8417      -105.92226      633.91944    
    141000   299.03981      0.050123105    28.501399      741.92602     -105.22606      636.69996    
    142000   296.83747      0.050123105    19.827146      736.46195     -101.04626      635.41569    
    143000   303.59592      0.050123105    21.210722      753.22984     -106.73216      646.49767    
    144000   306.37405      0.050123105    26.607924      760.12247     -109.30419      650.81829    
    145000   300.43412      0.050123105    17.583984      745.38533     -109.23764      636.14769    
    146000   295.92469      0.050123105    22.76457       734.19731     -101.00792      633.18939    
    147000   304.52955      0.050123105    21.871444      755.5462      -105.22428      650.32192    
    148000   297.06836      0.050123105    15.571013      737.03479     -106.74987      630.28492    
    149000   291.62457      0.050123105    3.0403083      723.52859     -108.72316      614.80543    
    150000   292.407        0.050123105    25.358363      725.46983     -111.74         613.72983    
    151000   311.41962      0.050123105    22.853106      772.64065     -116.57913      656.06152    
    152000   305.95725      0.050123105    24.358254      759.08836     -111.43292      647.65544    
    153000   300.99942      0.050123105    21.510205      746.78785     -118.8556       627.93225    
    154000   300.79819      0.050123105    25.813179      746.2886      -116.86322      629.42538    
    155000   297.57168      0.050123105    25.884294      738.28354     -113.60227      624.68127    
    156000   293.05521      0.050123105    26.26118       727.07805     -116.07318      611.00486    
    157000   317.85268      0.050123105    25.972287      788.60127     -113.4336       675.16767    
    158000   305.64691      0.050123105    24.003449      758.3184      -107.64788      650.67052    
    159000   290.10655      0.050123105    26.514401      719.76235     -108.98021      610.78214    
    160000   299.86175      0.050123105    23.949711      743.96527     -105.87867      638.0866     
    161000   288.64169      0.050123105    21.348427      716.12799     -111.39982      604.72817    
    162000   310.89464      0.050123105    26.436876      771.33818     -106.34486      664.99332    
    163000   299.87298      0.050123105    23.178153      743.99313     -106.34782      637.64531    
    164000   287.30458      0.050123105    24.991657      712.81059     -104.72104      608.08955    
    165000   293.9696       0.050123105    36.397544      729.34668     -109.59351      619.75317    
    166000   310.09341      0.050123105    22.297663      769.35029     -111.99522      657.35507    
    167000   305.41529      0.050123105    22.84354       757.74375     -106.33118      651.41256    
    168000   282.60783      0.050123105    24.020312      701.15782     -106.89604      594.26178    
    169000   308.98762      0.050123105    23.980246      766.60681     -109.26239      657.34442    
    170000   307.4151       0.050123105    22.376911      762.70535     -109.5993       653.10604    
    171000   290.47933      0.050123105    19.348824      720.68723     -104.02123      616.666      
    172000   289.6676       0.050123105    19.158266      718.67329     -105.63985      613.03344    
    173000   300.54128      0.050123105    24.479769      745.6512      -103.9612       641.69       
    174000   289.93015      0.050123105    19.961579      719.32469     -105.56552      613.75917    
    175000   287.82437      0.050123105    16.632538      714.10019     -107.62419      606.476      
    176000   318.35066      0.050123105    24.380564      789.83676     -117.70884      672.12792    
    177000   292.14026      0.050123105    11.238046      724.80804     -120.53406      604.27398    
    178000   291.91386      0.050123105    30.730771      724.24633     -116.25757      607.98876    
    179000   316.1822       0.050123105    21.827678      784.45676     -113.4796       670.97716    
    180000   301.59929      0.050123105    18.918077      748.27616     -113.8655       634.41066    
    181000   295.5682       0.050123105    32.632692      733.31284     -111.35944      621.9534     
    182000   294.62839      0.050123105    18.385856      730.98115     -106.39434      624.5868     
    183000   300.32503      0.050123105    18.602602      745.11467     -112.3457       632.76897    
    184000   306.85566      0.050123105    30.055823      761.31736     -106.69865      654.61872    
    185000   304.90246      0.050123105    21.783521      756.47142     -107.70211      648.76931    
    186000   293.57619      0.050123105    20.903884      728.37062     -110.81559      617.55503    
    187000   290.10222      0.050123105    22.646067      719.75161     -109.52068      610.23092    
    188000   305.68523      0.050123105    25.471788      758.41349     -116.40681      642.00668    
    189000   312.68211      0.050123105    26.556754      775.77295     -108.43149      667.34146    
    190000   305.12999      0.050123105    23.483034      757.03591     -121.06095      635.97496    
    191000   299.49993      0.050123105    30.170862      743.06758     -108.78336      634.28422    
    192000   313.97224      0.050123105    22.596312      778.97378     -119.48353      659.49025    
    193000   289.74783      0.050123105    21.2414        718.87234     -103.80363      615.06871    
    194000   301.0386       0.050123105    23.0275        746.88506     -105.88441      641.00065    
    195000   294.71259      0.050123105    20.918935      731.19006     -103.17126      628.0188     
    196000   309.01936      0.050123105    22.813664      766.68556     -106.03274      660.65282    
    197000   300.88824      0.050123105    21.71819       746.51202     -108.8103       637.70173    
    198000   296.23624      0.050123105    26.619064      734.97029     -96.260339      638.70995    
    199000   305.91415      0.050123105    22.638007      758.98143     -109.33928      649.64215    
    200000   306.35284      0.050123105    26.037024      760.06983     -109.6459       650.42393    
    201000   295.23458      0.050123105    23.218204      732.48512     -104.62859      627.85653    
    202000   296.53806      0.050123105    24.67428       735.71911     -100.60038      635.11873    
    203000   315.6302       0.050123105    22.330237      783.08722     -108.17913      674.90809    
    204000   306.70106      0.050123105    23.583073      760.93379     -99.240399      661.6934     
    205000   289.60034      0.050123105    26.554337      718.50642     -105.49491      613.0115     
    206000   294.48396      0.050123105    21.571252      730.62282     -107.33783      623.28498    
    207000   305.84106      0.050123105    29.48171       758.80011     -100.80362      657.99649    
    208000   298.15393      0.050123105    22.930997      739.72811     -95.05296       644.67515    
    209000   286.73015      0.050123105    18.929795      711.38541     -103.61835      607.76706    
    210000   307.96302      0.050123105    31.462869      764.06474     -99.923925      664.14081    
    211000   294.86854      0.050123105    28.159898      731.57699     -103.38331      628.19368    
    212000   315.4953       0.050123105    27.090788      782.75253     -95.7059        687.04663    
    213000   292.46883      0.050123105    20.138417      725.62323     -92.806524      632.81671    
    214000   294.38784      0.050123105    21.856292      730.38436     -101.00606      629.3783     
    215000   293.11251      0.050123105    25.604744      727.22022     -101.87542      625.3448     
    216000   307.54916      0.050123105    29.508919      763.03794     -97.364962      665.67297    
    217000   313.00129      0.050123105    22.265286      776.56483     -94.86903       681.6958     
    218000   318.73665      0.050123105    18.226225      790.79442     -89.743909      701.05051    
    219000   293.63967      0.050123105    26.080844      728.5281      -89.007764      639.52034    
    220000   319.81515      0.050123105    21.892272      793.4702      -89.903196      703.567      
    221000   298.16695      0.050123105    19.592613      739.76041     -90.63489       649.12552    
    222000   297.00986      0.050123105    25.242396      736.88966     -87.491705      649.39796    
    223000   307.84726      0.050123105    26.772579      763.77754     -92.21884       671.5587     
    224000   302.14208      0.050123105    24.486671      749.62284     -88.768489      660.85435    
    225000   271.80967      0.050123105    24.717527      674.36728     -89.20387       585.16341    
    226000   299.45158      0.050123105    30.242264      742.94762     -87.332131      655.61549    
    227000   311.82545      0.050123105    27.562223      773.64753     -86.188175      687.45936    
    228000   303.34773      0.050123105    33.292128      752.61407     -84.619646      667.99442    
    229000   314.41705      0.050123105    22.590394      780.07736     -84.792485      695.28487    
    230000   314.9217       0.050123105    23.073529      781.32942     -81.541733      699.78768    
    231000   293.99477      0.050123105    25.098385      729.40912     -78.328991      651.08013    
    232000   296.86067      0.050123105    26.779986      736.51951     -79.476388      657.04312    
    233000   310.09324      0.050123105    21.850485      769.34988     -87.011229      682.33865    
    234000   292.27645      0.050123105    18.471002      725.14594     -86.692837      638.4531     
    235000   288.14236      0.050123105    27.485306      714.88913     -91.590591      623.29854    
    236000   306.59928      0.050123105    25.030672      760.68127     -95.141623      665.53965    
    237000   298.44849      0.050123105    27.909508      740.45893     -88.011201      652.44773    
    238000   293.74913      0.050123105    17.984369      728.79969     -91.283303      637.51639    
    239000   301.21075      0.050123105    28.913864      747.31217     -82.124696      665.18747    
    240000   305.03913      0.050123105    21.437888      756.81048     -89.340049      667.47043    
    241000   302.34802      0.050123105    17.653299      750.13376     -84.803377      665.33039    
    242000   308.60307      0.050123105    27.758266      765.65272     -94.265309      671.38741    
    243000   307.42187      0.050123105    28.417482      762.72214     -94.717993      668.00415    
    244000   297.62481      0.050123105    39.209592      738.41536     -94.162036      644.25333    
    245000   293.09504      0.050123105    21.680738      727.17687     -87.10412       640.07275    
    246000   318.38536      0.050123105    19.401394      789.92286     -81.760694      708.16216    
    247000   307.64907      0.050123105    37.228146      763.28583     -86.251986      677.03384    
    248000   279.83252      0.050123105    24.3646        694.27219     -92.085812      602.18638    
    249000   296.96585      0.050123105    15.966282      736.78045     -91.742261      645.03819    
    250000   291.23238      0.050123105    13.420968      722.55555     -90.065284      632.49027    
    251000   298.58902      0.050123105    22.684099      740.8076      -93.685689      647.12191    
    252000   308.47926      0.050123105    24.046616      765.34554     -91.157784      674.18776    
    253000   300.1921       0.050123105    23.889012      744.78488     -96.622413      648.16246    
    254000   295.99812      0.050123105    26.114886      734.3795      -103.70823      630.67126    
    255000   292.18746      0.050123105    25.757426      724.92515     -97.738132      627.18702    
    256000   287.57413      0.050123105    22.338322      713.47935     -97.88149       615.59786    
    257000   292.33318      0.050123105    22.976431      725.28667     -91.359931      633.92674    
    258000   302.06377      0.050123105    29.044585      749.42853     -91.986327      657.4422     
    259000   299.75369      0.050123105    28.362556      743.69716     -87.622062      656.0751     
    260000   290.75848      0.050123105    17.779346      721.3798      -81.813248      639.56655    
    261000   290.44644      0.050123105    18.337147      720.60562     -89.579752      631.02586    
    262000   300.33883      0.050123105    25.798903      745.14891     -94.119429      651.02948    
    263000   301.02028      0.050123105    23.15114       746.83962     -93.054619      653.785      
    264000   284.20243      0.050123105    22.592419      705.11407     -84.230874      620.8832     
    265000   304.51947      0.050123105    19.862595      755.5212      -84.693027      670.82817    
    266000   308.18555      0.050123105    27.418024      764.61684     -88.071136      676.54571    
    267000   308.44376      0.050123105    28.997116      765.25747     -76.940774      688.3167     
    268000   292.45114      0.050123105    23.183337      725.57934     -84.689315      640.89002    
    269000   315.41604      0.050123105    9.9793425      782.55589     -87.420066      695.13582    
    270000   306.37122      0.050123105    24.442096      760.11544     -86.482167      673.63328    
    271000   293.6237       0.050123105    31.687297      728.4885      -83.66638       644.82212    
    272000   290.71231      0.050123105    21.505742      721.26525     -82.932582      638.33267    
    273000   314.42485      0.050123105    16.71832       780.09673     -82.376919      697.71981    
    274000   301.14162      0.050123105    34.093939      747.14067     -84.198384      662.94228    
    275000   293.95141      0.050123105    15.547241      729.30156     -92.467929      636.83363    
    276000   300.39543      0.050123105    16.991159      745.28934     -84.740691      660.54865    
    277000   315.32922      0.050123105    26.269187      782.34049     -86.092383      696.24811    
    278000   293.50953      0.050123105    24.758183      728.20523     -82.996457      645.20877    
    279000   296.05508      0.050123105    23.1295        734.52081     -83.639584      650.88123    
    280000   310.39195      0.050123105    25.14003       770.09098     -85.619158      684.47182    
    281000   299.14975      0.050123105    25.059782      742.19878     -96.328838      645.86994    
    282000   292.53946      0.050123105    24.138812      725.79847     -95.728299      630.07017    
    283000   289.7914       0.050123105    26.43369       718.98045     -89.417691      629.56276    
    284000   306.54038      0.050123105    22.6918        760.53513     -88.710443      671.82469    
    285000   301.98134      0.050123105    25.766465      749.22404     -87.728404      661.49563    
    286000   296.9733       0.050123105    30.175657      736.79895     -77.663245      659.1357     
    287000   300.45217      0.050123105    24.710477      745.4301      -83.940033      661.49007    
    288000   297.21467      0.050123105    20.159014      737.3978      -90.98527       646.41253    
    289000   311.31205      0.050123105    19.663365      772.37378     -94.284633      678.08915    
    290000   310.56395      0.050123105    29.599333      770.51772     -86.156553      684.36117    
    291000   304.12111      0.050123105    26.349356      754.53285     -81.505408      673.02744    
    292000   295.54337      0.050123105    24.20941       733.25125     -85.970388      647.28086    
    293000   306.16946      0.050123105    30.639545      759.61487     -86.401312      673.21355    
    294000   308.28494      0.050123105    25.126146      764.86343     -91.795643      673.06779    
    295000   299.7782       0.050123105    21.964775      743.75797     -91.050728      652.70724    
    296000   285.05579      0.050123105    23.232824      707.23126     -98.10831       609.12295    
    297000   317.77855      0.050123105    40.122352      788.41735     -92.271121      696.14623    
    298000   301.92592      0.050123105    22.331349      749.08652     -90.457685      658.62884    
    299000   293.31359      0.050123105    21.663344      727.71909     -98.255727      629.46337    
    300000   297.95774      0.050123105    42.530092      739.24136     -94.536678      644.70468    
    301000   304.65633      0.050123105    31.67256       755.86074     -94.186249      661.67449    
    302000   306.75262      0.050123105    16.717995      761.0617      -87.47761       673.58409    
    303000   294.40343      0.050123105    15.33163       730.42302     -81.175522      649.2475     
    304000   298.89791      0.050123105    21.434062      741.57395     -84.875602      656.69835    
    305000   294.21406      0.050123105    29.754871      729.95321     -84.129865      645.82334    
    306000   311.77321      0.050123105    30.934209      773.51793     -92.493548      681.02438    
    307000   299.21753      0.050123105    21.357235      742.36694     -84.889499      657.47744    
    308000   293.14162      0.050123105    23.367629      727.29244     -81.639838      645.6526     
    309000   301.05828      0.050123105    34.847716      746.9339      -86.120426      660.81347    
    310000   307.34115      0.050123105    24.943007      762.52185     -89.027907      673.49395    
    311000   283.93191      0.050123105    6.5405115      704.4429      -81.641421      622.80147    
    312000   302.04006      0.050123105    32.722539      749.36972     -77.6433        671.72642    
    313000   310.36017      0.050123105    21.374585      770.01213     -85.558135      684.454      
    314000   298.65218      0.050123105    13.517381      740.96429     -91.499681      649.46461    
    315000   290.58844      0.050123105    15.673322      720.95792     -95.279251      625.67867    
    316000   300.47624      0.050123105    41.37144       745.48983     -95.076477      650.41335    
    317000   310.34382      0.050123105    22.279587      769.97157     -97.162193      672.80938    
    318000   285.52999      0.050123105    6.2361412      708.40777     -99.59524       608.81253    
    319000   292.42655      0.050123105    36.02721       725.51834     -95.635558      629.88278    
    320000   309.8889       0.050123105    26.141441      768.84291     -98.793946      670.04897    
    321000   298.93072      0.050123105    19.629485      741.65535     -88.111281      653.54407    
    322000   293.12565      0.050123105    43.831539      727.25282     -97.39583       629.85699    
    323000   321.52924      0.050123105    19.914075      797.72291     -98.914765      698.80815    
    324000   300.68711      0.050123105   -10.32093       746.01302     -92.99815       653.01487    
    325000   294.14209      0.050123105    8.9702449      729.77463     -85.598001      644.17663    
    326000   293.02038      0.050123105    24.36769       726.99163     -84.53095       642.46068    
    327000   311.04782      0.050123105    27.595202      771.71822     -85.114503      686.60371    
    328000   306.78706      0.050123105    11.685208      761.14715     -85.162579      675.98457    
    329000   289.89641      0.050123105    26.308365      719.24099     -91.468661      627.77233    
    330000   307.55623      0.050123105    26.348954      763.05548     -90.381695      672.67379    
    331000   311.41237      0.050123105    29.238516      772.62268     -90.878407      681.74427    
    332000   297.44576      0.050123105    25.171284      737.97113     -93.809857      644.16127    
    333000   294.10986      0.050123105    22.146695      729.69466     -89.08898       640.60568    
    334000   306.35185      0.050123105    23.365338      760.06739     -98.081386      661.986      
    335000   301.29869      0.050123105    21.27885       747.53035     -100.17535      647.35499    
    336000   292.18911      0.050123105    25.028285      724.92923     -97.718368      627.21086    
    337000   307.64117      0.050123105    20.791901      763.26623     -92.057246      671.20898    
    338000   303.62863      0.050123105    6.7593866      753.31099     -89.497334      663.81366    
    339000   304.05129      0.050123105    32.369818      754.35963     -84.246351      670.11328    
    340000   296.5751       0.050123105    23.753206      735.81101     -81.895954      653.91505    
    341000   299.47433      0.050123105    21.309737      743.00407     -79.348371      663.6557     
    342000   306.04458      0.050123105    43.563238      759.30505     -82.709364      676.59568    
    343000   288.01919      0.050123105    26.563276      714.58354     -88.110898      626.47264    
    344000   304.10183      0.050123105    21.082153      754.48501     -85.508177      668.97683    
    345000   306.33381      0.050123105    60.287162      760.02263     -84.065036      675.95759    
    346000   304.68995      0.050123105    23.991693      755.94417     -85.08153       670.86264    
    347000   296.38428      0.050123105    28.35037       735.33757     -87.777154      647.56041    
    348000   306.54494      0.050123105    6.0099423      760.54643     -93.931332      666.6151     
    349000   306.92264      0.050123105    27.538481      761.48352     -94.704083      666.77944    
    350000   302.18556      0.050123105    34.778692      749.7307      -93.866554      655.86415    
    351000   298.04403      0.050123105    10.587202      739.45546     -91.241189      648.21427    
    352000   302.74194      0.050123105    41.237408      751.1111      -88.067374      663.04372    
    353000   289.62578      0.050123105    22.696701      718.56954     -94.46316       624.10638    
    354000   303.31621      0.050123105    12.145705      752.53588     -86.826414      665.70946    
    355000   308.66402      0.050123105    48.49525       765.80394     -93.659417      672.14452    
    356000   296.75701      0.050123105    40.798665      736.26233     -85.282052      650.98027    
    357000   291.09325      0.050123105    3.2958824      722.21037     -86.460817      635.74955    
    358000   320.95942      0.050123105    38.759268      796.30916     -91.076976      705.23219    
    359000   295.48127      0.050123105    29.356288      733.09717     -89.567188      643.52999    
    360000   294.2209       0.050123105    26.452265      729.97016     -83.971035      645.99913    
    361000   303.05192      0.050123105    7.3485984      751.88016     -78.041738      673.83842    
    362000   327.59958      0.050123105    23.957749      812.78358     -74.696614      738.08697    
    363000   311.3805       0.050123105    31.864424      772.54361     -80.415117      692.12849    
    364000   281.11004      0.050123105    29.274877      697.44177     -77.02943       620.41234    
    365000   317.25954      0.050123105    16.925665      787.12966     -89.266612      697.86305    
    366000   307.75502      0.050123105    16.177975      763.54869     -83.64548       679.90321    
    367000   301.13567      0.050123105    25.765705      747.12589     -83.797786      663.3281     
    368000   311.22256      0.050123105    29.627506      772.15175     -88.132573      684.01917    
    369000   293.85463      0.050123105    27.637611      729.06144     -83.186831      645.87461    
    370000   283.25921      0.050123105    1.7676485      702.7739      -83.867759      618.90614    
    371000   302.85072      0.050123105    15.252258      751.38099     -85.042692      666.33829    
    372000   311.96855      0.050123105    22.142584      774.00256     -87.535725      686.46684    
    373000   311.08221      0.050123105    35.00808       771.80353     -77.28716       694.51637    
    374000   297.32768      0.050123105    23.564098      737.67818     -83.663406      654.01478    
    375000   295.96332      0.050123105    18.115423      734.29316     -85.583892      648.70927    
    376000   292.12023      0.050123105    14.820395      724.75835     -87.932218      636.82613    
    377000   314.99011      0.050123105    24.257795      781.49913     -86.769181      694.72995    
    378000   301.0365       0.050123105    31.214177      746.87986     -84.230942      662.64892    
    379000   287.56141      0.050123105    22.015264      713.44779     -81.63392       631.81387    
    380000   310.26695      0.050123105    26.87471       769.78084     -82.981501      686.79934    
    381000   307.814        0.050123105    23.080674      763.69503     -80.419473      683.27555    
    382000   298.16023      0.050123105    24.109939      739.74375     -76.044917      663.69884    
    383000   284.02407      0.050123105    23.821297      704.67155     -80.567022      624.10452    
    384000   306.84363      0.050123105    26.030902      761.28749     -78.10771       683.17978    
    385000   305.53844      0.050123105    29.019807      758.04928     -76.121683      681.9276     
    386000   296.55063      0.050123105    24.79174       735.75028     -77.311355      658.43893    
    387000   291.28904      0.050123105    26.55387       722.69613     -78.583515      644.11261    
    388000   299.84371      0.050123105    18.089317      743.92052     -74.657768      669.26275    
    389000   301.66054      0.050123105    27.311396      748.4281      -72.304718      676.12339    
    390000   295.30763      0.050123105    26.273905      732.66636     -77.570488      655.09587    
    391000   302.15542      0.050123105    22.231374      749.65594     -74.446428      675.20951    
    392000   307.50649      0.050123105    17.690545      762.93209     -73.421241      689.51085    
    393000   288.62188      0.050123105    28.115821      716.07883     -76.108554      639.97028    
    394000   297.70193      0.050123105    25.814265      738.60669     -71.190384      667.41631    
    395000   299.27075      0.050123105    27.484098      742.49898     -69.092501      673.40648    
    396000   313.17069      0.050123105    24.067688      776.98512     -78.090718      698.8944     
    397000   291.88762      0.050123105    23.240599      724.18123     -74.582749      649.59848    
    398000   293.1241       0.050123105    23.36677       727.24896     -78.166219      649.08274    
    399000   304.62374      0.050123105    21.547645      755.77988     -72.416921      683.36296    
    400000   310.96979      0.050123105    29.708102      771.52463     -81.334888      690.18974    
    401000   296.55747      0.050123105    21.244428      735.76727     -80.914853      654.85242    
    402000   296.98642      0.050123105    24.350012      736.83148     -85.743337      651.08815    
    403000   306.22057      0.050123105    24.753287      759.74168     -85.278442      674.46324    
    404000   302.11704      0.050123105    24.85522       749.56071     -89.783413      659.77729    
    405000   293.64385      0.050123105    24.925643      728.5385      -80.00786       648.53064    
    406000   292.92634      0.050123105    28.738678      726.75832     -79.815987      646.94233    
    407000   298.11475      0.050123105    21.624915      739.63092     -71.297224      668.3337     
    408000   306.34795      0.050123105    26.170672      760.05771     -76.850289      683.20743    
    409000   300.86957      0.050123105    33.689648      746.4657      -85.86411       660.60159    
    410000   311.72363      0.050123105    17.620509      773.39493     -86.299772      687.09516    
    411000   285.29156      0.050123105    17.251399      707.81622     -82.332224      625.484      
    412000   303.4559       0.050123105    24.239664      752.88245     -89.882876      662.99958    
    413000   304.371        0.050123105    25.131529      755.15285     -87.187608      667.96524    
    414000   292.67259      0.050123105    23.471723      726.12875     -93.609296      632.51946    
    415000   307.20505      0.050123105    26.670274      762.18419     -86.505465      675.67872    
    416000   323.07823      0.050123105    35.906148      801.56599     -87.877619      713.68837    
    417000   295.81399      0.050123105    22.829061      733.92267     -79.646994      654.27567    
    418000   295.65573      0.050123105    26.279059      733.53001     -86.36732       647.16269    
    419000   316.58777      0.050123105    28.812222      785.46299     -85.19944       700.26355    
    420000   300.84417      0.050123105    18.130322      746.40267     -84.071859      662.33081    
    421000   284.04984      0.050123105    19.899084      704.73548     -84.781762      619.95372    
    422000   288.35673      0.050123105    17.7842        715.42099     -79.213323      636.20766    
    423000   305.21219      0.050123105    28.791345      757.23986     -89.281985      667.95787    
    424000   312.80755      0.050123105    36.929987      776.08415     -85.044395      691.03976    
    425000   305.12299      0.050123105    24.344079      757.01854     -89.046857      667.97168    
    426000   299.51985      0.050123105    22.966765      743.117       -88.057676      655.05933    
    427000   282.79832      0.050123105    26.112651      701.63042     -87.85476       613.77566    
    428000   311.12506      0.050123105    28.675975      771.90986     -89.165918      682.74394    
    429000   308.32671      0.050123105    30.999378      764.96705     -86.983033      677.98402    
    430000   310.14326      0.050123105    18.783422      769.47399     -85.064841      684.40915    
    431000   294.1612       0.050123105    21.049666      729.82203     -82.368448      647.45359    
    432000   293.76045      0.050123105    32.868445      728.82777     -84.786571      644.0412     
    433000   309.69598      0.050123105    9.5590057      768.36426     -83.575135      684.78913    
    434000   301.00425      0.050123105    11.990845      746.79983     -79.940362      666.85947    
    435000   287.57222      0.050123105    17.406748      713.47459     -84.604338      628.87026    
    436000   295.0005       0.050123105    45.756262      731.90437     -92.759394      639.14497    
    437000   305.87623      0.050123105    29.944208      758.88735     -99.416784      659.47056    
    438000   319.508        0.050123105    24.492545      792.70817     -94.928779      697.77939    
    439000   283.05379      0.050123105    17.854451      702.26425     -91.401141      610.86311    
    440000   290.10219      0.050123105    21.729466      719.75154     -88.092544      631.65899    
    441000   300.3625       0.050123105    26.27015       745.20765     -89.495222      655.71243    
    442000   310.49787      0.050123105    29.883433      770.35378     -90.289376      680.06441    
    443000   303.01817      0.050123105    19.722914      751.79643     -80.449032      671.3474     
    444000   283.34209      0.050123105    24.819015      702.97953     -90.081332      612.89819    
    445000   314.86494      0.050123105    28.356869      781.18859     -92.709844      688.47874    
    446000   301.74102      0.050123105    1.7850894      748.62779     -94.127993      654.4998     
    447000   287.18081      0.050123105    17.175468      712.50351     -94.925652      617.57785    
    448000   292.30669      0.050123105    28.074653      725.22096     -99.80001       625.42095    
    449000   319.14451      0.050123105    35.970307      791.80632     -90.008311      701.79801    
    450000   311.88117      0.050123105    19.493857      773.78579     -90.721256      683.06453    
    451000   295.2892       0.050123105    22.1113        732.62066     -89.873063      642.74759    
    452000   297.16966      0.050123105    27.467091      737.28611     -88.405378      648.88073    
    453000   305.21068      0.050123105    37.249806      757.23612     -82.171765      675.06435    
    454000   307.54807      0.050123105    20.816325      763.03523     -88.732528      674.30271    
    455000   282.58591      0.050123105    18.133281      701.10343     -82.780258      618.32317    
    456000   291.38623      0.050123105    28.779168      722.93726     -89.568869      633.36839    
    457000   309.21624      0.050123105    26.885403      767.17401     -87.607695      679.56631    
    458000   304.37792      0.050123105    25.224655      755.17002     -89.623521      665.5465     
    459000   293.61233      0.050123105    17.959783      728.46028     -97.698613      630.76167    
    460000   305.33363      0.050123105    23.659962      757.54116     -88.654771      668.88639    
    461000   287.77794      0.050123105    29.533107      713.98499     -87.629616      626.35538    
    462000   299.27467      0.050123105    18.832581      742.5087      -86.63813       655.87057    
    463000   316.65813      0.050123105    31.334111      785.63755     -86.567084      699.07047    
    464000   295.80237      0.050123105    27.945045      733.89384     -90.376572      643.51727    
    465000   313.53797      0.050123105    24.876777      777.89634     -89.7443        688.15204    
    466000   291.99387      0.050123105    21.676591      724.44485     -89.473947      634.9709     
    467000   300.16782      0.050123105    20.976234      744.72464     -81.681333      663.04331    
    468000   314.16857      0.050123105    28.061992      779.46089     -84.9607        694.50019    
    469000   300.14657      0.050123105    31.03994       744.67192     -87.246853      657.42507    
    470000   300.43085      0.050123105    24.644058      745.37722     -86.137541      659.23968    
    471000   290.15378      0.050123105    19.587909      719.87954     -89.674062      630.20548    
    472000   301.67784      0.050123105    29.795219      748.47104     -84.916856      663.55418    
    473000   308.10701      0.050123105    18.997955      764.422       -86.177778      678.24422    
    474000   287.96447      0.050123105    20.382282      714.44779     -93.998775      620.44902    
    475000   304.39219      0.050123105    24.84969       755.20542     -93.853885      661.35154    
    476000   287.79978      0.050123105    23.641221      714.0392      -96.776732      617.26246    
    477000   296.06651      0.050123105    23.326355      734.54916     -90.787197      643.76197    
    478000   304.83316      0.050123105    23.716495      756.29947     -88.714447      667.58502    
    479000   288.16951      0.050123105    23.088903      714.9565      -83.141764      631.81473    
    480000   302.85002      0.050123105    16.586496      751.37925     -82.83608       668.54317    
    481000   296.11362      0.050123105    22.434909      734.66604     -89.240168      645.42587    
    482000   298.60982      0.050123105    24.623547      740.85919     -83.849093      657.0101     
    483000   303.89647      0.050123105    31.395042      753.97551     -82.928297      671.04721    
    484000   292.82043      0.050123105    28.990744      726.49557     -81.977199      644.51837    
    485000   290.18842      0.050123105    21.226554      719.96548     -77.818611      642.14687    
    486000   305.92517      0.050123105    27.183799      759.00879     -88.766163      670.24263    
    487000   299.35299      0.050123105    27.371398      742.70302     -86.879213      655.8238     
    488000   292.84156      0.050123105    27.490699      726.54797     -89.780689      636.76728    
    489000   302.3252       0.050123105    22.963624      750.07716     -87.132789      662.94437    
    490000   308.58997      0.050123105    23.56743       765.62021     -86.32765       679.29256    
    491000   291.57787      0.050123105    24.893705      723.41274     -77.492191      645.92055    
    492000   291.50202      0.050123105    17.295655      723.22456     -85.789553      637.435      
    493000   310.4096       0.050123105    27.546441      770.13478     -85.042612      685.09217    
    494000   294.24456      0.050123105    28.418265      730.02885     -89.901245      640.12761    
    495000   291.91252      0.050123105    21.921106      724.24302     -89.208115      635.0349     
    496000   295.03225      0.050123105    21.716041      731.98315     -87.649755      644.3334     
    497000   301.1886       0.050123105    28.893309      747.25721     -90.178067      657.07914    
    498000   300.46005      0.050123105    26.816731      745.44966     -88.658344      656.79132    
    499000   302.77099      0.050123105    23.366643      751.18317     -86.599528      664.58364    
    500000   304.22382      0.050123105    22.846549      754.78768     -82.645371      672.14231    
    501000   303.95697      0.050123105    35.095554      754.12562     -77.086089      677.03954    
    502000   283.97423      0.050123105    23.057634      704.5479      -79.990871      624.55702    
    503000   298.4818       0.050123105    22.895792      740.54157     -79.551071      660.9905     
    504000   310.26693      0.050123105    28.122225      769.78081     -73.11814       696.66267    
    505000   315.85827      0.050123105    24.677838      783.65309     -78.030008      705.62308    
    506000   287.8048       0.050123105    22.504821      714.05164     -82.276203      631.77544    
    507000   295.72013      0.050123105    26.312578      733.68979     -86.143801      647.54599    
    508000   310.78411      0.050123105    26.58013       771.06395     -101.14077      669.92318    
    509000   313.79705      0.050123105    25.412248      778.53913     -94.679754      683.85937    
    510000   287.94319      0.050123105    14.839816      714.39499     -93.011465      621.38352    
    511000   294.18827      0.050123105    29.582449      729.88921     -89.44429       640.44492    
    512000   310.68215      0.050123105    30.385879      770.81098     -79.981564      690.82942    
    513000   307.63472      0.050123105    17.807792      763.25021     -79.869064      683.38115    
    514000   301.69776      0.050123105    11.376158      748.52046     -77.750101      670.77036    
    515000   286.76573      0.050123105    11.958477      711.47369     -84.115368      627.35833    
    516000   296.19913      0.050123105    31.801677      734.8782      -79.860146      655.01806    
    517000   300.81703      0.050123105    30.751705      746.33534     -83.858105      662.47724    
    518000   318.2781       0.050123105    26.440148      789.65675     -81.366765      708.28998    
    519000   293.06884      0.050123105    22.107138      727.11187     -89.696153      637.41572    
    520000   293.36596      0.050123105    23.457481      727.84904     -82.426232      645.42281    
    521000   294.26829      0.050123105    22.351347      730.08773     -81.254808      648.83292    
    522000   308.30158      0.050123105    20.873839      764.90472     -80.745383      684.15933    
    523000   296.97347      0.050123105    30.115887      736.79936     -79.171961      657.62739    
    524000   294.74008      0.050123105    19.101334      731.25827     -80.506733      650.75154    
    525000   304.14278      0.050123105    23.727807      754.58663     -87.599981      666.98665    
    526000   298.03087      0.050123105    34.286499      739.4228      -88.259709      651.16309    
    527000   294.2588       0.050123105    24.812955      730.0642      -86.087925      643.97627    
    528000   319.36788      0.050123105    28.274695      792.36051     -83.743286      708.61723    
    529000   308.9131       0.050123105    24.90011       766.42192     -79.331319      687.0906     
    530000   291.40214      0.050123105    24.078553      722.97675     -87.484054      635.4927     
    531000   305.90851      0.050123105    30.752174      758.96745     -77.098068      681.86938    
    532000   299.81048      0.050123105    27.076707      743.83806     -80.779623      663.05844    
    533000   290.3071       0.050123105    25.974992      720.25991     -82.203809      638.0561     
    534000   312.66018      0.050123105    15.957634      775.71852     -83.123204      692.59532    
    535000   306.66991      0.050123105    31.28747       760.85649     -89.593334      671.26316    
    536000   283.58109      0.050123105    24.973128      703.57251     -82.397562      621.17495    
    537000   289.15011      0.050123105    25.738399      717.3894      -89.292505      628.0969     
    538000   305.54613      0.050123105    23.635796      758.06837     -90.674279      667.39409    
    539000   302.12686      0.050123105    28.497308      749.58506     -81.807402      667.77766    
    540000   286.23771      0.050123105    25.65748       710.16364     -91.917155      618.24648    
    541000   313.02178      0.050123105    25.599023      776.61565     -89.744442      686.87121    
    542000   301.03842      0.050123105    13.665203      746.88463     -88.478234      658.40639    
    543000   295.18043      0.050123105    22.582808      732.35078     -92.822216      639.52857    
    544000   297.52208      0.050123105    28.941765      738.16048     -92.161797      645.99869    
    545000   316.58571      0.050123105    27.408605      785.45786     -88.453939      697.00392    
    546000   293.8576       0.050123105    24.729749      729.0688      -90.137904      638.93089    
    547000   302.57404      0.050123105    21.976943      750.69453     -91.356489      659.33804    
    548000   283.71979      0.050123105    19.857804      703.91661     -96.228887      607.68772    
    549000   290.79868      0.050123105    25.532895      721.47955     -95.399295      626.08025    
    550000   304.94915      0.050123105    30.414871      756.58726     -92.206452      664.38081    
    551000   294.72069      0.050123105    19.446665      731.21017     -88.519481      642.69069    
    552000   296.216        0.050123105    22.644258      734.92007     -85.194201      649.72586    
    553000   300.30541      0.050123105    27.030737      745.066       -79.911423      665.15458    
    554000   299.41748      0.050123105    24.842877      742.86302     -82.478835      660.38419    
    555000   305.44418      0.050123105    16.432861      757.81543     -84.006511      673.80892    
    556000   288.23679      0.050123105    24.535354      715.12342     -87.076009      628.04741    
    557000   307.27373      0.050123105    24.067722      762.35459     -91.539999      670.81459    
    558000   298.66368      0.050123105    17.567247      740.99281     -91.77067       649.22214    
    559000   283.61827      0.050123105    21.4058        703.66476     -88.992029      614.67273    
    560000   291.84342      0.050123105    23.910182      724.07157     -89.098829      634.97274    
    561000   310.2304       0.050123105    26.982731      769.69017     -92.712858      676.97732    
    562000   308.47549      0.050123105    11.477533      765.33618     -88.058117      677.27807    
    563000   311.53429      0.050123105    21.845674      772.92516     -84.224408      688.70076    
    564000   292.61829      0.050123105    25.550001      725.99404     -83.675583      642.31846    
    565000   301.64335      0.050123105    24.903443      748.38547     -84.813252      663.57222    
    566000   301.57592      0.050123105    24.320441      748.21818     -83.262416      664.95577    
    567000   291.85062      0.050123105    25.54922       724.08943     -86.942356      637.14707    
    568000   293.26523      0.050123105    24.408931      727.59911     -81.966324      645.63279    
    569000   305.81201      0.050123105    20.407295      758.72803     -71.26654       687.46149    
    570000   299.78834      0.050123105    19.636119      743.78314     -73.404276      670.37886    
    571000   299.51306      0.050123105    24.180541      743.10017     -78.653361      664.44681    
    572000   315.98219      0.050123105    28.090494      783.96053     -77.772586      706.18795    
    573000   303.30656      0.050123105    28.648203      752.51192     -77.811722      674.7002     
    574000   286.84241      0.050123105    25.956781      711.66394     -78.225689      633.43825    
    575000   287.84843      0.050123105    25.376273      714.15989     -83.601772      630.55812    
    576000   294.38678      0.050123105    19.699423      730.38171     -87.273932      643.10778    
    577000   305.27081      0.050123105    28.41396       757.3853      -84.938141      672.44716    
    578000   301.27383      0.050123105    23.29466       747.46867     -91.753456      655.71521    
    579000   295.73522      0.050123105    28.977979      733.72724     -87.832901      645.89434    
    580000   296.09821      0.050123105    23.570754      734.62782     -92.200358      642.42746    
    581000   324.30144      0.050123105    28.370517      804.60082     -88.418117      716.1827     
    582000   300.10562      0.050123105    20.713556      744.57032     -87.270401      657.29992    
    583000   281.69148      0.050123105    22.54252       698.88432     -88.418997      610.46532    
    584000   291.10068      0.050123105    16.451949      722.22882     -85.141209      637.08761    
    585000   322.10693      0.050123105    30.774215      799.15616     -88.916844      710.23932    
    586000   306.95327      0.050123105    29.767828      761.55952     -83.281799      678.27773    
    587000   283.29949      0.050123105    28.464723      702.87385     -85.06349       617.81036    
    588000   296.15115      0.050123105    21.872168      734.75917     -83.164076      651.59509    
    589000   312.74199      0.050123105    24.388228      775.92151     -77.308168      698.61334    
    590000   301.70924      0.050123105    25.433877      748.54895     -81.95814       666.59081    
    591000   288.98651      0.050123105    22.846593      716.98349     -86.429034      630.55446    
    592000   299.36835      0.050123105    22.358191      742.74113     -82.425594      660.31553    
    593000   310.41316      0.050123105    22.810073      770.14362     -82.080373      688.06324    
    594000   307.01515      0.050123105    39.526577      761.71305     -85.971068      675.74198    
    595000   291.03133      0.050123105    18.210303      722.05676     -87.073739      634.98302    
    596000   292.91148      0.050123105    14.045336      726.72145     -84.657008      642.06444    
    597000   316.22174      0.050123105    18.724188      784.55484     -89.760338      694.79451    
    598000   304.73876      0.050123105    35.014637      756.06526     -90.483744      665.58152    
    599000   289.03019      0.050123105    26.957031      717.09187     -82.301893      634.78998    
    600000   307.57196      0.050123105    25.717677      763.09452     -79.459656      683.63486    
    601000   299.57078      0.050123105    31.710714      743.24337     -76.665097      666.57827    
    602000   291.73951      0.050123105    26.877757      723.81377     -78.273669      645.5401     
    603000   291.41317      0.050123105    21.217769      723.0041      -70.442767      652.56133    
    604000   311.39355      0.050123105    21.825306      772.57599     -76.572863      696.00312    
    605000   301.1198       0.050123105    30.655071      747.08653     -80.914926      666.17161    
    606000   300.21837      0.050123105    11.630177      744.85005     -80.603579      664.24647    
    607000   302.90826      0.050123105    25.636061      751.52373     -79.808217      671.71552    
    608000   316.03264      0.050123105    33.091488      784.0857      -84.32237       699.76333    
    609000   306.37811      0.050123105    30.234484      760.13253     -83.408594      676.72394    
    610000   294.91378      0.050123105    16.660691      731.68921     -87.005847      644.68336    
    611000   294.64987      0.050123105    23.23025       731.03444     -87.501026      643.53342    
    612000   316.53469      0.050123105    26.334366      785.33129     -82.426125      702.90517    
    613000   298.72221      0.050123105    14.761045      741.13803     -86.457257      654.68077    
    614000   302.95298      0.050123105    23.796819      751.6347      -80.71937       670.91533    
    615000   302.40946      0.050123105    37.418602      750.28621     -85.3696        664.91661    
    616000   304.76456      0.050123105    21.273162      756.12928     -92.00739       664.12189    
    617000   307.49264      0.050123105    17.197223      762.89772     -84.694162      678.20356    
    618000   291.72981      0.050123105    37.036458      723.7897      -77.97487       645.81483    
    619000   306.18242      0.050123105    33.490709      759.64703     -85.545873      674.10115    
    620000   297.35299      0.050123105    14.636896      737.74097     -80.687699      657.05327    
    621000   294.84978      0.050123105    20.517184      731.53043     -82.320877      649.20956    
    622000   303.14228      0.050123105    26.892409      752.10436     -81.476475      670.62788    
    623000   308.85713      0.050123105    24.608441      766.28306     -90.744364      675.5387     
    624000   294.60479      0.050123105    25.069937      730.92259     -89.711046      641.21155    
    625000   284.51913      0.050123105    20.474113      705.89981     -98.714228      607.18558    
    626000   301.8205       0.050123105    22.403237      748.82499     -102.9551       645.86989    
    627000   302.12254      0.050123105    25.830348      749.57434     -98.089598      651.48474    
    628000   299.43212      0.050123105    18.815411      742.89934     -100.32971      642.56963    
    629000   299.63117      0.050123105    22.549211      743.39319     -88.347613      655.04558    
    630000   312.78501      0.050123105    21.722212      776.02824     -84.870441      691.1578     
    631000   292.28458      0.050123105    24.848516      725.16611     -83.80767       641.35844    
    632000   310.53347      0.050123105    55.373182      770.44211     -90.189564      680.25254    
    633000   306.2166       0.050123105    16.714839      759.73182     -85.838209      673.89361    
    634000   301.18105      0.050123105    6.3988268      747.2385      -80.813607      666.42489    
    635000   298.57059      0.050123105    19.234404      740.76185     -75.511956      665.2499     
    636000   298.7678       0.050123105    39.920879      741.25115     -79.817854      661.4333     
    637000   307.73896      0.050123105    15.488527      763.50885     -72.970842      690.53801    
    638000   300.90608      0.050123105    5.2532301      746.55628     -84.078864      662.47742    
    639000   289.48159      0.050123105    58.564052      718.21179     -81.913686      636.29811    
    640000   279.42454      0.050123105    70.27468       693.25998     -75.320065      617.93992    
    641000   313.48501      0.050123105    44.632138      777.76494     -80.430096      697.33484    
    642000   298.729        0.050123105    23.671878      741.15487     -82.903495      658.25138    
    643000   285.35547      0.050123105    17.849616      707.97479     -83.576963      624.39782    
    644000   300.6856       0.050123105    38.603485      746.00927     -90.939628      655.06964    
    645000   307.22895      0.050123105    44.272069      762.2435      -92.619604      669.62389    
    646000   291.83502      0.050123105    14.994376      724.05073     -82.298852      641.75188    
    647000   297.21436      0.050123105    15.808974      737.39701     -81.764654      655.63236    
    648000   290.69106      0.050123105    31.752198      721.21254     -79.810915      641.40163    
    649000   309.03524      0.050123105    27.152698      766.72496     -77.300504      689.42445    
    650000   302.02957      0.050123105    18.13219       749.3437      -79.260501      670.08319    
    651000   291.74415      0.050123105    46.507752      723.82527     -79.706821      644.11845    
    652000   294.08357      0.050123105    42.808479      729.62943     -80.341956      649.28748    
    653000   303.59065      0.050123105    21.480135      753.21678     -86.903822      666.31296    
    654000   302.57641      0.050123105   -0.26179401     750.70041     -83.578873      667.12154    
    655000   288.36197      0.050123105    20.531274      715.43399     -84.07155       631.36244    
    656000   301.66944      0.050123105    29.361631      748.4502      -70.756137      677.69407    
    657000   294.51324      0.050123105    7.9233841      730.69546     -75.691769      655.00369    
    658000   294.35653      0.050123105    27.532647      730.30667     -77.682411      652.62426    
    659000   305.69472      0.050123105    29.050841      758.43702     -77.74303       680.69399    
    660000   308.98521      0.050123105    28.039093      766.60083     -74.683158      691.91768    
    661000   301.9898       0.050123105    21.981397      749.24501     -80.398704      668.84631    
    662000   305.60323      0.050123105    31.055972      758.21005     -76.330564      681.87948    
    663000   313.05688      0.050123105    19.126634      776.70274     -85.819982      690.88276    
    664000   292.61798      0.050123105    30.78782       725.99327     -84.170492      641.82278    
    665000   305.51144      0.050123105    23.338326      757.98231     -76.857563      681.12475    
    666000   314.38851      0.050123105    19.263387      780.00655     -82.566097      697.44045    
    667000   298.0098       0.050123105    24.740284      739.37053     -81.960399      657.41014    
    668000   299.51561      0.050123105    37.725151      743.10648     -80.622589      662.4839     
    669000   298.54654      0.050123105    16.768625      740.70219     -81.248188      659.454      
    670000   291.3074       0.050123105    16.622483      722.74169     -80.24091       642.50078    
    671000   309.74056      0.050123105    23.148103      768.47486     -79.650276      688.82458    
    672000   293.13487      0.050123105    22.916806      727.27569     -78.612555      648.66314    
    673000   294.49475      0.050123105    21.972447      730.64958     -79.916637      650.73295    
    674000   308.24446      0.050123105    26.793757      764.763       -80.637688      684.12531    
    675000   312.55789      0.050123105    24.191835      775.46475     -88.801848      686.6629     
    676000   302.67566      0.050123105    23.558197      750.94666     -82.402609      668.54405    
    677000   294.74202      0.050123105    32.75651       731.26308     -77.77652       653.48656    
    678000   299.11529      0.050123105    27.917563      742.11328     -79.913497      662.19979    
    679000   311.90208      0.050123105    14.703861      773.83767     -80.653992      693.18368    
    680000   294.23637      0.050123105    27.976786      730.00854     -77.968834      652.0397     
    681000   308.3042       0.050123105    29.397131      764.91122     -80.164516      684.7467     
    682000   299.23662      0.050123105    17.627054      742.4143      -81.904892      660.50941    
    683000   298.74719      0.050123105    30.455432      741.20002     -80.336738      660.86328    
    684000   311.06814      0.050123105    25.202929      771.76862     -76.092209      695.67641    
    685000   290.63766      0.050123105    19.088697      721.08005     -71.149549      649.93051    
    686000   295.66009      0.050123105    23.61096       733.54083     -73.888977      659.65186    
    687000   295.54639      0.050123105    31.161358      733.25873     -78.125846      655.13288    
    688000   310.68076      0.050123105    31.790266      770.80752     -82.710695      688.09683    
    689000   302.07554      0.050123105    11.611133      749.45774     -89.997776      659.45996    
    690000   297.4346       0.050123105    29.702167      737.94343     -90.352996      647.59043    
    691000   303.40277      0.050123105    21.296104      752.75064     -83.674613      669.07603    
    692000   293.0668       0.050123105    26.374086      727.10682     -84.062878      643.04394    
    693000   312.53137      0.050123105    22.635142      775.39894     -86.450297      688.94865    
    694000   306.80821      0.050123105    30.137339      761.19962     -77.718871      683.48075    
    695000   302.61089      0.050123105    25.127304      750.78596     -79.102834      671.68313    
    696000   299.91421      0.050123105    30.410066      744.09541     -68.692822      675.40259    
    697000   311.84663      0.050123105    20.034243      773.70008     -82.688758      691.01132    
    698000   322.12687      0.050123105    20.157855      799.20565     -78.852448      720.3532     
    699000   295.27543      0.050123105    42.175554      732.58649     -78.147252      654.43923    
    700000   297.80406      0.050123105    18.926273      738.86007     -79.474949      659.38512    
    701000   303.8892       0.050123105    11.917195      753.95748     -88.459342      665.49814    
    702000   315.61713      0.050123105    27.646119      783.05481     -80.648698      702.40611    
    703000   295.18419      0.050123105    25.133163      732.36012     -86.559184      645.80094    
    704000   303.04565      0.050123105    27.179456      751.86461     -78.728722      673.13588    
    705000   307.34547      0.050123105    14.980967      762.53259     -77.008453      685.52414    
    706000   300.0389       0.050123105    32.814708      744.40477     -86.525944      657.87883    
    707000   287.0409       0.050123105    19.869592      712.15638     -88.794148      623.36223    
    708000   305.2141       0.050123105    18.715816      757.2446      -86.866786      670.37781    
    709000   307.44784      0.050123105    33.029072      762.78657     -80.24175       682.54482    
    710000   305.07229      0.050123105    40.474058      756.89276     -89.863387      667.02938    
    711000   291.649        0.050123105    25.94669       723.58921     -78.56913       645.02008    
    712000   292.20999      0.050123105    21.499192      724.98104     -82.27309       642.70795    
    713000   296.83509      0.050123105    19.828269      736.45605     -88.150179      648.30587    
    714000   320.88196      0.050123105    29.112563      796.11698     -81.041326      715.07565    
    715000   298.39801      0.050123105    17.951272      740.33368     -92.512488      647.82119    
    716000   290.35216      0.050123105    31.355719      720.37172     -88.461409      631.91031    
    717000   312.77704      0.050123105    30.664385      776.00846     -88.020885      687.98758    
    718000   298.22164      0.050123105    21.933481      739.89612     -84.853541      655.04258    
    719000   299.61211      0.050123105    21.994725      743.3459      -81.118495      662.22741    
    720000   295.61501      0.050123105    25.488731      733.42898     -84.821032      648.60795    
    721000   299.23625      0.050123105    20.029394      742.41339     -88.080776      654.33261    
    722000   295.03463      0.050123105    29.283059      731.98905     -75.492865      656.49619    
    723000   319.83151      0.050123105    30.754821      793.51079     -77.190032      716.32076    
    724000   297.80536      0.050123105    26.004493      738.8633      -96.284933      642.57837    
    725000   287.71938      0.050123105    24.479226      713.83971     -88.29071       625.549      
    726000   297.94609      0.050123105    11.956802      739.21246     -81.46711       657.74535    
    727000   305.36739      0.050123105    20.999623      757.62492     -81.498254      676.12667    
    728000   303.85947      0.050123105    23.370175      753.88373     -83.442584      670.44114    
    729000   289.98114      0.050123105    30.555141      719.45121     -78.082233      641.36897    
    730000   303.70185      0.050123105    21.099085      753.49267     -95.67006       657.82261    
    731000   307.82824      0.050123105    27.711032      763.73034     -90.75026       672.98008    
    732000   297.05217      0.050123105    29.931994      736.99462     -88.199483      648.79514    
    733000   287.7608       0.050123105    21.234862      713.94247     -88.658665      625.28381    
    734000   307.43664      0.050123105    28.575653      762.75878     -82.05615       680.70263    
    735000   307.64306      0.050123105    25.413836      763.27092     -77.307912      685.963      
    736000   296.75069      0.050123105    19.545405      736.24665     -82.35681       653.88984    
    737000   304.27735      0.050123105    20.443914      754.92049     -84.14941       670.77108    
    738000   303.96823      0.050123105    47.943754      754.15356     -76.211002      677.94255    
    739000   304.49097      0.050123105    40.176136      755.45049     -73.428529      682.02196    
    740000   295.61392      0.050123105    33.1582        733.42628     -73.165773      660.26051    
    741000   309.31626      0.050123105    23.630342      767.42218     -78.716866      688.70531    
    742000   317.22279      0.050123105    27.044502      787.03848     -78.616665      708.42182    
    743000   295.71178      0.050123105    20.332839      733.66908     -81.086141      652.58294    
    744000   294.19672      0.050123105    23.320018      729.91017     -77.095372      652.8148     
    745000   305.74729      0.050123105    22.517663      758.56745     -80.182169      678.38528    
    746000   297.09983      0.050123105    26.092137      737.11286     -75.70349       661.40937    
    747000   301.23937      0.050123105    20.191293      747.38319     -77.382351      670.00084    
    748000   302.38025      0.050123105    25.187796      750.21373     -77.386656      672.82708    
    749000   294.73256      0.050123105    31.422142      731.2396      -78.004183      653.23542    
    750000   293.73432      0.050123105    22.448358      728.76294     -90.823074      637.93986    
    751000   309.41492      0.050123105    24.00746       767.66695     -79.243847      688.4231     
    752000   309.01041      0.050123105    25.989744      766.66335     -89.087315      677.57603    
    753000   298.13042      0.050123105    39.394325      739.66979     -89.822244      649.84755    
    754000   287.94307      0.050123105    24.818776      714.39469     -91.150105      623.24459    
    755000   300.22267      0.050123105    23.893473      744.86072     -91.353581      653.50714    
    756000   291.73232      0.050123105    19.289279      723.79592     -88.377207      635.41871    
    757000   302.72596      0.050123105    27.809862      751.07145     -91.928822      659.14263    
    758000   294.96304      0.050123105    19.093992      731.81143     -89.487549      642.32388    
    759000   302.16984      0.050123105    26.068863      749.6917      -78.203196      671.4885     
    760000   313.84689      0.050123105    27.236562      778.66277     -81.930145      696.73263    
    761000   301.07913      0.050123105    22.007436      746.98563     -84.697942      662.28769    
    762000   299.89495      0.050123105    22.629499      744.04763     -83.773062      660.27457    
    763000   292.19657      0.050123105    22.357359      724.94774     -82.613927      642.33382    
    764000   302.68011      0.050123105    26.465526      750.9577      -84.177129      666.78057    
    765000   295.93278      0.050123105    23.97028       734.21739     -81.400567      652.81682    
    766000   295.73576      0.050123105    22.854362      733.72857     -81.286534      652.44204    
    767000   309.19934      0.050123105    26.660132      767.13208     -83.947134      683.18494    
    768000   312.64833      0.050123105    25.371524      775.68913     -87.217177      688.47195    
    769000   292.27149      0.050123105    24.144254      725.13363     -82.640333      642.4933     
    770000   297.03651      0.050123105    25.230653      736.95576     -91.180229      645.77553    
    771000   316.42993      0.050123105    28.192034      785.07139     -86.118512      698.95288    
    772000   293.61907      0.050123105    24.912242      728.47702     -94.540304      633.93671    
    773000   300.65261      0.050123105    22.260157      745.92741     -85.468366      660.45904    
    774000   300.47542      0.050123105    26.18756       745.48781     -89.96677       655.52104    
    775000   295.5819       0.050123105    27.356289      733.34684     -87.208451      646.13839    
    776000   309.78817      0.050123105    22.878447      768.59298     -79.57951       689.01347    
    777000   298.14201      0.050123105    23.675075      739.69854     -80.554449      659.1441     
    778000   288.34937      0.050123105    23.618313      715.40274     -78.811319      636.59142    
    779000   301.47868      0.050123105    28.927972      747.97692     -86.240942      661.73598    
    780000   305.78084      0.050123105    26.482988      758.65069     -81.150247      677.50044    
    781000   291.06421      0.050123105    15.310341      722.13833     -76.054841      646.08349    
    782000   301.59682      0.050123105    23.595224      748.27003     -78.615902      669.65413    
    783000   294.72317      0.050123105    21.081368      731.21631     -70.487375      660.72894    
    784000   298.00178      0.050123105    16.345951      739.35064     -74.448748      664.90189    
    785000   325.30555      0.050123105    20.869826      807.09203     -75.772452      731.31958    
    786000   302.64171      0.050123105    26.892789      750.86243     -75.727419      675.13501    
    787000   300.16022      0.050123105    16.090479      744.70579     -75.701896      669.00389    
    788000   302.39033      0.050123105    23.470066      750.23875     -74.590932      675.64782    
    789000   302.55619      0.050123105    38.899168      750.65024     -82.399319      668.25092    
    790000   306.56473      0.050123105    28.844772      760.59555     -85.15092       675.44463    
    791000   300.08366      0.050123105    22.38124       744.51584     -79.380822      665.13501    
    792000   299.38504      0.050123105    10.60189       742.78255     -79.692587      663.08996    
    793000   303.43398      0.050123105    29.620101      752.82806     -84.669618      668.15845    
    794000   299.14047      0.050123105    38.303188      742.17576     -77.290735      664.88502    
    795000   301.34808      0.050123105    35.564533      747.65288     -76.218602      671.43428    
    796000   298.33416      0.050123105    17.475948      740.17527     -77.135526      663.03975    
    797000   290.67438      0.050123105    5.3377489      721.17114     -75.007843      646.1633     
    798000   300.35844      0.050123105    25.842497      745.19757     -77.912617      667.28495    
    799000   307.17052      0.050123105    28.693028      762.09853     -69.338653      692.75987    
    800000   287.02496      0.050123105    23.575961      712.11685     -78.600314      633.51653    
    801000   300.22953      0.050123105    25.486116      744.87774     -81.317878      663.55986    
    802000   304.07653      0.050123105    33.540621      754.42225     -79.007527      675.41472    
    803000   301.55611      0.050123105    17.923365      748.16903     -79.353639      668.81539    
    804000   295.36241      0.050123105    21.65019       732.80229     -75.982858      656.81943    
    805000   302.41312      0.050123105    23.763741      750.29529     -76.195592      674.0997     
    806000   298.8107       0.050123105    33.169044      741.35758     -73.34356       668.01402    
    807000   303.86819      0.050123105    23.359172      753.90536     -71.522465      682.3829     
    808000   315.62898      0.050123105    26.49662       783.0842      -81.735115      701.34909    
    809000   296.91136      0.050123105    29.870989      736.64528     -79.66168       656.9836     
    810000   285.50744      0.050123105    24.996905      708.35182     -76.950612      631.40121    
    811000   291.88822      0.050123105    20.095389      724.18271     -77.981068      646.20164    
    812000   306.19865      0.050123105    26.658467      759.6873      -79.605634      680.08166    
    813000   294.61124      0.050123105    25.326155      730.9386      -68.840108      662.09849    
    814000   284.48269      0.050123105    20.4644        705.80941     -81.062623      624.74678    
    815000   295.38271      0.050123105    13.593415      732.85265     -80.042287      652.81036    
    816000   319.68321      0.050123105    48.013325      793.14286     -89.200287      703.94257    
    817000   301.31406      0.050123105    32.05757       747.5685      -82.001748      665.56675    
    818000   280.95587      0.050123105    9.6577269      697.05926     -82.438699      614.62056    
    819000   305.37612      0.050123105    24.644562      757.64658     -83.840248      673.80633    
    820000   307.45206      0.050123105    52.418728      762.79704     -91.630701      671.16634    
    821000   297.89765      0.050123105    15.248119      739.09229     -92.5973        646.49499    
    822000   315.51783      0.050123105   -11.896104      782.80844     -92.975399      689.83304    
    823000   305.75173      0.050123105    41.812486      758.57846     -88.76559       669.81287    
    824000   301.56486      0.050123105    40.175623      748.19074     -99.818072      648.37267    
    825000   300.76653      0.050123105   -6.1309068      746.21005     -94.957788      651.25226    
    826000   299.4933       0.050123105    20.759044      743.05113     -94.336537      648.71459    
    827000   291.52978      0.050123105    32.971665      723.29343     -89.624647      633.66878    
    828000   289.153        0.050123105    20.028191      717.39656     -77.453116      639.94344    
    829000   294.80992      0.050123105    43.654287      731.43154     -80.099619      651.33192    
    830000   305.4216       0.050123105    16.853674      757.75941     -80.074249      677.68516    
    831000   317.29015      0.050123105    31.57401       787.20561     -77.090339      710.11527    
    832000   296.90812      0.050123105    32.042499      736.63724     -85.482772      651.15446    
    833000   291.69815      0.050123105    20.816637      723.71114     -85.175877      638.53527    
    834000   304.41182      0.050123105    14.932619      755.25412     -82.822166      672.43196    
    835000   319.45722      0.050123105    25.337307      792.58218     -80.207646      712.37454    
    836000   294.42759      0.050123105    29.354902      730.48298     -80.293902      650.18908    
    837000   290.84496      0.050123105    23.824557      721.59437     -82.57079       639.02358    
    838000   307.08859      0.050123105    23.956215      761.89526     -81.007505      680.88776    
    839000   307.21356      0.050123105    23.141432      762.20531     -72.89118       689.31413    
    840000   295.47124      0.050123105    26.267711      733.07229     -72.760596      660.31169    
    841000   300.00327      0.050123105    24.08368       744.31639     -71.692612      672.62378    
    842000   313.00741      0.050123105    28.741675      776.58001     -68.551917      708.0281     
    843000   308.16727      0.050123105    20.817726      764.57149     -75.795215      688.77628    
    844000   293.29872      0.050123105    24.785102      727.68221     -77.10158       650.58063    
    845000   295.83809      0.050123105    27.331404      733.98246     -77.685276      656.29718    
    846000   305.60517      0.050123105    27.219166      758.21485     -78.823025      679.39183    
    847000   297.88882      0.050123105    16.114149      739.07038     -75.451277      663.6191     
    848000   291.37454      0.050123105    21.911954      722.90827     -77.276464      645.63181    
    849000   305.05775      0.050123105    27.810759      756.8567      -83.615282      673.24142    
    850000   303.78876      0.050123105    30.494011      753.7083      -81.710908      671.99739    
    851000   299.16706      0.050123105    28.091953      742.24171     -80.902059      661.33965    
    852000   302.34992      0.050123105    37.445286      750.13849     -72.178523      677.95996    
    853000   299.32889      0.050123105    32.641696      742.64322     -76.637555      666.00567    
    854000   311.64492      0.050123105    10.782703      773.19965     -83.730587      689.46906    
    855000   296.25259      0.050123105    3.3583612      735.01084     -79.443824      655.56702    
    856000   303.48937      0.050123105    23.892835      752.9655      -89.294575      663.67092    
    857000   303.65059      0.050123105    24.735809      753.36548     -83.474549      669.89093    
    858000   294.6758       0.050123105    26.418027      731.09879     -84.574006      646.52478    
    859000   298.84502      0.050123105    19.374419      741.44272     -83.646379      657.79634    
    860000   294.40274      0.050123105    24.790432      730.42131     -85.237912      645.1834     
    861000   299.54942      0.050123105    29.217414      743.19036     -94.930157      648.2602     
    862000   292.33629      0.050123105    32.872457      725.29439     -93.312392      631.982      
    863000   306.57349      0.050123105    29.884228      760.61729     -86.201154      674.41613    
    864000   309.87041      0.050123105    12.394301      768.79704     -95.751732      673.0453     
    865000   301.55799      0.050123105    19.978102      748.1737      -86.06502       662.10868    
    866000   292.43867      0.050123105    31.501289      725.5484      -90.569278      634.97913    
    867000   302.97434      0.050123105    13.548821      751.68768     -88.553558      663.13412    
    868000   289.49001      0.050123105    20.17588       718.2327      -80.076446      638.15626    
    869000   303.42003      0.050123105    23.141472      752.79346     -78.796871      673.99659    
    870000   306.71529      0.050123105    24.011775      760.9691      -77.864414      683.10468    
    871000   303.24264      0.050123105    27.061746      752.35334     -83.108931      669.24441    
    872000   307.32874      0.050123105    23.988231      762.49109     -84.815937      677.67515    
    873000   293.17946      0.050123105    25.684298      727.38633     -80.472272      646.91406    
    874000   308.90942      0.050123105    24.711107      766.41277     -80.974628      685.43815    
    875000   317.44895      0.050123105    25.654091      787.59961     -79.508701      708.0909     
    876000   292.92472      0.050123105    18.134359      726.7543      -78.665546      648.08875    
    877000   291.08641      0.050123105    26.429757      722.1934      -78.479112      643.71429    
    878000   292.44029      0.050123105    22.609823      725.55242     -78.590836      646.96158    
    879000   305.7545       0.050123105    27.794569      758.58535     -85.44281       673.14254    
    880000   295.36508      0.050123105    13.329686      732.80891     -78.840569      653.96834    
    881000   300.09174      0.050123105    43.466873      744.53587     -73.514936      671.02094    
    882000   303.96267      0.050123105    25.128654      754.13975     -77.438412      676.70134    
    883000   295.49898      0.050123105    11.335375      733.14112     -82.026647      651.11448    
    884000   290.23698      0.050123105    26.80734       720.08594     -76.547624      643.53831    
    885000   312.38697      0.050123105    29.724458      775.04069     -80.202096      694.83859    
    886000   301.83904      0.050123105    22.618282      748.87098     -75.240014      673.63096    
    887000   288.78891      0.050123105    27.086182      716.49324     -80.001354      636.49189    
    888000   302.25148      0.050123105    23.130488      749.89426     -81.626181      668.26808    
    889000   301.24873      0.050123105    24.792723      747.4064      -80.5938        666.8126     
    890000   308.67538      0.050123105    25.97722       765.83212     -87.279988      678.55214    
    891000   292.11483      0.050123105    22.033936      724.74494     -80.430921      644.31402    
    892000   295.74845      0.050123105    20.647846      733.76006     -75.209851      658.55021    
    893000   300.88393      0.050123105    25.435378      746.50133     -75.291098      671.21024    
    894000   296.91868      0.050123105    33.882664      736.66344     -74.398003      662.26543    
    895000   295.86289      0.050123105    21.053338      734.04398     -80.719264      653.32472    
    896000   306.71355      0.050123105    17.577983      760.96476     -83.355327      677.60943    
    897000   302.98609      0.050123105    38.898113      751.71684     -71.786978      679.92986    
    898000   289.82963      0.050123105    18.237161      719.0753      -81.530456      637.54484    
    899000   297.55901      0.050123105    19.006373      738.25211     -84.67467       653.57744    
    900000   315.98097      0.050123105    27.573479      783.9575      -83.46048       700.49702    
    901000   308.02965      0.050123105    32.414823      764.23005     -83.538054      680.692      
    902000   297.09289      0.050123105    24.076395      737.09565     -86.704434      650.39122    
    903000   299.7435       0.050123105    30.148747      743.67188     -90.713601      652.95828    
    904000   315.11838      0.050123105    28.703229      781.81738     -86.930026      694.88736    
    905000   302.14807      0.050123105    21.76031       749.6377      -90.80825       658.82945    
    906000   290.41482      0.050123105    24.154832      720.52718     -94.092786      626.43439    
    907000   302.75646      0.050123105    30.25057       751.14713     -90.7768        660.37033    
    908000   304.60004      0.050123105    20.437788      755.72109     -98.4261        657.29499    
    909000   285.00107      0.050123105    19.735907      707.0955      -97.195252      609.90025    
    910000   297.06947      0.050123105    23.997256      737.03754     -103.90386      633.13369    
    911000   304.58647      0.050123105    28.862798      755.68743     -95.302839      660.3846     
    912000   299.14112      0.050123105    13.814391      742.17737     -93.6196        648.55777    
    913000   297.34866      0.050123105    24.987018      737.73023     -94.330762      643.39946    
    914000   313.93719      0.050123105    22.229435      778.88682     -96.310317      682.5765     
    915000   295.85809      0.050123105    30.195991      734.03207     -90.358621      643.67345    
    916000   296.14065      0.050123105    18.586164      734.73312     -98.044989      636.68813    
    917000   320.03765      0.050123105    28.807422      794.02224     -87.747396      706.27485    
    918000   300.50288      0.050123105    37.468829      745.55593     -86.710504      658.84542    
    919000   297.19742      0.050123105    27.452491      737.355       -90.285054      647.06994    
    920000   288.11926      0.050123105    14.852798      714.83183     -88.021286      626.81054    
    921000   306.19356      0.050123105    21.391028      759.67467     -90.894466      668.78021    
    922000   289.04355      0.050123105    25.438114      717.12502     -85.375462      631.74956    
    923000   295.20603      0.050123105    26.782102      732.41431     -81.851582      650.56273    
    924000   308.5302       0.050123105    16.732507      765.47193     -93.795404      671.67652    
    925000   309.25742      0.050123105    25.418586      767.27619     -100.65626      666.61993    
    926000   291.80973      0.050123105    29.798141      723.98799     -94.849146      629.13884    
    927000   300.97727      0.050123105    22.179129      746.73291     -95.607624      651.12529    
    928000   296.29571      0.050123105    16.92865       735.11783     -94.51769       640.60014    
    929000   299.18138      0.050123105    28.310489      742.27725     -89.439536      652.83771    
    930000   281.90138      0.050123105    36.343166      699.4051      -88.310943      611.09415    
    931000   291.33275      0.050123105    17.655157      722.80459     -90.420251      632.38434    
    932000   318.52218      0.050123105    28.337702      790.2623      -90.272618      699.98968    
    933000   303.717        0.050123105    27.014499      753.53026     -80.293955      673.23631    
    934000   303.56693      0.050123105    28.880175      753.15793     -87.328024      665.8299     
    935000   271.52371      0.050123105    19.822407      673.6578      -86.896499      586.7613     
    936000   312.04282      0.050123105    12.015942      774.18684     -87.192151      686.99469    
    937000   304.50186      0.050123105    22.393551      755.4775      -90.901042      664.57646    
    938000   295.64539      0.050123105    27.337261      733.50436     -91.255631      642.24873    
    939000   306.27562      0.050123105    28.530747      759.87826     -86.571661      673.3066     
    940000   293.59854      0.050123105    27.627673      728.42606     -82.253876      646.17219    
    941000   295.39678      0.050123105    21.79693       732.88756     -86.13325       646.75431    
    942000   310.36818      0.050123105    25.436042      770.03201     -89.441518      680.5905     
    943000   303.89382      0.050123105    12.949298      753.96895     -84.723656      669.24529    
    944000   300.22157      0.050123105    32.135048      744.858       -88.397062      656.46094    
    945000   294.16902      0.050123105    33.322453      729.84144     -84.8119        645.02954    
    946000   304.9854       0.050123105    20.448432      756.67718     -87.403096      669.27408    
    947000   295.18052      0.050123105    32.21249       732.351       -82.685118      649.66588    
    948000   298.90885      0.050123105    37.177695      741.60109     -87.67763       653.92346    
    949000   296.24081      0.050123105   -6.4453997      734.98161     -84.717299      650.26431    
    950000   302.66117      0.050123105    29.601624      750.9107      -83.122546      667.78815    
    951000   322.69539      0.050123105    20.977044      800.61616     -80.870397      719.74576    
    952000   288.18825      0.050123105    10.928448      715.00299     -80.697842      634.30515    
    953000   295.68493      0.050123105    31.924515      733.60246     -94.216745      639.38571    
    954000   311.20467      0.050123105    40.165703      772.10736     -87.064269      685.04309    
    955000   303.25791      0.050123105    21.303015      752.39124     -94.529633      657.86161    
    956000   296.85271      0.050123105    25.237655      736.49976     -83.262035      653.23772    
    957000   312.28846      0.050123105    37.852505      774.79629     -78.813874      695.98241    
    958000   310.52033      0.050123105    24.317438      770.4095      -89.819284      680.59022    
    959000   293.67923      0.050123105    22.680294      728.62626     -81.867001      646.75926    
    960000   284.05304      0.050123105    32.646766      704.74342     -86.951942      617.79148    
    961000   311.86372      0.050123105    54.086536      773.74249     -84.836511      688.90597    
    962000   303.88776      0.050123105    14.161071      753.95391     -87.427015      666.52689    
    963000   299.63554      0.050123105   -3.0489741      743.40403     -82.817115      660.58691    
    964000   304.92428      0.050123105    29.414344      756.52555     -80.838235      675.68732    
    965000   289.81352      0.050123105    26.521301      719.03533     -76.506245      642.52908    
    966000   302.86098      0.050123105    15.660145      751.40643     -78.029003      673.37743    
    967000   294.14935      0.050123105    27.036147      729.79265     -84.976196      644.81645    
    968000   289.76957      0.050123105    21.785309      718.9263      -82.879764      636.04654    
    969000   306.73653      0.050123105    22.950655      761.02178     -79.94461       681.07717    
    970000   292.89932      0.050123105    17.217783      726.69128     -77.971431      648.71985    
    971000   285.26663      0.050123105    25.204725      707.75437     -75.587574      632.1668     
    972000   302.27241      0.050123105    21.829344      749.94619     -75.593508      674.35268    
    973000   291.52074      0.050123105    25.07029       723.271       -69.313783      653.95722    
    974000   312.29986      0.050123105    24.526938      774.82456     -67.367456      707.4571     
    975000   302.29639      0.050123105    24.270094      750.00567     -76.311188      673.69448    
    976000   296.18341      0.050123105    27.063675      734.83921     -74.94084       659.89837    
    977000   294.65506      0.050123105    23.671423      731.04732     -72.80217       658.24515    
    978000   301.63878      0.050123105    20.27519       748.37413     -71.851487      676.52265    
    979000   303.84531      0.050123105    15.351555      753.84858     -70.978263      682.87032    
    980000   300.81087      0.050123105    24.991014      746.32006     -76.276402      670.04366    
    981000   297.37395      0.050123105    27.300325      737.79296     -75.702383      662.09057    
    982000   291.91593      0.050123105    27.473006      724.25146     -76.121842      648.12962    
    983000   277.6113       0.050123105    21.147618      688.7613      -73.711721      615.04957    
    984000   308.70293      0.050123105    31.486122      765.90047     -69.552013      696.34846    
    985000   304.30797      0.050123105    13.802322      754.99646     -72.694205      682.30225    
    986000   291.99384      0.050123105    26.164582      724.44476     -71.1488        653.29596    
    987000   301.98074      0.050123105    30.148421      749.22253     -74.198653      675.02388    
    988000   315.42294      0.050123105    32.72004       782.57301     -70.55108       712.02193    
    989000   301.89778      0.050123105    22.41635       749.01672     -80.76249       668.25423    
    990000   302.09545      0.050123105    25.80012       749.50713     -86.180622      663.32651    
    991000   280.69206      0.050123105    21.783378      696.40473     -87.294374      609.11035    
    992000   293.56498      0.050123105    19.203389      728.34281     -85.177679      643.16513    
    993000   313.31193      0.050123105    29.741254      777.33553     -81.558307      695.77722    
    994000   301.11763      0.050123105    44.795489      747.08114     -75.982432      671.09871    
    995000   282.51839      0.050123105    26.195269      700.93591     -86.231395      614.70452    
    996000   307.9567       0.050123105    16.924448      764.04906     -87.918253      676.13081    
    997000   301.3624       0.050123105    28.923749      747.68841     -92.148201      655.54021    
    998000   293.6383       0.050123105    37.687494      728.52471     -88.121694      640.40302    
    999000   289.37736      0.050123105    16.288779      717.95321     -85.629141      632.32407    
   1000000   289.43668      0.050123105    20.330181      718.10038     -81.885917      636.21446    
   1001000   307.06957      0.050123105    22.239816      761.84808     -81.097674      680.7504     
   1002000   306.63469      0.050123105    31.970963      760.76911     -76.588366      684.18074    
   1003000   294.27984      0.050123105    22.569168      730.11638     -74.592683      655.5237     
   1004000   297.74587      0.050123105    19.771983      738.71572     -72.334977      666.38074    
   1005000   307.59619      0.050123105    12.738709      763.15464     -79.498018      683.65662    
   1006000   296.14046      0.050123105    43.39829       734.73265     -87.830417      646.90223    
   1007000   296.5306       0.050123105    5.8675498      735.70058     -87.761945      647.93864    
   1008000   293.52904      0.050123105    22.413366      728.25363     -84.176784      644.07685    
   1009000   297.0069       0.050123105    13.429488      736.8823      -79.922678      656.95962    
   1010000   304.3671       0.050123105    16.743796      755.14316     -84.973351      670.16981    
   1011000   306.2077       0.050123105    24.697065      759.70975     -89.139143      670.5706     
   1012000   298.4743       0.050123105    28.051245      740.52297     -91.418454      649.10452    
   1013000   303.50643      0.050123105    21.423064      753.00782     -89.744075      663.26374    
   1014000   321.65384      0.050123105    29.028736      798.03204     -89.320745      708.7113     
   1015000   298.10299      0.050123105    22.632283      739.60174     -93.782494      645.81925    
   1016000   286.20793      0.050123105    28.186091      710.08977     -92.764003      617.32577    
   1017000   298.84995      0.050123105    26.542673      741.45497     -89.764303      651.69067    
   1018000   316.31364      0.050123105    18.971426      784.78285     -85.162376      699.62047    
   1019000   300.02962      0.050123105    17.451787      744.38175     -79.777032      664.60472    
   1020000   295.04693      0.050123105    18.159706      732.01956     -79.824738      652.19483    
   1021000   299.36084      0.050123105    54.516487      742.72249     -80.829815      661.89267    
   1022000   312.81969      0.050123105    25.715023      776.11429     -78.67952       697.43477    
   1023000   281.0129       0.050123105    8.8749144      697.20076     -76.525862      620.67489    
   1024000   302.8649       0.050123105    34.163379      751.41617     -83.371019      668.04516    
   1025000   310.38281      0.050123105    21.283894      770.06832     -84.763682      685.30464    
   1026000   292.33673      0.050123105    9.332221       725.2955      -84.834229      640.46127    
   1027000   311.2949       0.050123105    47.143273      772.33124     -88.914988      683.41625    
   1028000   307.5011       0.050123105    22.838865      762.9187      -83.853288      679.06541    
   1029000   314.70043      0.050123105    27.058362      780.78044     -83.816809      696.96363    
   1030000   298.97667      0.050123105    6.8974433      741.76936     -80.08992       661.67944    
   1031000   284.01322      0.050123105    41.400218      704.64463     -77.796022      626.84861    
   1032000   298.76222      0.050123105    56.731817      741.23731     -83.151798      658.08551    
   1033000   318.08411      0.050123105    13.977038      789.17544     -83.576097      705.59935    
   1034000   307.23747      0.050123105    21.135268      762.26464     -78.749418      683.51522    
   1035000   286.7026       0.050123105    7.9627603      711.31706     -82.605044      628.71202    
   1036000   303.5501       0.050123105    29.436468      753.11617     -74.745292      678.37087    
   1037000   318.28255      0.050123105    11.875984      789.66779     -79.964461      709.70333    
   1038000   297.62895      0.050123105    21.779203      738.42562     -82.464611      655.96101    
   1039000   277.99879      0.050123105    7.4974786      689.72266     -89.60802       600.11464    
   1040000   299.8063       0.050123105    29.694966      743.8277      -88.690277      655.13742    
   1041000   313.38957      0.050123105    24.429778      777.52816     -85.976335      691.55182    
   1042000   297.48194      0.050123105    22.491958      738.0609      -87.41658       650.64431    
   1043000   296.47124      0.050123105    21.581017      735.55333     -95.139862      640.41346    
   1044000   319.24735      0.050123105    43.494852      792.06147     -98.097116      693.96435    
   1045000   304.34835      0.050123105    16.036955      755.09666     -88.482884      666.61377    
   1046000   281.53494      0.050123105    15.426326      698.49596     -88.09601       610.39995    
   1047000   307.9741       0.050123105    26.962124      764.09223     -87.983639      676.10859    
   1048000   301.36138      0.050123105    23.869303      747.6859      -79.199153      668.48675    
   1049000   310.48482      0.050123105    26.769107      770.32139     -79.88861       690.43278    
   1050000   286.79664      0.050123105    16.063955      711.55036     -77.223479      634.32688    
   1051000   298.77412      0.050123105    25.828718      741.26682     -77.285634      663.98118    
   1052000   304.4259       0.050123105    24.824876      755.28905     -83.782482      671.50657    
   1053000   313.42087      0.050123105    28.008297      777.60582     -76.933935      700.67189    
   1054000   291.52488      0.050123105    25.584983      723.28127     -84.871934      638.40934    
   1055000   288.05972      0.050123105    14.138796      714.68411     -78.556072      636.12804    
   1056000   306.52472      0.050123105    26.335382      760.49629     -81.339519      679.15677    
   1057000   305.80608      0.050123105    32.086352      758.71331     -79.627567      679.08575    
   1058000   293.10701      0.050123105    25.866676      727.20658     -84.840445      642.36614    
   1059000   297.7214       0.050123105    18.677969      738.65501     -83.041525      655.61348    
   1060000   305.16942      0.050123105    29.60971       757.13375     -82.941175      674.19258    
   1061000   313.66736      0.050123105    32.468628      778.21737     -83.32297       694.8944     
   1062000   300.53852      0.050123105    23.735534      745.64436     -83.084187      662.56017    
   1063000   296.00965      0.050123105    17.40937       734.4081      -81.777249      652.63085    
   1064000   299.68229      0.050123105    33.19704       743.52001     -80.086618      663.4334     
   1065000   307.62657      0.050123105    46.56996       763.23001     -78.367294      684.86271    
   1066000   292.52699      0.050123105   -5.8563165      725.76753     -78.78855       646.97898    
   1067000   298.51244      0.050123105    21.610857      740.6176      -77.092161      663.52543    
   1068000   302.02235      0.050123105    35.251493      749.32579     -75.056664      674.26912    
   1069000   295.87526      0.050123105    11.767215      734.07468     -73.317672      660.75701    
   1070000   298.44079      0.050123105    27.166627      740.43983     -79.816337      660.6235     
   1071000   285.23756      0.050123105    38.133473      707.68225     -72.788663      634.89358    
   1072000   299.0803       0.050123105    14.762472      742.02647     -79.111888      662.91458    
   1073000   313.24943      0.050123105    39.058691      777.18046     -79.997642      697.18282    
   1074000   295.93601      0.050123105    24.339763      734.2254      -82.068676      652.15672    
   1075000   290.67782      0.050123105    21.950554      721.17969     -79.163042      642.01664    
   1076000   292.77165      0.050123105    24.908676      726.37453     -81.068331      645.3062     
   1077000   294.65917      0.050123105    20.917844      731.05753     -78.559387      652.49815    
   1078000   310.37847      0.050123105    24.913817      770.05754     -81.503497      688.55405    
   1079000   298.78436      0.050123105    22.816146      741.29224     -75.418285      665.87396    
   1080000   285.20806      0.050123105    25.330807      707.60905     -71.545224      636.06383    
   1081000   299.57537      0.050123105    26.660368      743.25476     -73.654261      669.6005     
   1082000   304.37994      0.050123105    25.896135      755.17503     -70.218649      684.95638    
   1083000   297.12995      0.050123105    13.079959      737.1876      -73.803314      663.38429    
   1084000   295.06418      0.050123105    23.320854      732.06235     -74.139878      657.92247    
   1085000   309.28566      0.050123105    47.608883      767.34625     -79.203859      688.14239    
   1086000   312.69752      0.050123105    21.263002      775.81116     -67.731725      708.07944    
   1087000   300.00153      0.050123105    18.533443      744.31207     -70.622117      673.68995    
   1088000   295.03056      0.050123105   -7.4549702      731.97895     -77.63479       654.34416    
   1089000   286.86326      0.050123105   -4.7112205      711.71565     -76.797072      634.91858    
   1090000   295.65869      0.050123105    27.996662      733.53736     -73.897627      659.63973    
   1091000   310.71555      0.050123105    35.511995      770.89384     -70.809726      700.08411    
   1092000   317.1499       0.050123105    7.4313687      786.85765     -77.468364      709.38929    
   1093000   292.59072      0.050123105    15.513762      725.92564     -81.195681      644.72996    
   1094000   294.75054      0.050123105    21.96934       731.28421     -81.408967      649.87525    
   1095000   312.0768       0.050123105    38.306225      774.27115     -84.666942      689.60421    
   1096000   311.45049      0.050123105    24.414105      772.71725     -82.63759       690.07966    
   1097000   292.7616       0.050123105    17.301403      726.34961     -83.453301      642.89631    
   1098000   285.00323      0.050123105    26.810835      707.10086     -83.438156      623.6627     
   1099000   304.38599      0.050123105    43.016621      755.19004     -85.847546      669.34249    
   1100000   304.26723      0.050123105    27.414498      754.89537     -87.663884      667.23149    
   1101000   300.99163      0.050123105    23.94377       746.76852     -81.607228      665.16129    
   1102000   304.47211      0.050123105    14.598643      755.4037      -77.307671      678.09603    
   1103000   299.31198      0.050123105    23.447842      742.60128     -68.916054      673.68523    
   1104000   300.7711       0.050123105    26.861318      746.22139     -74.685119      671.53627    
   1105000   311.53935      0.050123105    24.404267      772.93771     -79.114797      693.82291    
   1106000   298.09301      0.050123105    18.568029      739.57697     -79.922411      659.65455    
   1107000   299.44882      0.050123105    31.316924      742.94077     -80.022572      662.9182     
   1108000   297.16685      0.050123105    23.642551      737.27913     -78.442057      658.83708    
   1109000   295.10231      0.050123105    28.971923      732.15695     -81.01395       651.143      
   1110000   294.14617      0.050123105    19.132042      729.78476     -84.054352      645.7304     
   1111000   299.53224      0.050123105    26.842863      743.14775     -77.006236      666.14151    
   1112000   302.70666      0.050123105    19.472655      751.02356     -80.081993      670.94157    
   1113000   294.96931      0.050123105    24.777732      731.82698     -85.664073      646.16291    
   1114000   308.44836      0.050123105    32.971879      765.26888     -81.002896      684.26598    
   1115000   306.54079      0.050123105    23.638443      760.53615     -86.385186      674.15097    
   1116000   283.14393      0.050123105    16.691867      702.4879      -85.3764        617.1115     
   1117000   306.91208      0.050123105    33.843745      761.45733     -83.637509      677.81982    
   1118000   300.58578      0.050123105    26.655881      745.76161     -79.147629      666.61398    
   1119000   305.5956       0.050123105    22.759132      758.19112     -84.27883       673.91229    
   1120000   293.13188      0.050123105    32.163019      727.26827     -84.337517      642.93075    
   1121000   301.97651      0.050123105    25.037467      749.21205     -80.787286      668.42477    
   1122000   304.01098      0.050123105    22.163524      754.25962     -74.036644      680.22298    
   1123000   287.4573       0.050123105    14.988709      713.18949     -76.359845      636.82965    
   1124000   300.53434      0.050123105    25.559532      745.63399     -86.039218      659.59478    
   1125000   312.34701      0.050123105    25.55494       774.94153     -77.008903      697.93263    
   1126000   292.85119      0.050123105    23.452143      726.57187     -73.950828      652.62104    
   1127000   315.33862      0.050123105    27.332625      782.36381     -78.016791      704.34702    
   1128000   301.97967      0.050123105    26.120931      749.21989     -85.470382      663.7495     
   1129000   295.11412      0.050123105    25.648018      732.18626     -86.540167      645.6461     
   1130000   311.63798      0.050123105    24.048626      773.18242     -81.49927       691.68315    
   1131000   304.39039      0.050123105    19.338976      755.20094     -88.032401      667.16854    
   1132000   285.67497      0.050123105    23.253551      708.76748     -88.165226      620.60226    
   1133000   293.718        0.050123105    22.416534      728.72244     -82.487808      646.23463    
   1134000   311.28265      0.050123105    25.752884      772.30083     -78.746057      693.55477    
   1135000   288.26011      0.050123105    18.766602      715.18129     -81.40206       633.77923    
   1136000   295.51751      0.050123105    26.20953       733.18708     -79.541693      653.64539    
   1137000   302.43043      0.050123105    24.678702      750.33824     -76.350554      673.98769    
   1138000   295.89167      0.050123105    23.264768      734.11539     -80.636262      653.47913    
   1139000   305.15825      0.050123105    23.766005      757.10603     -76.125766      680.98026    
   1140000   302.13309      0.050123105    21.521041      749.60053     -72.002119      677.59841    
   1141000   305.3833       0.050123105    25.830342      757.66438     -70.062792      687.60159    
   1142000   288.4521       0.050123105    24.414932      715.65762     -78.993818      636.6638     
   1143000   314.69004      0.050123105    28.069258      780.75466     -76.885457      703.86921    
   1144000   317.05525      0.050123105    25.571281      786.62282     -88.977804      697.64501    
   1145000   296.6349       0.050123105    29.035414      735.95937     -76.213412      659.74596    
   1146000   280.75175      0.050123105    22.263757      696.55283     -84.257825      612.29501    
   1147000   299.95474      0.050123105    23.033981      744.19599     -81.26382       662.93217    
   1148000   316.65972      0.050123105    21.178089      785.6415      -84.929089      700.71241    
   1149000   290.15836      0.050123105    27.847333      719.8909      -85.43068       634.46022    
   1150000   287.8503       0.050123105    22.161542      714.16454     -83.149429      631.01511    
   1151000   315.23035      0.050123105    25.805029      782.09519     -83.011374      699.08382    
   1152000   300.54563      0.050123105    24.622616      745.66198     -83.423763      662.23822    
   1153000   301.73999      0.050123105    24.538042      748.62523     -77.285513      671.33972    
   1154000   303.29932      0.050123105    25.409997      752.49396     -84.641805      667.85216    
   1155000   303.02485      0.050123105    14.889959      751.813       -82.512562      669.30044    
   1156000   293.32532      0.050123105    23.106945      727.74821     -81.565578      646.18263    
   1157000   308.03608      0.050123105    29.861864      764.24601     -80.839981      683.40603    
   1158000   308.44242      0.050123105    15.585127      765.25415     -82.216696      683.03745    
   1159000   295.32563      0.050123105    24.439156      732.71102     -87.710441      645.00058    
   1160000   294.95108      0.050123105    47.354017      731.78177     -85.140685      646.64108    
   1161000   300.41525      0.050123105    31.179663      745.33851     -88.030717      657.3078     
   1162000   302.24126      0.050123105    12.238373      749.86889     -82.622585      667.2463     
   1163000   305.84575      0.050123105    22.23965       758.81174     -82.473475      676.33826    
   1164000   317.08107      0.050123105    35.642824      786.68689     -81.816227      704.87066    
   1165000   296.58893      0.050123105    22.593718      735.84531     -77.304027      658.54129    
   1166000   306.40569      0.050123105    8.1367842      760.20097     -85.816798      674.38418    
   1167000   300.40407      0.050123105    22.736011      745.31078     -84.017248      661.29353    
   1168000   290.40743      0.050123105    29.59082       720.50884     -89.94545       630.56339    
   1169000   302.72775      0.050123105    26.413699      751.0759      -85.772482      665.30342    
   1170000   303.0389       0.050123105    16.621418      751.84787     -82.341579      669.50629    
   1171000   295.83561      0.050123105    32.083571      733.97629     -81.388016      652.58828    
   1172000   293.09339      0.050123105    23.991311      727.17277     -81.994013      645.17876    
   1173000   304.41497      0.050123105    24.400472      755.26193     -75.702012      679.55992    
   1174000   303.85624      0.050123105    28.147336      753.8757      -73.334487      680.54122    
   1175000   291.90656      0.050123105    25.690863      724.22823     -73.177082      651.05114    
   1176000   295.77375      0.050123105    24.461171      733.82284     -66.573555      667.24928    
   1177000   298.3858       0.050123105    17.677728      740.30341     -71.660152      668.64326    
   1178000   303.02243      0.050123105    38.517412      751.80699     -79.917536      671.88946    
   1179000   293.84044      0.050123105    25.572232      729.02622     -83.004822      646.0214     
   1180000   296.25022      0.050123105    8.7692426      735.00496     -85.83174       649.17322    
   1181000   301.88674      0.050123105   -8.4474263      748.98933     -77.477706      671.51163    
   1182000   301.00036      0.050123105    3.6105371      746.79019     -86.651043      660.13915    
   1183000   311.3804       0.050123105    27.699107      772.54335     -83.350787      689.19256    
   1184000   290.1056       0.050123105    47.012738      719.76        -75.425494      644.33451    
   1185000   289.30432      0.050123105    24.866839      717.77199     -80.22042       637.55157    
   1186000   295.31528      0.050123105    34.791366      732.68535     -81.836799      650.84855    
   1187000   302.13092      0.050123105    20.490165      749.59514     -82.898106      666.69704    
   1188000   301.08419      0.050123105    20.924676      746.99818     -85.008201      661.98998    
   1189000   307.55254      0.050123105    28.762298      763.04632     -82.625381      680.42094    
   1190000   305.19154      0.050123105    21.899781      757.18862     -79.423535      677.76508    
   1191000   305.98358      0.050123105    26.809386      759.1537      -87.127041      672.02666    
   1192000   294.77552      0.050123105    24.189833      731.34618     -85.26178       646.0844     
   1193000   286.58637      0.050123105   -10.058587      711.02869     -86.231217      624.79747    
   1194000   308.88254      0.050123105    30.52861       766.3461      -86.308093      680.038      
   1195000   305.71411      0.050123105    34.042789      758.48513     -84.591969      673.89316    
   1196000   291.21859      0.050123105    34.311345      722.52134     -85.1827        637.33864    
   1197000   288.43857      0.050123105    3.6418983      715.62404     -92.25488       623.36916    
   1198000   305.82813      0.050123105    23.772305      758.76802     -78.022523      680.7455     
   1199000   306.31128      0.050123105    27.4418        759.96673     -81.16307       678.80366    
   1200000   299.56627      0.050123105    6.2994753      743.23217     -82.601982      660.63019    
   1201000   301.72776      0.050123105    11.802464      748.59489     -81.317323      667.27757    
   1202000   304.6207       0.050123105    44.992021      755.77235     -78.836052      676.9363     
   1203000   295.78083      0.050123105    21.530137      733.8404      -76.804565      657.03583    
   1204000   294.02394      0.050123105    7.2773538      729.48149     -78.033366      651.44812    
   1205000   303.64688      0.050123105    25.862614      753.35629     -82.33873       671.01756    
   1206000   302.85804      0.050123105    37.455757      751.39915     -78.062578      673.33658    
   1207000   281.69732      0.050123105    30.425809      698.89881     -73.603226      625.29559    
   1208000   293.48899      0.050123105    12.501457      728.15428     -68.14864       660.00564    
   1209000   307.29954      0.050123105    32.682988      762.41863     -65.245741      697.17289    
   1210000   296.94876      0.050123105    30.177317      736.73806     -67.593523      669.14454    
   1211000   302.70367      0.050123105    19.834027      751.01616     -73.088731      677.92743    
   1212000   290.09596      0.050123105    28.986307      719.73606     -78.069193      641.66687    
   1213000   300.02265      0.050123105    27.027291      744.36446     -80.573623      663.79083    
   1214000   317.80002      0.050123105    26.317821      788.47061     -84.283181      704.18742    
   1215000   298.94594      0.050123105    18.960328      741.69311     -81.37902       660.31409    
   1216000   290.90637      0.050123105    28.039426      721.74672     -84.70486       637.04186    
   1217000   311.2584       0.050123105    30.032806      772.24067     -86.670388      685.57029    
   1218000   302.19458      0.050123105    29.042057      749.75308     -83.696554      666.05652    
   1219000   288.76717      0.050123105    17.38239       716.4393      -84.248053      632.19125    
   1220000   301.75266      0.050123105    24.443464      748.65668     -88.805008      659.85167    
   1221000   299.36449      0.050123105    33.326328      742.73155     -89.346998      653.38455    
   1222000   301.53589      0.050123105    22.285848      748.11885     -89.526867      658.59199    
   1223000   294.32549      0.050123105    19.418034      730.22966     -91.703022      638.52664    
   1224000   300.44039      0.050123105    28.408178      745.40089     -89.484025      655.91687    
   1225000   305.43714      0.050123105    14.043175      757.79797     -91.438739      666.35923    
   1226000   292.96555      0.050123105    28.465553      726.85561     -88.174128      638.68148    
   1227000   303.88959      0.050123105    27.086815      753.95844     -86.33045       667.62799    
   1228000   304.10557      0.050123105    18.655112      754.4943      -82.613726      671.88057    
   1229000   291.96984      0.050123105    29.044835      724.38522     -88.393055      635.99216    
   1230000   296.17387      0.050123105    27.107498      734.81554     -88.238961      646.57658    
   1231000   317.36608      0.050123105    17.121556      787.394       -82.953514      704.44049    
   1232000   296.79855      0.050123105    24.412107      736.36537     -86.851357      649.51402    
   1233000   302.17859      0.050123105    30.447         749.71342     -90.481665      659.23175    
   1234000   285.41854      0.050123105   -12.871048      708.13127     -93.93269       614.19858    
   1235000   294.45981      0.050123105    41.080001      730.56292     -90.932296      639.63062    
   1236000   316.66969      0.050123105    25.911946      785.66623     -93.077589      692.58864    
   1237000   295.59885      0.050123105    15.480482      733.38889     -84.827381      648.56151    
   1238000   295.55641      0.050123105    23.885184      733.28361     -81.657879      651.62573    
   1239000   306.1691       0.050123105    36.716195      759.61398     -86.632978      672.981      
   1240000   299.72807      0.050123105    31.915525      743.63359     -87.747519      655.88607    
   1241000   309.32658      0.050123105   -1.7504857      767.44778     -84.328514      683.11926    
   1242000   296.83145      0.050123105    12.935711      736.447       -86.218052      650.22895    
   1243000   285.65407      0.050123105    19.797598      708.71563     -89.05477       619.66086    
   1244000   305.73929      0.050123105    17.017065      758.54762     -97.094722      661.4529     
   1245000   282.34776      0.050123105    50.784262      700.51257     -94.008504      606.50406    
   1246000   310.15068      0.050123105    78.186685      769.49238     -95.339214      674.15317    
   1247000   307.73439      0.050123105    18.253121      763.4975      -92.665751      670.83175    
   1248000   297.31821      0.050123105    7.5039549      737.65466     -86.913873      650.74079    
   1249000   311.73883      0.050123105    54.886607      773.43262     -90.921445      682.51117    
   1250000   308.21042      0.050123105    39.572159      764.67854     -94.199068      670.47947    
   1251000   299.01839      0.050123105   -4.1647396      741.87288     -89.488342      652.38454    
   1252000   290.70082      0.050123105    27.413422      721.23674     -84.156293      637.08045    
   1253000   311.91399      0.050123105    59.975424      773.8672      -83.218363      690.64884    
   1254000   307.43748      0.050123105    25.490607      762.76086     -78.308423      684.45244    
   1255000   290.99784      0.050123105   -5.7342193      721.97366     -88.085504      633.88815    
   1256000   293.90545      0.050123105    32.894103      729.18752     -87.404758      641.78276    
   1257000   317.2869       0.050123105    41.490285      787.19754     -88.656238      698.5413     
   1258000   305.00934      0.050123105    22.046562      756.73658     -90.874934      665.86164    
   1259000   295.63266      0.050123105    19.129839      733.47278     -91.673552      641.79922    
   1260000   286.12872      0.050123105    4.4225202      709.89325     -95.090538      614.80271    
   1261000   296.81425      0.050123105    23.39846       736.40433     -94.592339      641.81199    
   1262000   301.6876       0.050123105    30.579108      748.49525     -86.066633      662.42862    
   1263000   293.85091      0.050123105    27.538859      729.0522      -84.653524      644.39868    
   1264000   305.12318      0.050123105    9.3198824      757.01903     -86.133393      670.88564    
   1265000   304.59748      0.050123105    27.562288      755.71473     -82.939899      672.77483    
   1266000   308.33731      0.050123105    28.559934      764.99337     -79.309148      685.68423    
   1267000   307.47116      0.050123105    24.440133      762.84442     -82.391191      680.45323    
   1268000   297.70721      0.050123105    21.228603      738.61979     -78.029453      660.59034    
   1269000   305.09205      0.050123105    33.996661      756.94179     -71.453911      685.48787    
   1270000   311.7034       0.050123105    35.272019      773.34472     -76.317975      697.02674    
   1271000   314.71062      0.050123105    17.649706      780.80573     -74.091777      706.71396    
   1272000   292.05099      0.050123105    30.030991      724.58656     -80.83589       643.75067    
   1273000   302.99537      0.050123105    41.252288      751.73987     -91.221778      660.51809    
   1274000   308.75835      0.050123105    21.341492      766.03799     -86.386424      679.65156    
   1275000   300.72681      0.050123105    18.543526      746.1115      -87.39232       658.71918    
   1276000   279.82441      0.050123105    27.337586      694.25207     -95.209999      599.04208    
   1277000   307.70867      0.050123105    37.153454      763.43368     -94.128562      669.30512    
   1278000   304.88715      0.050123105    15.982603      756.43343     -88.132629      668.3008     
   1279000   296.57694      0.050123105    21.786085      735.81555     -88.642972      647.17258    
   1280000   305.48458      0.050123105    23.786104      757.91566     -93.57957       664.33609    
   1281000   309.27113      0.050123105    28.841618      767.3102      -88.132642      679.17756    
   1282000   315.25364      0.050123105    35.499645      782.15297     -83.342697      698.81027    
   1283000   291.89103      0.050123105    27.195503      724.1897      -83.579461      640.61024    
   1284000   280.45444      0.050123105    25.326546      695.81521     -91.74339       604.07182    
   1285000   289.48329      0.050123105    21.555434      718.21603     -91.239339      626.97669    
   1286000   301.53308      0.050123105    21.279652      748.11189     -101.78121      646.33068    
   1287000   309.61248      0.050123105    24.088221      768.1571      -97.703844      670.45326    
   1288000   302.22248      0.050123105    25.680958      749.82231     -90.900257      658.92205    
   1289000   306.31786      0.050123105    26.176968      759.98306     -95.209388      664.77367    
   1290000   296.62195      0.050123105    24.817318      735.92725     -97.487245      638.44       
   1291000   268.86565      0.050123105    12.893088      667.06309     -104.60687      562.45622    
   1292000   296.14509      0.050123105    21.865285      734.74414     -99.793641      634.9505     
   1293000   295.58856      0.050123105    19.728256      733.36338     -98.853218      634.51016    
   1294000   308.80062      0.050123105    28.336448      766.14285     -81.97203       684.17082    
   1295000   304.25228      0.050123105    24.688912      754.85828     -86.924216      667.93407    
   1296000   292.17125      0.050123105    23.59075       724.88492     -88.913702      635.97122    
   1297000   301.02609      0.050123105    34.727609      746.85403     -85.061475      661.79255    
   1298000   301.3703       0.050123105    18.538461      747.70803     -82.010133      665.6979     
   1299000   286.98578      0.050123105    30.861867      712.01963     -86.234206      625.78543    
   1300000   310.39344      0.050123105    42.173697      770.09469     -82.13588       687.95881    
   1301000   315.04054      0.050123105    31.414304      781.62426     -80.635728      700.98853    
   1302000   302.37969      0.050123105    23.060568      750.21235     -82.922925      667.28942    
   1303000   297.78487      0.050123105    23.812824      738.81246     -85.21855       653.59391    
   1304000   300.91382      0.050123105    23.733694      746.57548     -90.137241      656.43824    
   1305000   295.06663      0.050123105    32.401965      732.06845     -96.586817      635.48164    
   1306000   299.04135      0.050123105    22.435026      741.92984     -91.375549      650.55429    
   1307000   289.33331      0.050123105    22.777371      717.84393     -85.030282      632.81365    
   1308000   308.96436      0.050123105    28.274317      766.54909     -86.532994      680.0161     
   1309000   311.18592      0.050123105    26.266425      772.06083     -96.776638      675.2842     
   1310000   290.51705      0.050123105    24.913394      720.7808      -95.395101      625.3857     
   1311000   288.30751      0.050123105    14.937963      715.29889     -94.494829      620.80406    
   1312000   315.1773       0.050123105    23.503078      781.96357     -103.82699      678.13658    
   1313000   294.625        0.050123105    29.698811      730.97274     -97.877956      633.09478    
   1314000   296.51514      0.050123105    30.697721      735.66223     -93.959253      641.70298    
   1315000   292.43253      0.050123105    15.928038      725.53318     -97.892908      627.64027    
   1316000   307.05256      0.050123105   -4.763056       761.80587     -92.61982       669.18605    
   1317000   302.70503      0.050123105    28.673834      751.01953     -99.64694       651.37259    
   1318000   287.57679      0.050123105    27.280846      713.48595     -97.650234      615.83571    
   1319000   293.33421      0.050123105    14.793761      727.77026     -105.16822      622.60205    
   1320000   312.74301      0.050123105    20.064822      775.92404     -100.25708      675.66695    
   1321000   298.16729      0.050123105    30.531734      739.76127     -100.45601      639.30526    
   1322000   282.85022      0.050123105    21.628225      701.75919     -96.812589      604.9466     
   1323000   304.82324      0.050123105    19.318627      756.27485     -100.4617       655.81315    
   1324000   300.77057      0.050123105    48.136129      746.22006     -92.696969      653.52309    
   1325000   291.49656      0.050123105    19.965362      723.21101     -88.321872      634.88914    
   1326000   305.8295       0.050123105    20.006432      758.77141     -96.507653      662.26376    
   1327000   327.52041      0.050123105    26.137017      812.58716     -91.495072      721.09209    
   1328000   298.64962      0.050123105    21.751507      740.95794     -95.206195      645.75175    
   1329000   290.25044      0.050123105    17.251382      720.11935     -95.550827      624.56852    
   1330000   306.13602      0.050123105    23.649443      759.5319      -97.881314      661.65058    
   1331000   302.63321      0.050123105    32.714232      750.84134     -98.541203      652.30014    
   1332000   292.28484      0.050123105    33.940791      725.16675     -98.103836      627.06292    
   1333000   303.68489      0.050123105    18.906807      753.45057     -97.896062      655.55451    
   1334000   305.01922      0.050123105    29.165157      756.76108     -97.088358      659.67272    
   1335000   289.2323       0.050123105    24.209848      717.59331     -107.21877      610.37454    
   1336000   307.79538      0.050123105    23.203855      763.64882     -99.043608      664.60521    
   1337000   313.28166      0.050123105    31.493242      777.26044     -94.040187      683.22026    
   1338000   300.46625      0.050123105    31.806363      745.46504     -87.420818      658.04422    
   1339000   286.4799       0.050123105    22.364394      710.76454     -81.851688      628.91285    
   1340000   302.97229      0.050123105    22.466582      751.68261     -86.083158      665.59945    
   1341000   309.06552      0.050123105    27.390779      766.80006     -90.935997      675.86407    
   1342000   300.57382      0.050123105    20.072094      745.73193     -91.883093      653.84883    
   1343000   297.76373      0.050123105    27.484485      738.76002     -100.19483      638.56519    
   1344000   309.08112      0.050123105    14.178737      766.83879     -104.67016      662.16863    
   1345000   299.70305      0.050123105    31.722318      743.57153     -99.904261      643.66727    
   1346000   296.57667      0.050123105    19.105833      735.81489     -91.557874      644.25702    
   1347000   312.65184      0.050123105    26.617186      775.69783     -83.478875      692.21896    
   1348000   296.32095      0.050123105    13.90684       735.18045     -81.311429      653.86902    
   1349000   290.82145      0.050123105    9.4178593      721.53604     -84.390306      637.14574    
   1350000   316.93765      0.050123105    18.00249       786.33105     -96.521513      689.80954    
   1351000   294.54605      0.050123105    27.972434      730.77686     -88.471487      642.30538    
   1352000   295.55555      0.050123105    8.6380889      733.28145     -92.97423       640.30723    
   1353000   302.47888      0.050123105    23.117358      750.45843     -88.538674      661.91976    
   1354000   303.18529      0.050123105    19.303369      752.21105     -91.111505      661.09955    
   1355000   305.11287      0.050123105    31.690669      756.99345     -86.053215      670.94023    
   1356000   308.36032      0.050123105    35.936753      765.05046     -97.784133      667.26633    
   1357000   295.73581      0.050123105    21.421198      733.7287      -89.085003      644.6437     
   1358000   296.18637      0.050123105    14.392981      734.84654     -89.72742       645.11912    
   1359000   310.00183      0.050123105    37.210027      769.12309     -91.62433       677.49876    
   1360000   298.67726      0.050123105    22.033635      741.02651     -92.61937       648.40714    
   1361000   296.77534      0.050123105    22.368524      736.30779     -94.541041      641.76675    
   1362000   307.32595      0.050123105    23.123275      762.48415     -99.080901      663.40325    
   1363000   303.37264      0.050123105    17.45912       752.67589     -96.127091      656.5488     
   1364000   297.68005      0.050123105    20.221904      738.55241     -98.304658      640.24775    
   1365000   299.84277      0.050123105    21.386268      743.91818     -91.190609      652.72757    
   1366000   294.85443      0.050123105    21.31583       731.54197     -93.72355       637.81842    
   1367000   293.50558      0.050123105    39.523569      728.19544     -93.21633       634.97911    
   1368000   296.28605      0.050123105    27.395065      735.09385     -89.712879      645.38097    
   1369000   316.46733      0.050123105    18.478015      785.16417     -80.434954      704.72922    
   1370000   294.55831      0.050123105    26.689644      730.80728     -83.862613      646.94466    
   1371000   294.26483      0.050123105    16.945889      730.07917     -87.689143      642.39002    
   1372000   303.66247      0.050123105    26.517426      753.39495     -81.427183      671.96776    
   1373000   295.06936      0.050123105    26.026629      732.07523     -85.588002      646.48722    
   1374000   290.87543      0.050123105    24.694019      721.66996     -84.233793      637.43616    
   1375000   295.91797      0.050123105    33.433829      734.18065     -91.057741      643.12291    
   1376000   309.58099      0.050123105    23.595912      768.07896     -90.157612      677.92135    
   1377000   298.8552       0.050123105    26.514422      741.468       -85.267754      656.20024    
   1378000   288.55632      0.050123105    21.92965       715.91619     -94.239549      621.67664    
   1379000   307.46282      0.050123105    19.824907      762.82373     -92.45663       670.3671     
   1380000   310.06279      0.050123105    26.819168      769.27432     -86.186576      683.08775    
   1381000   287.19939      0.050123105    31.216735      712.54961     -86.494954      626.05466    
   1382000   292.50178      0.050123105    23.223526      725.70498     -84.319808      641.38517    
   1383000   297.37619      0.050123105    26.686437      737.79852     -75.232916      662.56561    
   1384000   315.84901      0.050123105    22.690259      783.63009     -90.407508      693.22259    
   1385000   298.33351      0.050123105    25.445882      740.17366     -86.016527      654.15713    
   1386000   284.22591      0.050123105    20.137306      705.17231     -88.842073      616.33023    
   1387000   305.10367      0.050123105    12.613046      756.9706      -80.787601      676.183      
   1388000   317.48581      0.050123105    24.384845      787.69104     -79.672482      708.01856    
   1389000   293.46943      0.050123105    27.063128      728.10575     -85.716427      642.38933    
   1390000   299.25283      0.050123105    23.853521      742.45452     -82.438554      660.01597    
   1391000   299.87989      0.050123105    28.729998      744.01026     -77.564098      666.44617    
   1392000   303.0333       0.050123105    21.757235      751.83397     -85.816271      666.0177     
   1393000   301.12946      0.050123105    28.857051      747.11049     -83.651197      663.45929    
   1394000   297.25117      0.050123105    21.541095      737.48836     -87.032495      650.45586    
   1395000   294.7666       0.050123105    22.029146      731.32405     -77.23225       654.0918     
   1396000   319.7704       0.050123105    35.511156      793.35917     -74.558075      718.80109    
   1397000   299.50425      0.050123105    19.250816      743.0783      -82.175855      660.90244    
   1398000   284.79551      0.050123105    23.27772       706.5855      -72.773085      633.81242    
   1399000   306.55438      0.050123105    34.601153      760.56987     -69.070067      691.4998     
   1400000   320.70389      0.050123105    26.268703      795.6752      -77.841349      717.83385    
   1401000   302.88464      0.050123105    21.385001      751.46515     -74.89101       676.57414    
   1402000   292.21659      0.050123105    29.737804      724.99742     -80.54331       644.45411    
   1403000   313.5661       0.050123105    27.484628      777.96614     -86.580319      691.38582    
   1404000   290.38203      0.050123105    21.759636      720.44582     -90.217953      630.22787    
   1405000   288.42064      0.050123105    27.538016      715.57957     -96.271415      619.30815    
   1406000   301.29303      0.050123105    23.595098      747.51632     -93.463745      654.05258    
   1407000   316.13192      0.050123105    7.1873088      784.33202     -94.137868      690.19415    
   1408000   304.61443      0.050123105    26.162381      755.7568      -90.160872      665.59592    
   1409000   301.85252      0.050123105    30.377341      748.90443     -92.889992      656.01443    
   1410000   304.2287       0.050123105    1.0801508      754.79979     -92.373992      662.4258     
   1411000   297.79208      0.050123105    9.0190791      738.83037     -86.417859      652.41251    
   1412000   297.01576      0.050123105    29.027286      736.90429     -83.935945      652.96834    
   1413000   300.31468      0.050123105    36.920763      745.089       -84.687326      660.40168    
   1414000   303.30919      0.050123105    20.476578      752.51847     -89.068949      663.44952    
   1415000   299.03932      0.050123105    9.8997148      741.92481     -81.088409      660.8364     
   1416000   290.7294       0.050123105    26.69878       721.30765     -85.682604      635.62505    
   1417000   299.95883      0.050123105    31.37122       744.20612     -84.368431      659.83769    
   1418000   290.04173      0.050123105    10.854773      719.60151     -85.941914      633.6596     
   1419000   301.85702      0.050123105    46.667765      748.9156      -82.479434      666.43617    
   1420000   307.37746      0.050123105    34.645344      762.61196     -83.545587      679.06637    
   1421000   310.54538      0.050123105    3.2409624      770.47165     -75.893392      694.57826    
   1422000   288.19815      0.050123105    24.887371      715.02754     -72.185316      642.84223    
   1423000   286.43585      0.050123105    21.416082      710.65524     -80.628385      630.02686    
   1424000   303.15254      0.050123105    30.232996      752.12981     -67.025942      685.10387    
   1425000   307.05097      0.050123105    16.743826      761.80191     -72.384955      689.41696    
   1426000   310.90078      0.050123105    22.870152      771.3534      -74.769899      696.5835     
   1427000   291.66743      0.050123105    31.651177      723.63493     -80.876261      642.75866    
   1428000   293.10019      0.050123105    26.330458      727.18965     -77.387162      649.80249    
   1429000   303.75824      0.050123105    23.730417      753.63257     -79.567966      674.0646     
   1430000   289.61626      0.050123105    20.071199      718.54593     -73.948538      644.59739    
   1431000   300.32326      0.050123105    25.00377       745.11029     -75.884271      669.22602    
   1432000   302.60369      0.050123105    23.580508      750.76809     -77.077272      673.69082    
   1433000   301.79014      0.050123105    22.57485       748.74965     -80.264905      668.48474    
   1434000   302.20024      0.050123105    24.258556      749.76713     -76.9652        672.80193    
   1435000   293.75488      0.050123105    28.964089      728.81395     -73.820702      654.99325    
   1436000   307.76319      0.050123105    26.102725      763.56897     -74.304595      689.26437    
   1437000   293.64069      0.050123105    18.737918      728.53064     -73.682315      654.84832    
   1438000   294.56389      0.050123105    25.343249      730.82114     -75.997631      654.8235     
   1439000   303.32929      0.050123105    11.536806      752.56832     -81.16235       671.40597    
   1440000   312.07823      0.050123105    27.702391      774.27469     -77.632271      696.64242    
   1441000   296.71093      0.050123105    28.900569      736.14799     -77.158281      658.98971    
   1442000   296.42003      0.050123105    23.340424      735.42627     -80.522994      654.90327    
   1443000   304.57255      0.050123105    27.30454       755.6529      -80.901634      674.75127    
   1444000   301.19194      0.050123105    23.82417       747.26551     -84.104762      663.16075    
   1445000   282.62488      0.050123105    23.756549      701.20011     -82.383443      618.81667    
   1446000   299.44595      0.050123105    27.325914      742.93365     -80.242465      662.69119    
   1447000   325.91574      0.050123105    30.133421      808.60594     -83.481039      725.1249     
   1448000   304.38565      0.050123105    24.964296      755.1892      -83.219464      671.96973    
   1449000   282.55185      0.050123105    22.547684      701.01892     -82.576045      618.44287    
   1450000   319.98297      0.050123105    26.311155      793.88656     -76.470714      717.41584    
   1451000   310.01331      0.050123105    29.835414      769.15158     -74.227052      694.92453    
   1452000   292.23077      0.050123105    19.903582      725.03261     -74.882295      650.15031    
   1453000   306.38557      0.050123105    29.92356       760.15106     -84.241389      675.90967    
   1454000   304.12553      0.050123105    23.346666      754.54382     -76.369523      678.17429    
   1455000   295.87067      0.050123105    25.483963      734.06328     -72.306096      661.75719    
   1456000   294.38927      0.050123105    30.28758       730.38788     -75.739752      654.64813    
   1457000   305.28501      0.050123105    32.224426      757.42053     -72.133064      685.28747    
   1458000   306.34348      0.050123105    24.352487      760.04662     -71.078287      688.96833    
   1459000   294.5707       0.050123105    27.100242      730.83803     -71.983396      658.85463    
   1460000   299.71274      0.050123105    26.110869      743.59556     -69.614701      673.98086    
   1461000   318.2914       0.050123105    26.121563      789.68974     -76.889903      712.79984    
   1462000   298.22154      0.050123105    21.104595      739.89587     -84.510107      655.38576    
   1463000   286.5611       0.050123105    26.990124      710.96598     -69.318351      641.64763    
   1464000   290.87915      0.050123105    26.423503      721.67918     -73.709639      647.96955    
   1465000   304.08275      0.050123105    32.433575      754.43767     -75.628583      678.80909    
   1466000   311.09752      0.050123105    22.938295      771.84153     -77.014919      694.82661    
   1467000   286.44792      0.050123105    21.433325      710.6852      -73.108583      637.57661    
   1468000   294.21931      0.050123105    28.451971      729.96621     -75.226648      654.73957    
   1469000   306.87418      0.050123105    30.688736      761.3633      -78.071413      683.29189    
   1470000   297.22534      0.050123105    21.402094      737.42425     -79.004757      658.41949    
   1471000   303.59205      0.050123105    23.585154      753.22024     -77.542613      675.67763    
   1472000   301.62161      0.050123105    29.020279      748.33154     -72.96939       675.36215    
   1473000   301.45184      0.050123105    35.044714      747.91033     -67.329036      680.58129    
   1474000   309.63736      0.050123105    10.04146       768.21883     -71.851167      696.36766    
   1475000   301.99673      0.050123105    45.060124      749.26222     -69.714917      679.5473     
   1476000   301.16742      0.050123105    31.349066      747.20467     -77.920829      669.28384    
   1477000   310.92734      0.050123105    21.797424      771.41931     -78.348035      693.07127    
   1478000   300.13989      0.050123105    16.823268      744.65534     -78.508174      666.14717    
   1479000   287.01672      0.050123105    24.883095      712.0964      -82.603607      629.49279    
   1480000   303.52351      0.050123105    22.378972      753.05019     -91.43813       661.61206    
   1481000   304.6257       0.050123105    25.911789      755.78476     -86.355397      669.42937    
   1482000   322.74121      0.050123105    26.090417      800.72985     -81.385559      719.34429    
   1483000   288.26475      0.050123105    29.525985      715.1928      -77.94953       637.24327    
   1484000   287.08062      0.050123105    24.95132       712.25493     -82.681897      629.57303    
   1485000   308.19929      0.050123105    13.856762      764.65095     -80.997541      683.6534     
   1486000   313.63115      0.050123105    24.255226      778.12752     -76.387424      701.7401     
   1487000   305.00861      0.050123105    27.911373      756.73477     -76.492177      680.24259    
   1488000   275.83509      0.050123105    24.535655      684.35447     -71.051169      613.3033     
   1489000   302.06364      0.050123105    25.60712       749.4282      -74.648711      674.77949    
   1490000   307.01306      0.050123105    28.539755      761.70785     -77.752867      683.95499    
   1491000   289.64533      0.050123105    25.071877      718.61805     -83.811669      634.80638    
   1492000   284.08883      0.050123105    22.341757      704.83223     -78.847142      625.98508    
   1493000   308.8463       0.050123105    27.346252      766.25619     -74.23821       692.01798    
   1494000   293.3501       0.050123105    27.172668      727.80969     -75.538544      652.27114    
   1495000   301.43464      0.050123105    23.36196       747.86766     -74.842836      673.02482    
   1496000   297.21396      0.050123105    26.614098      737.39602     -78.96779       658.42823    
   1497000   310.08178      0.050123105    23.539692      769.32144     -77.487088      691.83435    
   1498000   312.23099      0.050123105    30.134483      774.65369     -78.723403      695.93029    
   1499000   300.39037      0.050123105    24.189427      745.27678     -85.998608      659.27817    
   1500000   306.09812      0.050123105    27.073363      759.43788     -80.494346      678.94354    
   1501000   303.12509      0.050123105    32.064953      752.0617      -81.393104      670.6686     
   1502000   305.43243      0.050123105    20.558484      757.78627     -79.493023      678.29325    
   1503000   303.4173       0.050123105    17.682669      752.78669     -77.211964      675.57473    
   1504000   285.48481      0.050123105    17.176864      708.29567     -84.388866      623.90681    
   1505000   293.20327      0.050123105    21.598568      727.44539     -75.303844      652.14155    
   1506000   309.48305      0.050123105    26.973949      767.83598     -83.400157      684.43582    
   1507000   310.03263      0.050123105    17.721065      769.1995      -78.377264      690.82224    
   1508000   285.32648      0.050123105   -0.29395418     707.90286     -80.072548      627.83031    
   1509000   293.9305       0.050123105    28.923437      729.24967     -85.554133      643.69554    
   1510000   307.16919      0.050123105    34.411889      762.09523     -85.590611      676.50462    
   1511000   303.46959      0.050123105    17.218652      752.91642     -87.229299      665.68712    
   1512000   299.34735      0.050123105    43.421571      742.68903     -91.625171      651.06386    
   1513000   303.31177      0.050123105    27.822269      752.52487     -80.098825      672.42605    
   1514000   300.75477      0.050123105    27.160404      746.18088     -82.99707       663.18381    
   1515000   290.40474      0.050123105    12.672457      720.50218     -81.342371      639.1598     
   1516000   302.79876      0.050123105    24.354804      751.25207     -79.199296      672.05278    
   1517000   310.68676      0.050123105    48.277009      770.82242     -83.269956      687.55246    
   1518000   300.07596      0.050123105    30.935456      744.49674     -84.48157       660.01517    
   1519000   302.52711      0.050123105    15.670968      750.57809     -85.840649      664.73744    
   1520000   307.36021      0.050123105    2.1318373      762.56916     -81.233292      681.33586    
   1521000   290.21655      0.050123105    21.484669      720.03527     -78.28004       641.75523    
   1522000   292.47575      0.050123105    31.669504      725.64039     -80.577797      645.06259    
   1523000   300.13522      0.050123105    24.165331      744.64375     -79.188344      665.45541    
   1524000   308.73208      0.050123105    19.004375      765.9728      -79.948391      686.02441    
   1525000   294.37302      0.050123105    30.406532      730.34757     -75.133161      655.21441    
   1526000   301.81994      0.050123105    36.994977      748.82359     -69.585443      679.23814    
   1527000   309.74381      0.050123105    38.379797      768.48294     -73.836713      694.64623    
   1528000   306.37509      0.050123105    18.807789      760.12504     -77.175944      682.9491     
   1529000   290.76245      0.050123105    11.463528      721.38964     -79.583466      641.80618    
   1530000   286.83533      0.050123105    39.790333      711.64636     -75.964362      635.682      
   1531000   314.58021      0.050123105    31.596338      780.48218     -86.478652      694.00353    
   1532000   294.91781      0.050123105    23.595926      731.69922     -88.319731      643.37949    
   1533000   290.65435      0.050123105    30.449319      721.12145     -91.876934      629.24451    
   1534000   301.99517      0.050123105    28.717861      749.25835     -89.792307      659.46605    
   1535000   321.23362      0.050123105    30.334999      796.98947     -83.76655       713.22292    
   1536000   298.58312      0.050123105    29.923124      740.79296     -76.801626      663.99133    
   1537000   284.83329      0.050123105    21.248131      706.67924     -76.140986      630.53825    
   1538000   300.50793      0.050123105    19.379343      745.56847     -85.15861       660.40986    
   1539000   312.6425       0.050123105    20.430755      775.67465     -83.553861      692.12079    
   1540000   297.51933      0.050123105    25.618324      738.15366     -97.34363       640.81003    
   1541000   289.61123      0.050123105    29.55377       718.53344     -86.757237      631.7762     
   1542000   301.45438      0.050123105    13.413157      747.91662     -78.977061      668.93956    
   1543000   308.8531       0.050123105    16.478719      766.27304     -91.93172       674.34132    
   1544000   309.28579      0.050123105    23.722317      767.34658     -90.511548      676.83503    
   1545000   299.38637      0.050123105    33.120705      742.78584     -87.49244       655.2934     
   1546000   291.59619      0.050123105    20.449413      723.45819     -82.561299      640.89689    
   1547000   319.72591      0.050123105    6.324493       793.2488      -88.48378       704.76502    
   1548000   303.19983      0.050123105    29.664952      752.24713     -93.520884      658.72624    
   1549000   288.37045      0.050123105    28.176172      715.45503     -97.786735      617.6683     
   1550000   310.22165      0.050123105    20.962674      769.66846     -95.630619      674.03784    
   1551000   300.14786      0.050123105    25.674234      744.67511     -95.799205      648.8759     
   1552000   295.5774       0.050123105    22.037887      733.33569     -94.960698      638.37499    
   1553000   305.38422      0.050123105    22.868383      757.66666     -92.489422      665.17724    
   1554000   310.21922      0.050123105    37.543245      769.66244     -87.377162      682.28528    
   1555000   289.61825      0.050123105    30.882517      718.55087     -84.660076      633.89079    
   1556000   289.12028      0.050123105    14.314486      717.31537     -86.033659      631.28171    
   1557000   306.65569      0.050123105   -0.45185662     760.82123     -86.355564      674.46566    
   1558000   301.1437       0.050123105    36.135718      747.14583     -83.389069      663.75676    
   1559000   294.74508      0.050123105    40.632753      731.27066     -81.696905      649.57376    
   1560000   294.93639      0.050123105    24.45146       731.74531     -82.44176       649.30355    
   1561000   317.15891      0.050123105    24.059479      786.88001     -86.763478      700.11653    
   1562000   311.70781      0.050123105    20.709131      773.35568     -86.005653      687.35002    
   1563000   299.09858      0.050123105    32.64564       742.07181     -80.023418      662.04839    
   1564000   299.26608      0.050123105    24.327574      742.48739     -81.962604      660.52479    
   1565000   314.57495      0.050123105    22.734328      780.46912     -83.477886      696.99124    
   1566000   305.0977       0.050123105    26.753738      756.9558      -82.797788      674.15801    
   1567000   299.6837       0.050123105    34.906221      743.52351     -83.322223      660.20129    
   1568000   303.84128      0.050123105    18.328212      753.83858     -94.326126      659.51245    
   1569000   306.65012      0.050123105    25.351012      760.8074      -82.89142       677.91598    
   1570000   293.28391      0.050123105    36.537609      727.64545     -75.071016      652.57444    
   1571000   292.548        0.050123105    12.855414      725.81965     -84.314706      641.50494    
   1572000   323.11658      0.050123105    22.524606      801.66114     -84.12778       717.53336    
   1573000   303.50147      0.050123105    37.522394      752.99552     -76.864594      676.13093    
   1574000   291.14815      0.050123105    22.845507      722.34658     -79.384464      642.96212    
   1575000   312.65213      0.050123105    6.7129275      775.69855     -87.611014      688.08753    
   1576000   303.95697      0.050123105    38.295428      754.12562     -91.698599      662.42702    
   1577000   300.78096      0.050123105    48.346175      746.24585     -91.917622      654.32822    
   1578000   287.90357      0.050123105    16.25568       714.29669     -81.00226       633.29443    
   1579000   304.22611      0.050123105    21.64963       754.79337     -80.90232       673.89105    
   1580000   301.36391      0.050123105    39.247216      747.69216     -77.298094      670.39407    
   1581000   304.47373      0.050123105    22.867771      755.40772     -71.215297      684.19242    
   1582000   308.00052      0.050123105    8.5647689      764.15778     -79.176233      684.98155    
   1583000   302.62286      0.050123105    26.908984      750.81567     -83.864947      666.95072    
   1584000   287.59066      0.050123105    27.454341      713.52035     -87.712312      625.80804    
   1585000   304.24796      0.050123105    3.2229313      754.84757     -87.853029      666.99454    
   1586000   312.75039      0.050123105    26.551848      775.94234     -87.10431       688.83803    
   1587000   303.51304      0.050123105    31.802916      753.02423     -85.433208      667.59102    
   1588000   293.8361       0.050123105    24.67767       729.01547     -81.969431      647.04604    
   1589000   305.02227      0.050123105    24.400621      756.76866     -89.894514      666.87415    
   1590000   298.47074      0.050123105    27.176983      740.51413     -83.215227      657.2989     
   1591000   302.41421      0.050123105    19.15592       750.298       -75.612183      674.68582    
   1592000   310.23657      0.050123105    11.142853      769.70548     -86.46665       683.23883    
   1593000   297.36487      0.050123105    26.123487      737.77045     -76.103221      661.66723    
   1594000   297.37205      0.050123105    27.829321      737.78825     -78.598851      659.1894     
   1595000   295.45365      0.050123105    24.682428      733.02865     -70.214422      662.81422    
   1596000   291.23139      0.050123105    28.561241      722.5531      -77.027593      645.5255     
   1597000   305.10605      0.050123105    22.904171      756.97652     -76.94438       680.03214    
   1598000   294.83324      0.050123105    20.372845      731.48939     -69.760696      661.72869    
   1599000   303.26512      0.050123105    35.680985      752.40912     -79.012947      673.39617    
   1600000   306.31216      0.050123105    40.951051      759.9689      -81.153724      678.81518    
   1601000   294.43806      0.050123105    25.914012      730.50895     -76.947465      653.56148    
   1602000   302.16043      0.050123105    21.579443      749.66835     -80.672847      668.9955     
   1603000   296.96287      0.050123105    22.58998       736.77307     -76.778525      659.99454    
   1604000   300.91973      0.050123105    34.869288      746.59014     -74.960428      671.62971    
   1605000   297.31758      0.050123105    4.6929823      737.65311     -76.108257      661.54485    
   1606000   303.03578      0.050123105    23.85455       751.84012     -74.339587      677.50053    
   1607000   306.64111      0.050123105    31.749154      760.78505     -74.563434      686.22162    
   1608000   314.5027       0.050123105    23.583973      780.28986     -75.475054      704.81481    
   1609000   288.75077      0.050123105    24.049033      716.39862     -78.133908      638.26471    
   1610000   290.70921      0.050123105    29.524546      721.25756     -83.414414      637.84315    
   1611000   299.86288      0.050123105    39.23386       743.96807     -88.457098      655.51098    
   1612000   325.05711      0.050123105    50.964774      806.47565     -84.244839      722.23081    
   1613000   303.42408      0.050123105    12.887688      752.80351     -78.159367      674.64415    
   1614000   283.09779      0.050123105    16.966389      702.37341     -84.363784      618.00963    
   1615000   313.43089      0.050123105    27.495993      777.63069     -85.400999      692.22969    
   1616000   311.87646      0.050123105    18.486935      773.77409     -86.493447      687.28064    
   1617000   299.47526      0.050123105    9.2565294      743.00638     -89.071825      653.93456    
   1618000   300.54097      0.050123105    23.464209      745.65043     -87.894929      657.7555     
   1619000   299.64965      0.050123105    31.909205      743.43904     -85.961196      657.47785    
   1620000   306.38984      0.050123105    34.012035      760.16164     -80.746822      679.41482    
   1621000   303.62124      0.050123105    18.681664      753.29266     -85.121176      668.17148    
   1622000   298.20055      0.050123105    27.055282      739.84379     -82.483848      657.35994    
   1623000   303.41268      0.050123105    22.85971       752.77521     -82.325108      670.4501     
   1624000   303.83876      0.050123105    25.857134      753.83234     -81.203052      672.62929    
   1625000   293.5485       0.050123105    27.490001      728.30193     -77.127934      651.17399    
   1626000   295.31898      0.050123105    26.694486      732.69452     -78.923363      653.77116    
   1627000   304.05014      0.050123105    26.488581      754.35678     -72.380759      681.97602    
   1628000   295.76756      0.050123105    24.342393      733.80746     -71.690113      662.11734    
   1629000   294.8437       0.050123105    25.965777      731.51535     -74.104211      657.41114    
   1630000   296.68164      0.050123105    20.699264      736.07532     -70.763026      665.3123     
   1631000   305.49005      0.050123105    23.171734      757.92925     -76.3397        681.58955    
   1632000   292.65359      0.050123105    25.600327      726.08162     -71.720722      654.3609     
   1633000   302.39256      0.050123105    23.417854      750.24427     -79.815184      670.42908    
   1634000   309.13708      0.050123105    26.003767      766.97763     -78.218808      688.75882    
   1635000   293.46734      0.050123105    24.885982      728.10057     -80.770597      647.32997    
   1636000   292.82975      0.050123105    21.66816       726.51869     -83.372156      643.14654    
   1637000   309.45433      0.050123105    32.014023      767.76473     -82.249357      685.51537    
   1638000   287.30663      0.050123105    25.262141      712.81567     -76.160309      636.65536    
   1639000   305.74256      0.050123105    24.207049      758.55572     -77.64989       680.90583    
   1640000   312.01239      0.050123105    33.336524      774.11133     -70.462282      703.64905    
   1641000   287.70861      0.050123105    22.27577       713.81299     -71.382858      642.43013    
   1642000   302.65495      0.050123105    20.850185      750.89527     -67.899183      682.99608    
   1643000   311.29353      0.050123105    26.81918       772.32783     -65.88283       706.445      
   1644000   303.46313      0.050123105    25.039974      752.9004      -73.181559      679.71884    
   1645000   301.49363      0.050123105    28.247916      748.014       -67.068333      680.94566    
   1646000   309.07089      0.050123105    25.680165      766.8134      -76.5169        690.2965     
   1647000   297.38535      0.050123105    24.927823      737.82125     -74.570074      663.25118    
   1648000   287.14726      0.050123105    19.433426      712.42026     -77.020852      635.39941    
   1649000   293.3495       0.050123105    23.940075      727.80819     -76.269942      651.53825    
   1650000   313.17847      0.050123105    8.1779679      777.00443     -78.163336      698.84109    
   1651000   310.37048      0.050123105    24.693706      770.03773     -70.885691      699.15204    
   1652000   297.82163      0.050123105    35.266955      738.90368     -68.507628      670.39605    
   1653000   288.60159      0.050123105    18.176612      716.0285      -69.593062      646.43544    
   1654000   308.62939      0.050123105    21.587884      765.71803     -71.539794      694.17823    
   1655000   308.6419       0.050123105    28.961001      765.74907     -78.950015      686.79906    
   1656000   308.91833      0.050123105    40.600562      766.4349      -76.110647      690.32426    
   1657000   288.53701      0.050123105    31.232304      715.86827     -74.491089      641.37718    
   1658000   299.56969      0.050123105    24.138507      743.24066     -79.433069      663.80759    
   1659000   307.53669      0.050123105    27.880028      763.00701     -82.203242      680.80376    
   1660000   300.37781      0.050123105    26.520519      745.24563     -76.858349      668.38728    
   1661000   304.49364      0.050123105    26.657636      755.45711     -85.612105      669.845      
   1662000   299.98815      0.050123105    22.923875      744.27887     -86.563071      657.7158     
   1663000   319.16318      0.050123105    31.284983      791.85266     -77.886678      713.96598    
   1664000   304.64279      0.050123105    26.698593      755.82715     -68.948567      686.87859    
   1665000   304.37174      0.050123105    23.709685      755.15468     -71.244735      683.90994    
   1666000   301.83722      0.050123105    31.329216      748.86647     -69.242123      679.62435    
   1667000   297.62431      0.050123105    19.157554      738.41412     -78.42928       659.98484    
   1668000   297.93554      0.050123105    26.456399      739.18628     -70.266009      668.92027    
   1669000   307.09471      0.050123105    29.582284      761.91044     -80.089869      681.82058    
   1670000   304.72802      0.050123105    21.034481      756.03863     -82.749432      673.2892     
   1671000   289.31392      0.050123105    25.759055      717.79581     -84.064421      633.73139    
   1672000   303.74611      0.050123105    36.749681      753.60247     -75.634924      677.96755    
   1673000   303.51968      0.050123105    26.715203      753.04069     -86.560831      666.47986    
   1674000   294.7185       0.050123105    27.894756      731.20473     -81.421634      649.78309    
   1675000   299.44243      0.050123105    22.606183      742.92491     -84.429786      658.49513    
   1676000   289.19439      0.050123105    42.571492      717.49926     -84.933899      632.56536    
   1677000   309.01657      0.050123105    18.047416      766.67863     -83.040747      683.63788    
   1678000   295.40875      0.050123105    24.069546      732.91725     -81.907123      651.01013    
   1679000   284.37368      0.050123105    25.998996      705.53894     -80.402125      625.13681    
   1680000   299.65188      0.050123105    28.540838      743.44458     -83.461752      659.98283    
   1681000   300.82377      0.050123105    24.745019      746.35207     -86.260539      660.09153    
   1682000   293.26673      0.050123105    32.244846      727.60284     -85.676099      641.92674    
   1683000   290.06035      0.050123105    25.611468      719.64773     -90.912958      628.73477    
   1684000   298.04564      0.050123105    25.673857      739.45945     -76.782201      662.67725    
   1685000   297.42724      0.050123105    19.496853      737.92518     -74.015173      663.91001    
   1686000   298.61603      0.050123105    25.157136      740.8746      -79.992688      660.88192    
   1687000   307.86312      0.050123105    34.67349       763.81689     -77.226385      686.5905     
   1688000   302.3672       0.050123105    27.457291      750.18135     -83.302755      666.87859    
   1689000   296.67696      0.050123105    20.718937      736.06372     -86.756257      649.30746    
   1690000   295.89939      0.050123105    25.654825      734.13455     -77.297         656.83755    
   1691000   314.49946      0.050123105    23.61022       780.28184     -81.691295      698.59055    
   1692000   303.5997       0.050123105    24.736149      753.23922     -77.527941      675.71128    
   1693000   295.03319      0.050123105    24.609016      731.98549     -77.082731      654.90275    
   1694000   299.33215      0.050123105    32.000524      742.65132     -83.282695      659.36863    
   1695000   300.70854      0.050123105    24.146347      746.06617     -81.136297      664.92987    
   1696000   297.71191      0.050123105    23.460202      738.63145     -75.122502      663.50894    
   1697000   300.95853      0.050123105    23.64247       746.68641     -83.083998      663.60241    
   1698000   294.28697      0.050123105    25.655783      730.13409     -82.604077      647.53002    
   1699000   295.66615      0.050123105    22.421912      733.55586     -91.944051      641.61181    
   1700000   295.46755      0.050123105    23.433583      733.06314     -88.917001      644.14614    
   1701000   289.16432      0.050123105    21.192745      717.42464     -87.034767      630.38987    
   1702000   298.06118      0.050123105    18.880416      739.49802     -87.831091      651.66692    
   1703000   301.38914      0.050123105    27.626478      747.75477     -81.791416      665.96335    
   1704000   316.09128      0.050123105    25.405901      784.23118     -74.8535        709.37768    
   1705000   293.409        0.050123105    22.096758      727.95582     -80.752514      647.2033     
   1706000   280.34941      0.050123105    23.190503      695.55461     -78.179853      617.37476    
   1707000   308.79499      0.050123105    27.376163      766.12888     -79.534393      686.59449    
   1708000   301.58985      0.050123105    23.80974       748.25273     -72.863856      675.38887    
   1709000   293.07817      0.050123105    15.637443      727.13501     -75.641988      651.49302    
   1710000   296.65824      0.050123105    25.567462      736.01728     -75.888525      660.12876    
   1711000   301.84884      0.050123105    35.586593      748.89529     -74.78619       674.1091     
   1712000   309.35138      0.050123105    17.764698      767.50929     -82.661461      684.84783    
   1713000   302.89032      0.050123105    24.13495       751.47924     -74.373843      677.10539    
   1714000   292.45425      0.050123105    28.175884      725.58707     -78.147137      647.43993    
   1715000   301.87716      0.050123105    34.828896      748.96556     -75.643165      673.32239    
   1716000   306.86724      0.050123105    28.881992      761.34608     -82.994429      678.35165    
   1717000   300.38599      0.050123105    24.184262      745.26592     -85.944962      659.32096    
   1718000   304.18699      0.050123105    29.004585      754.6963      -80.680119      674.01618    
   1719000   298.93853      0.050123105    25.164455      741.67474     -74.492233      667.1825     
   1720000   290.38918      0.050123105    19.123053      720.46355     -77.905691      642.55786    
   1721000   293.86352      0.050123105    31.623262      729.08351     -76.228415      652.85509    
   1722000   310.25934      0.050123105    38.496581      769.76197     -78.343327      691.41864    
   1723000   311.06442      0.050123105    25.683656      771.75941     -76.8094        694.95001    
   1724000   292.8441       0.050123105    7.4888005      726.55428     -78.379287      648.17499    
   1725000   286.05266      0.050123105    23.720187      709.70454     -85.707457      623.99708    
   1726000   302.24747      0.050123105    24.621962      749.8843      -80.218466      669.66584    
   1727000   302.7727       0.050123105    38.354779      751.18742     -76.659199      674.52822    
   1728000   303.82709      0.050123105    11.465761      753.80338     -73.985266      679.81811    
   1729000   302.93611      0.050123105    16.00095       751.59285     -77.705462      673.88739    
   1730000   294.94435      0.050123105    32.86819       731.76507     -76.717269      655.0478     
   1731000   301.01152      0.050123105    26.552388      746.81788     -76.666738      670.15114    
   1732000   302.18898      0.050123105    21.797808      749.73918     -81.81429       667.92489    
   1733000   306.76797      0.050123105    22.334088      761.09979     -81.503879      679.59591    
   1734000   301.03133      0.050123105    28.110553      746.86702     -75.446014      671.421      
   1735000   299.9059       0.050123105    21.282314      744.0748      -78.458085      665.61672    
   1736000   294.48464      0.050123105    22.6195        730.62451     -75.046681      655.57783    
   1737000   317.28868      0.050123105    22.659029      787.20196     -70.071908      717.13005    
   1738000   316.2988       0.050123105    32.205195      784.74603     -81.353622      703.39241    
   1739000   294.73384      0.050123105    27.460811      731.24279     -78.2953        652.94749    
   1740000   296.27608      0.050123105    20.612725      735.06912     -74.705189      660.36393    
   1741000   303.89803      0.050123105    25.956655      753.97939     -75.289848      678.68954    
   1742000   304.54115      0.050123105    26.774444      755.575       -78.989844      676.58515    
   1743000   299.00164      0.050123105    26.633374      741.8313      -86.930239      654.90106    
   1744000   282.69685      0.050123105    15.277467      701.37868     -81.198806      620.17987    
   1745000   296.13258      0.050123105    17.376231      734.7131      -83.519889      651.19321    
   1746000   298.16269      0.050123105    19.487202      739.74985     -79.783053      659.9668     
   1747000   315.83731      0.050123105    28.731567      783.60108     -79.170885      704.4302     
   1748000   297.22511      0.050123105    23.418941      737.4237      -86.034037      651.38967    
   1749000   289.64235      0.050123105    24.943385      718.61066     -80.900923      637.70973    
   1750000   294.27365      0.050123105    28.553945      730.10103     -78.9897        651.11133    
   1751000   304.20332      0.050123105    19.610572      754.73682     -76.607251      678.12957    
   1752000   284.84401      0.050123105    29.705705      706.70584     -76.54969       630.15615    
   1753000   298.18569      0.050123105    32.441417      739.80691     -76.841867      662.96504    
   1754000   314.69235      0.050123105    18.294954      780.7604      -77.144189      703.61621    
   1755000   293.96488      0.050123105    23.308641      729.33497     -80.114507      649.22046    
   1756000   293.78462      0.050123105    30.462431      728.88774     -76.14021       652.74753    
   1757000   299.77567      0.050123105    21.431114      743.75169     -71.65719       672.0945     
   1758000   308.93158      0.050123105    22.598214      766.46778     -71.688731      694.77905    
   1759000   305.67617      0.050123105    32.261046      758.39101     -69.841928      688.54908    
   1760000   285.3531       0.050123105    28.781462      707.96891     -66.828602      641.14031    
   1761000   299.87871      0.050123105    7.2637849      744.00734     -72.453312      671.55403    
   1762000   307.31457      0.050123105    30.563853      762.45593     -69.753618      692.70231    
   1763000   301.50568      0.050123105    25.32963       748.04389     -79.12453       668.91936    
   1764000   285.39799      0.050123105    18.870582      708.08027     -76.276814      631.80346    
   1765000   300.85776      0.050123105    21.120017      746.43638     -76.295183      670.1412     
   1766000   311.12763      0.050123105    23.888658      771.91623     -82.25945       689.65678    
   1767000   293.74817      0.050123105    23.280492      728.79731     -89.035943      639.76137    
   1768000   303.80754      0.050123105    32.392263      753.75488     -87.106375      666.64851    
   1769000   314.43707      0.050123105    23.371402      780.12704     -88.169594      691.95745    
   1770000   298.63312      0.050123105    20.246245      740.91699     -84.90995       656.00704    
   1771000   299.31274      0.050123105    24.139859      742.60317     -75.367142      667.23603    
   1772000   304.13154      0.050123105    35.994483      754.55872     -79.250795      675.30793    
   1773000   308.91297      0.050123105    35.649749      766.42159     -88.800515      677.62108    
   1774000   297.16986      0.050123105    20.539328      737.2866      -84.025502      653.2611     
   1775000   300.01695      0.050123105    17.879128      744.35032     -85.092173      659.25815    
   1776000   302.65459      0.050123105    23.662144      750.89439     -87.058776      663.83561    
   1777000   310.79337      0.050123105    27.875486      771.08691     -88.864454      682.22245    
   1778000   293.53286      0.050123105    24.038163      728.26311     -86.212596      642.05051    
   1779000   309.99862      0.050123105    30.861503      769.11511     -82.342205      686.7729     
   1780000   312.42152      0.050123105    15.352237      775.12641     -79.708123      695.41829    
   1781000   294.7841       0.050123105    25.595059      731.36747     -79.675663      651.69181    
   1782000   297.55333      0.050123105    30.155455      738.238       -83.07677       655.16123    
   1783000   306.73011      0.050123105    21.334197      761.00585     -78.479661      682.52619    
   1784000   286.37801      0.050123105    25.147186      710.51174     -84.076549      626.43519    
   1785000   292.21066      0.050123105    27.406583      724.98269     -82.311547      642.67115    
   1786000   317.41931      0.050123105    27.765641      787.52605     -88.311641      699.21441    
   1787000   307.17864      0.050123105    22.0248        762.11868     -81.68386       680.43482    
   1788000   293.01877      0.050123105    6.740642       726.98765     -84.939382      642.04826    
   1789000   293.14672      0.050123105    33.73704       727.30508     -75.062384      652.2427     
   1790000   310.68738      0.050123105    26.734477      770.82397     -79.887127      690.93684    
   1791000   301.69408      0.050123105    16.541841      748.51132     -80.178222      668.3331     
   1792000   292.71294      0.050123105    42.783254      726.22888     -83.485717      642.74316    
   1793000   316.01869      0.050123105    31.357281      784.05107     -81.765057      702.28602    
   1794000   301.14036      0.050123105    18.801884      747.13754     -72.227525      674.91001    
   1795000   290.91737      0.050123105    35.092539      721.77401     -79.629454      642.14456    
   1796000   310.77999      0.050123105    26.243956      771.05371     -78.927052      692.12666    
   1797000   297.0521       0.050123105    27.061111      736.99446     -85.967828      651.02663    
   1798000   299.41209      0.050123105    17.497165      742.84964     -82.392712      660.45693    
   1799000   307.24703      0.050123105    16.565792      762.28836     -83.438414      678.84995    
   1800000   295.44448      0.050123105    35.003462      733.0059      -83.231007      649.77489    
   1801000   302.86752      0.050123105    32.763642      751.42265     -83.947551      667.4751     
   1802000   305.18892      0.050123105    25.178377      757.18212     -85.755324      671.4268     
   1803000   304.52141      0.050123105    0.86882463     755.52601     -90.243475      665.28253    
   1804000   300.58906      0.050123105    20.099835      745.76975     -95.910801      649.85895    
   1805000   302.71034      0.050123105    45.673152      751.03269     -101.87565      649.15703    
   1806000   295.77987      0.050123105    33.890212      733.83802     -90.247273      643.59074    
   1807000   305.16443      0.050123105    18.593514      757.12137     -99.01612       658.10525    
   1808000   295.63544      0.050123105    18.866586      733.47969     -85.547086      647.9326     
   1809000   296.30004      0.050123105    40.556571      735.12858     -92.620199      642.50838    
   1810000   304.49768      0.050123105    0.71447134     755.46714     -93.705845      661.7613     
   1811000   309.49005      0.050123105    2.1998081      767.85336     -92.094938      675.75842    
   1812000   289.43005      0.050123105    28.135555      718.08394     -92.854246      625.22969    
   1813000   301.81634      0.050123105    53.216035      748.81467     -93.856603      654.95806    
   1814000   299.07116      0.050123105    25.541565      742.00378     -85.925897      656.07788    
   1815000   308.86656      0.050123105    20.358435      766.30645     -92.800906      673.50554    
   1816000   299.73943      0.050123105    14.49521       743.66178     -88.611655      655.05013    
   1817000   290.888        0.050123105    13.364858      721.70115     -93.042299      628.65885    
   1818000   298.12776      0.050123105    17.003017      739.6632      -93.48783       646.17537    
   1819000   284.99736      0.050123105    27.338901      707.08632     -90.515377      616.57094    
   1820000   305.70489      0.050123105    23.843213      758.46226     -90.662711      667.79955    
   1821000   306.64613      0.050123105    23.653887      760.7975      -87.762794      673.0347     
   1822000   288.89715      0.050123105    19.74348       716.7618      -91.636583      625.12522    
   1823000   303.31756      0.050123105    27.032964      752.53923     -91.299386      661.23984    
   1824000   308.30221      0.050123105    24.797104      764.90627     -90.329217      674.57705    
   1825000   293.75133      0.050123105    26.369406      728.80516     -92.063034      636.74212    
   1826000   301.32689      0.050123105    24.725899      747.60031     -89.979771      657.62054    
   1827000   305.68632      0.050123105    25.911843      758.41618     -85.313672      673.10251    
   1828000   302.80254      0.050123105    25.810486      751.26145     -86.300687      664.96077    
   1829000   297.62069      0.050123105    24.153542      738.40513     -86.132373      652.27276    
   1830000   302.83251      0.050123105    24.896271      751.33582     -89.216452      662.11936    
   1831000   300.28731      0.050123105    28.044342      745.02109     -89.451937      655.56916    
   1832000   290.56801      0.050123105    23.151913      720.90724     -85.392308      635.51493    
   1833000   306.64883      0.050123105    27.027375      760.80419     -88.301562      672.50263    
   1834000   311.9978       0.050123105    29.945854      774.07513     -95.705109      678.37002    
   1835000   300.36409      0.050123105    23.634051      745.2116      -100.02993      645.18166    
   1836000   289.73375      0.050123105    29.390502      718.83741     -86.665806      632.17161    
   1837000   304.63393      0.050123105    26.714991      755.80518     -83.890344      671.91484    
   1838000   313.56456      0.050123105    23.027508      777.96233     -94.983072      682.97926    
   1839000   281.93352      0.050123105    22.686687      699.48484     -94.61735       604.86749    
   1840000   298.89025      0.050123105    23.808592      741.55494     -93.306685      648.24825    
   1841000   302.38585      0.050123105    25.436764      750.22764     -84.111961      666.11568    
   1842000   319.72222      0.050123105    25.824241      793.23965     -82.232556      711.00709    
   1843000   301.38442      0.050123105    24.93188       747.74306     -89.38167       658.36139    
   1844000   296.49184      0.050123105    26.230128      735.60442     -80.998129      654.6063     
   1845000   299.05463      0.050123105    16.075352      741.96277     -86.902563      655.06021    
   1846000   318.0174       0.050123105    15.022756      789.00994     -87.020653      701.98929    
   1847000   304.88691      0.050123105    28.179554      756.43283     -84.189492      672.24334    
   1848000   289.77356      0.050123105    12.165975      718.9362      -87.454926      631.48127    
   1849000   289.60073      0.050123105    14.663249      718.50739     -88.939555      629.56784    
   1850000   311.58237      0.050123105    27.683067      773.04444     -89.726097      683.31834    
   1851000   294.6812       0.050123105    31.133801      731.11218     -94.755111      636.35707    
   1852000   296.58225      0.050123105    28.216571      735.82874     -90.211336      645.6174     
   1853000   300.50862      0.050123105    8.2820517      745.57018     -88.495832      657.07435    
   1854000   303.32633      0.050123105    25.415789      752.56098     -87.003334      665.55764    
   1855000   299.48032      0.050123105    22.516462      743.01893     -97.487478      645.53145    
   1856000   304.42954      0.050123105    23.857046      755.29809     -97.730261      657.56783    
   1857000   303.62443      0.050123105    32.224137      753.30057     -95.236716      658.06385    
   1858000   292.73365      0.050123105    19.250021      726.28027     -88.851531      637.42874    
   1859000   303.11901      0.050123105    28.143392      752.04661     -86.737499      665.30911    
   1860000   314.60444      0.050123105    25.619227      780.5423      -87.080567      693.46173    
   1861000   304.02315      0.050123105    23.808064      754.28981     -85.546014      668.7438     
   1862000   288.62426      0.050123105    22.358965      716.08474     -88.230713      627.85403    
   1863000   303.85558      0.050123105    23.962657      753.87406     -89.884055      663.99001    
   1864000   300.1407       0.050123105    22.449987      744.65734     -83.648074      661.00926    
   1865000   283.06699      0.050123105    17.92808       702.29701     -83.210655      619.08635    
   1866000   299.90292      0.050123105    31.669318      744.06742     -74.097605      669.96982    
   1867000   300.56051      0.050123105    26.48746       745.69892     -78.728218      666.9707     
   1868000   299.82901      0.050123105    22.363856      743.88405     -76.021095      667.86296    
   1869000   309.40686      0.050123105    30.685507      767.64695     -76.807653      690.8393     
   1870000   282.47426      0.050123105    23.948112      700.82643     -88.681323      612.1451     
   1871000   301.75312      0.050123105    32.5636        748.65781     -91.040971      657.61684    
   1872000   307.82642      0.050123105    20.304543      763.72584     -83.983196      679.74265    
   1873000   291.19246      0.050123105    35.132357      722.45651     -87.825141      634.63137    
   1874000   288.57097      0.050123105    7.1463942      715.95252     -89.189716      626.76281    
   1875000   303.91698      0.050123105    7.6693045      754.02641     -90.49199       663.53442    
   1876000   318.51402      0.050123105    33.940985      790.24206     -85.065018      705.17705    
   1877000   287.79779      0.050123105    31.639732      714.03424     -81.971199      632.06304    
   1878000   288.43413      0.050123105    14.222883      715.61302     -79.698297      635.91472    
   1879000   306.03288      0.050123105    18.247954      759.27602     -86.245546      673.03048    
   1880000   308.14849      0.050123105    34.800746      764.5249      -80.927374      683.59752    
   1881000   295.65071      0.050123105    24.135457      733.51756     -71.383627      662.13394    
   1882000   307.00946      0.050123105    21.444244      761.69894     -81.002775      680.69616    
   1883000   310.31289      0.050123105    23.352462      769.89482     -81.518067      688.37676    
   1884000   293.09538      0.050123105    47.141992      727.17772     -82.532485      644.64523    
   1885000   298.96505      0.050123105    16.206678      741.74054     -78.885158      662.85538    
   1886000   300.65228      0.050123105    7.3515525      745.92659     -73.768429      672.15817    
   1887000   302.33189      0.050123105    29.6277        750.09374     -78.319539      671.7742     
   1888000   289.49709      0.050123105    41.886387      718.25027     -80.08263       638.16764    
   1889000   305.00615      0.050123105    26.261925      756.72867     -77.466201      679.26247    
   1890000   306.4689       0.050123105    19.602109      760.35779     -85.272925      675.08486    
   1891000   311.83014      0.050123105    38.277633      773.65918     -86.935549      686.72363    
   1892000   298.94123      0.050123105    20.147563      741.68143     -90.851317      650.83011    
   1893000   289.35876      0.050123105    20.237526      717.90705     -85.99762       631.90943    
   1894000   307.66445      0.050123105    24.276986      763.32398     -94.425469      668.89851    
   1895000   307.81692      0.050123105    28.200527      763.70225     -88.911507      674.79075    
   1896000   301.5055       0.050123105    22.981569      748.04345     -90.230841      657.8126     
   1897000   297.18588      0.050123105    17.52543       737.32636     -90.587427      646.73894    
   1898000   300.75285      0.050123105    20.620394      746.17611     -94.698906      651.4772     
   1899000   308.46613      0.050123105    25.510099      765.31296     -91.565137      673.74783    
   1900000   303.64331      0.050123105    24.425604      753.34743     -91.353819      661.99361    
   1901000   301.16011      0.050123105    29.715389      747.18653     -88.217732      658.96879    
   1902000   296.44102      0.050123105    24.466378      735.47833     -81.501712      653.97662    
   1903000   296.55674      0.050123105    24.110636      735.76545     -75.464154      660.3013     
   1904000   317.43077      0.050123105    29.2917        787.55448     -82.018419      705.53606    
   1905000   302.49153      0.050123105    23.494737      750.48983     -83.306482      667.18335    
   1906000   287.15563      0.050123105    23.338723      712.44103     -85.763336      626.67769    
   1907000   300.67273      0.050123105    25.42522       745.97732     -77.840927      668.1364     
   1908000   302.32887      0.050123105    22.008833      750.08626     -92.328349      657.75791    
   1909000   284.77019      0.050123105    26.334446      706.52269     -90.367791      616.1549     
   1910000   293.67367      0.050123105    21.430817      728.61246     -89.191023      639.42144    
   1911000   304.39896      0.050123105    18.963695      755.22221     -90.920743      664.30147    
   1912000   310.48036      0.050123105    17.141079      770.31034     -89.796267      680.51408    
   1913000   300.53784      0.050123105    26.417704      745.64267     -93.732568      651.9101     
   1914000   290.90269      0.050123105    22.005292      721.7376      -99.053981      622.68362    
   1915000   300.05883      0.050123105    24.949444      744.45424     -91.891698      652.56254    
   1916000   315.75888      0.050123105    28.745584      783.4065      -92.661002      690.74549    
   1917000   307.88732      0.050123105    31.310854      763.87693     -85.144471      678.73246    
   1918000   285.06684      0.050123105    18.586315      707.25868     -82.784979      624.4737     
   1919000   299.18248      0.050123105    16.165557      742.27999     -87.256474      655.02352    
   1920000   302.2962       0.050123105    25.628016      750.0052      -80.376506      669.62869    
   1921000   322.68473      0.050123105    18.203086      800.58972     -81.928006      718.66171    
   1922000   296.49335      0.050123105    31.000754      735.60816     -85.161886      650.44628    
   1923000   298.39717      0.050123105    25.809249      740.3316      -83.523477      656.80812    
   1924000   300.85567      0.050123105    20.149921      746.43121     -83.43663       662.99458    
   1925000   308.64645      0.050123105    26.765137      765.76036     -89.437323      676.32304    
   1926000   289.92617      0.050123105    25.612628      719.31482     -84.39312       634.9217     
   1927000   309.51488      0.050123105    19.872586      767.91495     -89.968543      677.94641    
   1928000   301.92049      0.050123105    24.181018      749.07305     -83.020861      666.05218    
   1929000   298.6693       0.050123105    29.633072      741.00676     -76.962376      664.04439    
   1930000   306.44881      0.050123105    27.77029       760.30795     -86.657612      673.65034    
   1931000   285.04657      0.050123105    23.276504      707.20841     -84.387222      622.82119    
   1932000   303.05002      0.050123105    23.60617       751.87545     -89.123619      662.75184    
   1933000   293.44958      0.050123105    26.494535      728.0565      -94.580693      633.47581    
   1934000   295.72728      0.050123105    23.657284      733.70754     -101.39386      632.31368    
   1935000   310.36333      0.050123105    28.858633      770.01997     -86.151866      683.8681     
   1936000   300.18879      0.050123105    19.562016      744.77665     -85.561451      659.2152     
   1937000   290.73932      0.050123105    24.1372        721.33227     -88.05322       633.27905    
   1938000   315.4539       0.050123105    28.660903      782.64983     -87.193105      695.45672    
   1939000   312.09083      0.050123105    24.692968      774.30596     -91.808264      682.49769    
   1940000   295.21921      0.050123105    25.571369      732.44701     -96.285386      636.16162    
   1941000   293.16389      0.050123105    24.059543      727.34769     -97.183787      630.16391    
   1942000   292.58318      0.050123105    25.218684      725.90693     -90.982621      634.92431    
   1943000   312.72023      0.050123105    25.708393      775.86751     -89.008688      686.85882    
   1944000   317.41094      0.050123105    31.326394      787.5053      -97.663174      689.84213    
   1945000   296.62872      0.050123105    23.856869      735.94402     -92.052532      643.89149    
   1946000   297.93737      0.050123105    23.539771      739.19082     -88.450033      650.74079    
   1947000   305.71248      0.050123105    24.35063       758.48109     -94.047162      664.43393    
   1948000   313.62258      0.050123105    38.756241      778.10626     -87.028289      691.07798    
   1949000   302.80534      0.050123105    21.819561      751.26839     -84.947343      666.32105    
   1950000   297.84626      0.050123105    21.540412      738.96478     -87.583554      651.38122    
   1951000   293.84873      0.050123105    20.361838      729.04679     -89.513668      639.53312    
   1952000   298.46587      0.050123105    32.27707       740.50204     -89.827222      650.67482    
   1953000   299.68555      0.050123105    27.671603      743.5281      -90.31747       653.21063    
   1954000   310.78515      0.050123105    12.021906      771.06652     -86.023525      685.04299    
   1955000   297.90947      0.050123105   -17.612901      739.12162     -91.084269      648.03735    
   1956000   287.9567       0.050123105    12.801589      714.42852     -94.067278      620.36124    
   1957000   294.42086      0.050123105    32.459266      730.46626     -87.153919      643.31234    
   1958000   306.43381      0.050123105    21.300051      760.27072     -88.370826      671.89989    
   1959000   295.33142      0.050123105    24.706481      732.7254      -88.267705      644.4577     
   1960000   289.22446      0.050123105    12.514695      717.57386     -80.723923      636.84993    
   1961000   296.34902      0.050123105    27.524901      735.25009     -83.400535      651.84956    
   1962000   292.69489      0.050123105    21.250311      726.18409     -89.98607       636.19802    
   1963000   303.41508      0.050123105    15.989811      752.78118     -83.660965      669.12022    
   1964000   304.27232      0.050123105    26.224759      754.908       -82.058508      672.84949    
   1965000   270.03341      0.050123105    23.969265      669.96033     -85.571823      584.38851    
   1966000   293.5911       0.050123105    19.606981      728.40761     -84.432594      643.97501    
   1967000   304.22108      0.050123105    28.540011      754.78089     -73.933691      680.8472     
   1968000   304.24924      0.050123105    27.328795      754.85074     -74.580647      680.2701     
   1969000   305.68639      0.050123105    27.834241      758.41635     -72.390293      686.02606    
   1970000   302.84636      0.050123105    27.57638       751.37017     -76.683777      674.68639    
   1971000   292.3297       0.050123105    30.78016       725.27805     -79.026008      646.25205    
   1972000   292.61162      0.050123105    30.316292      725.97749     -74.849448      651.12804    
   1973000   311.08113      0.050123105    20.045805      771.80085     -83.281303      688.51954    
   1974000   309.36288      0.050123105    32.477056      767.53783     -78.408189      689.12964    
   1975000   288.25991      0.050123105    25.331795      715.18078     -70.84994       644.33084    
   1976000   290.80404      0.050123105    21.255323      721.49284     -74.76947       646.72337    
   1977000   309.0038       0.050123105    19.970198      766.64694     -78.838222      687.80871    
   1978000   316.89067      0.050123105    27.306139      786.21449     -78.602189      707.6123     
   1979000   295.46308      0.050123105    26.790142      733.05205     -84.298427      648.75362    
   1980000   295.30462      0.050123105    24.090307      732.65891     -79.206984      653.45193    
   1981000   316.46629      0.050123105    19.932615      785.16159     -79.387058      705.77453    
   1982000   304.9456       0.050123105    27.190483      756.57844     -78.654402      677.92404    
   1983000   296.49757      0.050123105    25.739328      735.61864     -82.851191      652.76745    
   1984000   305.48067      0.050123105    25.257977      757.90596     -81.295803      676.61016    
   1985000   312.29299      0.050123105    30.109505      774.80751     -79.808172      694.99933    
   1986000   299.03567      0.050123105    28.357614      741.91575     -86.231054      655.6847     
   1987000   288.92182      0.050123105    22.666146      716.823       -83.889781      632.93321    
   1988000   312.72055      0.050123105    21.849369      775.8683      -80.97312       694.89518    
   1989000   308.46735      0.050123105    29.620296      765.31601     -75.89809       689.41792    
   1990000   291.95008      0.050123105    30.009232      724.33619     -73.821441      650.51475    
   1991000   303.66445      0.050123105    25.856978      753.39987     -76.604199      676.79567    
   1992000   304.9774       0.050123105    23.885286      756.65734     -82.080369      674.57698    
   1993000   300.97078      0.050123105    23.660322      746.71681     -83.314099      663.40271    
   1994000   288.50391      0.050123105    25.880911      715.78615     -80.391923      635.39423    
   1995000   298.57239      0.050123105    24.963633      740.76633     -80.745204      660.02113    
   1996000   276.92616      0.050123105    33.480463      687.06143     -78.107548      608.95388    
   1997000   293.53824      0.050123105    32.035143      728.27647     -84.669439      643.60703    
   1998000   297.73037      0.050123105    25.221995      738.67726     -76.16403       662.51323    
   1999000   304.34271      0.050123105    21.674628      755.08265     -80.50494       674.57771    
   2000000   298.9716       0.050123105    14.639879      741.75677     -75.290741      666.46603    
   2001000   301.88875      0.050123105    25.448144      748.9943      -84.328319      664.66599    
   2002000   296.09873      0.050123105    23.240613      734.62911     -78.958158      655.67095    
   2003000   299.64955      0.050123105    20.470825      743.43879     -76.867587      666.5712     
   2004000   304.31055      0.050123105    28.356819      755.00287     -81.798922      673.20395    
   2005000   301.42462      0.050123105    14.143028      747.84278     -78.566613      669.27617    
   2006000   295.74553      0.050123105    19.726112      733.75281     -87.005244      646.74757    
   2007000   313.65773      0.050123105    22.660273      778.19348     -89.606788      688.58669    
   2008000   311.1814       0.050123105    54.388856      772.04962     -80.189391      691.86023    
   2009000   302.58198      0.050123105    26.157753      750.71424     -77.809488      672.90475    
   2010000   301.60558      0.050123105    14.585512      748.29176     -84.42263       663.86913    
   2011000   289.90482      0.050123105    23.482835      719.26186     -75.175606      644.08625    
   2012000   299.67085      0.050123105    31.922789      743.49163     -80.346798      663.14483    
   2013000   311.45226      0.050123105    25.532632      772.72164     -89.467254      683.25439    
   2014000   290.29053      0.050123105    27.508817      720.2188      -88.512137      631.70666    
   2015000   290.57637      0.050123105    29.430133      720.92799     -91.141634      629.78635    
   2016000   308.43155      0.050123105    28.01162       765.22717     -88.465454      676.76171    
   2017000   307.74828      0.050123105    26.635538      763.53195     -78.339402      685.19255    
   2018000   284.2422       0.050123105    18.858887      705.21272     -85.041405      620.17132    
   2019000   297.08409      0.050123105    21.572135      737.07382     -84.056374      653.01745    
   2020000   300.95157      0.050123105    24.013831      746.66915     -77.351238      669.31791    
   2021000   301.1382       0.050123105    25.377529      747.13219     -77.855537      669.27665    
   2022000   293.19311      0.050123105    26.166282      727.42018     -79.008106      648.41207    
   2023000   302.65629      0.050123105    25.935317      750.89859     -83.663171      667.23542    
   2024000   295.64985      0.050123105    27.614152      733.51542     -79.647971      653.86745    
   2025000   304.07136      0.050123105    27.729559      754.40942     -79.391508      675.01791    
   2026000   312.46169      0.050123105    21.850387      775.22607     -76.401177      698.82489    
   2027000   303.8057       0.050123105    25.595954      753.75032     -79.945324      673.805      
   2028000   295.37546      0.050123105    27.973773      732.83466     -75.324851      657.50981    
   2029000   295.62676      0.050123105    33.644473      733.45814     -78.202275      655.25586    
   2030000   307.64893      0.050123105    32.690979      763.28547     -79.446748      683.83872    
   2031000   308.18563      0.050123105    13.404545      764.61705     -85.628291      678.98875    
   2032000   303.2695       0.050123105    10.533027      752.42        -83.30745       669.11255    
   2033000   295.66298      0.050123105    32.25565       733.548       -84.000613      649.54738    
   2034000   305.74783      0.050123105    30.539322      758.56879     -81.70019       676.8686     
   2035000   308.16653      0.050123105    23.398328      764.56966     -79.77041       684.79925    
   2036000   301.54064      0.050123105    25.851375      748.13065     -79.9045        668.22615    
   2037000   295.01311      0.050123105    22.262566      731.93566     -83.792142      648.14351    
   2038000   296.11631      0.050123105    22.959631      734.67273     -83.226204      651.44653    
   2039000   310.56138      0.050123105    24.794625      770.51135     -81.339042      689.17231    
   2040000   313.99047      0.050123105    25.601122      779.01902     -76.585348      702.43367    
   2041000   282.68914      0.050123105    21.491214      701.35955     -84.329645      617.02991    
   2042000   280.77053      0.050123105    25.193314      696.59942     -75.83032       620.7691     
   2043000   303.99294      0.050123105    27.479664      754.21487     -71.907232      682.30764    
   2044000   307.50412      0.050123105    24.915664      762.92619     -69.753904      693.17229    
   2045000   284.52431      0.050123105    28.95172       705.91266     -67.614713      638.29795    
   2046000   308.06715      0.050123105    24.066202      764.32309     -78.08023       686.24286    
   2047000   315.50013      0.050123105    25.764407      782.76453     -75.32186       707.44267    
   2048000   299.2755       0.050123105    25.304957      742.51077     -68.357043      674.15372    
   2049000   291.97223      0.050123105    22.304743      724.39114     -77.325036      647.0661     
   2050000   313.17331      0.050123105    21.471544      776.9916      -70.474656      706.51695    
   2051000   301.3661       0.050123105    21.45529       747.69761     -71.522278      676.17533    
   2052000   297.02734      0.050123105    24.343251      736.93302     -67.615668      669.31735    
   2053000   295.10993      0.050123105    25.474778      732.17587     -75.655502      656.52036    
   2054000   314.88933      0.050123105    24.857         781.24911     -83.648778      697.60034    
   2055000   286.33396      0.050123105    18.987242      710.40245     -76.657742      633.7447     
   2056000   301.37594      0.050123105    23.998629      747.72202     -82.850019      664.872      
   2057000   314.24854      0.050123105    25.482904      779.65928     -81.662217      697.99707    
   2058000   294.66135      0.050123105    25.47692       731.06293     -77.713979      653.34895    
   2059000   292.25701      0.050123105    16.408218      725.09769     -74.099281      650.99841    
   2060000   308.50523      0.050123105    26.95305       765.40999     -68.003487      697.4065     
   2061000   305.66374      0.050123105    29.456968      758.36017     -66.813516      691.54666    
   2062000   292.38613      0.050123105    24.738043      725.41805     -73.827488      651.59056    
   2063000   282.10901      0.050123105    22.241317      699.92023     -73.617748      626.30248    
   2064000   300.00204      0.050123105    27.514175      744.31332     -72.209232      672.10409    
   2065000   293.13037      0.050123105    34.00327       727.26453     -71.316556      655.94798    
   2066000   294.10894      0.050123105    26.164467      729.69239     -71.910746      657.78164    
   2067000   304.74979      0.050123105    23.364681      756.09263     -73.806239      682.28639    
   2068000   300.59441      0.050123105    23.159237      745.78301     -68.992294      676.79071    
   2069000   303.49329      0.050123105    27.868909      752.97522     -72.370807      680.60442    
   2070000   294.91391      0.050123105    12.646258      731.68954     -77.362673      654.32687    
   2071000   304.42336      0.050123105    18.618166      755.28276     -76.397742      678.88502    
   2072000   299.69832      0.050123105    32.8058        743.55978     -83.473918      660.08587    
   2073000   305.68134      0.050123105    25.645902      758.40384     -81.094928      677.30891    
   2074000   295.83514      0.050123105    26.803527      733.97515     -71.941334      662.03381    
   2075000   312.2707       0.050123105    32.401481      774.75221     -74.346932      700.40528    
   2076000   302.15317      0.050123105    27.24391       749.65034     -73.361358      676.28898    
   2077000   299.61387      0.050123105    22.045828      743.35028     -74.726126      668.62415    
   2078000   304.46728      0.050123105    27.876144      755.39171     -70.755898      684.63581    
   2079000   288.06959      0.050123105    26.802223      714.7086      -79.420337      635.28826    
   2080000   303.75892      0.050123105    27.011916      753.63424     -83.663013      669.97123    
   2081000   300.72428      0.050123105    24.808494      746.10523     -74.44146       671.66377    
   2082000   285.702        0.050123105    14.141675      708.83453     -78.163567      630.67097    
   2083000   296.73047      0.050123105    24.117971      736.19648     -68.601557      667.59492    
   2084000   315.0665       0.050123105    27.589415      781.68867     -76.028947      705.65972    
   2085000   295.69915      0.050123105    25.229412      733.63774     -74.515189      659.12255    
   2086000   281.55423      0.050123105    26.342994      698.54379     -70.585078      627.95872    
   2087000   282.67503      0.050123105    23.699483      701.32455     -76.176069      625.14848    
   2088000   305.78035      0.050123105    26.620097      758.64948     -76.768344      681.88114    
   2089000   306.42242      0.050123105    25.405671      760.24247     -74.672497      685.56997    
   2090000   288.91615      0.050123105    25.229546      716.80893     -73.082891      643.72604    
   2091000   302.25384      0.050123105    25.234669      749.9001      -63.890924      686.00917    
   2092000   300.53286      0.050123105    27.43681       745.6303      -70.773721      674.85658    
   2093000   300.68666      0.050123105    25.553679      746.0119      -76.198806      669.8131     
   2094000   309.79741      0.050123105    17.054115      768.61592     -78.007719      690.6082     
   2095000   298.74592      0.050123105    26.622638      741.19685     -76.061934      665.13492    
   2096000   303.73971      0.050123105    35.560381      753.58658     -75.589469      677.99711    
   2097000   299.31464      0.050123105    13.061141      742.60788     -76.017488      666.5904     
   2098000   305.28714      0.050123105    20.571841      757.42582     -74.733108      682.69271    
   2099000   303.67442      0.050123105    27.393319      753.42461     -75.546068      677.87854    
   2100000   307.17047      0.050123105    25.961815      762.0984      -72.403725      689.69468    
   2101000   296.81158      0.050123105    15.936273      736.39772     -76.567071      659.83065    
   2102000   301.53907      0.050123105    29.054066      748.12675     -78.319624      669.80713    
   2103000   302.6843       0.050123105    24.070777      750.96809     -70.863589      680.1045     
   2104000   291.66416      0.050123105    18.100523      723.62683     -80.814618      642.81221    
   2105000   292.15288      0.050123105    27.672288      724.83936     -79.260431      645.57892    
   2106000   310.18855      0.050123105    31.065831      769.58635     -76.880983      692.70537    
   2107000   305.11336      0.050123105    25.957596      756.99467     -76.008124      680.98654    
   2108000   304.09209      0.050123105    11.20857       754.46085     -72.079412      682.38144    
   2109000   300.54668      0.050123105    23.495766      745.66461     -72.128919      673.53569    
   2110000   308.25184      0.050123105    40.126752      764.78131     -72.041526      692.73978    
   2111000   300.88997      0.050123105    26.870279      746.51631     -78.491784      668.02453    
   2112000   307.00773      0.050123105    2.9407283      761.69465     -76.340728      685.35392    
   2113000   290.43056      0.050123105    27.032832      720.56623     -78.808682      641.75755    
   2114000   298.28873      0.050123105    36.112882      740.06257     -83.059931      657.00264    
   2115000   302.57682      0.050123105    3.7595634      750.70144     -82.842708      667.85873    
   2116000   294.97689      0.050123105    25.219105      731.84581     -81.45259       650.39322    
   2117000   308.29461      0.050123105    32.891483      764.88743     -75.180284      689.70714    
   2118000   301.51914      0.050123105    25.867356      748.0773      -78.287448      669.78985    
   2119000   302.22256      0.050123105    26.049838      749.82251     -73.428329      676.39418    
   2120000   290.05781      0.050123105    20.637553      719.64141     -74.799268      644.84215    
   2121000   296.94134      0.050123105    25.466464      736.71964     -72.864263      663.85537    
   2122000   298.27515      0.050123105    24.620438      740.02886     -74.610296      665.41856    
   2123000   297.24411      0.050123105    20.986373      737.47084     -77.873357      659.59748    
   2124000   299.79922      0.050123105    19.504599      743.81012     -77.452021      666.3581     
   2125000   301.2315       0.050123105    27.012811      747.36365     -71.28465       676.079      
   2126000   288.33405      0.050123105    25.962738      715.36472     -69.78667       645.57805    
   2127000   309.12547      0.050123105    25.278111      766.94882     -70.772983      696.17584    
   2128000   311.82533      0.050123105    22.924209      773.64723     -70.868793      702.77844    
   2129000   299.1972       0.050123105    22.003791      742.31651     -76.936218      665.38029    
   2130000   286.44922      0.050123105    25.985048      710.6884      -74.95019       635.73821    
   2131000   301.84957      0.050123105    24.682217      748.89711     -84.797136      664.09998    
   2132000   309.51593      0.050123105    20.412294      767.91757     -83.163039      684.75453    
   2133000   288.96509      0.050123105    22.299787      716.93034     -80.529491      636.40085    
   2134000   301.27593      0.050123105    25.769962      747.47388     -76.774289      670.69959    
   2135000   305.49317      0.050123105    26.65731       757.93698     -78.500052      679.43693    
   2136000   303.3189       0.050123105    24.868204      752.54255     -71.113776      681.42877    
   2137000   292.52764      0.050123105    23.995464      725.76914     -82.0293        643.73984    
   2138000   302.79896      0.050123105    19.188497      751.25256     -72.778538      678.47403    
   2139000   304.93982      0.050123105    26.435571      756.5641      -77.903266      678.66083    
   2140000   275.04383      0.050123105    24.963387      682.39131     -73.911207      608.48011    
   2141000   292.23138      0.050123105    27.179105      725.03412     -72.37343       652.66069    
   2142000   308.22985      0.050123105    25.936273      764.72676     -65.934314      698.79244    
   2143000   299.31628      0.050123105    24.098309      742.61195     -66.536909      676.07504    
   2144000   299.69585      0.050123105    21.811723      743.55366     -74.600907      668.95275    
   2145000   308.88229      0.050123105    31.304331      766.34547     -67.706804      698.63866    
   2146000   286.68186      0.050123105    28.086413      711.2656      -77.918744      633.34686    
   2147000   300.01765      0.050123105    16.584611      744.35207     -79.808785      664.54329    
   2148000   316.86785      0.050123105    28.057447      786.15787     -74.34935       711.80852    
   2149000   300.01971      0.050123105    37.339366      744.35717     -75.87714       668.48003    
   2150000   294.72146      0.050123105    32.574131      731.21208     -78.838177      652.3739     
   2151000   294.5257       0.050123105    15.369195      730.72638     -76.067453      654.65893    
   2152000   302.08176      0.050123105    23.012543      749.47317     -74.564187      674.90898    
   2153000   301.59061      0.050123105    22.389575      748.25462     -79.382686      668.87194    
   2154000   304.83601      0.050123105    22.661722      756.30654     -86.372925      669.93361    
   2155000   301.39041      0.050123105    22.32924       747.75791     -75.537108      672.22081    
   2156000   294.22446      0.050123105    24.777017      729.97899     -77.050118      652.92887    
   2157000   303.75878      0.050123105    27.418542      753.63392     -74.525742      679.10818    
   2158000   308.56508      0.050123105    26.952276      765.55846     -80.411096      685.14736    
   2159000   299.56112      0.050123105    25.464867      743.21939     -78.662133      664.55725    
   2160000   296.92341      0.050123105    25.848255      736.67516     -71.745587      664.92957    
   2161000   287.84284      0.050123105    25.609903      714.14601     -74.913889      639.23212    
   2162000   307.93361      0.050123105    24.621453      763.99178     -80.323949      683.66783    
   2163000   307.08561      0.050123105    23.941726      761.88785     -85.519941      676.36791    
   2164000   286.78745      0.050123105    18.592737      711.52757     -80.706064      630.8215     
   2165000   301.17711      0.050123105    22.460615      747.2287      -77.559671      669.66903    
   2166000   311.53275      0.050123105    34.323822      772.92134     -77.941344      694.98       
   2167000   302.00359      0.050123105    32.228038      749.27922     -76.648239      672.63098    
   2168000   287.38301      0.050123105    21.338029      713.00516     -80.335356      632.66981    
   2169000   297.48922      0.050123105    21.830898      738.07895     -73.857513      664.22143    
   2170000   304.11524      0.050123105    23.453686      754.51829     -76.631106      677.88718    
   2171000   305.54262      0.050123105    25.902433      758.05967     -81.90347       676.1562     
   2172000   301.25477      0.050123105    26.570026      747.42138     -81.839586      665.5818     
   2173000   293.35526      0.050123105    11.119702      727.82249     -74.136845      653.68565    
   2174000   303.22322      0.050123105    20.196639      752.30516     -86.049614      666.25555    
   2175000   308.37944      0.050123105    26.609306      765.09789     -83.003037      682.09485    
   2176000   300.2209       0.050123105    40.247132      744.85632     -80.438117      664.4182     
   2177000   307.38567      0.050123105    21.436337      762.63231     -82.528809      680.1035     
   2178000   308.78348      0.050123105    41.594966      766.10032     -76.975457      689.12486    
   2179000   292.95616      0.050123105    28.069024      726.8323      -78.87618       647.95612    
   2180000   296.8522       0.050123105    20.347151      736.49849     -76.704245      659.79425    
   2181000   321.81949      0.050123105    37.951478      798.44302     -70.626969      727.81606    
   2182000   296.67976      0.050123105    51.343092      736.07067     -74.811199      661.25947    
   2183000   287.04387      0.050123105    17.181354      712.16375     -80.195195      631.96856    
   2184000   306.03717      0.050123105    6.5249225      759.28665     -77.175203      682.11145    
   2185000   305.15898      0.050123105    34.877506      757.10784     -75.249238      681.8586     
   2186000   296.73936      0.050123105    31.37387       736.21854     -78.312587      657.90596    
   2187000   293.26756      0.050123105    33.669998      727.60489     -81.020822      646.58407    
   2188000   289.36288      0.050123105    32.575675      717.91727     -79.537652      638.37962    
   2189000   305.36817      0.050123105    20.6669        757.62685     -72.013784      685.61306    
   2190000   313.7387       0.050123105    21.566524      778.39437     -79.345496      699.04887    
   2191000   288.78275      0.050123105    35.421967      716.47798     -69.887534      646.59044    
   2192000   295.42534      0.050123105    24.80562       732.95842     -69.214106      663.74432    
   2193000   302.09464      0.050123105    20.573156      749.50512     -72.596482      676.90864    
   2194000   300.7797       0.050123105    13.260985      746.24273     -77.067289      669.17544    
   2195000   314.97919      0.050123105    21.543647      781.47205     -77.291718      704.18033    
   2196000   308.01691      0.050123105    26.060456      764.19844     -76.514848      687.68359    
   2197000   287.41025      0.050123105    21.009611      713.07276     -81.376597      631.69616    
   2198000   297.62874      0.050123105    26.351666      738.4251      -82.295697      656.1294     
   2199000   314.44477      0.050123105    30.328163      780.14615     -82.933164      697.21299    
   2200000   326.20247      0.050123105    24.104886      809.31731     -87.313176      722.00414    
   2201000   291.36429      0.050123105    20.026546      722.88284     -92.725875      630.15697    
   2202000   296.84804      0.050123105    28.446572      736.48816     -86.528854      649.9593     
   2203000   310.27183      0.050123105    25.771974      769.79297     -83.974051      685.81891    
   2204000   305.15359      0.050123105    29.649391      757.09447     -85.623082      671.47139    
   2205000   295.93805      0.050123105    20.532355      734.23047     -91.244474      642.98599    
   2206000   310.36569      0.050123105    29.27372       770.02583     -81.586452      688.43938    
   2207000   318.25025      0.050123105    22.242036      789.58764     -94.942296      694.64534    
   2208000   303.96053      0.050123105    30.695512      754.13447     -88.084876      666.04959    
   2209000   287.05265      0.050123105    21.237038      712.18553     -93.664518      618.52102    
   2210000   305.43813      0.050123105    33.275847      757.80041     -95.612746      662.18767    
   2211000   311.62951      0.050123105    34.310351      773.16141     -99.841997      673.31941    
   2212000   311.35551      0.050123105    24.483887      772.48159     -86.819936      685.66166    
   2213000   291.88676      0.050123105    19.883244      724.1791      -85.251202      638.9279     
   2214000   290.6547       0.050123105    26.454377      721.12232     -81.055329      640.06699    
   2215000   306.63251      0.050123105    30.011419      760.76371     -79.809473      680.95424    
   2216000   309.50681      0.050123105    26.490615      767.89492     -82.173408      685.72151    
   2217000   293.47065      0.050123105    12.727098      728.10877     -89.294102      638.81467    
   2218000   298.4319       0.050123105    27.576728      740.41778     -88.011357      652.40642    
   2219000   313.27504      0.050123105    25.836801      777.244       -82.769631      694.47437    
   2220000   309.74047      0.050123105    24.656382      768.47465     -86.100296      682.37436    
   2221000   294.22698      0.050123105    20.375886      729.98524     -73.9686        656.01664    
   2222000   294.90431      0.050123105    49.996322      731.66572     -77.509388      654.15633    
   2223000   314.99515      0.050123105    23.729479      781.51165     -75.868092      705.64356    
   2224000   296.55813      0.050123105    22.794631      735.7689      -79.40404       656.36486    
   2225000   295.56234      0.050123105    34.494503      733.29832     -77.581499      655.71682    
   2226000   309.79691      0.050123105    14.696544      768.61467     -79.38182       689.23285    
   2227000   304.65148      0.050123105    18.715272      755.84871     -75.114018      680.7347     
   2228000   292.58493      0.050123105    11.10824       725.91127     -74.605381      651.30589    
   2229000   299.98016      0.050123105    41.471016      744.25904     -67.751157      676.50788    
   2230000   308.26149      0.050123105    7.2348936      764.80524     -80.105439      684.6998     
   2231000   289.33196      0.050123105    9.5898641      717.84057     -76.018506      641.82206    
   2232000   299.34873      0.050123105    33.908496      742.69245     -71.775657      670.91679    
   2233000   312.44367      0.050123105    29.541685      775.18136     -79.768183      695.41318    
   2234000   296.20738      0.050123105    17.932138      734.89868     -77.976369      656.92232    
   2235000   298.4804       0.050123105    22.247269      740.5381      -86.494018      654.04409    
   2236000   304.62128      0.050123105    39.938795      755.77379     -78.885045      676.88874    
   2237000   302.54637      0.050123105    11.18665       750.62589     -75.958046      674.66785    
   2238000   293.29259      0.050123105    25.09721       727.667       -76.357106      651.30989    
   2239000   306.41889      0.050123105    35.06974       760.23371     -85.882947      674.35076    
   2240000   313.55646      0.050123105    24.406189      777.94221     -91.236504      686.70571    
   2241000   310.6514       0.050123105    26.771844      770.73468     -91.320742      679.41394    
   2242000   291.25501      0.050123105    20.520963      722.61172     -90.774707      631.83701    
   2243000   289.46595      0.050123105    20.507648      718.17301     -91.167048      627.00596    
   2244000   306.21204      0.050123105    23.305857      759.72052     -85.740087      673.98043    
   2245000   297.40901      0.050123105    27.64881       737.87994     -90.684979      647.19496    
   2246000   295.77051      0.050123105    22.464698      733.81478     -90.597322      643.21746    
   2247000   288.2152       0.050123105    27.287444      715.06985     -89.719061      625.35079    
   2248000   298.8923       0.050123105    28.929361      741.56004     -80.434463      661.12557    
   2249000   307.73885      0.050123105    29.611202      763.50858     -77.404492      686.10409    
   2250000   289.6573       0.050123105    22.554631      718.64775     -77.040469      641.60728    
   2251000   291.9869       0.050123105    23.178317      724.42755     -75.508087      648.91946    
   2252000   306.24172      0.050123105    26.505229      759.79415     -75.410983      684.38316    
   2253000   318.76709      0.050123105    28.224244      790.86994     -85.068226      705.80172    
   2254000   291.31488      0.050123105    19.569312      722.76024     -91.246059      631.51418    
   2255000   306.48785      0.050123105    33.166885      760.40479     -95.502263      664.90253    
   2256000   310.01077      0.050123105    28.508638      769.14527     -99.800364      669.34491    
   2257000   294.18454      0.050123105    15.973491      729.87995     -96.222728      633.65722    
   2258000   294.70219      0.050123105    21.910749      731.16425     -97.664138      633.50011    
   2259000   286.40772      0.050123105    20.986227      710.58545     -95.507084      615.07837    
   2260000   293.90688      0.050123105    24.099702      729.19108     -90.068448      639.12263    
   2261000   310.929        0.050123105    28.147485      771.42341     -93.734581      677.68883    
   2262000   289.68211      0.050123105    22.608488      718.7093      -91.555763      627.15353    
   2263000   298.6493       0.050123105    25.468752      740.95716     -93.33535       647.62181    
   2264000   303.13563      0.050123105    22.885454      752.08785     -94.133488      657.95436    
   2265000   286.0068       0.050123105    20.229098      709.59075     -89.586674      620.00407    
   2266000   306.0868       0.050123105    25.50497       759.40979     -88.440255      670.96953    
   2267000   290.55635      0.050123105    18.603038      720.8783      -87.693561      633.18474    
   2268000   314.56521      0.050123105    19.558594      780.44495     -87.171658      693.27329    
   2269000   311.43684      0.050123105    30.224468      772.68338     -80.216876      692.4665     
   2270000   295.44187      0.050123105    23.122392      732.99943     -78.833175      654.16625    
   2271000   289.28266      0.050123105    29.551891      717.71826     -79.214761      638.5035     
   2272000   304.65948      0.050123105    27.6611        755.86858     -71.714939      684.15364    
   2273000   301.10518      0.050123105    27.212861      747.05025     -83.400929      663.64932    
   2274000   299.98787      0.050123105    27.412653      744.27817     -86.198946      658.07922    
   2275000   298.33627      0.050123105    23.2585        740.1805      -79.757008      660.42349    
   2276000   310.82671      0.050123105    21.472029      771.16964     -77.30881       693.86083    
   2277000   307.76489      0.050123105    26.746673      763.57317     -75.521115      688.05205    
   2278000   297.44083      0.050123105    23.276633      737.9589      -81.045062      656.91384    
   2279000   291.97001      0.050123105    20.677046      724.38563     -83.394229      640.9914     
   2280000   307.64203      0.050123105    24.983691      763.26835     -83.86992       679.39842    
   2281000   297.67433      0.050123105    20.266969      738.53822     -86.518332      652.01988    
   2282000   287.17275      0.050123105    28.915086      712.4835      -79.614856      632.86864    
   2283000   311.02947      0.050123105    41.607555      771.67268     -79.728419      691.94426    
   2284000   321.89647      0.050123105    20.761348      798.63401     -83.020634      715.61338    
   2285000   290.96114      0.050123105    22.204684      721.88261     -87.836216      634.0464     
   2286000   293.34213      0.050123105    25.032159      727.78991     -85.578535      642.21137    
   2287000   294.17241      0.050123105    26.521237      729.84985     -89.07049       640.77936    
   2288000   300.68522      0.050123105    26.794754      746.00832     -91.944725      654.06359    
   2289000   323.23178      0.050123105    27.072647      801.94696     -91.26651       710.68045    
   2290000   285.61659      0.050123105    23.8575        708.62264     -83.639656      624.98299    
   2291000   303.02347      0.050123105    26.639711      751.80959     -88.991007      662.81858    
   2292000   302.30078      0.050123105    26.849883      750.01657     -82.347522      667.66905    
   2293000   292.32103      0.050123105    24.324921      725.25654     -82.475517      642.78102    
   2294000   288.13177      0.050123105    22.340771      714.86286     -77.844042      637.01882    
   2295000   300.86621      0.050123105    27.219189      746.45736     -80.483725      665.97364    
   2296000   301.20609      0.050123105    33.4165        747.30062     -74.875364      672.42525    
   2297000   301.04173      0.050123105    22.315216      746.89283     -72.079609      674.81322    
   2298000   291.72123      0.050123105    22.937861      723.76841     -69.35875       654.40966    
   2299000   302.78166      0.050123105    24.080616      751.20964     -73.250665      677.95898    
   2300000   288.17338      0.050123105    26.042896      714.96611     -71.100257      643.86585    
   2301000   302.48306      0.050123105    25.066835      750.46881     -76.90487       673.56394    
   2302000   302.2009       0.050123105    19.908994      749.76876     -73.157565      676.6112     
   2303000   294.04872      0.050123105    37.456042      729.54298     -78.819271      650.72371    
   2304000   299.57505      0.050123105    27.03313       743.25396     -76.110298      667.14366    
   2305000   287.11974      0.050123105    14.215453      712.35198     -73.786061      638.56592    
   2306000   295.10368      0.050123105    4.1558077      732.16036     -72.619161      659.5412     
   2307000   298.19856      0.050123105    29.145373      739.83884     -70.527095      669.31175    
   2308000   308.1492       0.050123105    20.770604      764.52665     -70.207674      694.31897    
   2309000   296.69969      0.050123105    12.887864      736.1201      -75.287613      660.83249    
   2310000   300.32675      0.050123105    33.143721      745.11894     -70.658669      674.46027    
   2311000   298.74741      0.050123105    34.189405      741.20057     -65.390332      675.81024    
   2312000   301.07948      0.050123105    26.212183      746.98649     -66.902806      680.08368    
   2313000   298.77114      0.050123105    8.3980003      741.25943     -68.179782      673.07965    
   2314000   293.24809      0.050123105    32.352662      727.5566      -73.930514      653.62608    
   2315000   302.74631      0.050123105    35.018958      751.12193     -73.183759      677.93817    
   2316000   299.4047       0.050123105    20.448757      742.83131     -71.486324      671.34499    
   2317000   292.08942      0.050123105    21.885487      724.6819      -71.651177      653.03072    
   2318000   290.8635       0.050123105    27.229958      721.64035     -79.065064      642.57529    
   2319000   310.40663      0.050123105    27.507617      770.1274      -80.935175      689.19223    
   2320000   305.79289      0.050123105    25.647352      758.68059     -66.790774      691.88982    
   2321000   302.43849      0.050123105    25.426944      750.35824     -74.175042      676.1832     
   2322000   285.37365      0.050123105    23.898902      708.0199      -77.166548      630.85335    
   2323000   300.31553      0.050123105    17.758156      745.0911      -80.869728      664.22138    
   2324000   317.97344      0.050123105    20.562814      788.90088     -82.777282      706.1236     
   2325000   293.19274      0.050123105    28.815081      727.41926     -81.28926       646.13       
   2326000   301.12497      0.050123105    28.636208      747.09935     -74.113604      672.98575    
   2327000   298.18317      0.050123105    24.617482      739.80066     -75.179592      664.62106    
   2328000   299.25375      0.050123105    26.295358      742.45681     -78.422467      664.03434    
   2329000   300.90806      0.050123105    23.419904      746.5612      -81.50806       665.05314    
   2330000   296.48084      0.050123105    21.051423      735.57714     -79.772985      655.80416    
   2331000   302.30108      0.050123105    21.201126      750.0173      -81.842302      668.175      
   2332000   303.30442      0.050123105    36.482552      752.50662     -79.599128      672.90749    
   2333000   293.06261      0.050123105    20.62635       727.0964      -78.294963      648.80144    
   2334000   288.85817      0.050123105    22.928734      716.66507     -77.661789      639.00328    
   2335000   310.82844      0.050123105    27.20939       771.17393     -76.857765      694.31617    
   2336000   303.52701      0.050123105    26.57833       753.05888     -80.659002      672.39988    
   2337000   299.46191      0.050123105    20.696078      742.97324     -83.172414      659.80083    
   2338000   301.45649      0.050123105    14.437905      747.92186     -82.13541       665.78645    
   2339000   288.56364      0.050123105    19.1729        715.93436     -72.458243      643.47611    
   2340000   290.832        0.050123105    26.56192       721.56221     -75.343186      646.21903    
   2341000   310.89627      0.050123105    29.145051      771.34222     -76.358984      694.98324    
   2342000   307.09759      0.050123105    21.882877      761.91759     -76.043309      685.87428    
   2343000   301.47657      0.050123105    24.22149       747.97168     -77.28215       670.68953    
   2344000   311.83266      0.050123105    25.056553      773.66543     -73.745945      699.91948    
   2345000   299.55334      0.050123105    32.277163      743.2001      -84.323415      658.87668    
   2346000   287.49369      0.050123105    26.018746      713.27976     -79.52037       633.75939    
   2347000   307.93335      0.050123105    25.842298      763.99112     -89.335313      674.65581    
   2348000   304.25414      0.050123105    27.934203      754.86291     -96.448893      658.41402    
   2349000   288.65516      0.050123105    31.270678      716.16142     -90.399467      625.76195    
   2350000   287.89241      0.050123105    25.131134      714.26901     -82.727283      631.54173    
   2351000   302.8246       0.050123105    14.788908      751.31618     -77.18844       674.12774    
   2352000   303.66939      0.050123105    55.55122       753.41214     -64.895862      688.51627    
   2353000   302.92408      0.050123105    47.45266       751.56299     -76.891712      674.67127    
   2354000   302.52573      0.050123105    3.0003045      750.57469     -76.638341      673.93634    
   2355000   309.43243      0.050123105    15.755142      767.71038     -82.677572      685.03281    
   2356000   295.74605      0.050123105    42.455422      733.7541      -80.013394      653.7407     
   2357000   293.34722      0.050123105    6.1557607      727.80254     -83.735768      644.06677    
   2358000   305.05732      0.050123105    21.980312      756.85561     -77.454321      679.40129    
   2359000   303.11403      0.050123105    24.107326      752.03426     -81.737937      670.29632    
   2360000   293.73564      0.050123105    33.627072      728.76622     -81.048186      647.71803    
   2361000   306.66781      0.050123105    26.312242      760.8513      -78.009848      682.84145    
   2362000   294.07484      0.050123105    7.3898709      729.60778     -75.701929      653.90585    
   2363000   301.11578      0.050123105    25.00443       747.07654     -71.89923       675.17731    
   2364000   301.53635      0.050123105    33.063748      748.11998     -79.806751      668.31323    
   2365000   304.94815      0.050123105    19.776278      756.58476     -88.812356      667.7724     
   2366000   312.46427      0.050123105    15.68519       775.23246     -92.529315      682.70315    
   2367000   295.67652      0.050123105    40.786457      733.58161     -90.896204      642.6854     
   2368000   289.25481      0.050123105    4.1992168      717.64916     -93.372045      624.27711    
   2369000   314.18086      0.050123105    34.187369      779.49137     -85.612534      693.87883    
   2370000   305.4644       0.050123105    27.621543      757.8656      -80.170031      677.69557    
   2371000   306.91591      0.050123105    26.246505      761.46683     -85.144368      676.32246    
   2372000   293.692        0.050123105    45.681287      728.65795     -81.964908      646.69304    
   2373000   292.82501      0.050123105    12.017472      726.50691     -87.582608      638.92431    
   2374000   328.06518      0.050123105    30.437586      813.93876     -96.908466      717.0303     
   2375000   306.7836       0.050123105    43.192433      761.13857     -93.993572      667.14499    
   2376000   283.53737      0.050123105    41.15979       703.46404     -92.199467      611.26457    
   2377000   297.77608      0.050123105    22.786294      738.79066     -90.472189      648.31847    
   2378000   296.91675      0.050123105    21.776438      736.65864     -88.670168      647.98847    
   2379000   310.78531      0.050123105    19.897726      771.06691     -87.118608      683.94831    
   2380000   303.3045       0.050123105    27.392571      752.50682     -88.025091      664.48173    
   2381000   280.03162      0.050123105    24.207656      694.76616     -83.294602      611.47156    
   2382000   304.18012      0.050123105    29.297765      754.67926     -87.647278      667.03198    
   2383000   299.57113      0.050123105    23.904769      743.24424     -94.556509      648.68773    
   2384000   298.36698      0.050123105    25.662325      740.2567      -87.025825      653.23087    
   2385000   302.39303      0.050123105    10.097192      750.24543     -94.144356      656.10108    
   2386000   300.66174      0.050123105    20.38535       745.95007     -92.287873      653.6622     
   2387000   291.80595      0.050123105    43.051738      723.97862     -90.022661      633.95595    
   2388000   311.72958      0.050123105    31.438159      773.40967     -97.229887      676.17979    
   2389000   302.99074      0.050123105    14.259368      751.72838     -90.140133      661.58824    
   2390000   304.72495      0.050123105    54.238431      756.03099     -87.111652      668.91934    
   2391000   303.41719      0.050123105    55.919565      752.78641     -88.418498      664.36791    
   2392000   304.483        0.050123105   -5.2438025      755.43071     -85.148168      670.28254    
   2393000   309.55295      0.050123105    34.932247      768.0094      -86.402957      681.60644    
   2394000   298.39269      0.050123105    28.479406      740.32049     -85.879124      654.44137    
   2395000   296.72635      0.050123105    8.0950249      736.18625     -85.814575      650.37168    
   2396000   306.35325      0.050123105    29.178121      760.07085     -75.374037      684.69681    
   2397000   300.20007      0.050123105    26.489279      744.80464     -79.660453      665.14419    
   2398000   308.01038      0.050123105    56.686408      764.18225     -79.626861      684.55539    
   2399000   305.52338      0.050123105    13.902242      758.01194     -84.430148      673.58179    
   2400000   301.41179      0.050123105    28.071861      747.81095     -82.407396      665.40355    
   2401000   319.15192      0.050123105    52.538229      791.82471     -77.722651      714.10206    
   2402000   296.76935      0.050123105    4.6588683      736.29293     -81.292358      655.00057    
   2403000   292.30134      0.050123105    47.239267      725.20769     -87.7698        637.43789    
   2404000   301.16541      0.050123105    17.007586      747.19969     -91.975316      655.22437    
   2405000   301.38255      0.050123105    22.809068      747.73842     -87.274618      660.46381    
   2406000   296.69255      0.050123105    22.149417      736.1024      -83.612008      652.4904     
   2407000   305.11742      0.050123105    28.732364      757.00472     -78.80661       678.19811    
   2408000   292.30544      0.050123105    28.374102      725.21785     -78.377007      646.84084    
   2409000   311.96721      0.050123105    25.044142      773.99925     -80.523938      693.47532    
   2410000   308.43727      0.050123105    25.473051      765.24138     -81.485889      683.75549    
   2411000   301.88003      0.050123105    25.495931      748.97268     -80.820228      668.15245    
   2412000   307.26238      0.050123105    22.469724      762.32644     -93.762996      668.56344    
   2413000   292.26112      0.050123105    27.365385      725.10791     -91.774321      633.33359    
   2414000   302.25547      0.050123105    35.663138      749.90416     -88.336341      661.56781    
   2415000   308.33266      0.050123105    21.326429      764.98183     -92.128806      672.85303    
   2416000   285.16822      0.050123105    27.412805      707.51022     -88.0937        619.41652    
   2417000   303.65042      0.050123105    37.027363      753.36506     -88.633345      664.73172    
   2418000   311.02794      0.050123105    19.688749      771.66889     -90.45139       681.2175     
   2419000   295.14425      0.050123105    21.574043      732.26102     -94.590478      637.67054    
   2420000   288.13976      0.050123105    37.665304      714.88269     -95.328075      619.55461    
   2421000   313.93286      0.050123105    30.563579      778.87607     -95.572807      683.30327    
   2422000   302.40146      0.050123105   -1.8523676      750.26637     -89.798388      660.46798    
   2423000   286.05394      0.050123105    23.722335      709.7077      -97.7514        611.9563     
   2424000   289.6599       0.050123105    34.384268      718.65419     -98.663029      619.99116    
   2425000   327.43548      0.050123105    37.330621      812.37645     -96.578501      715.79795    
   2426000   300.7702       0.050123105    8.5643732      746.21916     -92.298269      653.92089    
   2427000   285.54699      0.050123105    25.846482      708.44996     -84.944812      623.50514    
   2428000   299.81601      0.050123105    33.860748      743.8518      -88.957362      654.89443    
   2429000   323.35635      0.050123105    19.136261      802.25603     -84.768758      717.48727    
   2430000   290.44591      0.050123105    20.533826      720.6043      -78.839958      641.76435    
   2431000   289.38657      0.050123105    30.594954      717.97607     -78.318119      639.65795    
   2432000   310.13541      0.050123105    29.268192      769.45451     -83.490194      685.96432    
   2433000   309.69806      0.050123105    26.144469      768.36942     -76.378969      691.99045    
   2434000   296.06056      0.050123105    14.279803      734.5344      -85.712434      648.82197    
   2435000   285.25452      0.050123105    26.532357      707.72432     -90.723604      617.00072    
   2436000   313.79728      0.050123105    22.715348      778.53969     -93.070061      685.46963    
   2437000   301.0312       0.050123105    25.562897      746.86669     -96.943447      649.92325    
   2438000   297.85439      0.050123105    21.252688      738.98494     -92.386261      646.59868    
   2439000   305.44816      0.050123105    18.881881      757.8253      -91.347736      666.47757    
   2440000   293.73513      0.050123105    27.066902      728.76495     -94.662217      634.10273    
   2441000   295.91405      0.050123105    29.309873      734.17092     -87.317651      646.85327    
   2442000   285.37885      0.050123105    16.07082       708.03279     -88.976859      619.05593    
   2443000   305.90875      0.050123105    21.34242       758.96805     -86.060885      672.90716    
   2444000   317.24146      0.050123105    31.985838      787.0848      -80.616595      706.4682     
   2445000   290.45159      0.050123105    26.27298       720.61841     -75.505576      645.11284    
   2446000   282.7515       0.050123105    26.020852      701.51426     -83.789481      617.72478    
   2447000   304.29798      0.050123105    31.425126      754.97168     -76.388683      678.58299    
   2448000   309.98016      0.050123105    26.518896      769.06932     -74.965658      694.10366    
   2449000   294.15788      0.050123105    40.444872      729.81381     -83.402354      646.41145    
   2450000   288.18351      0.050123105    25.807884      714.99124     -81.504841      633.4864     
   2451000   310.26992      0.050123105    23.162807      769.78823     -88.339223      681.44901    
   2452000   304.95235      0.050123105    32.286326      756.5952      -84.949565      671.64563    
   2453000   278.26369      0.050123105    38.9269        690.37989     -80.539864      609.84002    
   2454000   287.14561      0.050123105    16.738703      712.41618     -72.873539      639.54264    
   2455000   302.194        0.050123105    21.056345      749.75165     -76.584103      673.16754    
   2456000   314.23436      0.050123105    56.08681       779.62411     -80.354535      699.26958    
   2457000   291.56762      0.050123105    26.992431      723.38731     -83.446813      639.9405     
   2458000   306.00542      0.050123105    16.800915      759.20789     -78.41095       680.79694    
   2459000   298.61536      0.050123105    50.022516      740.87295     -78.737797      662.13515    
   2460000   288.24072      0.050123105    28.408072      715.13316     -77.138282      637.99488    
   2461000   309.55103      0.050123105    13.701424      768.00464     -77.470273      690.53437    
   2462000   309.25648      0.050123105    40.626326      767.27385     -73.447913      693.82594    
   2463000   284.73344      0.050123105    19.349369      706.43151     -80.187607      626.2439     
   2464000   292.675        0.050123105    18.078988      726.13475     -81.246837      644.88791    
   2465000   309.51079      0.050123105    26.337269      767.90481     -85.0455        682.85931    
   2466000   300.79029      0.050123105    27.229097      746.26899     -89.264631      657.00436    
   2467000   291.11731      0.050123105    13.969775      722.27007     -95.22904       627.04103    
   2468000   304.73109      0.050123105    12.791662      756.04625     -89.468515      666.57773    
   2469000   312.40102      0.050123105    47.351895      775.07554     -86.464106      688.61143    
   2470000   292.10768      0.050123105    32.031385      724.72722     -90.440843      634.28637    
   2471000   296.27653      0.050123105    6.8354509      735.07023     -94.983057      640.08717    
   2472000   305.36346      0.050123105    38.26958       757.61515     -93.991026      663.62413    
   2473000   301.84629      0.050123105    19.389253      748.88897     -85.739204      663.14977    
   2474000   304.61363      0.050123105    14.940251      755.75482     -84.909963      670.84486    
   2475000   321.19413      0.050123105    40.856118      796.8915      -85.164567      711.72693    
   2476000   306.34065      0.050123105    22.614332      760.03959     -99.3344        660.70519    
   2477000   301.13597      0.050123105    19.659709      747.12664     -93.098627      654.02801    
   2478000   304.13743      0.050123105    25.929503      754.57334     -97.58012       656.99322    
   2479000   291.04849      0.050123105    29.773024      722.09934     -88.501752      633.59759    
   2480000   303.77144      0.050123105    12.355034      753.66531     -90.421406      663.2439     
   2481000   297.50893      0.050123105    17.522795      738.12786     -97.801968      640.3259     
   2482000   296.13166      0.050123105    24.122034      734.71081     -92.073475      642.63734    
   2483000   314.27479      0.050123105    36.2727        779.72441     -94.139159      685.58525    
   2484000   291.19967      0.050123105    25.851028      722.47441     -96.580546      625.89387    
   2485000   290.70138      0.050123105    24.940862      721.23815     -98.510683      622.72746    
   2486000   309.54859      0.050123105    26.677999      767.99859     -95.477697      672.52089    
   2487000   309.65168      0.050123105    27.066083      768.25435     -92.12588       676.12847    
   2488000   300.18247      0.050123105    21.905621      744.76098     -94.750554      650.01042    
   2489000   290.43303      0.050123105    24.230745      720.57235     -93.770904      626.80145    
   2490000   314.8401       0.050123105    22.840222      781.12698     -98.360031      682.76694    
   2491000   306.39336      0.050123105    25.558731      760.17037     -94.490592      665.67978    
   2492000   287.52901      0.050123105    20.753303      713.3674      -93.316019      620.05138    
   2493000   295.49482      0.050123105    22.375213      733.1308      -94.122182      639.00861    
   2494000   305.73791      0.050123105    29.075075      758.54419     -99.962224      658.58197    
   2495000   302.49301      0.050123105    23.132931      750.4935      -86.785311      663.70819    
   2496000   294.29857      0.050123105    5.2689469      730.16286     -93.199812      636.96304    
   2497000   292.21819      0.050123105    26.522814      725.00137     -87.565147      637.43623    
   2498000   309.05708      0.050123105    28.590539      766.77913     -81.586059      685.19307    
   2499000   305.68404      0.050123105    25.659374      758.41053     -84.825018      673.58551    
   2500000   294.42609      0.050123105    23.180967      730.47925     -87.226916      643.25234    
   2501000   303.51414      0.050123105    16.362763      753.02695     -83.654645      669.3723     
   2502000   296.47733      0.050123105    18.710695      735.56842     -90.279046      645.28938    
   2503000   287.91178      0.050123105    28.762015      714.31707     -86.082059      628.23501    
   2504000   297.41907      0.050123105    25.12859       737.90491     -93.669107      644.2358     
   2505000   304.57594      0.050123105    23.122368      755.6613      -86.051848      669.60945    
   2506000   305.45814      0.050123105    21.958924      757.85006     -82.780538      675.06952    
   2507000   288.23687      0.050123105    24.905171      715.12362     -81.542586      633.58103    
   2508000   291.29171      0.050123105    23.781831      722.70277     -82.711324      639.99145    
   2509000   313.51329      0.050123105    23.776201      777.83512     -81.599544      696.23558    
   2510000   296.9485       0.050123105    24.305179      736.73741     -80.207042      656.53037    
   2511000   300.53176      0.050123105    30.073126      745.62757     -78.531898      667.09567    
   2512000   312.82376      0.050123105    25.872412      776.12437     -87.715004      688.40937    
   2513000   300.50261      0.050123105    19.54728       745.55525     -74.38251       671.17274    
   2514000   285.73774      0.050123105    25.493557      708.92321     -77.019502      631.9037     
   2515000   295.73839      0.050123105    31.197878      733.73509     -76.472575      657.26251    
   2516000   307.19443      0.050123105    29.092128      762.15786     -80.862792      681.29506    
   2517000   295.87189      0.050123105    28.187715      734.0663      -84.900645      649.16566    
   2518000   306.43497      0.050123105    23.706268      760.27361     -77.956173      682.31744    
   2519000   305.5769       0.050123105    23.130497      758.14472     -85.748107      672.39661    
   2520000   301.46554      0.050123105    23.566472      747.94432     -87.803434      660.14089    
   2521000   295.63849      0.050123105    22.710353      733.48725     -83.701986      649.78527    
   2522000   294.9123       0.050123105    23.204         731.68555     -87.872972      643.81258    
   2523000   312.91172      0.050123105    49.528062      776.3426      -85.969298      690.3733     
   2524000   303.15548      0.050123105    18.198671      752.1371      -84.512742      667.62436    
   2525000   281.39289      0.050123105    17.031089      698.1435      -90.124434      608.01907    
   2526000   303.56814      0.050123105    29.797676      753.16092     -81.926711      671.23421    
   2527000   310.03128      0.050123105    38.532556      769.19614     -74.521994      694.67415    
   2528000   316.2066       0.050123105    27.183932      784.51729     -71.121574      713.39572    
   2529000   301.35724      0.050123105    21.717511      747.67562     -75.994425      671.6812     
   2530000   287.87957      0.050123105    24.733111      714.23714     -75.975468      638.26167    
   2531000   306.96228      0.050123105    19.972929      761.58188     -82.827651      678.75422    
   2532000   308.92721      0.050123105    28.174151      766.45692     -80.44672       686.0102     
   2533000   303.64747      0.050123105    23.609585      753.35775     -84.87435       668.4834     
   2534000   280.80247      0.050123105    22.793559      696.67867     -78.698081      617.98059    
   2535000   303.99222      0.050123105    24.554794      754.21307     -80.471891      673.74118    
   2536000   296.61749      0.050123105    24.984551      735.91617     -78.277176      657.63899    
   2537000   303.65809      0.050123105    27.545273      753.38408     -80.142463      673.24162    
   2538000   300.4469       0.050123105    21.796876      745.41703     -82.386912      663.03012    
   2539000   295.62762      0.050123105    18.518163      733.46026     -74.539411      658.92085    
   2540000   295.88727      0.050123105    36.103149      734.10447     -75.564132      658.54034    
   2541000   309.79888      0.050123105    25.22484       768.61955     -72.075708      696.54384    
   2542000   300.40889      0.050123105    19.998615      745.32273     -78.171175      667.15155    
   2543000   291.42278      0.050123105    25.615974      723.02796     -83.044278      639.98368    
   2544000   294.75391      0.050123105    27.787259      731.29258     -78.683789      652.60879    
   2545000   303.83472      0.050123105    27.399884      753.82233     -73.847969      679.97436    
   2546000   311.96429      0.050123105    8.2764718      773.99201     -84.026535      689.96548    
   2547000   308.308        0.050123105    20.02755       764.92065     -79.123905      685.79674    
   2548000   289.69812      0.050123105    15.962804      718.74903     -83.894221      634.8548     
   2549000   297.52064      0.050123105    27.977459      738.15692     -83.459309      654.69761    
   2550000   299.23803      0.050123105    13.80629       742.41781     -75.353404      667.06441    
   2551000   300.17568      0.050123105    28.942861      744.74415     -78.667433      666.07672    
   2552000   318.64735      0.050123105    24.507342      790.57285     -78.204204      712.36865    
   2553000   292.59357      0.050123105    15.809125      725.93271     -78.955655      646.97705    
   2554000   295.93575      0.050123105    34.068679      734.22475     -79.009529      655.21522    
   2555000   308.87202      0.050123105    24.825491      766.31999     -78.843549      687.47644    
   2556000   305.58476      0.050123105    22.927166      758.16422     -83.768716      674.3955     
   2557000   299.36594      0.050123105    27.206087      742.73516     -79.459333      663.27582    
   2558000   303.12228      0.050123105    26.088638      752.05474     -88.967508      663.08723    
   2559000   304.32572      0.050123105    27.634033      755.04051     -79.882463      675.15805    
   2560000   295.22799      0.050123105    20.440224      732.46877     -82.467072      650.0017     
   2561000   304.70429      0.050123105    21.982617      755.97974     -79.968518      676.01122    
   2562000   297.11587      0.050123105    22.569887      737.15266     -83.96291       653.18975    
   2563000   297.49087      0.050123105    25.899909      738.08305     -79.249728      658.83333    
   2564000   321.87243      0.050123105    24.477629      798.57438     -82.552907      716.02147    
   2565000   299.43162      0.050123105    23.91834       742.89811     -84.438418      658.45969    
   2566000   288.91087      0.050123105    45.7652        716.79582     -85.235727      631.56009    
   2567000   308.77118      0.050123105    51.731889      766.06981     -88.383647      677.68616    
   2568000   305.39955      0.050123105    1.9303131      757.70469     -88.306581      669.39811    
   2569000   305.45228      0.050123105   -8.4594979      757.83554     -79.665791      678.16975    
   2570000   298.10631      0.050123105    20.274856      739.60997     -84.511929      655.09804    
   2571000   287.26463      0.050123105    31.051286      712.71146     -91.126641      621.58482    
   2572000   295.68832      0.050123105    25.075827      733.61087     -90.16768       643.44319    
   2573000   308.92246      0.050123105    20.429786      766.44514     -83.633372      682.81177    
   2574000   300.39757      0.050123105    19.899126      745.29465     -96.96257       648.33208    
   2575000   283.55613      0.050123105    34.25173       703.51057     -88.095307      615.41526    
   2576000   309.73836      0.050123105    32.569193      768.46941     -88.91473       679.55468    
   2577000   311.15933      0.050123105    26.761014      771.99489     -83.790014      688.20487    
   2578000   300.2794       0.050123105    17.536873      745.00148     -89.002145      655.99933    
   2579000   289.07962      0.050123105    25.37335       717.21451     -82.505899      634.70861    
   2580000   287.87307      0.050123105    26.042382      714.22102     -81.564277      632.65674    
   2581000   312.56576      0.050123105    24.106751      775.48426     -80.57974       694.90452    
   2582000   306.0545       0.050123105    8.9489841      759.32964     -81.866985      677.46266    
   2583000   282.78258      0.050123105    13.677461      701.59137     -73.625498      627.96587    
   2584000   307.62333      0.050123105    34.330436      763.22197     -72.530294      690.69167    
   2585000   308.33126      0.050123105    18.0864        764.97835     -75.513851      689.4645     
   2586000   295.82601      0.050123105    2.1898365      733.95248     -74.001712      659.95076    
   2587000   285.97258      0.050123105    31.727308      709.50585     -73.033113      636.47273    
   2588000   309.75655      0.050123105    32.902592      768.51453     -70.86145       697.65308    
   2589000   306.04868      0.050123105    18.59979       759.3152      -70.409322      688.90588    
   2590000   292.15831      0.050123105    30.630438      724.85283     -66.44954       658.40329    
   2591000   304.01815      0.050123105    45.076906      754.2774      -69.74494       684.53246    
   2592000   311.75266      0.050123105    20.338334      773.46694     -74.34255       699.12439    
   2593000   297.03493      0.050123105   -8.8396854      736.95185     -75.884268      661.06758    
   2594000   291.22823      0.050123105    13.255178      722.54526     -73.487289      649.05797    
   2595000   290.33367      0.050123105    23.936537      720.32583     -79.633721      640.69211    
   2596000   292.91564      0.050123105    43.346668      726.73178     -76.305925      650.42585    
   2597000   313.04488      0.050123105    41.425667      776.67298     -72.670713      704.00227    
   2598000   305.58377      0.050123105    24.317521      758.16176     -68.78708       689.37468    
   2599000   294.84278      0.050123105    23.820679      731.51307     -68.325551      663.18752    
   2600000   302.99553      0.050123105    31.946174      751.74026     -69.687273      682.05298    
   2601000   312.35775      0.050123105   -14.183777      774.96819     -72.421028      702.54716    
   2602000   296.27132      0.050123105    5.7406142      735.05731     -74.133452      660.92386    
   2603000   301.39777      0.050123105    27.04706       747.77616     -85.366078      662.41009    
   2604000   318.71102      0.050123105    9.4427165      790.73083     -88.76045       701.97038    
   2605000   310.79588      0.050123105    17.368879      771.09314     -84.28846       686.80468    
   2606000   290.30218      0.050123105    24.353585      720.24772     -87.732203      632.51552    
   2607000   303.13431      0.050123105    33.94589       752.08458     -81.541985      670.54259    
   2608000   306.31912      0.050123105    23.543091      759.98618     -74.05372       685.93246    
   2609000   299.99913      0.050123105    26.370457      744.3061      -72.652365      671.65374    
   2610000   292.48832      0.050123105    21.307443      725.67157     -77.149079      648.52249    
   2611000   309.75609      0.050123105    27.790887      768.51339     -82.901859      685.61153    
   2612000   288.21293      0.050123105    30.497907      715.06422     -81.177215      633.887      
   2613000   299.76002      0.050123105    23.113717      743.71287     -79.887675      663.82519    
   2614000   298.27383      0.050123105    21.563942      740.02561     -84.32603       655.69958    
   2615000   302.15778      0.050123105    25.894199      749.66179     -91.379951      658.28184    
   2616000   296.12776      0.050123105    24.217441      734.70113     -91.552347      643.14878    
   2617000   303.22258      0.050123105    24.290221      752.30358     -88.191886      664.1117     
   2618000   311.23246      0.050123105    26.815116      772.17632     -84.28529       687.89103    
   2619000   300.86481      0.050123105    25.556424      746.45389     -84.570163      661.88373    
   2620000   298.46976      0.050123105    28.199948      740.51171     -91.508846      649.00287    
   2621000   303.44921      0.050123105    32.404821      752.86585     -84.576002      668.28985    
   2622000   302.25362      0.050123105    28.544048      749.89957     -87.876095      662.02348    
   2623000   288.65609      0.050123105    9.2925946      716.16373     -86.255104      629.90862    
   2624000   293.88135      0.050123105    18.066043      729.12773     -75.393718      653.73401    
   2625000   296.42588      0.050123105    30.159615      735.44079     -79.303605      656.13718    
   2626000   296.39989      0.050123105    33.597596      735.3763      -80.83967       654.53663    
   2627000   292.78652      0.050123105    22.42142       726.41144     -84.138421      642.27301    
   2628000   285.31092      0.050123105    17.988443      707.86427     -78.59697       629.2673     
   2629000   305.08651      0.050123105    15.819535      756.92804     -94.290589      662.63745    
   2630000   301.21765      0.050123105    25.661841      747.32929     -87.60206       659.72723    
   2631000   289.95263      0.050123105    20.20423       719.38048     -90.203968      629.17651    
   2632000   308.20314      0.050123105    26.130292      764.66048     -88.14731       676.51317    
   2633000   300.44484      0.050123105    28.320565      745.41193     -92.084709      653.32723    
   2634000   293.92234      0.050123105    27.613495      729.22943     -81.488127      647.7413     
   2635000   298.19003      0.050123105    25.27326       739.81768     -91.337788      648.47989    
   2636000   299.96717      0.050123105    24.320103      744.22682     -88.867727      655.35909    
   2637000   306.07986      0.050123105    25.142178      759.39257     -92.954427      666.43814    
   2638000   301.05982      0.050123105    13.29205       746.93771     -92.75154       654.18617    
   2639000   295.39972      0.050123105    23.002589      732.89486     -94.766136      638.12872    
   2640000   301.66658      0.050123105    29.10325       748.4431      -85.121479      663.32162    
   2641000   305.48829      0.050123105    37.426634      757.92486     -89.240705      668.68415    
   2642000   304.93799      0.050123105    20.673701      756.55956     -91.017631      665.54193    
   2643000   306.19484      0.050123105    21.212474      759.67783     -83.610159      676.06767    
   2644000   301.77066      0.050123105    18.59209       748.70133     -90.890222      657.81111    
   2645000   313.61119      0.050123105    42.200067      778.07802     -80.598033      697.47999    
   2646000   293.36184      0.050123105    18.349299      727.8388      -86.093603      641.7452     
   2647000   303.52218      0.050123105    15.930718      753.04689     -87.318499      665.72839    
   2648000   297.27077      0.050123105    24.823829      737.53699     -81.048648      656.48834    
   2649000   296.78036      0.050123105    38.196931      736.32025     -84.805028      651.51522    
   2650000   292.6824       0.050123105    10.052291      726.1531      -89.07996       637.07314    
   2651000   304.44781      0.050123105    22.738559      755.34341     -87.608528      667.73488    
   2652000   302.22635      0.050123105    44.805264      749.83192     -87.753769      662.07815    
   2653000   315.60091      0.050123105    43.321845      783.01455     -81.108713      701.90584    
   2654000   296.76759      0.050123105    37.475493      736.28857     -85.344557      650.94402    
   2655000   298.08239      0.050123105    30.38326       739.55063     -85.186344      654.36429    
   2656000   291.48241      0.050123105   -9.1833459      723.17589     -86.365762      636.81012    
   2657000   310.51793      0.050123105   -10.53259       770.40354     -80.332266      690.07127    
   2658000   302.49297      0.050123105    21.377166      750.49341     -79.300562      671.19285    
   2659000   324.60252      0.050123105    45.302571      805.34781     -83.466988      721.88082    
   2660000   293.41604      0.050123105    29.024339      727.97329     -91.514457      636.45883    
   2661000   297.57624      0.050123105    20.980573      738.29484     -90.817279      647.47756    
   2662000   319.60536      0.050123105    26.811094      792.94971     -90.384649      702.56506    
   2663000   299.34883      0.050123105    54.875635      742.6927      -83.611585      659.08111    
   2664000   290.68451      0.050123105    19.971634      721.19627     -84.221239      636.97503    
   2665000   321.98047      0.050123105    17.950889      798.84242     -71.362013      727.48041    
   2666000   308.35773      0.050123105    21.678455      765.04402     -69.873251      695.17077    
   2667000   294.4461       0.050123105    35.156798      730.5289      -76.200665      654.32824    
   2668000   301.67854      0.050123105    12.246101      748.47276     -87.645224      660.82754    
   2669000   310.62825      0.050123105    26.572267      770.67726     -85.501064      685.17619    
   2670000   294.78277      0.050123105    27.054916      731.36419     -85.051193      646.313      
   2671000   296.61526      0.050123105    42.285767      735.91063     -85.950417      649.96021    
   2672000   297.79337      0.050123105    26.048525      738.83357     -88.776025      650.05755    
   2673000   301.81236      0.050123105    16.602196      748.80479     -89.413934      659.39086    
   2674000   292.92095      0.050123105    42.116209      726.74496     -76.149821      650.59514    
   2675000   297.00183      0.050123105    22.115317      736.86972     -78.278019      658.5917     
   2676000   305.72289      0.050123105    11.751105      758.50692     -86.270572      672.23635    
   2677000   297.91432      0.050123105    27.564438      739.13364     -74.090995      665.04265    
   2678000   302.22783      0.050123105    27.785784      749.83557     -70.12716       679.70841    
   2679000   290.72673      0.050123105    22.85001       721.30104     -77.989875      643.31117    
   2680000   301.16196      0.050123105    24.625203      747.19113     -84.260131      662.931      
   2681000   285.02339      0.050123105    26.761518      707.15089     -83.272064      623.87883    
   2682000   300.67942      0.050123105    25.31672       745.99394     -88.229739      657.7642     
   2683000   296.20189      0.050123105    27.573651      734.88506     -85.197293      649.68777    
   2684000   318.13522      0.050123105    38.908509      789.30224     -86.864533      702.43771    
   2685000   304.08965      0.050123105    13.65413       754.45482     -87.36639       667.08843    
   2686000   293.93819      0.050123105    25.882306      729.26876     -80.052056      649.21671    
   2687000   300.66366      0.050123105    24.206869      745.95484     -86.334882      659.61996    
   2688000   313.06297      0.050123105    20.052152      776.71787     -85.272089      691.44578    
   2689000   293.96795      0.050123105    23.276276      729.34258     -88.331691      641.01089    
   2690000   302.11326      0.050123105    32.225058      749.55132     -85.633669      663.91765    
   2691000   299.4343       0.050123105    21.363433      742.90475     -83.532524      659.37222    
   2692000   298.95786      0.050123105    26.513785      741.7227      -81.763822      659.95888    
   2693000   299.93172      0.050123105    29.045008      744.13886     -87.33197       656.80689    
   2694000   304.77035      0.050123105    24.94152       756.14364     -90.47627       665.66737    
   2695000   299.38946      0.050123105    24.212973      742.79351     -88.840464      653.95304    
   2696000   303.18636      0.050123105    26.132659      752.21371     -86.918769      665.29494    
   2697000   304.71216      0.050123105    29.330628      755.99928     -91.218863      664.78042    
   2698000   303.24621      0.050123105    22.865275      752.3622      -85.736998      666.6252     
   2699000   295.89275      0.050123105    25.062452      734.11807     -80.230967      653.8871     
   2700000   304.7542       0.050123105    24.759927      756.10357     -77.53878       678.56479    
   2701000   308.29081      0.050123105    23.012329      764.87799     -77.283571      687.59442    
   2702000   300.16516      0.050123105    22.612899      744.71804     -74.799334      669.91871    
   2703000   289.28039      0.050123105    21.658829      717.71263     -89.331489      628.38114    
   2704000   297.38077      0.050123105    29.816196      737.80989     -85.183706      652.62619    
   2705000   314.40091      0.050123105    26.60106       780.03732     -81.906696      698.13063    
   2706000   293.344        0.050123105    22.266031      727.79454     -73.482485      654.31206    
   2707000   286.69343      0.050123105    37.448649      711.2943      -80.206374      631.08792    
   2708000   309.1977       0.050123105    21.254031      767.12801     -90.65387       676.47414    
   2709000   285.54763      0.050123105    22.098491      708.45153     -85.779859      622.67167    
   2710000   300.39828      0.050123105    30.09837       745.29641     -82.23937       663.05704    
   2711000   311.92354      0.050123105    27.244771      773.89091     -86.63989       687.25102    
   2712000   295.34734      0.050123105    24.162856      732.76488     -90.44113       642.32375    
   2713000   296.67315      0.050123105    29.778895      736.05427     -96.893889      639.16038    
   2714000   300.14218      0.050123105    21.626341      744.66102     -92.357357      652.30366    
   2715000   296.78803      0.050123105    28.481718      736.33929     -89.892198      646.44709    
   2716000   308.81017      0.050123105    25.694026      766.16655     -92.995984      673.17057    
   2717000   294.11721      0.050123105    26.367615      729.71291     -91.057161      638.65575    
   2718000   277.83516      0.050123105    22.065237      689.3167      -92.384679      596.93202    
   2719000   289.98298      0.050123105    19.641225      719.45576     -88.827283      630.62847    
   2720000   317.29031      0.050123105    29.196775      787.20601     -92.263096      694.94291    
   2721000   300.80474      0.050123105    25.261147      746.30486     -99.779865      646.52499    
   2722000   274.90265      0.050123105    21.253294      682.04106     -93.304791      588.73627    
   2723000   295.4123       0.050123105    23.957719      732.92607     -88.961214      643.96485    
   2724000   314.56009      0.050123105    19.848265      780.43225     -92.876042      687.55621    
   2725000   305.38441      0.050123105    26.312497      757.66714     -95.283029      662.38411    
   2726000   279.6595       0.050123105    22.762252      693.84293     -86.614209      607.22872    
   2727000   296.90181      0.050123105    14.912094      736.62156     -89.899487      646.72208    
   2728000   305.83756      0.050123105    14.869255      758.79142     -96.175444      662.61597    
   2729000   297.24549      0.050123105    27.082631      737.47426     -90.165249      647.30902    
   2730000   285.78259      0.050123105    25.0959        709.03448     -89.993786      619.04069    
   2731000   308.20338      0.050123105    24.714022      764.66108     -91.134618      673.52646    
   2732000   307.15336      0.050123105    25.887421      762.05595     -90.265197      671.79075    
   2733000   298.56322      0.050123105    20.611098      740.74357     -80.554858      660.18871    
   2734000   293.26234      0.050123105    20.373919      727.59196     -83.658385      643.93357    
   2735000   286.8121       0.050123105    25.111247      711.58873     -89.515224      622.07351    
   2736000   299.44198      0.050123105    25.020952      742.9238      -80.782485      662.14131    
   2737000   273.55356      0.050123105    21.591556      678.69393     -95.881068      582.81286    
   2738000   299.19238      0.050123105    29.686807      742.30454     -93.894604      648.40993    
   2739000   315.74466      0.050123105    20.598424      783.37121     -94.069596      689.30161    
   2740000   284.71769      0.050123105    22.716394      706.39245     -95.011271      611.38118    
   2741000   287.61298      0.050123105    26.638946      713.57574     -92.078908      621.49683    
   2742000   297.52137      0.050123105    28.895874      738.15873     -92.140787      646.01794    
   2743000   325.44304      0.050123105    31.836612      807.43316     -90.853394      716.57976    
   2744000   293.0938       0.050123105    21.561849      727.17379     -92.850092      634.32369    
   2745000   300.24918      0.050123105    24.592523      744.92648     -91.031363      653.89512    
   2746000   311.27501      0.050123105    26.649874      772.28188     -83.12493       689.15695    
   2747000   285.22888      0.050123105    23.412779      707.66071     -84.59044       623.07027    
   2748000   304.97862      0.050123105    26.950854      756.66036     -84.241682      672.41868    
   2749000   316.04411      0.050123105    29.017331      784.11415     -79.931095      704.18306    
   2750000   286.42188      0.050123105    16.588546      710.62058     -85.689895      624.93068    
   2751000   294.37326      0.050123105    42.732118      730.34818     -79.23854       651.10964    
   2752000   311.69605      0.050123105    32.710249      773.3265      -79.839627      693.48687    
   2753000   310.80746      0.050123105    26.598803      771.12189     -81.123245      689.99864    
   2754000   290.30065      0.050123105    24.778546      720.2439      -91.082046      629.16186    
   2755000   301.12721      0.050123105    24.144884      747.1049      -87.576486      659.52841    
   2756000   313.92363      0.050123105    23.286342      778.85317     -92.697813      686.15536    
   2757000   292.11342      0.050123105    27.395876      724.74144     -88.35259       636.38885    
   2758000   295.20496      0.050123105    23.126123      732.41165     -87.392617      645.01904    
   2759000   292.63896      0.050123105    22.148137      726.04534     -78.695927      647.34941    
   2760000   300.06962      0.050123105    20.477945      744.48101     -82.060578      662.42043    
   2761000   302.96088      0.050123105    23.03022       751.65429     -82.68105       668.97324    
   2762000   293.92066      0.050123105    33.049035      729.22526     -85.383925      643.84133    
   2763000   299.96114      0.050123105    24.595228      744.21185     -84.863499      659.34835    
   2764000   309.89473      0.050123105    19.305357      768.85737     -83.462484      685.39488    
   2765000   304.9226       0.050123105    29.909599      756.52137     -77.274673      679.2467     
   2766000   294.75039      0.050123105    24.425966      731.28384     -85.763876      645.51996    
   2767000   303.93322      0.050123105    5.8822294      754.06669     -80.165395      673.90129    
   2768000   304.44903      0.050123105    37.718806      755.34644     -80.378251      674.96819    
   2769000   301.01368      0.050123105    26.961083      746.82323     -86.87214       659.95109    
   2770000   295.20644      0.050123105    22.260537      732.41531     -87.087612      645.3277     
   2771000   312.50421      0.050123105    9.7535044      775.33156     -88.540717      686.79085    
   2772000   311.75106      0.050123105    28.194503      773.46298     -89.088074      684.3749     
   2773000   297.38678      0.050123105    27.356723      737.8248      -80.392236      657.43256    
   2774000   299.23375      0.050123105    24.511314      742.40719     -84.466974      657.94022    
   2775000   307.73873      0.050123105    24.131312      763.50828     -81.175039      682.33324    
   2776000   296.43762      0.050123105    23.31222       735.4699      -85.668762      649.80113    
   2777000   290.99472      0.050123105    20.647585      721.96592     -86.219694      635.74623    
   2778000   297.60524      0.050123105    40.720482      738.3668      -83.123815      655.24298    
   2779000   317.32624      0.050123105    26.476249      787.29514     -91.037298      696.25785    
   2780000   296.70912      0.050123105    19.303477      736.14349     -86.991474      649.15202    
   2781000   289.1354       0.050123105    23.679084      717.35291     -81.884048      635.46886    
   2782000   302.69637      0.050123105    22.990972      750.99805     -85.032936      665.96511    
   2783000   306.98508      0.050123105    46.041168      761.63845     -87.15199       674.48646    
   2784000   303.81348      0.050123105    27.795488      753.76962     -93.571635      660.19799    
   2785000   297.22124      0.050123105    20.262366      737.4141      -91.505616      645.90849    
   2786000   297.34581      0.050123105    42.519822      737.72316     -91.922225      645.80093    
   2787000   307.33789      0.050123105    27.422483      762.51377     -90.542543      671.97123    
   2788000   305.93569      0.050123105    16.306176      759.03488     -86.065119      672.96976    
   2789000   290.87871      0.050123105    23.910114      721.6781      -90.318747      631.35935    
   2790000   298.54899      0.050123105    26.69366       740.70827     -82.489013      658.21926    
   2791000   306.20009      0.050123105    27.906439      759.69085     -79.573168      680.11769    
   2792000   304.01984      0.050123105    26.007741      754.28159     -86.808296      667.4733     
   2793000   295.62909      0.050123105    15.040991      733.46392     -82.127594      651.33633    
   2794000   294.6223       0.050123105    21.38414       730.96604     -88.462218      642.50382    
   2795000   298.56272      0.050123105    43.41916       740.74234     -89.702267      651.04007    
   2796000   294.57162      0.050123105    27.597132      730.84031     -85.790602      645.0497     
   2797000   314.69679      0.050123105    47.022208      780.7714      -92.008954      688.76245    
   2798000   304.88386      0.050123105    20.810043      756.42526     -83.359498      673.06576    
   2799000   294.00859      0.050123105    14.620805      729.44342     -86.667842      642.77557    
   2800000   295.60682      0.050123105    24.902338      733.40868     -86.823655      646.58502    
   2801000   304.46322      0.050123105    40.749622      755.38164     -79.173869      676.20777    
   2802000   310.10787      0.050123105    18.148142      769.38617     -83.244752      686.14142    
   2803000   291.05404      0.050123105    15.135234      722.11309     -81.428357      640.68474    
   2804000   287.11416      0.050123105    24.887465      712.33814     -88.588768      623.74938    
   2805000   309.96992      0.050123105    26.834796      769.04391     -81.851651      687.19226    
   2806000   309.82192      0.050123105    29.621356      768.67672     -90.396002      678.28072    
   2807000   288.7771       0.050123105    23.786523      716.46394     -93.491884      622.97205    
   2808000   307.10532      0.050123105    26.414167      761.93676     -84.506434      677.43033    
   2809000   303.43893      0.050123105    26.947453      752.84034     -94.928644      657.9117     
   2810000   288.06319      0.050123105    26.473228      714.69271     -88.387135      626.30557    
   2811000   299.79957      0.050123105    24.303507      743.81099     -88.083334      655.72766    
   2812000   296.33984      0.050123105    24.697579      735.22732     -88.975381      646.25194    
   2813000   305.51642      0.050123105    29.608976      757.99466     -90.188948      667.80571    
   2814000   305.09182      0.050123105    22.498495      756.94121     -86.324164      670.61704    
   2815000   297.135        0.050123105    28.293353      737.20013     -75.634479      661.56565    
   2816000   313.99443      0.050123105    29.410031      779.02883     -76.239434      702.7894     
   2817000   305.42234      0.050123105    23.926158      757.76124     -75.086055      682.67519    
   2818000   295.84865      0.050123105    24.118533      734.00865     -78.922837      655.08581    
   2819000   291.12017      0.050123105    36.037745      722.27717     -75.437576      646.83959    
   2820000   306.56057      0.050123105    38.890021      760.58522     -70.012948      690.57227    
   2821000   303.21349      0.050123105    16.30207       752.28103     -80.121565      672.15947    
   2822000   279.60004      0.050123105    25.170433      693.69542     -78.762752      614.93266    
   2823000   299.16945      0.050123105    33.208292      742.24766     -78.419541      663.82811    
   2824000   297.97559      0.050123105    14.382762      739.28565     -76.62896       662.65669    
   2825000   287.23797      0.050123105    28.257957      712.64532     -76.370504      636.27482    
   2826000   307.67042      0.050123105    40.874978      763.33879     -77.298127      686.04066    
   2827000   303.25781      0.050123105    13.938161      752.39099     -77.71995       674.67104    
   2828000   279.8197       0.050123105    32.592266      694.2404      -72.687169      621.55323    
   2829000   299.34359      0.050123105    31.867133      742.67971     -70.113631      672.56608    
   2830000   309.24061      0.050123105    34.944985      767.23447     -65.761871      701.4726     
   2831000   298.48258      0.050123105    25.918187      740.54351     -67.542897      673.00061    
   2832000   281.99329      0.050123105    15.843574      699.63313     -68.44864       631.18449    
   2833000   310.75937      0.050123105    33.290091      771.00257     -79.726503      691.27607    
   2834000   302.13544      0.050123105   -23.661361      749.60634     -87.89864       661.7077     
   2835000   287.98575      0.050123105    23.691038      714.50059     -74.054822      640.44577    
   2836000   292.70245      0.050123105    42.173079      726.20285     -78.602656      647.6002     
   2837000   305.82909      0.050123105    33.903761      758.77041     -76.894332      681.87608    
   2838000   288.19163      0.050123105   -0.080389045    715.01138     -73.483248      641.52813    
   2839000   294.80341      0.050123105    39.503306      731.4154      -77.407398      654.008      
   2840000   308.81281      0.050123105    40.35536       766.17309     -80.006904      686.16618    
   2841000   308.23312      0.050123105    41.348451      764.73486     -85.689052      679.0458     
   2842000   299.28706      0.050123105    0.12458197     742.53945     -80.2121        662.32735    
   2843000   299.68276      0.050123105    10.161511      743.5212      -70.172767      673.34843    
   2844000   312.38874      0.050123105    37.270926      775.04509     -73.907486      701.1376     
   2845000   300.26199      0.050123105    29.27686       744.95828     -79.896192      665.06209    
   2846000   318.58672      0.050123105    14.984414      790.42244     -79.544733      710.8777     
   2847000   286.91691      0.050123105    29.125283      711.84876     -81.557264      630.29149    
   2848000   291.57681      0.050123105    27.197073      723.4101      -83.185184      640.22491    
   2849000   294.7506       0.050123105    27.675689      731.28437     -75.141545      656.14283    
   2850000   312.42586      0.050123105    27.78033       775.13717     -79.102121      696.03505    
   2851000   304.87608      0.050123105    23.576437      756.40596     -86.180243      670.22571    
   2852000   297.74958      0.050123105    23.729953      738.7249      -84.42755       654.29736    
   2853000   306.79517      0.050123105    28.006388      761.16726     -78.556491      682.61077    
   2854000   306.33038      0.050123105    27.348016      760.01413     -78.652985      681.36114    
   2855000   283.46725      0.050123105    19.050955      703.29006     -84.428969      618.86109    
   2856000   304.26656      0.050123105    25.279213      754.89372     -80.952111      673.9416     
   2857000   302.244        0.050123105    27.331415      749.8757      -86.864158      663.01154    
   2858000   303.29394      0.050123105    24.617797      752.48062     -86.689933      665.79068    
   2859000   295.89759      0.050123105    25.352158      734.13008     -91.15775       642.97233    
   2860000   297.35468      0.050123105    18.860113      737.74516     -85.285577      652.45958    
   2861000   303.66986      0.050123105    21.568074      753.4133      -82.717558      670.69574    
   2862000   314.70885      0.050123105    21.758416      780.80133     -81.898521      698.90281    
   2863000   303.0693       0.050123105    30.26283       751.92328     -78.423286      673.5        
   2864000   302.77418      0.050123105    18.850866      751.19109     -81.615642      669.57545    
   2865000   302.77676      0.050123105    30.590095      751.19749     -77.509349      673.68814    
   2866000   291.64106      0.050123105    25.657946      723.56951     -90.746557      632.82295    
   2867000   297.45546      0.050123105    21.551419      737.99519     -92.715695      645.2795     
   2868000   299.43655      0.050123105    17.608931      742.91034     -94.486608      648.42373    
   2869000   296.68203      0.050123105    23.486089      736.07629     -96.677593      639.3987     
   2870000   302.00042      0.050123105    33.120167      749.27136     -99.428546      649.84281    
   2871000   297.52174      0.050123105    19.567208      738.15964     -103.23249      634.92716    
   2872000   297.16702      0.050123105    9.9304788      737.27956     -94.211657      643.06791    
   2873000   301.19471      0.050123105    23.258789      747.27237     -94.460644      652.81172    
   2874000   285.05986      0.050123105    23.625574      707.24138     -86.661759      620.57962    
   2875000   305.92799      0.050123105    18.335078      759.01577     -84.79294       674.22283    
   2876000   307.66706      0.050123105    19.800114      763.33047     -82.526377      680.80409    
   2877000   300.91784      0.050123105    30.827695      746.58547     -87.0956        659.48987    
   2878000   299.49594      0.050123105    27.07596       743.05768     -85.626375      657.4313     
   2879000   271.55034      0.050123105    29.406456      673.72387     -85.101965      588.62191    
   2880000   294.59557      0.050123105    24.745685      730.89972     -81.829276      649.07045    
   2881000   313.44099      0.050123105    38.624841      777.65573     -81.705041      695.95069    
   2882000   296.76595      0.050123105    32.634038      736.2845      -78.852388      657.43211    
   2883000   287.08625      0.050123105    19.996989      712.26889     -79.921962      632.34693    
   2884000   299.91216      0.050123105    15.025579      744.09034     -73.230829      670.85951    
   2885000   309.99646      0.050123105    26.191953      769.10975     -80.939046      688.17071    
   2886000   297.24491      0.050123105    29.998102      737.47281     -80.187009      657.2858     
   2887000   293.21538      0.050123105    18.770817      727.47545     -73.956282      653.51917    
   2888000   307.15388      0.050123105    27.206689      762.05723     -81.733932      680.3233     
   2889000   302.10834      0.050123105    22.70944       749.53913     -79.922287      669.61684    
   2890000   288.28673      0.050123105    23.650103      715.24732     -77.779589      637.46773    
   2891000   305.79161      0.050123105    27.962185      758.67742     -82.820277      675.85714    
   2892000   312.41395      0.050123105    26.206206      775.10761     -76.957712      698.1499     
   2893000   290.53168      0.050123105    22.923368      720.81711     -82.719298      638.09782    
   2894000   301.13047      0.050123105    31.804769      747.113       -78.148215      668.96479    
   2895000   312.46415      0.050123105    26.100228      775.23217     -87.638851      687.59332    
   2896000   297.78696      0.050123105    20.849953      738.81765     -83.340516      655.47714    
   2897000   294.90046      0.050123105    25.453662      731.65616     -90.554582      641.10158    
   2898000   308.46538      0.050123105    25.793507      765.31111     -90.256226      675.05489    
   2899000   305.51237      0.050123105    23.400383      757.98461     -82.631511      675.3531     
   2900000   303.61073      0.050123105    23.429906      753.2666      -78.967511      674.29909    
   2901000   299.2684       0.050123105    24.845672      742.49316     -79.982357      662.5108     
   2902000   311.24156      0.050123105    21.484291      772.19888     -75.757108      696.44177    
   2903000   314.6595       0.050123105    25.695309      780.6789      -77.716697      702.9622     
   2904000   301.68739      0.050123105    31.378022      748.49472     -77.473054      671.02167    
   2905000   286.08038      0.050123105    20.752802      709.77332     -79.337428      630.43589    
   2906000   298.07902      0.050123105    26.496996      739.54227     -81.187361      658.3549     
   2907000   298.12491      0.050123105    27.652508      739.65611     -83.905337      655.75077    
   2908000   296.7761       0.050123105    24.060547      736.30968     -92.88735       643.42233    
   2909000   294.87862      0.050123105    15.501806      731.60198     -97.019075      634.58291    
   2910000   303.6965       0.050123105    25.997544      753.47939     -92.38298       661.09641    
   2911000   297.25795      0.050123105    43.329643      737.50516     -86.046804      651.45836    
   2912000   303.50872      0.050123105    28.599457      753.0135      -84.635485      668.37801    
   2913000   290.34656      0.050123105    19.782046      720.35782     -89.721633      630.63619    
   2914000   303.52682      0.050123105    19.703699      753.0584      -78.507697      674.5507     
   2915000   290.71679      0.050123105    23.407195      721.27637     -92.718011      628.55836    
   2916000   292.89602      0.050123105    27.270986      726.68311     -93.125583      633.55752    
   2917000   303.43273      0.050123105    26.170803      752.82498     -96.636708      656.18827    
   2918000   314.09611      0.050123105    20.416064      779.2811      -92.572907      686.7082     
   2919000   307.17729      0.050123105    23.749175      762.11532     -97.950871      664.16444    
   2920000   275.47259      0.050123105    22.932926      683.45509     -98.181486      585.2736     
   2921000   296.15506      0.050123105    22.689224      734.76887     -91.335939      643.43293    
   2922000   302.97779      0.050123105    25.54298       751.69624     -85.516608      666.17963    
   2923000   300.9443       0.050123105    24.718576      746.65112     -88.365288      658.28583    
   2924000   284.04437      0.050123105    20.049652      704.72191     -84.716741      620.00517    
   2925000   303.89338      0.050123105    26.727858      753.96786     -90.271938      663.69592    
   2926000   295.44021      0.050123105    24.120004      732.99532     -93.456102      639.53921    
   2927000   306.81599      0.050123105    28.424223      761.21892     -88.747115      672.4718     
   2928000   306.23127      0.050123105    22.836529      759.76821     -83.749278      676.01894    
   2929000   297.55088      0.050123105    29.779174      738.23193     -85.344928      652.88701    
   2930000   293.41827      0.050123105    11.940791      727.97882     -88.040769      639.93805    
   2931000   294.21899      0.050123105   -22.726193      729.96542     -89.931006      640.03442    
   2932000   297.34606      0.050123105    27.026262      737.72378     -86.231773      651.49201    
   2933000   303.04864      0.050123105    41.595489      751.87204     -86.357772      665.51427    
   2934000   293.57489      0.050123105    33.740133      728.36738     -86.581939      641.78545    
   2935000   295.69589      0.050123105    17.086918      733.62965     -84.445834      649.18382    
   2936000   302.60415      0.050123105    20.390504      750.76923     -77.869289      672.89994    
   2937000   301.7272       0.050123105    36.148787      748.5935      -73.4919        675.1016     
   2938000   296.18611      0.050123105    40.088974      734.8459      -75.435249      659.41065    
   2939000   299.492        0.050123105    10.650305      743.04791     -79.063344      663.98456    
   2940000   297.34691      0.050123105    28.392781      737.72587     -83.045544      654.68033    
   2941000   301.84905      0.050123105    32.572209      748.89581     -93.674205      655.2216     
   2942000   290.47866      0.050123105    17.32676       720.68556     -84.422602      636.26295    
   2943000   297.13851      0.050123105    15.54626       737.20884     -93.620972      643.58787    
   2944000   306.53305      0.050123105    24.339565      760.51695     -94.499646      666.01731    
   2945000   283.75308      0.050123105    26.75091       703.99921     -92.379691      611.61952    
   2946000   292.76351      0.050123105    20.518227      726.35434     -88.620664      637.73367    
   2947000   297.8162       0.050123105    22.156525      738.89019     -85.337         653.55319    
   2948000   306.74286      0.050123105    31.200894      761.03749     -76.82264       684.21485    
   2949000   295.8513       0.050123105    26.397205      734.01524     -77.826713      656.18852    
   2950000   289.34381      0.050123105    27.963863      717.86997     -79.534232      638.33574    
   2951000   294.8372       0.050123105    25.858501      731.49923     -76.42365       655.07558    
   2952000   306.81064      0.050123105    26.133688      761.20566     -67.949286      693.25638    
   2953000   305.3352       0.050123105    26.407979      757.54506     -67.224632      690.32043    
   2954000   296.10562      0.050123105    24.798866      734.64622     -69.050885      665.59533    
   2955000   288.28315      0.050123105    22.334721      715.23845     -66.817436      648.42101    
   2956000   305.53682      0.050123105    22.783564      758.04526     -71.203877      686.84138    
   2957000   320.44635      0.050123105    28.111548      795.03622     -67.956934      727.07929    
   2958000   304.71249      0.050123105    24.813856      756.0001      -80.790016      675.21008    
   2959000   286.54054      0.050123105    27.490694      710.91497     -80.330555      630.58441    
   2960000   295.84014      0.050123105    22.45412       733.98754     -78.931949      655.05559    
   2961000   312.08208      0.050123105    27.489487      774.28423     -86.024329      688.2599     
   2962000   298.87689      0.050123105    24.393829      741.5218      -75.264408      666.25739    
   2963000   283.94107      0.050123105    32.512772      704.46562     -81.013977      623.45164    
   2964000   297.86785      0.050123105    25.190055      739.01835     -86.276923      652.74143    
   2965000   305.7656       0.050123105    25.729323      758.61288     -78.732636      679.88024    
   2966000   301.02889      0.050123105    20.58028       746.86098     -91.822641      655.03834    
   2967000   278.35459      0.050123105    26.614717      690.60541     -91.505546      599.09986    
   2968000   299.74519      0.050123105    36.771925      743.67609     -87.713544      655.96255    
   2969000   316.14716      0.050123105    22.499987      784.36982     -84.917902      699.45192    
   2970000   298.34019      0.050123105    5.7794125      740.19022     -81.623519      658.5667     
   2971000   295.1551       0.050123105    26.553446      732.28794     -75.041745      657.2462     
   2972000   285.08887      0.050123105    24.851338      707.31334     -78.65486       628.65848    
   2973000   299.25494      0.050123105    28.599237      742.45975     -76.940613      665.51913    
   2974000   306.35711      0.050123105    20.933051      760.08043     -76.920109      683.16032    
   2975000   292.23085      0.050123105    12.478867      725.0328      -75.130881      649.90192    
   2976000   305.76442      0.050123105    29.339079      758.60995     -76.987251      681.6227     
   2977000   320.16639      0.050123105    27.32301       794.34163     -77.128183      717.21345    
   2978000   295.71679      0.050123105    20.095608      733.68152     -79.455201      654.22632    
   2979000   282.69271      0.050123105    26.997039      701.36842     -73.0343        628.33412    
   2980000   292.83235      0.050123105    27.40831       726.52514     -80.305379      646.21976    
   2981000   312.31689      0.050123105    46.315787      774.86681     -79.75483       695.11198    
   2982000   287.27941      0.050123105    12.205723      712.74812     -77.733394      635.01473    
   2983000   298.38947      0.050123105    25.341566      740.3125      -77.399237      662.91327    
   2984000   316.21532      0.050123105    35.048111      784.53892     -82.945294      701.59363    
   2985000   293.57733      0.050123105    23.776784      728.37346     -87.11043       641.26303    
   2986000   296.37862      0.050123105    23.908369      735.32352     -82.265137      653.05839    
   2987000   289.47265      0.050123105    32.387897      718.18961     -79.888387      638.30123    
   2988000   320.11789      0.050123105    31.090283      794.2213      -79.327234      714.89407    
   2989000   296.32287      0.050123105    20.503337      735.18522     -83.268121      651.9171     
   2990000   310.46763      0.050123105    10.675346      770.27876     -73.989144      696.28961    
   2991000   306.85103      0.050123105    32.001978      761.30586     -76.316506      684.98936    
   2992000   292.14969      0.050123105    7.6116037      724.83144     -78.548268      646.28318    
   2993000   297.96973      0.050123105    16.755907      739.27111     -75.12227       664.14884    
   2994000   311.41348      0.050123105    33.511949      772.62544     -69.065514      703.55992    
   2995000   302.23953      0.050123105    25.570568      749.8646      -65.493481      684.37112    
   2996000   294.27744      0.050123105    7.3885869      730.11044     -76.392913      653.71753    
   2997000   298.17722      0.050123105    44.7596        739.78591     -77.59566       662.19025    
   2998000   312.35491      0.050123105    26.106443      774.96114     -78.778933      696.18221    
   2999000   299.37336      0.050123105    20.57916       742.75355     -78.728616      664.02493    
   3000000   284.92134      0.050123105    17.894243      706.89771     -83.031924      623.86578    
   3001000   301.22879      0.050123105    29.539691      747.35693     -85.37722       661.97971    
   3002000   316.04417      0.050123105    29.613589      784.1143      -80.008543      704.10576    
   3003000   303.36499      0.050123105    24.151183      752.65691     -69.938766      682.71814    
   3004000   293.37503      0.050123105    18.945459      727.87153     -77.019461      650.85207    
   3005000   298.13225      0.050123105    33.335067      739.67434     -74.243768      665.43057    
   3006000   315.17543      0.050123105    18.885177      781.95894     -77.088542      704.8704     
   3007000   308.10437      0.050123105    18.74984       764.41543     -78.301029      686.1144     
   3008000   298.47511      0.050123105    21.165717      740.52496     -78.855879      661.66908    
   3009000   299.16767      0.050123105    23.834669      742.24323     -73.09092       669.15231    
   3010000   299.28419      0.050123105    27.639015      742.53233     -81.196451      661.33588    
   3011000   311.97291      0.050123105    14.631726      774.01339     -80.308215      693.70518    
   3012000   290.73646      0.050123105    21.791326      721.32518     -76.632161      644.69302    
   3013000   293.78101      0.050123105    30.131229      728.87879     -78.177178      650.70162    
   3014000   306.36097      0.050123105    29.933579      760.09        -80.022748      680.06725    
   3015000   302.89417      0.050123105    19.38313       751.48879     -76.117237      675.37155    
   3016000   298.14108      0.050123105    22.738364      739.69623     -81.27151       658.42471    
   3017000   299.24675      0.050123105    34.395999      742.43943     -83.411851      659.02758    
   3018000   311.68511      0.050123105    19.702529      773.29935     -75.687591      697.61176    
   3019000   301.98389      0.050123105    27.467425      749.23037     -75.029233      674.20113    
   3020000   296.80313      0.050123105    39.364728      736.37674     -65.301345      671.07539    
   3021000   301.40067      0.050123105    23.627566      747.78336     -71.359934      676.42343    
   3022000   291.05668      0.050123105    25.423773      722.11964     -76.386148      645.73349    
   3023000   306.22962      0.050123105    24.348732      759.76413     -81.1257        678.63843    
   3024000   303.33552      0.050123105    17.550934      752.58378     -80.324476      672.25931    
   3025000   292.79612      0.050123105    18.919765      726.43525     -75.160968      651.27428    
   3026000   292.87204      0.050123105    36.38198       726.6236      -74.175354      652.44824    
   3027000   317.18174      0.050123105    23.142128      786.93663     -78.425767      708.51086    
   3028000   301.41672      0.050123105    24.079023      747.8232      -84.16496       663.65824    
   3029000   295.00106      0.050123105    18.216457      731.90575     -79.434477      652.47127    
   3030000   283.16662      0.050123105    25.206519      702.54419     -81.713254      620.83094    
   3031000   290.42005      0.050123105    8.7243644      720.54015     -83.722547      636.8176     
   3032000   297.0433       0.050123105    27.406193      736.97261     -84.584612      652.388      
   3033000   298.34589      0.050123105    26.062366      740.20438     -84.538988      655.66539    
   3034000   315.57075      0.050123105    20.03213       782.93974     -92.187838      690.7519     
   3035000   301.12063      0.050123105    25.22586       747.08859     -84.699318      662.38928    
   3036000   296.31723      0.050123105    19.967815      735.17121     -91.507735      643.66348    
   3037000   303.9415       0.050123105    25.555981      754.08723     -90.94158       663.14565    
   3038000   309.3147       0.050123105    28.48774       767.41831     -96.040624      671.37768    
   3039000   299.21518      0.050123105    23.783323      742.36112     -101.69559      640.66552    
   3040000   290.5126       0.050123105    24.567166      720.76978     -98.225456      622.54432    
   3041000   299.47627      0.050123105    22.197076      743.00888     -95.929047      647.07984    
   3042000   306.4296       0.050123105    23.182483      760.26028     -85.965013      674.29527    
   3043000   306.4631       0.050123105    18.303543      760.3434      -89.658156      670.68524    
   3044000   303.13582      0.050123105    29.879931      752.08833     -87.890755      664.19758    
   3045000   296.18346      0.050123105    23.729857      734.83932     -95.040356      639.79897    
   3046000   298.88635      0.050123105    20.268267      741.54528     -90.109685      651.43559    
   3047000   297.68464      0.050123105    20.045975      738.5638      -88.294791      650.269      
   3048000   292.75409      0.050123105    19.786606      726.33096     -86.415267      639.91569    
   3049000   292.70928      0.050123105    25.395341      726.2198      -87.487546      638.73225    
   3050000   317.43085      0.050123105    27.544171      787.55469     -86.839209      700.71548    
   3051000   297.32998      0.050123105    12.485728      737.68387     -94.758273      642.9256     
   3052000   275.56606      0.050123105    34.039317      683.68698     -85.051791      598.63519    
   3053000   305.1186       0.050123105    25.30119       757.00766     -86.19384       670.81382    
   3054000   300.82686      0.050123105    20.245242      746.35973     -81.520873      664.83886    
   3055000   289.87585      0.050123105    21.693948      719.18997     -76.557987      642.63198    
   3056000   296.1928       0.050123105    27.247669      734.8625      -72.938572      661.92393    
   3057000   298.63426      0.050123105    43.693272      740.91982     -82.234124      658.6857     
   3058000   305.92171      0.050123105    8.2204651      759.00018     -81.042317      677.95787    
   3059000   300.37125      0.050123105    25.86912       745.22936     -75.735152      669.49421    
   3060000   294.72706      0.050123105    24.28328       731.22597     -75.813258      655.41271    
   3061000   302.33492      0.050123105    31.510093      750.10128     -71.647414      678.45387    
   3062000   318.57113      0.050123105    1.0412444      790.38375     -75.021252      715.3625     
   3063000   293.3538       0.050123105    21.66012       727.81886     -72.486946      655.33192    
   3064000   279.17441      0.050123105    25.219147      692.63941     -67.430057      625.20935    
   3065000   297.87527      0.050123105    27.728963      739.03676     -59.054145      679.98262    
   3066000   311.96132      0.050123105    23.823242      773.98464     -57.031742      716.9529     
   3067000   283.63395      0.050123105    21.12142       703.70365     -64.114288      639.58936    
   3068000   306.55846      0.050123105    38.991572      760.58        -63.379393      697.20061    
   3069000   309.34206      0.050123105    26.904475      767.48618     -74.96603       692.52015    
   3070000   307.11266      0.050123105    28.693087      761.95496     -83.545846      678.40912    
   3071000   299.2788       0.050123105    24.316633      742.51895     -87.016217      655.50273    
   3072000   281.43285      0.050123105    24.175576      698.24266     -81.154362      617.0883     
   3073000   304.28889      0.050123105    20.583201      754.94914     -76.583687      678.36545    
   3074000   319.09165      0.050123105    31.483359      791.67519     -76.304578      715.37061    
   3075000   294.19389      0.050123105    26.37191       729.90315     -82.506394      647.39675    
   3076000   285.45559      0.050123105    25.23254       708.22318     -83.161514      625.06167    
   3077000   304.46477      0.050123105    24.725441      755.38549     -90.336143      665.04935    
   3078000   316.46148      0.050123105    28.878819      785.14966     -85.030841      700.11882    
   3079000   314.39479      0.050123105    23.102225      780.02213     -79.563928      700.4582     
   3080000   298.52349      0.050123105    22.751211      740.64501     -81.704192      658.94082    
   3081000   294.44617      0.050123105    25.31115       730.52906     -84.201121      646.32794    
   3082000   308.79772      0.050123105    24.712081      766.13564     -86.118999      680.01665    
   3083000   308.60824      0.050123105    15.194436      765.66555     -78.966952      686.6986     
   3084000   293.17854      0.050123105    23.292378      727.38404     -84.168406      643.21564    
   3085000   301.3143       0.050123105    52.015408      747.56908     -82.6947        664.87438    
   3086000   295.21207      0.050123105    23.804012      732.42928     -81.490026      650.93925    
   3087000   298.23016      0.050123105    17.090778      739.91724     -80.014847      659.90239    
   3088000   306.96706      0.050123105    26.898124      761.59375     -75.206606      686.38714    
   3089000   306.57482      0.050123105    18.348356      760.62057     -77.438207      683.18236    
   3090000   294.63455      0.050123105    41.032858      730.99643     -81.818609      649.17782    
   3091000   297.19654      0.050123105    28.048604      737.35281     -81.123578      656.22923    
   3092000   300.75088      0.050123105    13.771785      746.17121     -78.706127      667.46509    
   3093000   297.41908      0.050123105    17.048628      737.90494     -72.926875      664.97806    
   3094000   307.68313      0.050123105    39.696238      763.37032     -73.066917      690.30341    
   3095000   299.77493      0.050123105    31.777693      743.74988     -70.473871      673.27601    
   3096000   295.61193      0.050123105    11.779039      733.42136     -67.495379      665.92598    
   3097000   301.11503      0.050123105    23.013616      747.07469     -75.965187      671.1095     
   3098000   296.75689      0.050123105    37.807275      736.26201     -82.516319      653.74569    
   3099000   298.67603      0.050123105    36.629217      741.02346     -78.121428      662.90204    
   3100000   292.75308      0.050123105    27.300586      726.32846     -85.867358      640.4611     
   3101000   295.69639      0.050123105    23.824861      733.6309      -85.420964      648.20994    
   3102000   281.89366      0.050123105    18.356861      699.38594     -84.220329      615.16561    
   3103000   311.30814      0.050123105    24.230547      772.36407     -85.336547      687.02752    
   3104000   312.71706      0.050123105    27.894534      775.85965     -80.549541      695.31011    
   3105000   294.35421      0.050123105    25.572522      730.30092     -81.234562      649.06636    
   3106000   312.03114      0.050123105    27.436237      774.15786     -87.50421       686.65365    
   3107000   298.46318      0.050123105    27.458732      740.49538     -85.801175      654.6942     
   3108000   310.36987      0.050123105    25.642911      770.0362      -92.616236      677.41997    
   3109000   290.355        0.050123105    21.367887      720.37875     -90.153277      630.22547    
   3110000   284.66425      0.050123105    18.185023      706.25986     -84.925098      621.33476    
   3111000   295.85083      0.050123105    37.170711      734.01408     -82.217329      651.79675    
   3112000   310.4412       0.050123105    21.271642      770.21316     -82.297103      687.91606    
   3113000   297.22372      0.050123105    23.968253      737.42025     -78.192229      659.22802    
   3114000   288.47954      0.050123105    45.586106      715.7257      -83.089044      632.63665    
   3115000   302.58787      0.050123105    26.830398      750.72886     -83.809245      666.91961    
   3116000   300.68215      0.050123105    12.923275      746.00071     -78.190398      667.81032    
   3117000   291.88131      0.050123105    21.174293      724.16558     -75.475639      648.68994    
   3118000   308.7096       0.050123105    41.503387      765.91702     -83.728652      682.18836    
   3119000   304.01583      0.050123105    19.438089      754.27164     -79.56999       674.70165    
   3120000   297.70881      0.050123105    29.925275      738.62376     -88.21706       650.4067     
   3121000   311.43372      0.050123105    36.318713      772.67565     -87.22435       685.4513     
   3122000   296.17273      0.050123105    20.101125      734.81272     -79.355958      655.45676    
   3123000   281.68897      0.050123105    19.453863      698.87809     -81.917457      616.96063    
   3124000   311.84643      0.050123105    23.84099       773.69959     -80.171744      693.52784    
   3125000   304.35458      0.050123105    22.993247      755.11211     -73.904077      681.20803    
   3126000   290.93719      0.050123105    13.996652      721.8232      -71.831171      649.99203    
   3127000   295.05873      0.050123105    34.672522      732.04885     -75.251208      656.79765    
   3128000   312.52783      0.050123105    27.789056      775.39017     -73.410497      701.97967    
   3129000   292.88735      0.050123105    26.623102      726.6616      -75.099151      651.56245    
   3130000   301.477        0.050123105    23.673652      747.97276     -73.163033      674.80972    
   3131000   312.55775      0.050123105    34.478217      775.4644      -69.21947       706.24493    
   3132000   291.81528      0.050123105    24.196863      724.00175     -75.209773      648.79197    
   3133000   291.39206      0.050123105    25.433971      722.95172     -78.67913       644.27259    
   3134000   300.31722      0.050123105    18.928612      745.09531     -74.528232      670.56708    
   3135000   313.17769      0.050123105    27.564779      777.00247     -75.028975      701.9735     
   3136000   292.60958      0.050123105    40.93139       725.97242     -80.743905      645.22852    
   3137000   292.9086       0.050123105    17.253748      726.71432     -85.942834      640.77148    
   3138000   304.17481      0.050123105    18.320431      754.66609     -78.222351      676.44374    
   3139000   295.11628      0.050123105    42.107244      732.19164     -78.379793      653.81184    
   3140000   291.97923      0.050123105    18.405893      724.40852     -81.806283      642.60224    
   3141000   305.63544      0.050123105    25.280442      758.28994     -88.225975      670.06397    
   3142000   294.81053      0.050123105    27.410066      731.43305     -78.668775      652.76428    
   3143000   305.03699      0.050123105    18.458053      756.80517     -74.96086       681.84431    
   3144000   306.94112      0.050123105    25.722356      761.52937     -77.291159      684.23821    
   3145000   299.51108      0.050123105    19.899769      743.09525     -83.776233      659.31902    
   3146000   291.50931      0.050123105    23.229266      723.24265     -77.152653      646.08999    
   3147000   301.51988      0.050123105    23.989217      748.07914     -82.810196      665.26895    
   3148000   318.25034      0.050123105    24.2301        789.58788     -83.767717      705.82016    
   3149000   294.81325      0.050123105    39.108925      731.43979     -80.304869      651.13492    
   3150000   285.04695      0.050123105    17.002581      707.20934     -88.213009      618.99633    
   3151000   309.22792      0.050123105    20.247628      767.203       -78.731674      688.47132    
   3152000   308.09374      0.050123105    27.075339      764.38906     -77.476975      686.91209    
   3153000   295.13724      0.050123105    32.031601      732.24363     -74.860473      657.38315    
   3154000   290.25727      0.050123105    22.137308      720.13628     -75.835553      644.30073    
   3155000   316.26926      0.050123105    26.366898      784.67275     -77.474978      707.19777    
   3156000   308.19984      0.050123105    25.58281       764.6523      -81.196306      683.456      
   3157000   301.55151      0.050123105    21.216415      748.1576      -75.590243      672.56736    
   3158000   299.48556      0.050123105    32.51726       743.03192     -77.075361      665.95656    
   3159000   300.44204      0.050123105    25.54272       745.40498     -83.827851      661.57713    
   3160000   292.64143      0.050123105    11.798219      726.05145     -73.197316      652.85414    
   3161000   305.76822      0.050123105    28.783239      758.61939     -78.480971      680.13842    
   3162000   302.43345      0.050123105    38.115361      750.34572     -76.371149      673.97457    
   3163000   300.81933      0.050123105    22.124539      746.34106     -76.412037      669.92902    
   3164000   291.33093      0.050123105    18.889787      722.80008     -65.241773      657.55831    
   3165000   305.49038      0.050123105    31.050742      757.93005     -71.690394      686.23966    
   3166000   304.01747      0.050123105    23.603418      754.27572     -72.983503      681.29222    
   3167000   298.72681      0.050123105    25.594155      741.14946     -73.466522      667.68294    
   3168000   291.28033      0.050123105    24.160582      722.67453     -79.114857      643.55967    
   3169000   291.28508      0.050123105    28.669432      722.68631     -76.702538      645.98377    
   3170000   306.89567      0.050123105    27.886506      761.41662     -74.176455      687.24016    
   3171000   292.54168      0.050123105    27.225465      725.80397     -77.911559      647.89241    
   3172000   308.91046      0.050123105    25.070122      766.41537     -76.454027      689.96134    
   3173000   307.45653      0.050123105    27.981678      762.80813     -75.395594      687.41254    
   3174000   296.89612      0.050123105    21.155974      736.60746     -78.312427      658.29503    
   3175000   302.3152       0.050123105    16.753243      750.05234     -72.83936       677.21297    
   3176000   293.00878      0.050123105    28.197916      726.96285     -76.505171      650.45768    
   3177000   308.62706      0.050123105    32.922279      765.71225     -76.251602      689.46064    
   3178000   293.35316      0.050123105    23.824065      727.81728     -78.254668      649.56261    
   3179000   284.10092      0.050123105    22.417746      704.86221     -83.422418      621.43979    
   3180000   318.46585      0.050123105    29.414394      790.12256     -81.597569      708.52499    
   3181000   307.03954      0.050123105    24.007343      761.77357     -81.151414      680.62216    
   3182000   290.41401      0.050123105    26.253434      720.52516     -75.938943      644.58622    
   3183000   292.62044      0.050123105    25.505667      725.99938     -70.345205      655.65417    
   3184000   303.05788      0.050123105    25.401426      751.89496     -72.434725      679.46023    
   3185000   308.68681      0.050123105    22.351413      765.86047     -74.971766      690.88871    
   3186000   304.72035      0.050123105    31.058345      756.01958     -78.518915      677.50067    
   3187000   293.24156      0.050123105    27.856573      727.54039     -85.485003      642.05538    
   3188000   293.64461      0.050123105    20.6199        728.54037     -81.600145      646.94022    
   3189000   295.71619      0.050123105    27.030875      733.68001     -77.745085      655.93493    
   3190000   302.5165       0.050123105    21.610059      750.55178     -83.03606       667.51572    
   3191000   296.91508      0.050123105    31.935377      736.65451     -75.790413      660.86409    
   3192000   298.44663      0.050123105    27.583143      740.45432     -71.930456      668.52386    
   3193000   305.43357      0.050123105    25.829061      757.78911     -67.959436      689.82968    
   3194000   299.81095      0.050123105    24.436912      743.83923     -81.780014      662.05922    
   3195000   308.71837      0.050123105    32.955816      765.93878     -79.871598      686.06718    
   3196000   306.00271      0.050123105    23.230717      759.20115     -77.432081      681.76907    
   3197000   284.15319      0.050123105    8.287051       704.99189     -79.954023      625.03786    
   3198000   294.07796      0.050123105    26.991846      729.61553     -77.718646      651.89688    
   3199000   308.51722      0.050123105    29.451491      765.43974     -66.888905      698.55083    
   3200000   313.5877       0.050123105   -0.80176423     778.01974     -66.806818      711.21292    
   3201000   296.85897      0.050123105    25.812944      736.51529     -74.733482      661.78181    
   3202000   311.51713      0.050123105    25.751162      772.88259     -71.589073      701.29352    
   3203000   320.14044      0.050123105    25.754665      794.27727     -72.592732      721.68454    
   3204000   306.94708      0.050123105    30.500214      761.54417     -69.740418      691.80375    
   3205000   288.63678      0.050123105    31.455245      716.1158      -72.126984      643.98881    
   3206000   302.72495      0.050123105    15.40123       751.06895     -86.715719      664.35323    
   3207000   315.99649      0.050123105    25.744224      783.996       -84.844917      699.15108    
   3208000   311.35412      0.050123105    30.340172      772.47817     -85.782345      686.69582    
   3209000   292.74425      0.050123105    30.661812      726.30654     -87.248414      639.05813    
   3210000   300.32063      0.050123105    12.039846      745.10377     -82.735839      662.36793    
   3211000   310.09144      0.050123105    17.872908      769.34541     -86.74257       682.60284    
   3212000   300.51751      0.050123105    37.671015      745.59224     -90.137753      655.45448    
   3213000   297.7733       0.050123105    25.922837      738.78376     -93.616448      645.16731    
   3214000   305.30086      0.050123105    10.831299      757.45984     -90.403144      667.0567     
   3215000   301.42843      0.050123105    26.377196      747.85224     -78.71803       669.13421    
   3216000   309.71367      0.050123105    26.735175      768.40814     -78.74842       689.65972    
   3217000   294.02414      0.050123105    22.596289      729.48199     -84.280036      645.20195    
   3218000   299.22156      0.050123105    25.244755      742.37694     -81.495205      660.88174    
   3219000   307.58074      0.050123105    29.375395      763.1163      -77.184888      685.93141    
   3220000   311.93024      0.050123105    30.964472      773.90752     -75.080982      698.82654    
   3221000   288.77906      0.050123105    20.475928      716.4688      -81.344446      635.12435    
   3222000   301.75564      0.050123105    23.8535        748.66406     -91.506762      657.1573     
   3223000   308.27937      0.050123105    32.517513      764.84962     -81.38716       683.46246    
   3224000   292.75185      0.050123105    21.003536      726.32542     -86.372566      639.95285    
   3225000   300.51997      0.050123105    25.008208      745.59833     -78.932869      666.66546    
   3226000   298.95078      0.050123105    32.059416      741.70512     -78.891845      662.81327    
   3227000   294.99351      0.050123105    22.819965      731.88702     -80.39829       651.48873    
   3228000   302.2349       0.050123105    10.159629      749.85312     -80.628161      669.22496    
   3229000   301.51949      0.050123105    30.439921      748.07817     -77.289723      670.78845    
   3230000   302.73374      0.050123105    26.879309      751.09074     -80.253499      670.83724    
   3231000   295.92723      0.050123105    35.979366      734.20363     -78.422958      655.78067    
   3232000   295.02323      0.050123105    17.815221      731.96078     -85.008002      646.95277    
   3233000   298.4608       0.050123105    37.19248       740.48946     -79.390388      661.09907    
   3234000   287.86417      0.050123105    21.459868      714.19894     -89.321365      624.87757    
   3235000   299.32759      0.050123105    32.020781      742.63999     -83.476332      659.16366    
   3236000   299.4635       0.050123105    19.418264      742.9772      -88.509822      654.46738    
   3237000   307.7231       0.050123105    29.984198      763.4695      -80.064212      683.40528    
   3238000   290.92566      0.050123105    33.465285      721.79458     -82.38917       639.40541    
   3239000   298.26992      0.050123105    9.1038551      740.01588     -76.403449      663.61243    
   3240000   297.55809      0.050123105    23.026884      738.24981     -77.121857      661.12795    
   3241000   301.41079      0.050123105    37.496413      747.80848     -78.338963      669.46951    
   3242000   304.09207      0.050123105    16.853958      754.4608      -83.681534      670.77927    
   3243000   301.48639      0.050123105    25.572441      747.99605     -89.949626      658.04642    
   3244000   316.41718      0.050123105    23.405109      785.03974     -92.829542      692.2102     
   3245000   303.2674       0.050123105    25.559934      752.41479     -86.607774      665.80701    
   3246000   304.48004      0.050123105    37.100412      755.42336     -80.916004      674.50736    
   3247000   293.8043       0.050123105    25.933478      728.93658     -77.653695      651.28288    
   3248000   306.84618      0.050123105    30.930722      761.29382     -78.11003       683.18379    
   3249000   314.8865       0.050123105    20.669593      781.24208     -78.417631      702.82445    
   3250000   295.29968      0.050123105    18.25851       732.64664     -79.324505      653.32214    
   3251000   291.49032      0.050123105    32.778056      723.19551     -75.776131      647.41938    
   3252000   305.66215      0.050123105    33.980627      758.35623     -78.943456      679.41277    
   3253000   309.78653      0.050123105    21.80038       768.58891     -82.890893      685.69802    
   3254000   277.83269      0.050123105    21.88278       689.31056     -74.067539      615.24303    
   3255000   291.78899      0.050123105    27.710324      723.93652     -83.35254       640.58398    
   3256000   318.45641      0.050123105    27.194136      790.09914     -81.816112      708.28303    
   3257000   293.43613      0.050123105    22.108261      728.02313     -88.639664      639.38346    
   3258000   281.67283      0.050123105    23.348597      698.83807     -90.840115      607.99795    
   3259000   279.58159      0.050123105    14.799126      693.64963     -77.750406      615.89922    
   3260000   302.45522      0.050123105    34.266788      750.39973     -84.069119      666.33061    
   3261000   312.13193      0.050123105    20.765488      774.40792     -81.928464      692.47945    
   3262000   287.09763      0.050123105    25.222959      712.29714     -79.31023       632.98691    
   3263000   287.97724      0.050123105    23.197016      714.47947     -91.945542      622.53393    
   3264000   297.44024      0.050123105    28.834985      737.95743     -94.934961      643.02247    
   3265000   311.66657      0.050123105    28.023406      773.25334     -92.340975      680.91237    
   3266000   290.95357      0.050123105    15.117829      721.86383     -89.475896      632.38794    
   3267000   278.62023      0.050123105    13.929201      691.26447     -88.67815       602.58632    
   3268000   309.71855      0.050123105    29.750581      768.42026     -87.313923      681.10634    
   3269000   307.94897      0.050123105    12.678653      764.02989     -83.409568      680.62033    
   3270000   292.38463      0.050123105    20.620846      725.41432     -88.588191      636.82613    
   3271000   308.43153      0.050123105    30.957679      765.22712     -84.633154      680.59397    
   3272000   301.49749      0.050123105    25.32881       748.02357     -81.786101      666.23747    
   3273000   297.22208      0.050123105    14.674831      737.41618     -79.967319      657.44886    
   3274000   297.54908      0.050123105    22.604707      738.22746     -83.518983      654.70848    
   3275000   315.49701      0.050123105    23.807811      782.75678     -83.747784      699.00899    
   3276000   300.66801      0.050123105    0.39325483     745.96563     -79.666871      666.29876    
   3277000   299.48548      0.050123105    30.372336      743.03173     -76.638966      666.39276    
   3278000   302.51593      0.050123105    15.78746       750.55037     -82.75568       667.79469    
   3279000   289.56544      0.050123105    7.3220965      718.41984     -83.990324      634.42951    
   3280000   292.59453      0.050123105    30.248199      725.93509     -85.295335      640.63976    
   3281000   309.23415      0.050123105    22.90732       767.21846     -83.619724      683.59874    
   3282000   314.00574      0.050123105    30.566291      779.05689     -90.775383      688.28151    
   3283000   292.56866      0.050123105    35.541223      725.87092     -82.593994      643.27692    
   3284000   300.43356      0.050123105    36.026227      745.38395     -80.213846      665.1701     
   3285000   290.57482      0.050123105    26.446034      720.92413     -85.624513      635.29962    
   3286000   294.70299      0.050123105   -2.7323061      731.16625     -81.720873      649.44538    
   3287000   321.43551      0.050123105    31.525523      797.49036     -75.661684      721.82868    
   3288000   303.06034      0.050123105    30.950415      751.90107     -81.775651      670.12541    
   3289000   282.81958      0.050123105    18.63463       701.68317     -83.188443      618.49472    
   3290000   299.5456       0.050123105    14.838209      743.18088     -89.008303      654.17258    
   3291000   305.95773      0.050123105    33.764146      759.08956     -82.68125       676.40831    
   3292000   290.02853      0.050123105    21.609314      719.56878     -82.129884      637.4389     
   3293000   306.1167       0.050123105    10.811234      759.48398     -74.673273      684.81071    
   3294000   303.10552      0.050123105    27.529217      752.01314     -80.701394      671.31175    
   3295000   302.92918      0.050123105    31.429968      751.57564     -81.82053       669.75511    
   3296000   293.43115      0.050123105    35.442855      728.01076     -86.693695      641.31707    
   3297000   292.81445      0.050123105    24.619085      726.48072     -82.434404      644.04632    
   3298000   301.42842      0.050123105    29.254863      747.85223     -84.180231      663.672      
   3299000   304.75568      0.050123105    35.471128      756.10724     -70.344586      685.76265    
   3300000   294.13148      0.050123105    19.484275      729.7483      -84.715612      645.03269    
   3301000   299.50681      0.050123105    22.611922      743.08466     -80.744585      662.34007    
   3302000   298.13878      0.050123105    29.19084       739.69053     -87.987604      651.70292    
   3303000   301.76717      0.050123105    23.586633      748.69267     -88.38171       660.31096    
   3304000   295.87106      0.050123105    24.080631      734.06426     -85.36415       648.70011    
   3305000   302.77128      0.050123105    25.928002      751.1839      -75.206325      675.97758    
   3306000   299.2082       0.050123105    28.437634      742.34379     -77.426037      664.91775    
   3307000   291.70648      0.050123105    20.734475      723.73181     -77.048997      646.68281    
   3308000   299.33495      0.050123105    24.640731      742.65826     -72.618518      670.03974    
   3309000   298.82718      0.050123105    23.864692      741.39847     -81.935634      659.46283    
   3310000   304.66258      0.050123105    26.687672      755.87626     -84.266         671.61026    
   3311000   294.3282       0.050123105    25.795174      730.23637     -79.913172      650.3232     
   3312000   300.55026      0.050123105    25.046952      745.67347     -83.806536      661.86694    
   3313000   297.84835      0.050123105    23.229676      738.96998     -81.677342      657.29264    
   3314000   300.56918      0.050123105    25.430241      745.72043     -76.590454      669.12997    
   3315000   312.23215      0.050123105    21.72011       774.65656     -77.31526       697.3413     
   3316000   299.05982      0.050123105    29.356687      741.97566     -77.303697      664.67196    
   3317000   297.69852      0.050123105    21.602064      738.59823     -81.627745      656.97048    
   3318000   306.66365      0.050123105    27.941982      760.84098     -86.149375      674.6916     
   3319000   292.56432      0.050123105    24.826479      725.86013     -88.180616      637.67952    
   3320000   301.5352       0.050123105    25.915611      748.11713     -85.2762        662.84093    
   3321000   302.26851      0.050123105    20.818812      749.9365      -86.522698      663.4138     
   3322000   283.21012      0.050123105    20.907349      702.65212     -78.574501      624.07762    
   3323000   301.66696      0.050123105    26.508935      748.44405     -73.121224      675.32282    
   3324000   294.04186      0.050123105    12.709671      729.52595     -73.841017      655.68494    
   3325000   291.83567      0.050123105    20.782013      724.05233     -77.574927      646.4774     
   3326000   294.2872       0.050123105    29.184761      730.13465     -78.524772      651.60987    
   3327000   320.08073      0.050123105    34.588966      794.12912     -78.989162      715.13995    
   3328000   301.34249      0.050123105    24.604386      747.63902     -79.845156      667.79386    
   3329000   288.40988      0.050123105    24.949484      715.55287     -78.188486      637.36438    
   3330000   304.1498       0.050123105    28.516871      754.60405     -82.049609      672.55444    
   3331000   314.07034      0.050123105    38.474247      779.21717     -84.394798      694.82237    
   3332000   302.71968      0.050123105    27.954869      751.05587     -89.881348      661.17452    
   3333000   278.708        0.050123105    18.357439      691.48224     -86.243749      605.23849    
   3334000   289.72357      0.050123105    25.627907      718.81217     -91.957236      626.85493    
   3335000   310.66925      0.050123105    37.151273      770.77897     -81.88229       688.89668    
   3336000   305.31002      0.050123105    17.601049      757.48258     -78.584184      678.89839    
   3337000   292.98001      0.050123105    32.205767      726.89149     -81.123247      645.76824    
   3338000   290.53489      0.050123105    29.068017      720.82506     -78.645127      642.17993    
   3339000   301.34663      0.050123105    33.74066       747.6493      -80.273539      667.37576    
   3340000   312.633        0.050123105    15.181475      775.6511      -81.634884      694.01622    
   3341000   291.06511      0.050123105    24.483422      722.14056     -72.068019      650.07254    
   3342000   288.2491       0.050123105    21.679967      715.15397     -68.734322      646.41964    
   3343000   304.59301      0.050123105    29.041584      755.70366     -69.583869      686.11979    
   3344000   315.76212      0.050123105    20.696057      783.41451     -73.386956      710.02756    
   3345000   298.36519      0.050123105    4.1646         740.25225     -71.505998      668.74625    
   3346000   292.43976      0.050123105    26.260943      725.5511      -71.960939      653.59016    
   3347000   290.26552      0.050123105    47.117989      720.15677     -80.48081       639.67596    
   3348000   306.7789       0.050123105    19.442442      761.1269      -87.352435      673.77447    
   3349000   299.28397      0.050123105    22.979382      742.53178     -83.647161      658.88462    
   3350000   313.24823      0.050123105    58.914574      777.1775      -84.484947      692.69255    
   3351000   300.23564      0.050123105    8.8076039      744.8929      -80.768648      664.12426    
   3352000   299.24694      0.050123105   -35.287363      742.43991     -73.94567       668.49424    
   3353000   298.09823      0.050123105    31.230206      739.58994     -75.763705      663.82623    
   3354000   303.64819      0.050123105    51.782032      753.35954     -76.189643      677.16989    
   3355000   297.73632      0.050123105    32.057015      738.69202     -78.997614      659.69441    
   3356000   285.96742      0.050123105    39.775905      709.49305     -83.079576      626.41347    
   3357000   302.47145      0.050123105    25.118759      750.43999     -83.990094      666.4499     
   3358000   297.49603      0.050123105   -4.3282324      738.09585     -75.229803      662.86605    
   3359000   294.90832      0.050123105    34.519481      731.67568     -73.705978      657.96971    
   3360000   301.56227      0.050123105    43.37704       748.1843      -81.087198      667.0971     
   3361000   298.39943      0.050123105    19.96125       740.33722     -76.22999       664.10723    
   3362000   304.75369      0.050123105    23.173749      756.10232     -73.781129      682.32119    
   3363000   305.9602       0.050123105    29.348875      759.0957      -85.079206      674.01649    
   3364000   300.66215      0.050123105    36.666787      745.95108     -83.623033      662.32805    
   3365000   318.30392      0.050123105    23.715753      789.72079     -89.408634      700.31216    
   3366000   300.79018      0.050123105    21.513736      746.26873     -84.00008       662.26865    
   3367000   294.93466      0.050123105    17.867148      731.74101     -87.60866       644.13235    
   3368000   290.81832      0.050123105    23.903044      721.52827     -89.043053      632.48522    
   3369000   308.9606       0.050123105    28.836639      766.53977     -79.806909      686.73286    
   3370000   292.04363      0.050123105    20.362706      724.56829     -84.071674      640.49661    
   3371000   294.41665      0.050123105    16.463525      730.45582     -86.913616      643.5422     
   3372000   306.92989      0.050123105    28.20476       761.50152     -90.472394      671.02913    
   3373000   309.29234      0.050123105    37.157356      767.36283     -88.876251      678.48658    
   3374000   297.49156      0.050123105    21.780656      738.08477     -80.099454      657.98531    
   3375000   291.97396      0.050123105    30.2714        724.39545     -72.288662      652.10679    
   3376000   311.38435      0.050123105    24.409116      772.55317     -76.435826      696.11734    
   3377000   303.95364      0.050123105    26.759331      754.11735     -71.50394       682.61341    
   3378000   283.80786      0.050123105    21.179043      704.13511     -75.060658      629.07445    
   3379000   291.77109      0.050123105    15.117219      723.89211     -78.897384      644.99473    
   3380000   307.79585      0.050123105    25.119592      763.65        -77.075387      686.57461    
   3381000   302.05076      0.050123105    27.617735      749.39625     -85.43457       663.96168    
   3382000   301.25173      0.050123105    15.661958      747.41385     -84.819951      662.5939     
   3383000   294.75393      0.050123105    13.937932      731.29264     -85.671256      645.62138    
   3384000   302.71418      0.050123105    24.799907      751.04223     -85.106554      665.93568    
   3385000   311.36917      0.050123105    28.764015      772.5155      -88.698364      683.81714    
   3386000   295.25509      0.050123105    29.173387      732.53602     -89.985497      642.55053    
   3387000   297.89216      0.050123105    27.184559      739.07867     -82.905091      656.17357    
   3388000   293.3689       0.050123105    21.406195      727.85633     -80.017899      647.83843    
   3389000   304.21379      0.050123105    21.825693      754.76279     -83.505039      671.25775    
   3390000   316.82476      0.050123105    25.831556      786.05096     -81.900011      704.15095    
   3391000   310.76423      0.050123105    25.679618      771.01461     -82.496083      688.51853    
   3392000   276.70877      0.050123105    21.421956      686.52209     -84.745793      601.7763     
   3393000   298.14164      0.050123105    24.586254      739.69764     -79.093075      660.60456    
   3394000   308.36461      0.050123105    25.88519       765.0611      -79.661029      685.40007    
   3395000   302.12808      0.050123105    30.908886      749.5881      -83.697288      665.89081    
   3396000   301.37097      0.050123105    32.172167      747.70967     -92.33398       655.37569    
   3397000   299.35533      0.050123105    29.529141      742.70881     -88.12904       654.57978    
   3398000   305.93888      0.050123105    21.14682       759.04281     -94.298056      664.74475    
   3399000   303.3307       0.050123105    13.359684      752.57184     -99.988717      652.58312    
   3400000   300.9367       0.050123105    29.821486      746.63224     -100.62798      646.00426    
   3401000   297.38449      0.050123105    29.231772      737.81911     -102.07471      635.7444     
   3402000   301.92701      0.050123105    20.884325      749.08923     -91.797163      657.29207    
   3403000   305.36092      0.050123105    22.705414      757.60887     -92.506289      665.10258    
   3404000   288.6439       0.050123105    29.470929      716.13346     -90.212326      625.92113    
   3405000   303.22497      0.050123105    17.670811      752.3095      -93.399926      658.90957    
   3406000   316.07902      0.050123105    25.716128      784.20075     -89.875849      694.3249     
   3407000   304.40036      0.050123105    24.759178      755.22568     -87.664227      667.56145    
   3408000   294.96152      0.050123105    23.975515      731.80767     -86.106229      645.70144    
   3409000   308.54988      0.050123105    20.332562      765.52076     -88.432982      677.08778    
   3410000   297.69359      0.050123105    32.078981      738.58601     -93.328346      645.25766    
   3411000   306.54968      0.050123105    31.866554      760.55821     -84.822474      675.73573    
   3412000   292.49532      0.050123105    20.174086      725.68896     -86.21868       639.47028    
   3413000   295.51785      0.050123105    18.261325      733.18793     -82.826899      650.36103    
   3414000   309.15344      0.050123105    25.140388      767.01821     -81.489143      685.52907    
   3415000   294.21017      0.050123105    35.097299      729.94353     -85.828324      644.11521    
   3416000   294.5401       0.050123105    19.028201      730.76212     -88.091343      642.67077    
   3417000   308.78678      0.050123105    22.217157      766.1085      -86.565749      679.54275    
   3418000   300.6836       0.050123105    23.659496      746.00429     -83.432432      662.57186    
   3419000   287.72898      0.050123105    15.504815      713.86353     -92.192677      621.67085    
   3420000   301.37293      0.050123105    22.750133      747.71455     -84.958183      662.75637    
   3421000   303.59497      0.050123105    19.754268      753.22748     -86.121354      667.10613    
   3422000   319.79599      0.050123105    50.070093      793.42266     -87.714683      705.70798    
   3423000   295.88717      0.050123105    42.993727      734.10422     -88.264601      645.83962    
   3424000   295.34931      0.050123105    19.74496       732.76978     -97.816856      634.95293    
   3425000   292.97007      0.050123105    5.5920178      726.86682     -98.117712      628.7491     
   3426000   304.39539      0.050123105    39.517294      755.21335     -94.455017      660.75833    
   3427000   307.08893      0.050123105    20.476893      761.89609     -85.477678      676.41841    
   3428000   290.59222      0.050123105    20.818695      720.96731     -82.487902      638.47941    
   3429000   293.53868      0.050123105    35.071545      728.27755     -85.236607      643.04094    
   3430000   303.10399      0.050123105    14.841674      752.00935     -90.944461      661.06489    
   3431000   311.66006      0.050123105    28.225525      773.2372      -93.584849      679.65235    
   3432000   301.38444      0.050123105    23.02955       747.74309     -94.893097      652.85       
   3433000   290.63056      0.050123105    23.945925      721.06243     -92.399117      628.66331    
   3434000   290.27924      0.050123105    21.49458       720.1908      -93.347629      626.84317    
   3435000   316.9492       0.050123105    21.539209      786.35971     -90.051366      696.30835    
   3436000   291.97094      0.050123105    24.29271       724.38795     -89.044706      635.34324    
   3437000   285.35038      0.050123105    19.100093      707.96216     -82.834447      625.12772    
   3438000   303.55633      0.050123105    24.766098      753.13163     -87.665795      665.46584    
   3439000   299.83987      0.050123105    22.923019      743.91098     -79.442487      664.4685     
   3440000   295.83926      0.050123105    27.020312      733.98535     -82.464349      651.521      
   3441000   287.93232      0.050123105    24.888241      714.36802     -82.560544      631.80748    
   3442000   303.46005      0.050123105    24.908856      752.89276     -78.28757       674.60519    
   3443000   310.87707      0.050123105    10.268343      771.29459     -82.020287      689.2743     
   3444000   294.89177      0.050123105    14.139472      731.63462     -90.368418      641.2662     
   3445000   299.66178      0.050123105    38.16666       743.46913     -90.904884      652.56425    
   3446000   304.94236      0.050123105    14.834989      756.57041     -88.983069      667.58734    
   3447000   290.10534      0.050123105    4.2373329      719.75934     -89.934887      629.82445    
   3448000   291.30313      0.050123105    40.751644      722.73111     -81.289205      641.4419     
   3449000   285.90062      0.050123105    39.188372      709.32732     -91.799001      617.52832    
   3450000   318.41681      0.050123105    33.879249      790.00087     -91.645508      698.35537    
   3451000   295.81206      0.050123105    20.008715      733.91788     -94.722113      639.19577    
   3452000   297.63715      0.050123105    25.335612      738.44598     -85.247845      653.19814    
   3453000   291.72921      0.050123105    28.047273      723.78821     -86.275726      637.51248    
   3454000   304.42659      0.050123105    27.108478      755.29076     -88.246916      667.04384    
   3455000   302.37735      0.050123105    15.997133      750.20653     -82.271515      667.93502    
   3456000   299.68675      0.050123105    25.079353      743.53109     -83.163076      660.36801    
   3457000   289.65865      0.050123105    25.89131       718.65109     -84.775335      633.87576    
   3458000   300.96443      0.050123105    32.74612       746.70106     -86.023888      660.67717    
   3459000   305.65728      0.050123105    32.428605      758.34413     -89.345187      668.99895    
   3460000   311.62097      0.050123105    23.771869      773.14022     -91.215284      681.92494    
   3461000   297.40677      0.050123105    24.234564      737.8744      -87.091755      650.78265    
   3462000   310.00796      0.050123105    26.669243      769.13828     -87.436252      681.70203    
   3463000   292.79743      0.050123105    18.748148      726.43851     -88.915902      637.5226     
   3464000   299.49272      0.050123105    25.667202      743.0497      -80.995533      662.05417    
   3465000   306.49511      0.050123105    28.208066      760.42282     -76.707746      683.71508    
   3466000   297.81835      0.050123105    26.218458      738.89552     -82.748915      656.14661    
   3467000   295.65955      0.050123105    22.445459      733.53949     -79.659076      653.88041    
   3468000   293.39237      0.050123105    30.556907      727.91456     -79.05331       648.86125    
   3469000   315.36612      0.050123105    28.417967      782.43205     -84.975261      697.45679    
   3470000   304.27397      0.050123105    21.721794      754.9121      -91.254187      663.65791    
   3471000   306.29091      0.050123105    19.072141      759.91619     -91.385718      668.53047    
   3472000   289.62217      0.050123105    21.624942      718.56058     -85.970968      632.58961    
   3473000   292.15815      0.050123105    26.742919      724.85243     -78.219393      646.63304    
   3474000   310.75563      0.050123105    26.704875      770.99329     -87.812887      683.1804     
   3475000   307.21989      0.050123105    25.086308      762.22102     -82.685987      679.53503    
   3476000   297.94531      0.050123105    27.989125      739.21053     -80.73691       658.47362    
   3477000   288.21963      0.050123105    25.485062      715.08084     -83.294877      631.78596    
   3478000   303.94662      0.050123105    9.6132717      754.09993     -81.255762      672.84417    
   3479000   311.94596      0.050123105    11.876912      773.94652     -79.629605      694.31691    
   3480000   299.19698      0.050123105    24.670555      742.31596     -81.468936      660.84702    
   3481000   295.81285      0.050123105    26.788506      733.91984     -89.471695      644.44815    
   3482000   294.40875      0.050123105    25.665128      730.43624     -83.923487      646.51275    
   3483000   301.77767      0.050123105    23.757944      748.71873     -93.449442      655.26928    
   3484000   303.65196      0.050123105    33.464792      753.36889     -89.002626      664.36627    
   3485000   303.12605      0.050123105    24.39173       752.06409     -91.754063      660.31003    
   3486000   309.42692      0.050123105    22.81885       767.69673     -86.701884      680.99484    
   3487000   305.57656      0.050123105    26.716105      758.14388     -77.860036      680.28384    
   3488000   292.46917      0.050123105    22.840641      725.62408     -76.444576      649.1795     
   3489000   301.56706      0.050123105    22.386329      748.19619     -88.591968      659.60422    
   3490000   300.93992      0.050123105    20.622668      746.64023     -95.758976      650.88125    
   3491000   297.80383      0.050123105    20.507718      738.8595      -92.472342      646.38716    
   3492000   291.335        0.050123105    17.558632      722.81017     -94.647833      628.16234    
   3493000   295.21908      0.050123105    27.461378      732.44667     -95.441318      637.00536    
   3494000   299.60869      0.050123105    22.703062      743.33742     -91.542743      651.79468    
   3495000   305.25054      0.050123105    24.997925      757.33501     -82.469204      674.86581    
   3496000   295.55629      0.050123105    36.195244      733.2833      -83.245918      650.03739    
   3497000   307.06528      0.050123105    30.206237      761.83743     -88.347178      673.49025    
   3498000   305.25992      0.050123105    19.88577       757.35827     -74.768541      682.58973    
   3499000   297.32765      0.050123105    25.624665      737.6781      -79.971518      657.70658    
   3500000   301.96299      0.050123105    33.229093      749.1785      -77.816005      671.3625     
   3501000   300.63857      0.050123105    32.703971      745.89257     -87.524844      658.36773    
   3502000   306.48505      0.050123105    33.262676      760.39786     -86.840712      673.55715    
   3503000   299.0295       0.050123105    26.192142      741.90044     -75.685059      666.21538    
   3504000   307.67628      0.050123105    9.8510792      763.35332     -87.368813      675.98451    
   3505000   290.9423       0.050123105    20.905416      721.83585     -84.97741       636.85844    
   3506000   307.2538       0.050123105    28.947082      762.30515     -79.52823       682.77692    
   3507000   313.10784      0.050123105    22.537459      776.82917     -83.372652      693.45652    
   3508000   306.61484      0.050123105    20.07228       760.71986     -83.817837      676.90203    
   3509000   293.90859      0.050123105    29.642247      729.19532     -91.637447      637.55787    
   3510000   290.11561      0.050123105    27.28504       719.78482     -88.960298      630.82452    
   3511000   288.54704      0.050123105    22.313696      715.89316     -90.582654      625.31051    
   3512000   297.51539      0.050123105    12.586448      738.14388     -88.431572      649.71231    
   3513000   309.67569      0.050123105    22.325482      768.31393     -86.710663      681.60327    
   3514000   311.67844      0.050123105    25.161098      773.28281     -84.717775      688.56504    
   3515000   302.7812       0.050123105    36.221686      751.2085      -82.402534      668.80596    
   3516000   298.51214      0.050123105    25.532076      740.61685     -84.988936      655.62791    
   3517000   303.82094      0.050123105    24.277365      753.78812     -79.256469      674.53165    
   3518000   311.75677      0.050123105    16.715202      773.47714     -85.564679      687.91247    
   3519000   299.60963      0.050123105    25.084018      743.33975     -83.934264      659.40549    
   3520000   296.23723      0.050123105    29.395157      734.97274     -81.936291      653.03644    
   3521000   296.76368      0.050123105    21.842865      736.27887     -86.479417      649.79945    
   3522000   300.27978      0.050123105    19.412075      745.00242     -87.78708       657.21534    
   3523000   309.72781      0.050123105    28.093073      768.44324     -85.303909      683.13933    
   3524000   291.87947      0.050123105    25.067664      724.161       -86.579733      637.58127    
   3525000   313.21939      0.050123105    31.530545      777.10593     -83.647009      693.45892    
   3526000   307.38392      0.050123105    21.969854      762.62799     -85.507778      677.12021    
   3527000   284.73463      0.050123105    23.508933      706.43446     -81.518561      624.9159     
   3528000   298.28433      0.050123105    23.553282      740.05164     -87.475226      652.57641    
   3529000   307.02579      0.050123105    24.269039      761.73944     -83.934788      677.80465    
   3530000   300.01627      0.050123105    28.189082      744.34865     -82.885937      661.46271    
   3531000   284.74149      0.050123105    27.231694      706.45148     -84.177912      622.27357    
   3532000   308.60502      0.050123105    23.985256      765.65755     -81.207919      684.44963    
   3533000   302.67972      0.050123105    24.406309      750.95674     -82.218464      668.73828    
   3534000   290.13698      0.050123105    26.398031      719.83786     -84.243604      635.59425    
   3535000   304.07554      0.050123105    23.01658       754.41979     -84.160082      670.25971    
   3536000   303.32394      0.050123105    24.553501      752.55505     -82.068903      670.48615    
   3537000   288.90471      0.050123105    17.685542      716.78055     -85.992607      630.78794    
   3538000   297.13211      0.050123105    40.111808      737.19296     -73.003294      664.18967    
   3539000   308.28828      0.050123105    25.130931      764.87172     -84.080506      680.79121    
   3540000   299.75111      0.050123105    18.011869      743.69077     -80.173404      663.51737    
   3541000   294.83163      0.050123105    31.729579      731.4854      -80.36958       651.11582    
   3542000   325.42309      0.050123105    34.714256      807.38366     -82.384401      724.99925    
   3543000   312.42636      0.050123105    4.8916523      775.13842     -75.907751      699.23067    
   3544000   288.38082      0.050123105    5.9310075      715.48076     -80.683737      634.79702    
   3545000   292.24339      0.050123105    31.267128      725.06392     -79.02873       646.03518    
   3546000   299.18949      0.050123105    16.778659      742.29736     -85.539553      656.75781    
   3547000   302.66367      0.050123105    11.920135      750.91691     -80.993183      669.92373    
   3548000   304.78076      0.050123105    33.066091      756.16946     -82.21624       673.95322    
   3549000   306.83378      0.050123105    26.107963      761.26307     -79.901012      681.36206    
   3550000   307.44719      0.050123105    26.547994      762.78495     -81.065686      681.71926    
   3551000   300.72101      0.050123105    23.968908      746.09712     -79.404391      666.69272    
   3552000   295.51289      0.050123105    19.585918      733.17563     -78.323421      654.8522     
   3553000   304.18871      0.050123105    26.936545      754.70058     -83.487885      671.2127     
   3554000   304.60813      0.050123105    28.01154       755.74116     -87.459534      668.28162    
   3555000   301.32907      0.050123105    16.321347      747.60574     -87.474468      660.13127    
   3556000   304.40281      0.050123105    22.355929      755.23176     -95.143051      660.08871    
   3557000   303.26607      0.050123105    49.605344      752.41148     -88.36943       664.04205    
   3558000   300.38302      0.050123105    18.762391      745.25855     -93.510501      651.74805    
   3559000   289.33215      0.050123105    21.433885      717.84104     -90.702226      627.13882    
   3560000   296.79195      0.050123105    26.815862      736.34902     -95.685488      640.66353    
   3561000   302.22788      0.050123105    33.454596      749.83569     -97.440535      652.39515    
   3562000   294.93129      0.050123105    29.576831      731.73265     -92.332436      639.40021    
   3563000   296.15129      0.050123105    24.479581      734.75952     -94.977565      639.78195    
   3564000   306.27947      0.050123105    25.485837      759.8878      -92.433763      667.45404    
   3565000   306.53325      0.050123105    45.628152      760.51744     -88.390012      672.12743    
   3566000   291.64682      0.050123105    12.673045      723.58379     -90.872258      632.71153    
   3567000   302.04226      0.050123105    22.657024      749.37517     -91.7063        657.66887    
   3568000   306.30644      0.050123105    31.079133      759.95472     -90.068951      669.88577    
   3569000   304.08345      0.050123105    33.030064      754.43943     -92.391404      662.04802    
   3570000   290.3747       0.050123105    23.759745      720.42763     -83.847413      636.58022    
   3571000   297.32593      0.050123105    24.061372      737.67383     -77.072145      660.60168    
   3572000   311.78051      0.050123105    27.72847       773.53605     -87.43426       686.10179    
   3573000   309.94705      0.050123105    31.053748      768.98717     -87.37823       681.60894    
   3574000   290.29491      0.050123105    26.058078      720.22967     -83.816321      636.41335    
   3575000   304.95861      0.050123105    25.68517       756.61071     -82.033806      674.5769     
   3576000   297.90396      0.050123105    19.706972      739.10793     -82.81918       656.28875    
   3577000   294.87922      0.050123105    21.361338      731.60348     -84.879237      646.72424    
   3578000   306.03101      0.050123105    21.930797      759.27136     -86.512318      672.75904    
   3579000   302.44034      0.050123105    25.345688      750.36282     -79.483936      670.87888    
   3580000   287.69975      0.050123105    27.375997      713.791       -81.396585      632.39441    
   3581000   299.41014      0.050123105    23.726399      742.84481     -87.094437      655.75038    
   3582000   295.88458      0.050123105    24.039681      734.09779     -89.248056      644.84974    
   3583000   309.70893      0.050123105    28.118563      768.39639     -83.91076       684.48563    
   3584000   298.8613       0.050123105    26.28973       741.48313     -84.815137      656.66799    
   3585000   287.17746      0.050123105    22.87759       712.4952      -77.883327      634.61187    
   3586000   292.21647      0.050123105    30.676987      724.99712     -83.940626      641.05649    
   3587000   305.50416      0.050123105    25.487758      757.96424     -77.756735      680.2075     
   3588000   297.4532       0.050123105    11.41345       737.98958     -89.21313       648.77645    
   3589000   294.82266      0.050123105    26.101179      731.46315     -85.225593      646.23755    
   3590000   313.58625      0.050123105    25.410206      778.01612     -83.155414      694.86071    
   3591000   301.51853      0.050123105    22.84802       748.0758      -81.931125      666.14467    
   3592000   287.91751      0.050123105    17.51782       714.33129     -78.685418      635.64587    
   3593000   295.97108      0.050123105    28.418041      734.31241     -85.72913       648.58328    
   3594000   308.60432      0.050123105    33.284384      765.65582     -86.224258      679.43156    
   3595000   297.34575      0.050123105    27.892066      737.72299     -92.480407      645.24258    
   3596000   298.12265      0.050123105    25.244028      739.65051     -85.734028      653.91649    
   3597000   298.52548      0.050123105    18.451338      740.64995     -96.77369       643.87626    
   3598000   296.18544      0.050123105    24.79313       734.84424     -81.592301      653.25193    
   3599000   302.79238      0.050123105    28.041247      751.23624     -76.694555      674.54169    
   3600000   290.10109      0.050123105    25.890722      719.7488      -74.713413      645.03538    
   3601000   295.71034      0.050123105    23.796519      733.66549     -75.011881      658.65361    
   3602000   299.77521      0.050123105    27.916265      743.75056     -78.619124      665.13144    
   3603000   304.09307      0.050123105    23.552222      754.4633      -74.270436      680.19286    
   3604000   297.78577      0.050123105    9.1986664      738.81471     -81.523596      657.29112    
   3605000   297.49465      0.050123105    20.752599      738.09242     -80.083824      658.00859    
   3606000   297.09851      0.050123105    28.829899      737.10959     -78.314634      658.79496    
   3607000   307.11589      0.050123105    26.024596      761.963       -76.685175      685.27782    
   3608000   305.418        0.050123105    14.312797      757.75047     -79.403707      678.34677    
   3609000   304.68706      0.050123105    26.767321      755.93699     -75.437476      680.49952    
   3610000   300.58859      0.050123105    24.628425      745.76857     -79.601137      666.16743    
   3611000   287.25329      0.050123105    13.546643      712.68332     -87.817315      624.86601    
   3612000   301.82525      0.050123105    25.728617      748.83676     -77.400268      671.43649    
   3613000   310.96186      0.050123105    24.610173      771.50495     -66.783135      704.72181    
   3614000   296.43657      0.050123105    36.156797      735.46729     -65.463092      670.0042     
   3615000   290.07915      0.050123105    17.703054      719.69436     -79.904568      639.7898     
   3616000   290.93046      0.050123105    23.894592      721.80648     -77.914413      643.89207    
   3617000   314.33805      0.050123105    25.149692      779.88138     -74.161129      705.72025    
   3618000   285.51307      0.050123105    25.194878      708.36581     -79.276692      629.08911    
   3619000   288.0326       0.050123105    21.497197      714.61681     -78.470197      636.14661    
   3620000   302.19879      0.050123105    26.117728      749.76352     -76.26948       673.49404    
   3621000   304.82921      0.050123105    25.438673      756.28968     -79.483924      676.80576    
   3622000   296.72017      0.050123105    28.393294      736.17093     -75.24981       660.92112    
   3623000   290.17643      0.050123105    19.680769      719.93572     -78.528494      641.40722    
   3624000   291.66405      0.050123105    24.20024       723.62655     -79.271255      644.3553     
   3625000   301.65821      0.050123105    20.223001      748.42234     -79.792577      668.62977    
   3626000   306.22489      0.050123105    25.330976      759.7524      -77.330384      682.42201    
   3627000   306.56695      0.050123105    29.427566      760.60106     -78.459428      682.14163    
   3628000   299.16796      0.050123105    22.152545      742.24396     -83.860229      658.38373    
   3629000   318.95309      0.050123105    16.109629      791.3314      -83.979976      707.35142    
   3630000   294.62267      0.050123105    23.355377      730.96696     -83.33431       647.63265    
   3631000   299.70177      0.050123105    22.945382      743.56835     -89.433978      654.13437    
   3632000   308.4188       0.050123105    26.978244      765.19553     -85.987093      679.20844    
   3633000   303.45525      0.050123105    25.91322       752.88084     -83.572306      669.30854    
   3634000   297.5299       0.050123105    25.180448      738.17988     -87.759677      650.4202     
   3635000   303.32132      0.050123105    24.818177      752.54854     -76.294547      676.254      
   3636000   302.43893      0.050123105    21.540809      750.35931     -74.89939       675.45992    
   3637000   301.63019      0.050123105    26.691722      748.35282     -78.229546      670.12327    
   3638000   295.6337       0.050123105    23.109343      733.47535     -80.753313      652.72204    
   3639000   292.2083       0.050123105    25.469946      724.97685     -86.826867      638.14998    
   3640000   302.66761      0.050123105    23.173027      750.92668     -86.120018      664.80666    
   3641000   296.4166       0.050123105    26.377199      735.41777     -80.851962      654.56581    
   3642000   296.14954      0.050123105    21.342355      734.75518     -88.349087      646.4061     
   3643000   314.707        0.050123105    24.441144      780.79674     -89.010306      691.78644    
   3644000   290.13319      0.050123105    25.742517      719.82845     -85.742312      634.08614    
   3645000   296.01636      0.050123105    21.34048       734.42475     -94.199526      640.22522    
   3646000   304.66795      0.050123105    23.264325      755.88959     -95.960297      659.9293     
   3647000   297.27571      0.050123105    26.131464      737.54922     -88.111207      649.43801    
   3648000   301.56631      0.050123105    27.322028      748.19432     -100.5438       647.65051    
   3649000   308.4568       0.050123105    19.74772       765.28983     -105.62168      659.66816    
   3650000   279.25088      0.050123105    22.953595      692.82914     -92.383236      600.4459     
   3651000   299.12955      0.050123105    37.43513       742.14867     -87.215674      654.93299    
   3652000   299.19776      0.050123105    26.680147      742.31789     -89.89344       652.42445    
   3653000   308.23787      0.050123105    25.996298      764.74665     -89.856978      674.88968    
   3654000   308.2863       0.050123105    17.946992      764.86681     -91.333652      673.53316    
   3655000   289.95876      0.050123105    27.614491      719.39568     -91.72828       627.6674     
   3656000   316.25897      0.050123105    29.169691      784.64722     -84.656802      699.99042    
   3657000   309.63013      0.050123105    16.720643      768.20089     -89.755875      678.44501    
   3658000   295.01398      0.050123105    26.337705      731.93782     -87.458769      644.47905    
   3659000   298.57259      0.050123105    28.239404      740.76684     -94.888103      645.87873    
   3660000   306.96438      0.050123105    24.096781      761.58709     -94.80688       666.78021    
   3661000   296.65007      0.050123105    31.968112      735.99701     -93.886269      642.11074    
   3662000   297.06092      0.050123105    21.907856      737.01634     -97.494401      639.52194    
   3663000   298.06956      0.050123105    20.522984      739.51879     -98.059657      641.45913    
   3664000   301.80435      0.050123105    28.795624      748.78491     -92.13993       656.64498    
   3665000   289.50682      0.050123105    21.583927      718.2744      -89.083751      629.19065    
   3666000   309.11224      0.050123105    30.876144      766.91599     -86.129015      680.78698    
   3667000   310.00235      0.050123105    22.553365      769.12438     -87.297236      681.82714    
   3668000   295.07363      0.050123105    24.498721      732.08581     -93.499489      638.58632    
   3669000   286.884        0.050123105    20.545351      711.76712     -91.138868      620.62825    
   3670000   310.39761      0.050123105    25.107294      770.10502     -91.62776       678.47726    
   3671000   298.41164      0.050123105    23.592073      740.3675      -96.182679      644.18483    
   3672000   285.66708      0.050123105    23.602153      708.7479      -88.459807      620.2881     
   3673000   302.816        0.050123105    25.321159      751.29484     -88.793943      662.5009     
   3674000   303.38418      0.050123105    27.851789      752.70451     -86.366398      666.33812    
   3675000   299.71278      0.050123105    41.53313       743.59567     -77.416084      666.17959    
   3676000   299.28771      0.050123105    25.799574      742.54106     -80.604241      661.93682    
   3677000   294.72396      0.050123105    22.414491      731.21826     -80.203643      651.01462    
   3678000   304.65081      0.050123105    25.982104      755.84706     -86.151978      669.69508    
   3679000   304.61485      0.050123105    22.683277      755.75783     -79.695143      676.06269    
   3680000   300.49932      0.050123105    33.593051      745.5471      -79.346348      666.20075    
   3681000   315.73972      0.050123105    30.150598      783.35896     -86.194909      697.16405    
   3682000   297.20657      0.050123105    29.354513      737.3777      -83.62699       653.75071    
   3683000   298.37492      0.050123105    22.6047        740.27639     -89.848568      650.42782    
   3684000   295.66865      0.050123105    21.003307      733.56207     -83.001562      650.56051    
   3685000   303.65335      0.050123105    22.007475      753.37234     -81.195341      672.177      
   3686000   302.54968      0.050123105    28.481782      750.63408     -81.762495      668.87159    
   3687000   316.98498      0.050123105    31.269524      786.44847     -79.084134      707.36434    
   3688000   291.78778      0.050123105    20.723941      723.93351     -89.496218      634.4373     
   3689000   288.46563      0.050123105    21.618354      715.69119     -94.680656      621.01053    
   3690000   312.29774      0.050123105    26.117067      774.81931     -97.060469      677.75884    
   3691000   289.6419       0.050123105    28.85877       718.60955     -83.033714      635.57583    
   3692000   299.31498      0.050123105    24.730103      742.60871     -79.45823       663.15048    
   3693000   315.52908      0.050123105    30.39119       782.83635     -79.62448       703.21187    
   3694000   303.29732      0.050123105    25.494807      752.48902     -76.045726      676.44329    
   3695000   297.40685      0.050123105    23.481045      737.8746      -74.327445      663.54715    
   3696000   298.28735      0.050123105    25.218473      740.05915     -77.996592      662.06256    
   3697000   303.01726      0.050123105    31.773666      751.79417     -70.691132      681.10303    
   3698000   299.77746      0.050123105    31.662388      743.75614     -66.236428      677.51971    
   3699000   302.12959      0.050123105    22.99339       749.59184     -70.839434      678.7524     
   3700000   303.68541      0.050123105    21.7855        753.45187     -72.824082      680.62779    
   3701000   298.08479      0.050123105    23.265547      739.55657     -76.440839      663.11573    
   3702000   305.82708      0.050123105    24.448843      758.76542     -78.576103      680.18932    
   3703000   305.51032      0.050123105    25.049296      757.97952     -76.030725      681.94879    
   3704000   299.40258      0.050123105    8.9155904      742.82606     -85.100692      657.72537    
   3705000   302.74378      0.050123105    15.19386       751.11567     -81.344839      669.77083    
   3706000   279.3459       0.050123105    25.639269      693.06487     -84.280986      608.78388    
   3707000   301.76984      0.050123105    30.629239      748.6993      -92.10993       656.58936    
   3708000   297.01035      0.050123105    7.1953975      736.89087     -85.110711      651.78016    
   3709000   301.2176       0.050123105    33.552149      747.32916     -85.713017      661.61615    
   3710000   303.57349      0.050123105    23.135909      753.1742      -88.662842      664.51136    
   3711000   299.79009      0.050123105    14.911244      743.78749     -89.563292      654.22419    
   3712000   296.54053      0.050123105    29.467982      735.72523     -91.013431      644.71179    
   3713000   299.26481      0.050123105    35.902924      742.48423     -92.678235      649.806      
   3714000   297.97979      0.050123105    19.88416       739.29608     -80.888904      658.40718    
   3715000   292.83278      0.050123105    26.655226      726.5262      -79.818127      646.70807    
   3716000   303.19601      0.050123105    27.579181      752.23767     -74.921763      677.31591    
   3717000   297.06073      0.050123105    24.383452      737.01585     -77.386204      659.62965    
   3718000   293.14777      0.050123105    12.73703       727.3077      -80.61348       646.69422    
   3719000   287.12728      0.050123105    20.585665      712.3707      -82.230067      630.14063    
   3720000   299.0348       0.050123105    21.713461      741.91359     -90.586082      651.32751    
   3721000   317.25766      0.050123105    21.330407      787.12499     -85.706253      701.41874    
   3722000   299.52779      0.050123105    22.343914      743.13671     -86.290604      656.84611    
   3723000   291.25502      0.050123105    33.253422      722.61173     -90.763107      631.84862    
   3724000   300.13694      0.050123105    23.658337      744.64803     -85.376415      659.27161    
   3725000   321.47591      0.050123105    19.923336      797.5906      -81.062009      716.52859    
   3726000   307.93608      0.050123105    12.183329      763.99791     -81.759193      682.23872    
   3727000   289.29873      0.050123105    24.733758      717.75812     -87.232609      630.52551    
   3728000   297.24867      0.050123105    39.326581      737.48214     -84.424087      653.05805    
   3729000   307.27582      0.050123105    23.066268      762.35979     -79.628827      682.73096    
   3730000   300.00465      0.050123105    20.3329        744.31982     -79.841848      664.47797    
   3731000   295.33924      0.050123105    36.645805      732.74479     -79.166003      653.57878    
   3732000   303.20173      0.050123105    30.159025      752.25184     -77.711985      674.53986    
   3733000   313.97241      0.050123105    21.752013      778.9742      -75.539388      703.43481    
   3734000   303.53867      0.050123105    21.551477      753.08781     -75.877193      677.21061    
   3735000   283.92339      0.050123105    32.377624      704.42177     -73.731911      630.68986    
   3736000   298.9454       0.050123105    39.751955      741.69178     -78.357571      663.33421    
   3737000   306.82498      0.050123105    22.102525      761.24123     -83.392432      677.8488     
   3738000   294.34322      0.050123105    8.9243291      730.27364     -89.9686        640.30504    
   3739000   279.74149      0.050123105    42.180651      694.04634     -86.985364      607.06098    
   3740000   316.15041      0.050123105    29.228045      784.37788     -86.453585      697.9243     
   3741000   310.02183      0.050123105    16.132818      769.17269     -80.230045      688.94265    
   3742000   287.21075      0.050123105    28.275808      712.57779     -84.278955      628.29884    
   3743000   293.31197      0.050123105    29.888382      727.71507     -80.227051      647.48802    
   3744000   304.73208      0.050123105    24.278154      756.04868     -79.101097      676.94759    
   3745000   301.67925      0.050123105    30.320037      748.47454     -81.377815      667.09672    
   3746000   289.30355      0.050123105    29.146055      717.77007     -74.608782      643.16129    
   3747000   286.64903      0.050123105    25.827254      711.18415     -74.725175      636.45898    
   3748000   301.78373      0.050123105    33.116433      748.73376     -72.190814      676.54295    
   3749000   305.82737      0.050123105    21.768918      758.76614     -72.335702      686.43044    
   3750000   294.31715      0.050123105    19.563224      730.20897     -79.238934      650.97004    
   3751000   289.2963       0.050123105    27.616993      717.75209     -84.649464      633.10262    
   3752000   302.25154      0.050123105    36.562331      749.89441     -79.520802      670.37361    
   3753000   314.0854       0.050123105    32.527869      779.25453     -82.971034      696.28349    
   3754000   295.97131      0.050123105    31.154109      734.31298     -76.456002      657.85697    
   3755000   290.58365      0.050123105    8.769675       720.94604     -72.948387      647.99765    
   3756000   306.66966      0.050123105    26.247619      760.85587     -70.587173      690.2687     
   3757000   308.09104      0.050123105    26.106274      764.38237     -63.890651      700.49172    
   3758000   287.59459      0.050123105    24.370535      713.53011     -71.034522      642.49559    
   3759000   289.84087      0.050123105    22.807138      719.10319     -70.16949       648.9337     
   3760000   304.82078      0.050123105    22.459235      756.26875     -75.944973      680.32378    
   3761000   296.94012      0.050123105    28.209075      736.71663     -80.952487      655.76414    
   3762000   304.62237      0.050123105    20.201124      755.7765      -83.702395      672.0741     
   3763000   294.74946      0.050123105    26.01382       731.28154     -86.07667       645.20487    
   3764000   305.55272      0.050123105    28.698188      758.08472     -85.68333       672.40139    
   3765000   312.25253      0.050123105    32.067559      774.70712     -82.581446      692.12568    
   3766000   289.69533      0.050123105    24.791724      718.7421      -79.589082      639.15302    
   3767000   305.43405      0.050123105    27.621888      757.7903      -82.692978      675.09732    
   3768000   298.48879      0.050123105    20.552562      740.55892     -83.875991      656.68293    
   3769000   297.63206      0.050123105    23.20508       738.43333     -83.991053      654.44228    
   3770000   312.42976      0.050123105    30.690347      775.14685     -84.874866      690.27198    
   3771000   304.64216      0.050123105    29.9147        755.8256      -79.773727      676.05187    
   3772000   299.82202      0.050123105    22.248229      743.86669     -86.879051      656.98764    
   3773000   301.92116      0.050123105    26.233829      749.07473     -89.625648      659.44908    
   3774000   296.21031      0.050123105    26.170299      734.90595     -85.903914      649.00204    
   3775000   288.11943      0.050123105    24.416614      714.83225     -89.069824      625.76243    
   3776000   294.71699      0.050123105    22.559828      731.20099     -83.570601      647.63038    
   3777000   296.59558      0.050123105    27.053295      735.8618      -86.971279      648.89052    
   3778000   310.76667      0.050123105    23.549626      771.02068     -88.284949      682.73574    
   3779000   304.54714      0.050123105    22.606943      755.58985     -84.606034      670.98381    
   3780000   295.98763      0.050123105    24.328046      734.35346     -90.003126      644.35033    
   3781000   292.21529      0.050123105    28.373226      724.99418     -82.642696      642.35148    
   3782000   306.51675      0.050123105    24.548416      760.47651     -83.0605        677.41601    
   3783000   288.43984      0.050123105    27.425434      715.62718     -78.500873      637.12631    
   3784000   295.44375      0.050123105    23.078344      733.00408     -83.317369      649.68671    
   3785000   311.06164      0.050123105    29.56409       771.75251     -78.050025      693.70248    
   3786000   309.98702      0.050123105    8.0943447      769.08634     -78.581259      690.50508    
   3787000   292.8393       0.050123105    24.710803      726.54238     -76.453851      650.08853    
   3788000   291.95098      0.050123105    28.240185      724.33844     -85.077531      639.26091    
   3789000   299.80995      0.050123105    26.392601      743.83675     -88.571039      655.26571    
   3790000   307.41966      0.050123105    19.668559      762.71664     -87.72144       674.9952     
   3791000   296.27813      0.050123105    27.527519      735.0742      -89.836316      645.23788    
   3792000   297.75597      0.050123105    27.986824      738.74076     -96.359702      642.38106    
   3793000   302.15681      0.050123105    26.03799       749.65939     -95.299647      654.35974    
   3794000   306.19441      0.050123105    27.443017      759.67678     -86.512471      673.16431    
   3795000   305.57157      0.050123105    14.751705      758.13149     -85.272087      672.8594     
   3796000   315.08339      0.050123105    27.713329      781.73057     -93.592515      688.13806    
   3797000   296.23601      0.050123105    15.80563       734.96969     -95.066856      639.90284    
   3798000   302.34544      0.050123105    22.867052      750.12737     -88.535307      661.59206    
   3799000   293.98927      0.050123105    22.831134      729.39549     -84.103407      645.29208    
   3800000   310.60581      0.050123105    23.025461      770.62156     -83.945931      686.67563    
   3801000   309.4699       0.050123105    25.174478      767.80336     -85.380779      682.42258    
   3802000   300.46008      0.050123105    24.701056      745.44974     -86.666686      658.78305    
   3803000   289.88214      0.050123105    23.957303      719.20558     -91.537746      627.66784    
   3804000   296.70751      0.050123105    20.999972      736.13952     -88.445182      647.69434    
   3805000   312.21359      0.050123105    27.05326       774.61052     -78.241964      696.36856    
   3806000   290.04765      0.050123105    21.618226      719.61621     -80.742228      638.87398    
   3807000   290.80143      0.050123105    21.800276      721.48637     -78.996758      642.48961    
   3808000   308.9499       0.050123105    23.328463      766.51321     -74.927527      691.58568    
   3809000   305.12016      0.050123105    29.37656       757.01152     -71.078068      685.93345    
   3810000   287.58627      0.050123105    25.034617      713.50946     -84.000901      629.50856    
   3811000   299.09476      0.050123105    20.746837      742.06234     -78.189466      663.87287    
   3812000   315.20977      0.050123105    29.084124      782.04412     -83.846442      698.19768    
   3813000   299.19889      0.050123105    28.439878      742.32069     -79.281389      663.0393     
   3814000   292.80392      0.050123105    10.323015      726.45459     -77.514823      648.93977    
   3815000   305.76382      0.050123105    25.848246      758.60847     -77.475968      681.1325     
   3816000   311.57311      0.050123105    32.496367      773.02148     -82.268222      690.75326    
   3817000   304.68002      0.050123105    47.513103      755.91952     -79.600591      676.31893    
   3818000   304.2872       0.050123105    19.924772      754.94493     -84.219272      670.72565    
   3819000   308.20593      0.050123105    14.586146      764.66741     -89.741743      674.92567    
   3820000   297.53428      0.050123105    32.596859      738.19076     -84.62075       653.57001    
   3821000   293.15682      0.050123105    11.620865      727.33014     -81.181082      646.14906    
   3822000   304.43828      0.050123105    12.086815      755.31978     -82.455144      672.86463    
   3823000   304.24008      0.050123105    24.484144      754.82802     -89.508362      665.31966    
   3824000   304.07173      0.050123105    16.118035      754.41033     -87.310692      667.09964    
   3825000   287.74055      0.050123105   -4.29457        713.89222     -89.62248       624.26974    
   3826000   295.05969      0.050123105    22.982683      732.05122     -86.996332      645.05489    
   3827000   310.83734      0.050123105    48.748086      771.19601     -79.970101      691.22591    
   3828000   301.18585      0.050123105    50.952673      747.25039     -80.013704      667.23669    
   3829000   294.13826      0.050123105    18.115832      729.76514     -76.493445      653.2717     
   3830000   304.44461      0.050123105    11.739184      755.33547     -76.963105      678.37237    
   3831000   296.90603      0.050123105    29.11216       736.63204     -72.265439      664.3666     
   3832000   293.78649      0.050123105    25.068531      728.89238     -74.001662      654.89071    
   3833000   294.74192      0.050123105    21.115334      731.26283     -75.676453      655.58638    
   3834000   292.87205      0.050123105    22.346465      726.62363     -74.438093      652.18553    
   3835000   303.33561      0.050123105    26.751008      752.58401     -76.486925      676.09708    
   3836000   303.6969       0.050123105    39.40684       753.48038     -71.719726      681.76065    
   3837000   296.36741      0.050123105    24.827009      735.29571     -75.114177      660.18153    
   3838000   293.4912       0.050123105    17.513705      728.15976     -74.95173       653.20803    
   3839000   310.98268      0.050123105    37.392172      771.55661     -70.485971      701.07064    
   3840000   310.24438      0.050123105    31.349492      769.72485     -82.077262      687.64759    
   3841000   286.4549       0.050123105    51.16547       710.7025      -86.094767      624.60773    
   3842000   294.03329      0.050123105    21.696615      729.50471     -85.587759      643.91695    
   3843000   307.72622      0.050123105    10.411838      763.47723     -83.245029      680.23221    
   3844000   303.54965      0.050123105    27.872279      753.11505     -87.351851      665.76319    
   3845000   296.38145      0.050123105    35.688055      735.33055     -85.369448      649.9611     
   3846000   301.84116      0.050123105    32.52189       748.87625     -79.239839      669.63641    
   3847000   295.18058      0.050123105    22.422567      732.35116     -72.712732      659.63842    
   3848000   305.38602      0.050123105    24.062863      757.67113     -74.233598      683.43754    
   3849000   301.7455       0.050123105    23.048949      748.6389      -76.044399      672.5945     
   3850000   293.72433      0.050123105    26.497616      728.73815     -77.247858      651.4903     
   3851000   303.66522      0.050123105    33.01101       753.40178     -84.322695      669.07908    
   3852000   305.77324      0.050123105    28.540819      758.63185     -78.470713      680.16114    
   3853000   309.30699      0.050123105    15.560013      767.39917     -85.272974      682.1262     
   3854000   296.24509      0.050123105    25.024996      734.99223     -77.637931      657.3543     
   3855000   292.83178      0.050123105    28.573411      726.52372     -84.575411      641.94831    
   3856000   308.31079      0.050123105    34.976979      764.92758     -79.135842      685.79173    
   3857000   306.38577      0.050123105    30.667487      760.15154     -90.640991      669.51055    
   3858000   302.55851      0.050123105    12.931907      750.65599     -81.599237      669.05676    
   3859000   284.8275       0.050123105    20.557777      706.66489     -83.076711      623.58818    
   3860000   308.6171       0.050123105    40.279979      765.68753     -83.367033      682.3205     
   3861000   310.04375      0.050123105    12.823809      769.2271      -83.984691      685.24241    
   3862000   290.32486      0.050123105    20.342185      720.30399     -85.477158      634.82683    
   3863000   296.72497      0.050123105    47.33656       736.18283     -90.158429      646.0244     
   3864000   312.65575      0.050123105    15.289524      775.70754     -87.99463       687.71291    
   3865000   294.43053      0.050123105    7.9638229      730.49027     -80.207539      650.28273    
   3866000   280.49915      0.050123105    18.138073      695.92611     -76.05086       619.87525    
   3867000   303.76239      0.050123105    42.943986      753.64285     -86.216572      667.42628    
   3868000   313.2082       0.050123105    40.514591      777.07818     -89.563594      687.51459    
   3869000   295.94523      0.050123105    22.545044      734.24828     -88.030275      646.218      
   3870000   310.36253      0.050123105    19.099554      770.018       -88.052782      681.96522    
   3871000   286.20265      0.050123105    41.836546      710.07666     -86.888023      623.18864    
   3872000   298.73944      0.050123105    27.058199      741.18078     -84.300142      656.88064    
   3873000   295.48354      0.050123105    36.518796      733.10281     -81.484278      651.61853    
   3874000   308.47514      0.050123105    28.826293      765.33534     -85.999962      679.33538    
   3875000   292.38663      0.050123105    6.6515245      725.41928     -86.212084      639.2072     
   3876000   294.06366      0.050123105    22.50214       729.58004     -88.126412      641.45363    
   3877000   308.23555      0.050123105    28.445541      764.74089     -87.301182      677.43971    
   3878000   304.14388      0.050123105    33.132081      754.58934     -93.432629      661.15671    
   3879000   303.63679      0.050123105    19.380487      753.33124     -96.407633      656.9236     
   3880000   301.68118      0.050123105    17.730699      748.47933     -94.376707      654.10262    
   3881000   295.97027      0.050123105    28.710098      734.3104      -87.890534      646.41986    
   3882000   306.33947      0.050123105    13.805724      760.03666     -83.345805      676.69085    
   3883000   296.85931      0.050123105    5.5702019      736.51614     -77.068265      659.44788    
   3884000   301.10094      0.050123105    28.01933       747.03972     -77.300311      669.73941    
   3885000   298.23811      0.050123105    30.614459      739.93698     -80.717338      659.21964    
   3886000   302.76917      0.050123105   -12.344168      751.17865     -82.918149      668.2605     
   3887000   300.20223      0.050123105    9.1417069      744.81002     -78.65383       666.15619    
   3888000   293.07577      0.050123105    28.569819      727.12906     -82.088154      645.0409     
   3889000   306.79235      0.050123105    46.559978      761.16027     -86.942425      674.21785    
   3890000   309.42235      0.050123105    19.374118      767.68538     -80.96074       686.72464    
   3891000   299.18445      0.050123105    19.236898      742.28488     -80.696993      661.58788    
   3892000   300.75944      0.050123105    25.980486      746.19245     -87.52462       658.66783    
   3893000   305.951        0.050123105    30.979442      759.07287     -84.072356      675.00051    
   3894000   305.16077      0.050123105    3.6517858      757.11228     -74.94034       682.17194    
   3895000   309.78528      0.050123105   -11.970279      768.58582     -76.97662       691.6092     
   3896000   291.32008      0.050123105    4.4044375      722.77316     -87.00898       635.76418    
   3897000   279.72944      0.050123105   -1.1398021      694.01646     -82.274755      611.74171    
   3898000   299.78275      0.050123105    28.714202      743.76926     -74.962704      668.80656    
   3899000   310.1103       0.050123105    58.466415      769.3922      -76.784889      692.60731    
   3900000   305.04946      0.050123105    19.307959      756.83611     -77.522433      679.31368    
   3901000   295.39779      0.050123105    8.8986792      732.89005     -78.898712      653.99134    
   3902000   299.1715       0.050123105    24.106171      742.25274     -82.157294      660.09544    
   3903000   302.4385       0.050123105    42.712254      750.35825     -78.197046      672.16121    
   3904000   300.44634      0.050123105    46.0545        745.41564     -78.027688      667.38795    
   3905000   307.9716       0.050123105    23.499242      764.08602     -79.708447      684.37757    
   3906000   305.4578       0.050123105    12.826284      757.84922     -76.811546      681.03767    
   3907000   294.3634       0.050123105    28.117748      730.32371     -74.019888      656.30382    
   3908000   320.46643      0.050123105    41.3104        795.08603     -74.114101      720.97193    
   3909000   302.97697      0.050123105    23.467746      751.6942      -80.503018      671.19118    
   3910000   300.2776       0.050123105    18.156259      744.99699     -82.628334      662.36866    
   3911000   294.70235      0.050123105    14.351988      731.16465     -93.771678      637.39297    
   3912000   300.02188      0.050123105    33.256155      744.36255     -90.230671      654.13188    
   3913000   296.28319      0.050123105    31.429684      735.08676     -85.887582      649.19917    
   3914000   299.44734      0.050123105    23.261292      742.93712     -86.229388      656.70773    
   3915000   294.46168      0.050123105    21.805147      730.56754     -86.349305      644.21824    
   3916000   280.80321      0.050123105    32.936715      696.68051     -94.461353      602.21916    
   3917000   291.94401      0.050123105    36.470124      724.32114     -97.049978      627.27116    
   3918000   302.97217      0.050123105    16.37505       751.68232     -95.491191      656.19113    
   3919000   298.05402      0.050123105    9.5570901      739.48024     -87.131492      652.34874    
   3920000   289.29019      0.050123105    26.080126      717.73693     -84.208718      633.52821    
   3921000   308.03711      0.050123105    41.726012      764.24857     -80.799258      683.44931    
   3922000   314.25574      0.050123105    23.624267      779.67715     -86.400629      693.27652    
   3923000   300.69841      0.050123105    24.124451      746.04104     -87.182052      658.85899    
   3924000   296.9619       0.050123105    23.750818      736.77065     -82.449567      654.32109    
   3925000   291.99348      0.050123105    24.750896      724.44388     -82.50517       641.93871    
   3926000   293.38763      0.050123105    30.158695      727.90281     -87.637756      640.26505    
   3927000   307.57418      0.050123105    25.710484      763.10001     -89.0449        674.05511    
   3928000   310.98594      0.050123105    33.747517      771.56469     -99.626119      671.93857    
   3929000   286.04636      0.050123105    22.906473      709.68891     -95.197575      614.49134    
   3930000   283.41088      0.050123105    19.049121      703.15022     -86.710931      616.43929    
   3931000   304.03177      0.050123105    18.894893      754.31121     -89.046224      665.26499    
   3932000   299.2811       0.050123105    52.370375      742.52466     -85.097565      657.42709    
   3933000   297.38365      0.050123105    7.1917007      737.81704     -89.18243       648.63461    
   3934000   300.60194      0.050123105    15.080635      745.8017      -85.442672      660.35902    
   3935000   294.49362      0.050123105    63.563597      730.64679     -87.702131      642.94466    
   3936000   302.02119      0.050123105    14.506668      749.32291     -87.611535      661.71137    
   3937000   299.64063      0.050123105    10.821593      743.41667     -85.532648      657.88402    
   3938000   315.71076      0.050123105    50.53352       783.28709     -91.021489      692.2656     
   3939000   296.61835      0.050123105    35.561794      735.9183      -90.564723      645.35358    
   3940000   290.8908       0.050123105    18.896151      721.70809     -99.581274      622.12682    
   3941000   308.26196      0.050123105    17.705728      764.80643     -88.109571      676.69686    
   3942000   309.60861      0.050123105    54.182734      768.14748     -85.380588      682.7669     
   3943000   281.5695       0.050123105    44.26527       698.58168     -81.067756      617.51392    
   3944000   299.61217      0.050123105    17.207583      743.34606     -94.034358      649.3117     
   3945000   318.94173      0.050123105    47.266306      791.30323     -98.548134      692.75509    
   3946000   297.44025      0.050123105    56.633643      737.95746     -100.61553      637.34193    
   3947000   297.05429      0.050123105    21.522492      736.99989     -95.06703       641.93286    
   3948000   291.14453      0.050123105    11.582017      722.3376      -85.52008       636.81752    
   3949000   301.93864      0.050123105    12.884657      749.1181      -80.912725      668.20537    
   3950000   310.40976      0.050123105    45.256053      770.13518     -90.978933      679.15625    
   3951000   283.58724      0.050123105    7.3396956      703.58775     -103.81823      599.76952    
   3952000   287.14792      0.050123105    16.653477      712.4219      -101.51332      610.90857    
   3953000   305.46362      0.050123105    13.945036      757.86367     -93.348605      664.51506    
   3954000   311.07775      0.050123105    28.482318      771.79246     -90.059933      681.73253    
   3955000   294.86871      0.050123105    37.517914      731.57739     -76.838348      654.73904    
   3956000   287.86025      0.050123105    12.263442      714.18922     -88.645122      625.54409    
   3957000   313.5899       0.050123105    25.143371      778.02518     -87.348856      690.67632    
   3958000   300.71471      0.050123105    38.831238      746.08149     -80.097412      665.98408    
   3959000   269.04731      0.050123105    15.956771      667.51379     -84.867704      582.64608    
   3960000   301.77139      0.050123105    18.473365      748.70313     -85.348234      663.35489    
   3961000   307.15546      0.050123105    26.288076      762.06115     -82.996518      679.06463    
   3962000   304.31788      0.050123105    25.23185       755.02106     -82.062061      672.959      
   3963000   315.0489       0.050123105    27.790327      781.64501     -70.996432      710.64858    
   3964000   311.35571      0.050123105    26.932117      772.4821      -74.964258      697.51785    
   3965000   292.13501      0.050123105    16.565385      724.79501     -80.059936      644.73508    
   3966000   304.37356      0.050123105    35.685945      755.15919     -78.737275      676.42191    
   3967000   307.40153      0.050123105    24.670677      762.67166     -80.301673      682.36999    
   3968000   295.45072      0.050123105    20.482058      733.02139     -84.509692      648.5117     
   3969000   300.53766      0.050123105    37.340548      745.64223     -75.400894      670.24134    
   3970000   300.39639      0.050123105    21.800047      745.29172     -78.044298      667.24742    
   3971000   285.79975      0.050123105    28.121849      709.07705     -81.868093      627.20896    
   3972000   303.03195      0.050123105    37.37866       751.83061     -76.374027      675.45658    
   3973000   304.84788      0.050123105    26.708166      756.33599     -77.148423      679.18757    
   3974000   290.5906       0.050123105    30.891466      720.9633      -90.987014      629.97629    
   3975000   318.80319      0.050123105    10.525315      790.9595      -76.024432      714.93507    
   3976000   304.30977      0.050123105    18.627448      755.00094     -80.090685      674.91025    
   3977000   298.37031      0.050123105    24.822471      740.26497     -72.794152      667.47081    
   3978000   302.76203      0.050123105    25.833677      751.16095     -75.952169      675.20878    
   3979000   319.80461      0.050123105    24.332267      793.44406     -87.705497      705.73857    
   3980000   303.64354      0.050123105    29.160181      753.34799     -78.223294      675.1247     
   3981000   291.4463       0.050123105    25.229159      723.08631     -82.536106      640.5502     
   3982000   294.18919      0.050123105    24.670884      729.89148     -87.011515      642.87997    
   3983000   313.36865      0.050123105    31.241285      777.47625     -81.745091      695.73116    
   3984000   315.06358      0.050123105    22.739448      781.68143     -82.092753      699.58867    
   3985000   288.46326      0.050123105    17.76685       715.68531     -88.589689      627.09562    
   3986000   296.42571      0.050123105    20.032785      735.44035     -81.81853       653.62182    
   3987000   320.01152      0.050123105    23.860842      793.9574      -83.037611      710.91979    
   3988000   289.29656      0.050123105    21.674681      717.75274     -86.418453      631.33429    
   3989000   310.99348      0.050123105    27.34215       771.5834      -85.437001      686.1464     
   3990000   308.48149      0.050123105    22.927659      765.35108     -86.418866      678.93221    
   3991000   300.84027      0.050123105    26.485673      746.39301     -82.862151      663.53086    
   3992000   291.91217      0.050123105    21.80037       724.24213     -80.576937      643.66519    
   3993000   298.92766      0.050123105    23.924457      741.64776     -77.271657      664.3761     
   3994000   292.87285      0.050123105    41.45864       726.62562     -81.881704      644.74391    
   3995000   298.42743      0.050123105    26.184561      740.40668     -84.010196      656.39648    
   3996000   300.17946      0.050123105    22.431491      744.75352     -96.378672      648.37485    
   3997000   301.46143      0.050123105    13.740648      747.93412     -88.72441       659.20972    
   3998000   301.04111      0.050123105    36.041579      746.8913      -89.362344      657.52896    
   3999000   298.79902      0.050123105   -5.1067039      741.32859     -88.770691      652.5579     
   4000000   297.07978      0.050123105    31.176032      737.06311     -85.962439      651.10067    
   4001000   311.70753      0.050123105    25.956523      773.35497     -96.181293      677.17368    
   4002000   303.89678      0.050123105    19.553825      753.97628     -89.584611      664.39167    
   4003000   292.56094      0.050123105   -0.34821255     725.85177     -89.501612      636.35016    
   4004000   290.7052       0.050123105    32.768028      721.24762     -83.45328       637.79434    
   4005000   275.26834      0.050123105    22.043714      682.94835     -93.092957      589.85539    
   4006000   302.02699      0.050123105    11.489907      749.33728     -88.747326      660.58995    
   4007000   293.79637      0.050123105    40.980815      728.9169      -83.367384      645.54951    
   4008000   309.02898      0.050123105    35.800524      766.70942     -87.582397      679.12703    
   4009000   303.29957      0.050123105    14.901408      752.49459     -79.115016      673.37958    
   4010000   283.87164      0.050123105    20.085212      704.29335     -90.348044      613.94531    
   4011000   300.90998      0.050123105    23.912999      746.56597     -89.195186      657.37078    
   4012000   302.18412      0.050123105    31.500573      749.72714     -93.052338      656.6748     
   4013000   299.08513      0.050123105    23.317699      742.03845     -87.185675      654.85277    
   4014000   298.24937      0.050123105    25.44129       739.9649      -82.680497      657.2844     
   4015000   303.42564      0.050123105    27.158146      752.80738     -77.557593      675.24979    
   4016000   302.73988      0.050123105    18.643718      751.10598     -77.734099      673.37188    
   4017000   294.34373      0.050123105    27.767812      730.27492     -72.912319      657.3626     
   4018000   304.14694      0.050123105    19.912616      754.59693     -76.347727      678.24921    
   4019000   305.04497      0.050123105    28.532726      756.82498     -75.896395      680.92859    
   4020000   304.54924      0.050123105    38.931351      755.59505     -76.678195      678.91685    
   4021000   292.00691      0.050123105    28.178117      724.4772      -77.9079        646.5693     
   4022000   299.74768      0.050123105    18.201248      743.68226     -76.729252      666.95301    
   4023000   300.04231      0.050123105    22.477132      744.41324     -78.514529      665.89871    
   4024000   313.55863      0.050123105    28.83263       777.9476      -77.755945      700.19166    
   4025000   297.74011      0.050123105    34.165268      738.70142     -76.926117      661.7753     
   4026000   295.39568      0.050123105    23.257711      732.88482     -81.469738      651.41508    
   4027000   287.62063      0.050123105    27.100015      713.5947      -84.243784      629.35092    
   4028000   311.34203      0.050123105    24.463566      772.44817     -81.32899       691.11918    
   4029000   308.92307      0.050123105    26.356896      766.44664     -74.673977      691.77267    
   4030000   299.28483      0.050123105    26.94758       742.53392     -75.774152      666.75977    
   4031000   280.3827       0.050123105    18.594359      695.6372      -74.339877      621.29732    
   4032000   310.15064      0.050123105    25.986836      769.4923      -78.285163      691.20714    
   4033000   313.60691      0.050123105    24.239304      778.06739     -79.918208      698.14918    
   4034000   296.83614      0.050123105    23.3479        736.45865     -81.535187      654.92347    
   4035000   300.51705      0.050123105    17.223181      745.5911      -79.443696      666.1474     
   4036000   293.25804      0.050123105    39.03488       727.58128     -76.459013      651.12227    
   4037000   305.07627      0.050123105    28.227226      756.90264     -78.230055      678.67258    
   4038000   316.3855       0.050123105    16.873283      784.96114     -86.168673      698.79247    
   4039000   301.48405      0.050123105    24.932801      747.99023     -82.437531      665.5527     
   4040000   302.35425      0.050123105    22.835573      750.14923     -85.302059      664.84717    
   4041000   290.04354      0.050123105    23.486827      719.60602     -82.099439      637.50658    
   4042000   299.9116       0.050123105    25.690228      744.08895     -77.76117       666.32778    
   4043000   294.30485      0.050123105    23.639043      730.17843     -84.455094      645.72334    
   4044000   300.7171       0.050123105    34.852726      746.0874      -83.397579      662.68982    
   4045000   314.55633      0.050123105    29.165604      780.42292     -81.991857      698.43107    
   4046000   302.29302      0.050123105    22.20526       749.99732     -80.102407      669.89491    
   4047000   289.96422      0.050123105    31.100674      719.40922     -77.599966      641.80926    
   4048000   306.44519      0.050123105    26.887383      760.29896     -71.869271      688.42969    
   4049000   311.14182      0.050123105    22.578446      771.95144     -77.129824      694.82161    
   4050000   288.35458      0.050123105    23.548524      715.41566     -76.605613      638.81005    
   4051000   295.87702      0.050123105    26.036988      734.07905     -85.895229      648.18382    
   4052000   307.21693      0.050123105    29.137635      762.21368     -85.391465      676.82221    
   4053000   301.46123      0.050123105    20.132995      747.93362     -82.013962      665.91966    
   4054000   281.98233      0.050123105    21.272999      699.60592     -80.093728      619.51219    
   4055000   298.27304      0.050123105    23.865242      740.02363     -79.811274      660.21236    
   4056000   306.52322      0.050123105    33.24685       760.49255     -80.375116      680.11744    
   4057000   305.23971      0.050123105    7.1835963      757.30814     -79.732518      677.57562    
   4058000   290.19618      0.050123105    21.657862      719.98472     -87.241457      632.74326    
   4059000   301.49281      0.050123105    30.341906      748.01198     -74.013066      673.99891    
   4060000   308.19643      0.050123105    23.152764      764.64384     -74.06074       690.5831     
   4061000   307.91263      0.050123105    25.365879      763.93972     -76.185441      687.75428    
   4062000   306.55616      0.050123105    25.414139      760.57428     -69.523118      691.05116    
   4063000   296.01984      0.050123105    22.921137      734.43339     -74.54984       659.88355    
   4064000   297.309        0.050123105    32.747563      737.63183     -83.99283       653.639      
   4065000   303.4506       0.050123105    26.669245      752.8693      -90.732706      662.13659    
   4066000   314.26631      0.050123105    24.327837      779.70338     -92.156654      687.54673    
   4067000   300.27527      0.050123105    22.305962      744.99121     -91.669682      653.32153    
   4068000   287.65178      0.050123105    23.863682      713.672       -82.127231      631.54477    
   4069000   303.79124      0.050123105    22.096609      753.71443     -89.001841      664.71259    
   4070000   328.40423      0.050123105    29.108101      814.77995     -78.694061      736.08589    
   4071000   295.52319      0.050123105    27.436764      733.20119     -87.800078      645.40111    
   4072000   289.94519      0.050123105    25.263179      719.36201     -78.751363      640.61064    
   4073000   301.06483      0.050123105    22.154526      746.95013     -76.611686      670.33845    
   4074000   313.67518      0.050123105    25.867064      778.23677     -73.273188      704.96359    
   4075000   301.11742      0.050123105    21.08597       747.08061     -77.450597      669.63002    
   4076000   303.88111      0.050123105    22.304947      753.9374      -82.507744      671.42966    
   4077000   301.77251      0.050123105    24.231204      748.70592     -78.636248      670.06967    
   4078000   293.19449      0.050123105    30.557855      727.42362     -70.780156      656.64347    
   4079000   316.89985      0.050123105    28.921037      786.23725     -62.453189      723.78407    
   4080000   306.23321      0.050123105    27.203407      759.77304     -64.989713      694.78333    
   4081000   286.59393      0.050123105    23.195254      711.04745     -63.68455       647.3629     
   4082000   304.05016      0.050123105    24.981709      754.35683     -70.491199      683.86563    
   4083000   307.40599      0.050123105    27.976426      762.68275     -71.602681      691.08007    
   4084000   299.70094      0.050123105    22.675624      743.56629     -68.283413      675.28288    
   4085000   306.82161      0.050123105    27.799199      761.23287     -69.407793      691.82508    
   4086000   307.85742      0.050123105    25.375955      763.80275     -72.9068        690.89595    
   4087000   299.5685       0.050123105    22.12947       743.23771     -74.421403      668.81631    
   4088000   295.11036      0.050123105    26.839267      732.17693     -74.752694      657.42424    
   4089000   292.64302      0.050123105    19.829791      726.05541     -78.277562      647.77784    
   4090000   303.90422      0.050123105    21.267463      753.99475     -78.700576      675.29418    
   4091000   308.22716      0.050123105    26.328113      764.72009     -80.743019      683.97707    
   4092000   288.88354      0.050123105    26.370254      716.72804     -68.508366      648.21967    
   4093000   297.9371       0.050123105    19.850637      739.19017     -77.398776      661.79139    
   4094000   291.43863      0.050123105    19.713143      723.06727     -80.945496      642.12177    
   4095000   308.49602      0.050123105    23.499684      765.38713     -79.819988      685.56714    
   4096000   312.01925      0.050123105    29.472053      774.12836     -80.379228      693.74913    
   4097000   291.88035      0.050123105    29.807189      724.1632      -79.510056      644.65314    
   4098000   299.46959      0.050123105    12.932323      742.9923      -77.333318      665.65898    
   4099000   308.06682      0.050123105    22.52983       764.32227     -79.171775      685.15049    
   4100000   306.30399      0.050123105    36.76599       759.94863     -75.669215      684.27942    
   4101000   283.43576      0.050123105    14.440643      703.21193     -77.809778      625.40216    
   4102000   296.58037      0.050123105    16.794692      735.82407     -77.509202      658.31487    
   4103000   304.41543      0.050123105    30.78925       755.26308     -75.788658      679.47442    
   4104000   292.58954      0.050123105    39.247935      725.92272     -76.273445      649.64928    
   4105000   281.40509      0.050123105    36.785071      698.17379     -74.741961      623.43182    
   4106000   303.77603      0.050123105    16.81148       753.67672     -73.734113      679.9426     
   4107000   301.54148      0.050123105    33.233653      748.13273     -68.687277      679.44545    
   4108000   309.14383      0.050123105    24.12656       766.99437     -75.679403      691.31497    
   4109000   289.39495      0.050123105    24.181049      717.99684     -80.683491      637.31335    
   4110000   302.14004      0.050123105    16.420983      749.61776     -81.112362      668.5054     
   4111000   299.94477      0.050123105    28.985449      744.17125     -73.098691      671.07256    
   4112000   307.25143      0.050123105    34.60209       762.29926     -75.599801      686.69946    
   4113000   291.14529      0.050123105    36.069845      722.33949     -76.595345      645.74414    
   4114000   288.88031      0.050123105    6.6709217      716.72        -68.554673      648.16533    
   4115000   314.91277      0.050123105    21.40385       781.30727     -77.841952      703.46532    
   4116000   309.4227       0.050123105    27.604243      767.68625     -74.65675       693.0295     
   4117000   299.43061      0.050123105    33.400017      742.89559     -64.237922      678.65767    
   4118000   289.28383      0.050123105    15.009219      717.72115     -67.144549      650.5766     
   4119000   323.05031      0.050123105    27.960085      801.49673     -70.163076      731.33365    
   4120000   298.89062      0.050123105    26.183099      741.55588     -62.964402      678.59148    
   4121000   292.40377      0.050123105    23.47424       725.46181     -63.275035      662.18678    
   4122000   302.58694      0.050123105    25.464123      750.72653     -67.122893      683.60364    
   4123000   314.82418      0.050123105    27.03666       781.08748     -69.262856      711.82462    
   4124000   283.37616      0.050123105    22.212528      703.06406     -64.94818       638.11588    
   4125000   297.0635       0.050123105    25.092893      737.02274     -69.527076      667.49566    
   4126000   300.80645      0.050123105    33.150619      746.3091      -78.190788      668.11831    
   4127000   297.9428       0.050123105    24.698764      739.20431     -80.81394       658.39037    
   4128000   298.05279      0.050123105    29.089422      739.47718     -80.930201      658.54698    
   4129000   316.5937       0.050123105    24.031158      785.4777      -83.808436      701.66927    
   4130000   293.32476      0.050123105    33.776151      727.74683     -83.375819      644.37101    
   4131000   298.77744      0.050123105    32.056677      741.27506     -88.993704      652.28136    
   4132000   313.64177      0.050123105    22.335808      778.15387     -85.662478      692.49139    
   4133000   299.39204      0.050123105    23.170209      742.7999      -85.283347      657.51655    
   4134000   289.66417      0.050123105    24.774887      718.66479     -84.739886      633.92491    
   4135000   294.95757      0.050123105    26.9772        731.79785     -84.795754      647.0021     
   4136000   314.4468       0.050123105    24.889854      780.15117     -79.542967      700.6082     
   4137000   297.93781      0.050123105    23.413465      739.19191     -81.886239      657.30567    
   4138000   288.66242      0.050123105    30.226678      716.17942     -89.595866      626.58355    
   4139000   315.99711      0.050123105    35.874793      783.99755     -87.526867      696.47068    
   4140000   324.34706      0.050123105    35.818913      804.71401     -89.969767      714.74424    
   4141000   291.98457      0.050123105    16.245661      724.42177     -86.123062      638.29871    
   4142000   302.20878      0.050123105    27.181112      749.78831     -85.452934      664.33538    
   4143000   313.92238      0.050123105    22.696098      778.85007     -75.4705        703.37957    
   4144000   285.92044      0.050123105    10.653025      709.3765      -77.386389      631.99011    
   4145000   300.82364      0.050123105    29.076417      746.35173     -86.141499      660.21023    
   4146000   310.85116      0.050123105    27.077934      771.2303      -87.146582      684.08372    
   4147000   314.48293      0.050123105    25.705206      780.24081     -84.373073      695.86773    
   4148000   290.47033      0.050123105    20.95378       720.6649      -84.427504      636.2374     
   4149000   297.78474      0.050123105    26.210028      738.81214     -78.983631      659.82851    
   4150000   307.63437      0.050123105    30.880557      763.24936     -79.47911       683.77025    
   4151000   302.55521      0.050123105    26.28882       750.64782     -83.962935      666.68489    
   4152000   306.76211      0.050123105    25.190705      761.08526     -90.77056       670.3147     
   4153000   303.37601      0.050123105    24.961685      752.68425     -93.953744      658.7305     
   4154000   312.97687      0.050123105    39.106204      776.50425     -95.976437      680.52781    
   4155000   294.52849      0.050123105    24.138738      730.7333      -92.924696      637.8086     
   4156000   297.12851      0.050123105    26.465872      737.18401     -98.195208      638.98881    
   4157000   315.42691      0.050123105    23.580064      782.58286     -95.313954      687.26891    
   4158000   283.38417      0.050123105    19.607947      703.08393     -88.653232      614.4307     
   4159000   285.06115      0.050123105    20.08375       707.24458     -88.414687      618.82989    
   4160000   295.63942      0.050123105    7.5241134      733.48956     -88.547618      644.94194    
   4161000   301.08696      0.050123105    14.45208       747.00504     -86.537195      660.46785    
   4162000   300.90418      0.050123105    27.087826      746.55158     -91.080381      655.4712     
   4163000   304.11357      0.050123105    25.438775      754.51416     -94.52335       659.99081    
   4164000   301.52337      0.050123105    27.540431      748.0878      -105.14009      642.94772    
   4165000   299.50631      0.050123105    24.025474      743.0834      -102.69207      640.39133    
   4166000   303.28481      0.050123105    24.347734      752.45796     -104.83643      647.62153    
   4167000   305.26616      0.050123105    22.715826      757.37375     -95.3221        662.05165    
   4168000   312.65593      0.050123105    49.026662      775.70798     -89.595964      686.11201    
   4169000   286.38156      0.050123105    23.263985      710.52054     -98.043884      612.47665    
   4170000   306.29493      0.050123105    23.119457      759.92616     -97.105751      662.82041    
   4171000   303.75307      0.050123105    31.346143      753.61973     -95.242885      658.37685    
   4172000   289.47367      0.050123105    25.67157       718.19215     -90.31053       627.88162    
   4173000   308.00677      0.050123105    22.809528      764.17328     -100.09205      664.08123    
   4174000   304.39393      0.050123105    34.72855       755.20974     -94.846422      660.36332    
   4175000   295.20698      0.050123105    28.009914      732.41666     -98.779132      633.63753    
   4176000   293.25122      0.050123105    15.640562      727.56436     -104.02728      623.53708    
   4177000   310.14723      0.050123105    24.872867      769.48382     -106.70653      662.77728    
   4178000   297.19758      0.050123105    23.175746      737.3554      -102.84707      634.50832    
   4179000   286.90653      0.050123105    22.243201      711.82301     -103.62391      608.1991     
   4180000   297.3473       0.050123105    24.110379      737.72685     -99.460081      638.26677    
   4181000   302.71366      0.050123105    23.715783      751.04093     -106.56997      644.47096    
   4182000   303.26372      0.050123105    19.42212       752.40565     -97.150262      655.25539    
   4183000   303.1238       0.050123105    20.065048      752.0585      -102.39956      649.65894    
   4184000   302.68355      0.050123105    24.987047      750.96623     -109.02526      641.94097    
   4185000   288.42976      0.050123105    15.528425      715.60217     -104.36014      611.24203    
   4186000   305.27284      0.050123105    29.634536      757.39033     -97.439106      659.95122    
   4187000   300.05715      0.050123105    27.520491      744.45007     -87.576114      656.87395    
   4188000   293.69361      0.050123105    24.628024      728.66194     -93.79436       634.86758    
   4189000   303.53655      0.050123105    23.187153      753.08254     -93.132302      659.95024    
   4190000   302.41611      0.050123105    22.794961      750.3027      -96.933262      653.36944    
   4191000   292.42136      0.050123105    23.921352      725.50546     -100.34476      625.1607     
   4192000   302.15005      0.050123105    21.168347      749.64259     -97.203592      652.439      
   4193000   313.99826      0.050123105    26.087422      779.03834     -99.360346      679.678      
   4194000   302.4748       0.050123105    31.910919      750.44832     -100.35883      650.08949    
   4195000   304.60073      0.050123105    26.141044      755.72281     -93.976404      661.74641    
   4196000   288.1038       0.050123105    19.869848      714.79348     -87.728754      627.06473    
   4197000   303.87528      0.050123105    10.047691      753.92295     -85.829922      668.09303    
   4198000   304.01905      0.050123105    10.231844      754.27964     -91.968908      662.31073    
   4199000   298.85773      0.050123105    30.557562      741.47425     -98.59819       642.87606    
   4200000   287.56125      0.050123105    5.2107867      713.44739     -92.427948      621.01944    
   4201000   304.13737      0.050123105    13.780108      754.57321     -93.792062      660.78114    
   4202000   302.61835      0.050123105    28.1539        750.80447     -95.221943      655.58252    
   4203000   276.44693      0.050123105    22.220787      685.87246     -98.572878      587.29958    
   4204000   297.67709      0.050123105    17.543673      738.54507     -106.78721      631.75786    
   4205000   313.4335       0.050123105    19.386708      777.63715     -98.858281      678.77887    
   4206000   298.96573      0.050123105    29.623906      741.74222     -100.15472      641.5875     
   4207000   295.37037      0.050123105    29.744873      732.82203     -92.947255      639.87477    
   4208000   306.52053      0.050123105    20.045997      760.48588     -90.593385      669.89249    
   4209000   289.92673      0.050123105    25.387729      719.31622     -86.181683      633.13454    
   4210000   298.25329      0.050123105    22.343782      739.97463     -87.869428      652.1052     
   4211000   301.15111      0.050123105    23.574581      747.16421     -86.833864      660.33034    
   4212000   303.15839      0.050123105    23.926035      752.14432     -96.627082      655.51723    
   4213000   297.8363       0.050123105    26.466585      738.94006     -104.45732      634.48274    
   4214000   298.40058      0.050123105    26.480543      740.34006     -99.7507        640.58936    
   4215000   298.03796      0.050123105    22.560131      739.4404      -98.220955      641.21945    
   4216000   299.33064      0.050123105    25.146583      742.64758     -96.254523      646.39306    
   4217000   307.39179      0.050123105    25.865711      762.6475      -101.23615      661.41134    
   4218000   304.58241      0.050123105    26.928808      755.67735     -99.377964      656.29939    
   4219000   288.87221      0.050123105    10.599506      716.69992     -98.849367      617.85055    
   4220000   296.40562      0.050123105    19.092356      735.39052     -100.20897      635.18155    
   4221000   299.03689      0.050123105    26.570736      741.91877     -91.430602      650.48817    
   4222000   313.54946      0.050123105    39.778411      777.92485     -93.827724      684.09713    
   4223000   312.43786      0.050123105    23.994498      775.16694     -99.617237      675.5497     
   4224000   296.62319      0.050123105    11.035267      735.93031     -98.989429      636.94088    
   4225000   285.86982      0.050123105    31.831872      709.2509      -101.48336      607.76754    
   4226000   299.9018       0.050123105    50.147941      744.06463     -97.864907      646.19972    
   4227000   308.41806      0.050123105    17.387082      765.19371     -91.95597       673.23774    
   4228000   288.32618      0.050123105    9.9125649      715.3452      -95.397444      619.94776    
   4229000   307.36868      0.050123105    26.936097      762.59017     -83.339037      679.25113    
   4230000   304.44592      0.050123105    32.456502      755.33872     -83.11634       672.22238    
   4231000   293.45915      0.050123105    68.855884      728.08024     -93.415856      634.66439    
   4232000   311.4769       0.050123105    20.771552      772.78277     -96.593791      676.18898    
   4233000   303.25947      0.050123105   -1.801051       752.39511     -95.089743      657.30537    
   4234000   288.71621      0.050123105    25.060407      716.31289     -91.508823      624.80406    
   4235000   296.23264      0.050123105    47.945767      734.96134     -89.49571       645.46563    
   4236000   300.00749      0.050123105   -25.449828      744.32684     -92.445622      651.88122    
   4237000   304.65106      0.050123105    20.920944      755.84768     -91.574867      664.27282    
   4238000   293.5709       0.050123105    27.947744      728.35749     -93.898316      634.45918    
   4239000   291.94639      0.050123105    54.371704      724.32703     -100.61523      623.7118     
   4240000   300.20186      0.050123105    20.973003      744.80909     -97.75048       647.05861    
   4241000   304.1549       0.050123105    19.749311      754.61669     -92.424455      662.19224    
   4242000   299.73211      0.050123105    30.905623      743.64364     -92.719535      650.9241     
   4243000   303.45054      0.050123105    37.655084      752.86915     -90.609683      662.25946    
   4244000   292.44558      0.050123105    20.393056      725.56555     -91.122827      634.44273    
   4245000   290.95437      0.050123105    18.514829      721.86582     -83.613011      638.25281    
   4246000   301.91822      0.050123105    32.993479      749.06744     -88.699885      660.36755    
   4247000   300.8808       0.050123105    25.441808      746.49356     -100.46433      646.02924    
   4248000   289.90017      0.050123105    23.766489      719.25031     -95.176413      624.0739     
   4249000   306.71649      0.050123105    22.357973      760.97207     -96.929586      664.04248    
   4250000   311.6404       0.050123105    22.464791      773.18842     -96.597116      676.5913     
   4251000   300.61913      0.050123105    24.199163      745.84434     -95.815557      650.02879    
   4252000   281.92091      0.050123105    22.684889      699.45354     -89.744631      609.70891    
   4253000   309.78127      0.050123105    24.510965      768.57587     -93.172569      675.40331    
   4254000   294.74531      0.050123105    33.393249      731.27125     -94.172759      637.09849    
   4255000   298.93773      0.050123105    25.271813      741.67275     -95.368016      646.30473    
   4256000   297.78062      0.050123105    22.404732      738.80193     -92.302169      646.49976    
   4257000   300.38369      0.050123105    21.286339      745.26021     -90.347698      654.91251    
   4258000   292.34531      0.050123105    25.97716       725.31678     -92.474377      632.8424     
   4259000   296.85732      0.050123105    28.38842       736.5112      -90.110153      646.40105    
   4260000   278.43501      0.050123105    15.310431      690.80493     -90.14437       600.66056    
   4261000   306.96479      0.050123105    16.873906      761.58811     -85.677802      675.91031    
   4262000   302.43617      0.050123105    11.06821       750.35248     -83.203466      667.14901    
   4263000   315.26844      0.050123105    8.7919212      782.18968     -86.7629        695.42678    
   4264000   309.67507      0.050123105    23.501663      768.31239     -79.628918      688.68347    
   4265000   301.16089      0.050123105    33.099864      747.18847     -81.459195      665.72927    
   4266000   280.33873      0.050123105    9.0105312      695.52813     -82.630529      612.8976     
   4267000   301.47332      0.050123105    21.872653      747.96363     -85.487936      662.47569    
   4268000   315.07965      0.050123105    40.142878      781.72129     -85.591978      696.12931    
   4269000   301.35815      0.050123105    21.056352      747.67788     -87.123569      660.55431    
   4270000   297.39838      0.050123105    21.360658      737.85358     -85.004211      652.84937    
   4271000   314.79579      0.050123105    43.713933      781.01703     -87.747467      693.26957    
   4272000   297.40839      0.050123105    54.286404      737.87841     -87.292514      650.5859     
   4273000   286.90528      0.050123105    25.72546       711.8199      -88.665271      623.15463    
   4274000   306.2268       0.050123105    6.4291981      759.75714     -90.547238      669.2099     
   4275000   308.14075      0.050123105    35.784942      764.50569     -92.06565       672.44004    
   4276000   288.12402      0.050123105    16.518934      714.84364     -91.65641       623.18723    
   4277000   313.72792      0.050123105    52.67201       778.36763     -96.153168      682.21446    
   4278000   307.81832      0.050123105    28.92244       763.70575     -95.645415      668.06033    
   4279000   284.88306      0.050123105    16.872195      706.80272     -98.756392      608.04633    
   4280000   288.80908      0.050123105    18.327047      716.54328     -89.51251       627.03077    
   4281000   296.01117      0.050123105    5.0644498      734.41188     -84.706311      649.70557    
   4282000   307.80986      0.050123105    17.552912      763.68476     -92.52432       671.16044    
   4283000   306.72971      0.050123105    42.203172      761.00487     -83.225616      677.77925    
   4284000   291.43401      0.050123105    22.239462      723.05582     -87.129137      635.92668    
   4285000   309.28877      0.050123105    11.187006      767.35397     -90.538867      676.81511    
   4286000   309.33707      0.050123105    27.336901      767.47379     -87.366896      680.10689    
   4287000   301.61341      0.050123105    25.871572      748.31119     -94.525286      653.7859     
   4288000   282.89409      0.050123105    20.293494      701.86805     -90.163748      611.7043     
   4289000   304.32945      0.050123105    27.014218      755.04975     -81.710326      673.33942    
   4290000   296.75893      0.050123105    26.77825       736.26709     -93.109823      643.15727    
   4291000   308.46397      0.050123105    30.715102      765.30761     -85.14819       680.15942    
   4292000   312.0676       0.050123105    22.449658      774.24832     -92.8768        681.37152    
   4293000   281.54364      0.050123105    16.823662      698.51752     -102.94254      595.57498    
   4294000   299.09223      0.050123105    26.627842      742.05607     -99.550292      642.50577    
   4295000   304.26949      0.050123105    27.62695       754.90098     -98.985127      655.91586    
   4296000   309.19059      0.050123105    24.402086      767.11037     -96.38764       670.72273    
   4297000   283.86835      0.050123105    12.255917      704.2852      -91.779674      612.50552    
   4298000   307.69239      0.050123105    30.998454      763.3933      -86.467967      676.92533    
   4299000   308.21681      0.050123105    24.679889      764.69441     -79.693798      685.00062    
   4300000   287.02245      0.050123105    24.219373      712.1106      -77.45317       634.65743    
   4301000   298.27987      0.050123105    21.803379      740.04058     -85.247996      654.79259    
   4302000   312.77374      0.050123105    41.627108      776.00027     -91.704157      684.29611    
   4303000   297.78654      0.050123105    14.761023      738.81662     -96.502046      642.31457    
   4304000   300.7039       0.050123105    26.185464      746.05465     -90.259684      655.79497    
   4305000   302.1143       0.050123105    34.5318        749.55391     -92.75587       656.79804    
   4306000   300.39102      0.050123105    15.549762      745.27841     -86.312521      658.96589    
   4307000   311.19402      0.050123105    35.727776      772.08095     -95.776942      676.30401    
   4308000   307.77821      0.050123105    14.541592      763.60623     -95.17336       668.43287    
   4309000   299.47484      0.050123105    28.991939      743.00533     -96.564227      646.4411     
   4310000   309.27398      0.050123105    48.121702      767.31727     -91.173251      676.14402    
   4311000   299.26985      0.050123105    18.198879      742.49675     -86.581892      655.91486    
   4312000   307.49516      0.050123105    22.221983      762.90396     -93.887948      669.01601    
   4313000   294.55394      0.050123105    38.502585      730.79644     -92.447031      638.34941    
   4314000   303.49129      0.050123105    29.932445      752.97026     -90.035876      662.93439    
   4315000   307.73088      0.050123105    14.276308      763.4888      -92.471549      671.01725    
   4316000   291.25018      0.050123105    31.990819      722.59971     -93.281489      629.31823    
   4317000   295.19228      0.050123105    24.919928      732.38017     -92.061094      640.31908    
   4318000   306.74443      0.050123105    27.586639      761.0414      -83.525888      677.51551    
   4319000   303.42723      0.050123105    29.091489      752.81132     -82.379821      670.4315     
   4320000   303.00728      0.050123105    23.219535      751.7694      -90.664184      661.10522    
   4321000   275.39533      0.050123105    24.299625      683.2634      -85.117346      598.14605    
   4322000   301.88682      0.050123105    28.918475      748.98952     -88.400856      660.58867    
   4323000   321.64125      0.050123105    20.48624       798.00082     -91.383277      706.61754    
   4324000   290.69264      0.050123105    20.644271      721.21647     -84.354423      636.86204    
   4325000   303.28109      0.050123105    32.78924       752.44874     -87.033233      665.41551    
   4326000   309.70138      0.050123105    23.009671      768.37767     -96.322288      672.05538    
   4327000   301.61254      0.050123105    20.038755      748.30902     -84.121145      664.18787    
   4328000   292.04727      0.050123105    14.83671       724.57733     -92.311572      632.26576    
   4329000   290.7318       0.050123105    24.352066      721.3136      -88.772488      632.54111    
   4330000   301.99441      0.050123105    27.366402      749.25646     -95.925421      653.33104    
   4331000   309.01354      0.050123105    25.915731      766.6711      -97.823936      668.84717    
   4332000   313.07323      0.050123105    21.934807      776.74332     -88.527967      688.21535    
   4333000   304.81462      0.050123105   -2.5761838      756.25347     -91.966931      664.28654    
   4334000   290.41176      0.050123105    23.825175      720.51957     -89.139874      631.3797     
   4335000   301.5498       0.050123105    35.574067      748.15337     -86.330212      661.82316    
   4336000   322.03609      0.050123105    49.581729      798.98041     -80.497405      718.48301    
   4337000   297.83288      0.050123105    20.89076       738.93158     -82.415836      656.51575    
   4338000   287.6204       0.050123105    36.406171      713.59415     -82.323971      631.27018    
   4339000   298.80583      0.050123105    32.909186      741.3455      -87.360534      653.98497    
   4340000   311.56592      0.050123105    40.306618      773.00363     -87.732916      685.27071    
   4341000   307.6862       0.050123105    0.012246224    763.37794     -87.739186      675.63875    
   4342000   293.91638      0.050123105    24.164397      729.21464     -88.518166      640.69647    
   4343000   287.93169      0.050123105    26.051812      714.36646     -87.947516      626.41895    
   4344000   302.16913      0.050123105    25.189752      749.68994     -82.338337      667.3516     
   4345000   310.34491      0.050123105    25.963381      769.97427     -79.239284      690.73499    
   4346000   301.99296      0.050123105    23.622089      749.25285     -74.637142      674.61571    
   4347000   288.51167      0.050123105    33.491858      715.80542     -77.597815      638.2076     
   4348000   307.5661       0.050123105    27.801756      763.07997     -74.055449      689.02452    
   4349000   310.1898       0.050123105    25.110112      769.58945     -76.954113      692.63533    
   4350000   301.01757      0.050123105    11.261776      746.83289     -80.900661      665.93222    
   4351000   291.65962      0.050123105    26.942598      723.61557     -87.588826      636.02674    
   4352000   304.95292      0.050123105    20.563392      756.5966      -88.220448      668.37615    
   4353000   300.23961      0.050123105    28.029851      744.90275     -91.597868      653.30489    
   4354000   303.39934      0.050123105    20.517064      752.74213     -87.67314       665.06899    
   4355000   285.73757      0.050123105    22.895917      708.92278     -91.838516      617.08426    
   4356000   304.60382      0.050123105    25.364262      755.73048     -89.843211      665.88726    
   4357000   293.88451      0.050123105    23.829082      729.13557     -98.114214      631.02135    
   4358000   291.61716      0.050123105    24.352737      723.51022     -90.045663      633.46455    
   4359000   309.06043      0.050123105    21.395566      766.78744     -84.680363      682.10708    
   4360000   306.27311      0.050123105    27.787096      759.87203     -84.812035      675.06       
   4361000   287.73315      0.050123105    31.747273      713.87388     -88.192445      625.68143    
   4362000   292.67312      0.050123105    4.6168907      726.13008     -91.478676      634.6514     
   4363000   300.29617      0.050123105    15.579557      745.04308     -88.512806      656.53027    
   4364000   294.97299      0.050123105    18.845506      731.83611     -92.290506      639.5456     
   4365000   305.51833      0.050123105    42.79099       757.99941     -87.013694      670.98571    
   4366000   291.45863      0.050123105    20.235202      723.11691     -87.870054      635.24685    
   4367000   303.40743      0.050123105    6.9861988      752.7622      -81.630537      671.13167    
   4368000   301.37248      0.050123105    25.884606      747.71343     -81.053932      666.6595     
   4369000   296.39204      0.050123105    39.731313      735.35683     -80.333021      655.02381    
   4370000   293.81178      0.050123105    24.101582      728.95514     -75.648325      653.30681    
   4371000   294.74472      0.050123105    23.850004      731.26978     -75.392361      655.87741    
   4372000   316.56505      0.050123105    42.97091       785.40661     -73.054305      712.35231    
   4373000   293.33475      0.050123105    26.085956      727.77159     -78.62351       649.14808    
   4374000   300.66206      0.050123105    16.066527      745.95087     -77.02461       668.92626    
   4375000   321.83828      0.050123105    25.661788      798.48965     -83.523333      714.96631    
   4376000   291.39234      0.050123105    32.028723      722.95242     -80.311474      642.64095    
   4377000   295.66696      0.050123105    13.469829      733.55787     -84.807774      648.7501     
   4378000   316.79619      0.050123105    21.44294       785.98009     -80.871878      705.10821    
   4379000   307.13377      0.050123105    31.430221      762.00734     -81.777764      680.22958    
   4380000   299.89497      0.050123105    34.186223      744.04768     -82.38907       661.65861    
   4381000   287.40184      0.050123105    30.128055      713.05188     -78.387455      634.66442    
   4382000   314.89324      0.050123105    21.552059      781.2588      -88.07677       693.18203    
   4383000   308.16023      0.050123105    27.440371      764.55402     -83.011992      681.54202    
   4384000   294.17594      0.050123105    18.076181      729.85863     -85.906997      643.95163    
   4385000   303.12714      0.050123105    24.678648      752.0668      -80.937542      671.12926    
   4386000   305.20197      0.050123105    25.237436      757.21451     -84.620154      672.59436    
   4387000   298.87994      0.050123105    24.908549      741.52936     -85.580102      655.94926    
   4388000   304.65485      0.050123105    23.57125       755.85709     -84.050903      671.80618    
   4389000   300.13858      0.050123105    20.808628      744.65209     -86.138504      658.51359    
   4390000   307.84072      0.050123105    26.832577      763.76132     -87.472615      676.2887     
   4391000   293.44111      0.050123105    27.485347      728.03549     -88.902389      639.1331     
   4392000   306.61697      0.050123105    28.030089      760.72515     -92.878123      667.84703    
   4393000   295.17713      0.050123105    36.295459      732.34259     -83.866086      648.47651    
   4394000   293.0737       0.050123105    24.350306      727.12394     -89.989598      637.13434    
   4395000   300.66456      0.050123105    28.573675      745.95705     -79.048583      666.90847    
   4396000   304.64441      0.050123105    37.705715      755.83117     -71.782083      684.04909    
   4397000   301.5054       0.050123105    20.699763      748.04322     -78.150394      669.89283    
   4398000   304.90234      0.050123105    24.881295      756.47112     -75.596074      680.87504    
   4399000   294.62587      0.050123105    24.748723      730.9749      -74.677272      656.29763    
   4400000   292.0251       0.050123105    41.240154      724.52232     -76.367271      648.15505    
   4401000   311.27033      0.050123105    21.691416      772.27026     -80.747134      691.52312    
   4402000   298.53375      0.050123105    3.1802157      740.67045     -75.982226      664.68823    
   4403000   294.2816       0.050123105    32.230752      730.12077     -78.858014      651.26275    
   4404000   322.74987      0.050123105    38.724537      800.75131     -82.534911      718.2164     
   4405000   301.27219      0.050123105    16.793125      747.46462     -89.908869      657.55575    
   4406000   285.24212      0.050123105    25.520068      707.69355     -81.730726      625.96282    
   4407000   301.8509       0.050123105    22.102999      748.9004      -95.684582      653.21582    
   4408000   297.49384      0.050123105    6.87973        738.09042     -95.185701      642.90472    
   4409000   305.03614      0.050123105    51.725544      756.80308     -89.684384      667.1187     
   4410000   302.60001      0.050123105    19.482699      750.75897     -89.648786      661.11019    
   4411000   283.61423      0.050123105    20.447447      703.65471     -96.645857      607.00886    
   4412000   298.47831      0.050123105    12.883595      740.53292     -93.377118      647.1558     
   4413000   295.15885      0.050123105    26.950459      732.29724     -97.868237      634.42901    
   4414000   311.83922      0.050123105    28.683522      773.68171     -94.637483      679.04422    
   4415000   308.62064      0.050123105    24.172999      765.6963      -85.394368      680.30194    
   4416000   287.56227      0.050123105    14.416809      713.44992     -94.601418      618.8485     
   4417000   291.1524       0.050123105    25.778621      722.35714     -96.253684      626.10345    
   4418000   295.57202      0.050123105    16.439375      733.32233     -89.125976      644.19635    
   4419000   302.46932      0.050123105    24.19149       750.43472     -87.815542      662.61918    
   4420000   295.40878      0.050123105    32.364927      732.91731     -84.474583      648.44273    
   4421000   296.68185      0.050123105    21.47423       736.07585     -93.906611      642.16924    
   4422000   291.87032      0.050123105    29.312449      724.13832     -85.145715      638.9926     
   4423000   304.15066      0.050123105    1.4745507      754.60617     -87.759747      666.84642    
   4424000   282.20811      0.050123105    16.742346      700.16611     -92.674389      607.49172    
   4425000   293.96649      0.050123105    52.64657       729.33896     -83.956918      645.38204    
   4426000   307.89975      0.050123105    29.821916      763.90777     -82.709062      681.19871    
   4427000   299.53851      0.050123105    6.235585       743.16331     -85.400845      657.76246    
   4428000   298.75563      0.050123105    32.562146      741.22095     -82.084283      659.13667    
   4429000   303.4172       0.050123105    27.407556      752.78643     -84.983488      667.80294    
   4430000   287.67408      0.050123105    53.616937      713.72732     -80.224416      633.50291    
   4431000   307.68911      0.050123105    29.489409      763.38516     -76.080729      687.30443    
   4432000   299.55228      0.050123105    23.191096      743.19745     -75.555794      667.64166    
   4433000   297.19519      0.050123105    13.704722      737.34947     -79.191929      658.15754    
   4434000   296.49458      0.050123105    36.132522      735.61123     -78.981905      656.62933    
   4435000   306.27413      0.050123105    35.432801      759.87457     -80.122092      679.75248    
   4436000   300.87777      0.050123105    25.361863      746.48603     -82.430957      664.05508    
   4437000   299.7749       0.050123105   -10.67096       743.74979     -83.89229       659.8575     
   4438000   298.26805      0.050123105    22.750635      740.01126     -87.597178      652.41408    
   4439000   291.56996      0.050123105    42.557998      723.3931      -75.357128      648.03597    
   4440000   305.67579      0.050123105    27.235259      758.39005     -81.804436      676.58561    
   4441000   305.99845      0.050123105    19.084415      759.19058     -79.01534       680.17524    
   4442000   291.5285       0.050123105    21.491673      723.29025     -75.171534      648.11872    
   4443000   303.41708      0.050123105    35.174364      752.78614     -82.091929      670.69421    
   4444000   303.36444      0.050123105    14.212068      752.65553     -85.013655      667.64187    
   4445000   296.87583      0.050123105    21.981792      736.55713     -89.841285      646.71584    
   4446000   309.36325      0.050123105    23.700659      767.53874     -93.713382      673.82536    
   4447000   313.53792      0.050123105    31.336061      777.89623     -87.646292      690.24994    
   4448000   300.60473      0.050123105    26.134805      745.80863     -78.051212      667.75742    
   4449000   296.71353      0.050123105    23.935939      736.15444     -73.953653      662.20078    
   4450000   290.19269      0.050123105    23.354807      719.97607     -86.926962      633.0491     
   4451000   294.01556      0.050123105    26.781858      729.4607      -89.128694      640.332      
   4452000   310.90164      0.050123105    25.791101      771.35553     -84.254679      687.10085    
   4453000   306.42237      0.050123105    24.731444      760.24234     -83.500952      676.74139    
   4454000   289.67323      0.050123105    19.24471       718.68727     -83.316651      635.37062    
   4455000   305.13504      0.050123105    29.84337       757.04844     -78.703704      678.34474    
   4456000   286.90401      0.050123105    28.005255      711.81677     -77.214812      634.60195    
   4457000   297.61705      0.050123105    23.441033      738.39611     -85.726584      652.66953    
   4458000   312.10669      0.050123105    23.120282      774.34529     -75.749104      698.59619    
   4459000   296.86373      0.050123105    24.378709      736.52709     -76.795822      659.73127    
   4460000   295.89362      0.050123105    25.596171      734.12022     -73.595583      660.52464    
   4461000   282.99893      0.050123105    19.730098      702.12815     -75.423908      626.70424    
   4462000   301.43452      0.050123105    27.258646      747.86736     -74.47347       673.39389    
   4463000   302.54235      0.050123105    34.284985      750.61592     -76.737312      673.8786     
   4464000   299.89901      0.050123105    25.152647      744.05772     -82.390921      661.6668     
   4465000   289.12736      0.050123105    22.139634      717.33295     -84.915415      632.41753    
   4466000   307.62721      0.050123105    18.917234      763.23159     -81.677123      681.55446    
   4467000   302.48437      0.050123105    31.773811      750.47206     -79.832183      670.63988    
   4468000   293.47994      0.050123105    23.980053      728.13183     -80.036507      648.09532    
   4469000   300.86124      0.050123105    21.173236      746.44504     -77.974768      668.47027    
   4470000   305.72608      0.050123105    26.133176      758.51483     -83.506155      675.00868    
   4471000   300.85909      0.050123105    24.114941      746.43968     -84.381284      662.0584     
   4472000   307.8371       0.050123105    23.209416      763.75232     -81.96209       681.79023    
   4473000   296.65871      0.050123105    18.674809      736.01843     -78.213218      657.80521    
   4474000   313.80606      0.050123105    30.324398      778.56149     -78.68192       699.87957    
   4475000   304.64564      0.050123105    29.739048      755.83423     -83.031653      672.80258    
   4476000   297.24857      0.050123105    16.915612      737.48189     -87.705669      649.77622    
   4477000   301.52763      0.050123105    20.494061      748.09836     -87.272457      660.82591    
   4478000   307.05853      0.050123105    32.467583      761.82067     -87.541         674.27967    
   4479000   304.61102      0.050123105    23.143107      755.74835     -92.173475      663.57487    
   4480000   302.31702      0.050123105    24.262637      750.05686     -88.062211      661.99465    
   4481000   301.89242      0.050123105    12.34062       749.00341     -85.499443      663.50397    
   4482000   309.62494      0.050123105    9.0386267      768.188       -84.497435      683.69056    
   4483000   291.74754      0.050123105    25.021316      723.83369     -76.891417      646.94227    
   4484000   307.86559      0.050123105    31.24641       763.82302     -85.248729      678.57429    
   4485000   287.97623      0.050123105    23.914506      714.47696     -88.086531      626.39043    
   4486000   294.7859       0.050123105    26.118041      731.37194     -97.095265      634.27667    
   4487000   300.5466       0.050123105    30.644274      745.66439     -92.081965      653.58243    
   4488000   302.54016      0.050123105    21.774922      750.61048     -90.376578      660.23391    
   4489000   290.8752       0.050123105    24.668842      721.6694      -84.712548      636.95685    
   4490000   304.96022      0.050123105    27.887095      756.61472     -86.091645      670.52308    
   4491000   300.61794      0.050123105    23.220239      745.84138     -85.05516       660.78622    
   4492000   298.10593      0.050123105    24.117906      739.60904     -77.00502       662.60402    
   4493000   304.64244      0.050123105    26.506565      755.82629     -77.880605      677.94569    
   4494000   319.6462       0.050123105    25.249962      793.05104     -79.332151      713.71889    
   4495000   292.84475      0.050123105    21.438781      726.55589     -75.449283      651.10661    
   4496000   295.23824      0.050123105    26.693175      732.49421     -85.756102      646.73811    
   4497000   294.57023      0.050123105    28.033219      730.83686     -84.435138      646.40172    
   4498000   292.41071      0.050123105    27.927361      725.47904     -84.001577      641.47747    
   4499000   294.78122      0.050123105    25.169127      731.36032     -78.668565      652.69176    
   4500000   304.80065      0.050123105    23.008659      756.21881     -72.907614      683.31119    
   4501000   311.05005      0.050123105    26.168984      771.72376     -78.915233      692.80852    
   4502000   301.28878      0.050123105    21.564132      747.50576     -87.850811      659.65495    
   4503000   298.66131      0.050123105    13.401728      740.98693     -86.169444      654.81749    
   4504000   305.66236      0.050123105    25.983811      758.35673     -81.83117       676.52556    
   4505000   301.943        0.050123105    25.598087      749.12891     -87.467186      661.66172    
   4506000   307.54395      0.050123105    22.949286      763.02501     -90.068185      672.95683    
   4507000   303.53291      0.050123105    23.740488      753.07353     -84.123496      668.95003    
   4508000   303.8434       0.050123105    22.803817      753.84386     -85.551783      668.29208    
   4509000   292.20281      0.050123105    22.402572      724.96322     -82.559032      642.40419    
   4510000   291.64634      0.050123105    22.715498      723.5826      -77.471162      646.11144    
   4511000   295.16211      0.050123105    21.050389      732.30533     -86.119946      646.18538    
   4512000   304.06063      0.050123105    22.554411      754.38281     -88.096179      666.28663    
   4513000   296.35509      0.050123105    27.507287      735.26515     -81.770414      653.49473    
   4514000   298.04222      0.050123105    24.509035      739.45098     -78.845837      660.60514    
   4515000   281.52208      0.050123105    19.470013      698.46404     -80.637469      617.82657    
   4516000   318.71076      0.050123105    25.763583      790.73019     -71.785875      718.94431    
   4517000   312.46537      0.050123105    28.507959      775.23521     -73.73046       701.50475    
   4518000   287.66685      0.050123105    15.658778      713.70939     -78.736938      634.97246    
   4519000   302.64964      0.050123105    5.9431198      750.88209     -80.424849      670.45724    
   4520000   304.88831      0.050123105    32.96805       756.4363      -79.122078      677.31422    
   4521000   304.23722      0.050123105    27.62857       754.82092     -87.500254      667.32066    
   4522000   301.17252      0.050123105    4.7920599      747.21733     -82.996329      664.221      
   4523000   308.02409      0.050123105    23.495463      764.21626     -77.500292      686.71597    
   4524000   300.20857      0.050123105    37.411039      744.82574     -86.552366      658.27337    
   4525000   298.12585      0.050123105    23.379013      739.65844     -82.608999      657.04944    
   4526000   302.27446      0.050123105    13.569464      749.95126     -76.140274      673.81098    
   4527000   306.88388      0.050123105    58.329622      761.38737     -80.433802      680.95357    
   4528000   297.81539      0.050123105    28.073452      738.88819     -78.047558      660.84063    
   4529000   294.53295      0.050123105    29.274909      730.74437     -84.833286      645.91109    
   4530000   281.89229      0.050123105    19.211948      699.38255     -85.628158      613.75439    
   4531000   307.13295      0.050123105    25.128165      762.00532     -78.059901      683.94542    
   4532000   303.6755       0.050123105    23.309246      753.42729     -82.475023      670.95227    
   4533000   302.95888      0.050123105    25.454978      751.64933     -83.764282      667.88505    
   4534000   302.5065       0.050123105    19.965284      750.52696     -91.978973      658.54799    
   4535000   306.57552      0.050123105    24.138997      760.62232     -89.009513      671.61281    
   4536000   308.93575      0.050123105    54.737092      766.47812     -87.392152      679.08597    
   4537000   293.24061      0.050123105    17.408645      727.53803     -77.798331      649.7397     
   4538000   295.93501      0.050123105    24.112437      734.22292     -79.851566      654.37135    
   4539000   314.05347      0.050123105    48.587132      779.17531     -76.344713      702.83059    
   4540000   302.55106      0.050123105    18.980627      750.63753     -80.693545      669.94399    
   4541000   308.34219      0.050123105    2.8652134      765.00547     -85.641893      679.36358    
   4542000   297.32903      0.050123105    11.565714      737.68153     -89.091666      648.58986    
   4543000   297.26998      0.050123105    35.612743      737.53501     -81.654898      655.88011    
   4544000   313.0846       0.050123105    28.418413      776.77153     -88.920765      687.85076    
   4545000   304.96508      0.050123105    9.6678236      756.62676     -88.673889      667.95287    
   4546000   294.71227      0.050123105    29.578436      731.18926     -86.396352      644.79291    
   4547000   299.01738      0.050123105    29.738458      741.87037     -86.917794      654.95258    
   4548000   306.53565      0.050123105    13.498992      760.52341     -85.779655      674.74375    
   4549000   313.78237      0.050123105    23.424452      778.50271     -90.742402      687.76031    
   4550000   300.6455       0.050123105    29.802585      745.90978     -89.403801      656.50598    
   4551000   296.3822       0.050123105    22.756164      735.33241     -89.986147      645.34626    
   4552000   314.29365      0.050123105    27.176289      779.7712      -87.148777      692.62242    
   4553000   295.67163      0.050123105    26.233204      733.56947     -81.59284       651.97663    
   4554000   299.70791      0.050123105    18.813558      743.58358     -86.485155      657.09842    
   4555000   306.60326      0.050123105    22.488261      760.69115     -86.718555      673.97259    
   4556000   303.10484      0.050123105    28.226001      752.01146     -79.528153      672.48331    
   4557000   292.98367      0.050123105    19.595619      726.90055     -89.970167      636.93038    
   4558000   296.58108      0.050123105    28.481857      735.82584     -81.627527      654.19831    
   4559000   302.75603      0.050123105    23.507239      751.14606     -84.644687      666.50138    
   4560000   311.05238      0.050123105    21.114425      771.72952     -79.576723      692.1528     
   4561000   287.29938      0.050123105    22.143172      712.79767     -85.490103      627.30757    
   4562000   298.26011      0.050123105    19.222849      739.99155     -81.869778      658.12177    
   4563000   284.67117      0.050123105    22.334055      706.27701     -75.161037      631.11597    
   4564000   302.44196      0.050123105    23.433839      750.36685     -77.018046      673.3488     
   4565000   313.46063      0.050123105    24.315153      777.70448     -68.415466      709.28901    
   4566000   293.80594      0.050123105    22.840907      728.94064     -74.870688      654.06995    
   4567000   293.71744      0.050123105    23.450683      728.72106     -79.065611      649.65545    
   4568000   303.17705      0.050123105    23.008558      752.19061     -88.196124      663.99449    
   4569000   307.99513      0.050123105    28.029399      764.14442     -74.576661      689.56776    
   4570000   300.93352      0.050123105    22.819428      746.62436     -80.08604       666.53832    
   4571000   308.65293      0.050123105    27.114779      765.77643     -76.779384      688.99705    
   4572000   279.21322      0.050123105    20.844465      692.7357      -82.957989      609.77771    
   4573000   287.98135      0.050123105    27.77193       714.48967     -75.840921      638.64875    
   4574000   292.23597      0.050123105    21.418706      725.04551     -78.361354      646.68415    
   4575000   307.41392      0.050123105    21.552545      762.70241     -76.257424      686.44498    
   4576000   306.02364      0.050123105    27.950651      759.25309     -74.287042      684.96605    
   4577000   285.49854      0.050123105    26.036292      708.32975     -71.691802      636.63795    
   4578000   310.8598       0.050123105    20.109673      771.25172     -81.079327      690.1724     
   4579000   311.80058      0.050123105    34.480855      773.58584     -75.036952      698.54889    
   4580000   291.85576      0.050123105    25.048818      724.10218     -76.436447      647.66574    
   4581000   291.47313      0.050123105    17.323676      723.15286     -73.178293      649.97457    
   4582000   311.74159      0.050123105    39.312996      773.43949     -82.732553      690.70693    
   4583000   300.07688      0.050123105    29.245162      744.49902     -81.387809      663.11121    
   4584000   292.57433      0.050123105    22.186714      725.88498     -71.563905      654.32107    
   4585000   305.20377      0.050123105    12.106785      757.21898     -76.326335      680.89264    
   4586000   318.8553       0.050123105    37.197401      791.08879     -74.606968      716.48182    
   4587000   304.16245      0.050123105    31.043411      754.63541     -77.899892      676.73552    
   4588000   291.99736      0.050123105    24.13418       724.45351     -77.094639      647.35887    
   4589000   316.34198      0.050123105    27.625384      784.85317     -76.511798      708.34137    
   4590000   317.57168      0.050123105    28.231437      787.9041      -76.562835      711.34126    
   4591000   294.39834      0.050123105    21.346979      730.4104      -79.299189      651.11121    
   4592000   288.47068      0.050123105    17.700097      715.70371     -85.181662      630.52205    
   4593000   305.90997      0.050123105    24.936679      758.97107     -90.941111      668.02996    
   4594000   302.12927      0.050123105    20.597186      749.59105     -84.790024      664.80103    
   4595000   295.91163      0.050123105    26.156865      734.16491     -84.639273      649.52564    
   4596000   298.70517      0.050123105    18.233269      741.09576     -84.636588      656.45918    
   4597000   305.74182      0.050123105    27.045178      758.55389     -81.106468      677.44742    
   4598000   308.2782       0.050123105    27.420736      764.84671     -83.852197      680.99452    
   4599000   302.85388      0.050123105    16.934006      751.38881     -81.019181      670.36963    
   4600000   289.48046      0.050123105    24.637422      718.20899     -78.846136      639.36286    
   4601000   287.6646       0.050123105    46.518304      713.70381     -85.586806      628.117      
   4602000   311.02815      0.050123105    32.784902      771.66942     -72.644414      699.02501    
   4603000   295.33075      0.050123105    18.333357      732.72374     -78.362808      654.36093    
   4604000   312.1784       0.050123105    21.337223      774.52321     -79.172144      695.35106    
   4605000   304.61606      0.050123105    24.614731      755.76084     -89.775929      665.98491    
   4606000   309.75584      0.050123105    25.353998      768.51277     -82.983891      685.52888    
   4607000   293.84968      0.050123105    18.210707      729.04916     -95.793755      633.25541    
   4608000   303.77656      0.050123105    27.341081      753.67803     -88.156412      665.52162    
   4609000   294.22203      0.050123105    24.305787      729.97297     -91.802689      638.17028    
   4610000   304.65169      0.050123105    30.268455      755.84925     -91.394296      664.45495    
   4611000   311.3023       0.050123105    21.400181      772.34959     -93.095079      679.25451    
   4612000   295.14515      0.050123105    26.882919      732.26326     -84.59442       647.66884    
   4613000   304.44021      0.050123105    35.66759       755.32456     -82.821496      672.50306    
   4614000   306.87998      0.050123105    27.092953      761.3777      -86.453593      674.92411    
   4615000   301.67126      0.050123105    23.280754      748.45472     -81.403709      667.05101    
   4616000   295.47372      0.050123105    24.300654      733.07845     -76.781787      656.29666    
   4617000   302.216        0.050123105    27.090962      749.80623     -80.525907      669.28032    
   4618000   302.4928       0.050123105    24.310349      750.49297     -82.333696      668.15927    
   4619000   299.37762      0.050123105    24.97133       742.76414     -76.666201      666.09793    
   4620000   317.1076       0.050123105    27.427502      786.7527      -83.612912      703.13979    
   4621000   320.43721      0.050123105    29.57919       795.01356     -84.571096      710.44246    
   4622000   296.9367       0.050123105    23.884189      736.70813     -77.473698      659.23443    
   4623000   291.68023      0.050123105    23.390978      723.66668     -81.702788      641.96389    
   4624000   309.21953      0.050123105    23.239525      767.18218     -83.310408      683.87177    
   4625000   306.79441      0.050123105    22.843995      761.16538     -83.279992      677.88539    
   4626000   291.7364       0.050123105    23.196887      723.80604     -87.706028      636.10001    
   4627000   300.04881      0.050123105    29.680189      744.42937     -86.375679      658.05369    
   4628000   307.61947      0.050123105    28.174723      763.21238     -82.86986       680.34252    
   4629000   309.88207      0.050123105    23.470464      768.82595     -77.408112      691.41784    
   4630000   292.11303      0.050123105    18.984557      724.74047     -86.450698      638.28977    
   4631000   302.87883      0.050123105    33.791128      751.45073     -84.050406      667.40032    
   4632000   311.02916      0.050123105    30.970437      771.67191     -85.627459      686.04445    
   4633000   303.79873      0.050123105    15.954025      753.73303     -86.30946       667.42357    
   4634000   291.86125      0.050123105    24.484831      724.11581     -86.093345      638.02247    
   4635000   303.3377       0.050123105    26.19689       752.58919     -78.13723       674.45196    
   4636000   307.15547      0.050123105    25.67552       762.06118     -83.839555      678.22163    
   4637000   293.73178      0.050123105    37.883501      728.75664     -81.731256      647.02539    
   4638000   286.20074      0.050123105    23.729684      710.07193     -82.047101      628.02483    
   4639000   304.25326      0.050123105    25.444161      754.86072     -71.056881      683.80384    
   4640000   303.95519      0.050123105    31.872748      754.12121     -77.835412      676.2858     
   4641000   301.53193      0.050123105    22.908795      748.10903     -77.191977      670.91706    
   4642000   297.00919      0.050123105    24.865808      736.88798     -73.349431      663.53855    
   4643000   305.26045      0.050123105    28.123245      757.35959     -78.828812      678.53078    
   4644000   292.1426       0.050123105    29.397056      724.81385     -75.440846      649.373      
   4645000   290.38135      0.050123105    21.807069      720.44414     -82.643374      637.80076    
   4646000   293.29057      0.050123105    26.203067      727.66198     -81.679982      645.982      
   4647000   318.08583      0.050123105    27.031416      789.17972     -82.850912      706.32881    
   4648000   300.22077      0.050123105    42.762251      744.85601     -87.052466      657.80355    
   4649000   297.71891      0.050123105    32.556198      738.64883     -85.979165      652.66967    
   4650000   283.81538      0.050123105    21.767621      704.15377     -87.203654      616.95012    
   4651000   304.43921      0.050123105    21.725812      755.32206     -84.087078      671.23499    
   4652000   320.66611      0.050123105    29.530535      795.58146     -79.134017      716.44745    
   4653000   296.06841      0.050123105    29.756952      734.55388     -81.192349      653.36153    
   4654000   289.45908      0.050123105    23.332278      718.15597     -82.548373      635.60759    
   4655000   293.07879      0.050123105    21.51376       727.13655     -81.582558      645.55399    
   4656000   312.81841      0.050123105    16.700288      776.1111      -82.492844      693.61826    
   4657000   312.63311      0.050123105    33.439257      775.65136     -83.323876      692.32749    
   4658000   301.37422      0.050123105    33.674404      747.71774     -83.989912      663.72783    
   4659000   290.54798      0.050123105    23.393655      720.85755     -87.312241      633.54531    
   4660000   301.79595      0.050123105    9.7589826      748.76407     -84.348597      664.41547    
   4661000   311.80607      0.050123105    28.273488      773.59945     -79.386828      694.21262    
   4662000   299.0372       0.050123105    34.735199      741.91953     -75.723644      666.19589    
   4663000   298.55386      0.050123105    21.308732      740.72036     -86.689561      654.0308     
   4664000   314.01413      0.050123105    27.363234      779.07771     -81.171685      697.90602    
   4665000   298.16981      0.050123105    25.436527      739.76752     -90.161849      649.60567    
   4666000   303.17093      0.050123105    21.840516      752.17544     -87.463604      664.71184    
   4667000   306.42671      0.050123105    32.808285      760.25311     -80.645551      679.60756    
   4668000   300.27305      0.050123105    24.568468      744.98571     -85.210551      659.77515    
   4669000   306.93186      0.050123105    4.9153327      761.50642     -88.219049      673.28737    
   4670000   299.17479      0.050123105    25.228416      742.26091     -87.928609      654.3323     
   4671000   313.50104      0.050123105    27.145598      777.80472     -77.57551       700.22921    
   4672000   297.66594      0.050123105    20.37283       738.51741     -81.538715      656.97869    
   4673000   284.08869      0.050123105    26.476869      704.83188     -81.622547      623.20934    
   4674000   310.86971      0.050123105    27.312818      771.27631     -87.093032      684.18328    
   4675000   301.74589      0.050123105    25.083275      748.63987     -85.189936      663.44993    
   4676000   307.04659      0.050123105    35.237435      761.79104     -86.308776      675.48227    
   4677000   314.20102      0.050123105    19.753965      779.5414      -89.415367      690.12603    
   4678000   300.61336      0.050123105    16.891267      745.83003     -86.731257      659.09877    
   4679000   282.17399      0.050123105    37.659505      700.08146     -86.331379      613.75008    
   4680000   294.76926      0.050123105    36.912238      731.33067     -95.322739      636.00793    
   4681000   301.66205      0.050123105    20.556562      748.43187     -88.860198      659.57167    
   4682000   288.5729       0.050123105    3.6433367      715.95732     -93.63433       622.32299    
   4683000   299.8091       0.050123105    29.739616      743.83465     -91.138322      652.69632    
   4684000   303.24338      0.050123105    13.265154      752.35517     -100.06165      652.29353    
   4685000   307.32684      0.050123105    22.303829      762.48635     -97.959175      664.52718    
   4686000   291.13418      0.050123105    20.239121      722.31192     -96.73512       625.5768     
   4687000   302.03851      0.050123105    46.849485      749.36588     -79.924714      669.44116    
   4688000   309.17275      0.050123105    17.29809       767.06611     -85.627392      681.43872    
   4689000   285.18997      0.050123105    27.928052      707.56416     -86.028044      621.53612    
   4690000   297.69108      0.050123105    38.031016      738.57977     -87.231667      651.3481     
   4691000   297.03204      0.050123105   -6.7451772      736.94468     -83.070645      653.87404    
   4692000   296.57002      0.050123105    21.717979      735.7984      -84.634251      651.16415    
   4693000   301.65968      0.050123105    43.999222      748.42598     -82.721493      665.70449    
   4694000   299.70915      0.050123105    52.331986      743.58666     -78.922143      664.66452    
   4695000   301.44629      0.050123105    17.43814       747.89657     -79.996055      667.90051    
   4696000   288.46244      0.050123105    22.646807      715.68327     -77.516548      638.16672    
   4697000   300.04487      0.050123105    40.109877      744.41959     -80.979152      663.44044    
   4698000   315.62944      0.050123105    25.903067      783.08533     -78.320226      704.76511    
   4699000   288.61698      0.050123105    20.215259      716.06669     -80.331558      635.73513    
   4700000   292.48212      0.050123105    27.939479      725.6562      -79.484056      646.17215    
   4701000   312.44724      0.050123105    25.071646      775.19022     -80.061022      695.12919    
   4702000   297.84701      0.050123105    32.679436      738.96665     -83.258873      655.70778    
   4703000   290.68652      0.050123105    23.194206      721.20126     -72.660925      648.54034    
   4704000   310.86554      0.050123105    37.235207      771.26598     -78.694661      692.57132    
   4705000   320.24602      0.050123105    35.961303      794.53921     -70.716165      723.82305    
   4706000   301.79347      0.050123105    28.598718      748.75793     -78.089         670.66893    
   4707000   289.93327      0.050123105    23.344636      719.33245     -79.554732      639.77771    
   4708000   303.52188      0.050123105    17.694482      753.04615     -79.181265      673.86489    
   4709000   308.08909      0.050123105    30.557635      764.37753     -83.426143      680.95139    
   4710000   289.88841      0.050123105    26.989724      719.22114     -74.530487      644.69065    
   4711000   304.77201      0.050123105    22.655852      756.14776     -77.469548      678.67821    
   4712000   314.36429      0.050123105    33.101895      779.94647     -74.513378      705.43309    
   4713000   287.56563      0.050123105    23.170562      713.45825     -73.895186      639.56306    
   4714000   284.49941      0.050123105    7.0745211      705.85088     -75.887489      629.96339    
   4715000   300.38299      0.050123105    18.604358      745.25849     -76.090629      669.16786    
   4716000   303.80369      0.050123105    26.396209      753.74532     -87.000882      666.74444    
   4717000   292.79869      0.050123105    25.996629      726.44161     -82.609794      643.83182    
   4718000   293.05107      0.050123105    23.38169       727.06777     -82.859881      644.20789    
   4719000   290.58029      0.050123105    30.986373      720.93772     -73.620134      647.31759    
   4720000   304.72939      0.050123105    25.472146      756.04201     -80.676746      675.36526    
   4721000   298.39686      0.050123105    22.7529        740.33084     -83.175396      657.15544    
   4722000   297.83816      0.050123105    23.784091      738.94469     -81.104246      657.84044    
   4723000   312.30155      0.050123105    31.374237      774.82876     -76.137866      698.6909     
   4724000   298.78728      0.050123105    23.616212      741.29947     -82.065725      659.23374    
   4725000   301.07856      0.050123105    24.590231      746.9842      -80.113466      666.87074    
   4726000   311.38224      0.050123105    22.247124      772.54793     -84.402144      688.14579    
   4727000   307.24246      0.050123105    28.232268      762.27701     -87.889925      674.38708    
   4728000   302.60707      0.050123105    27.274199      750.77648     -86.414397      664.36209    
   4729000   300.84344      0.050123105    20.972701      746.40086     -87.600503      658.80036    
   4730000   293.93221      0.050123105    23.827626      729.2539      -83.723899      645.53001    
   4731000   291.5096       0.050123105    13.251814      723.24334     -89.579727      633.66362    
   4732000   299.56055      0.050123105    27.070088      743.21798     -90.603259      652.61472    
   4733000   283.93247      0.050123105    19.653558      704.44429     -102.48723      601.95707    
   4734000   307.42225      0.050123105    26.070081      762.72306     -93.4816        669.24146    
   4735000   315.20922      0.050123105    22.317281      782.04276     -91.517015      690.52574    
   4736000   292.4433       0.050123105    22.536309      725.5599      -86.683027      638.87687    
   4737000   290.17023      0.050123105    22.91749       719.92033     -85.15905       634.76128    
   4738000   307.24381      0.050123105    25.55731       762.28037     -87.964621      674.31575    
   4739000   304.24146      0.050123105    23.348167      754.83145     -86.694134      668.13732    
   4740000   292.6897       0.050123105    11.120639      726.17122     -89.031474      637.13974    
   4741000   294.59481      0.050123105    22.290041      730.89785     -89.259674      641.63818    
   4742000   307.74791      0.050123105    34.438764      763.53104     -88.503663      675.02737    
   4743000   320.08894      0.050123105    25.601649      794.14949     -97.348363      696.80113    
   4744000   299.09194      0.050123105    8.5632466      742.05535     -99.126792      642.92856    
   4745000   300.63191      0.050123105    19.250105      745.87606     -94.674464      651.20159    
   4746000   305.94543      0.050123105    43.010603      759.05904     -93.967789      665.09125    
   4747000   310.53204      0.050123105    22.83595       770.43855     -91.232692      679.20586    
   4748000   299.69699      0.050123105    18.003379      743.5565      -88.301813      655.25469    
   4749000   301.15481      0.050123105    16.351414      747.17337     -92.793108      654.38027    
   4750000   297.45113      0.050123105    25.345072      737.98444     -92.205712      645.77873    
   4751000   300.16233      0.050123105    27.593301      744.711       -88.331858      656.37915    
   4752000   298.23075      0.050123105    23.099275      739.91872     -92.158208      647.76051    
   4753000   316.12425      0.050123105    6.53076        784.31298     -93.420375      690.8926     
   4754000   292.85         0.050123105    35.372508      726.56892     -87.073476      639.49544    
   4755000   293.49224      0.050123105    33.508196      728.16235     -90.083067      638.07928    
   4756000   319.0864       0.050123105    10.358419      791.66216     -95.335001      696.32716    
   4757000   305.79912      0.050123105    18.916766      758.69605     -98.270432      660.42561    
   4758000   287.18452      0.050123105    21.855571      712.51272     -100.93699      611.57572    
   4759000   300.71041      0.050123105    24.406358      746.07081     -98.584614      647.4862     
   4760000   315.92668      0.050123105    25.471873      783.82281     -91.413842      692.40897    
   4761000   309.14168      0.050123105    22.89713       766.98904     -97.47703       669.51201    
   4762000   286.79377      0.050123105    19.485232      711.54324     -96.849308      614.69393    
   4763000   291.95492      0.050123105    28.538729      724.34822     -82.615053      641.73316    
   4764000   309.68223      0.050123105    22.413479      768.33014     -82.950199      685.37994    
   4765000   299.95317      0.050123105    14.32843       744.19209     -80.390168      663.80193    
   4766000   296.94436      0.050123105    23.570129      736.72714     -87.774877      648.95226    
   4767000   300.68223      0.050123105    26.856014      746.0009      -89.148004      656.85289    
   4768000   305.99176      0.050123105    20.160506      759.174       -93.044365      666.12964    
   4769000   300.09473      0.050123105    23.152374      744.54329     -91.102424      653.44087    
   4770000   311.00024      0.050123105    26.763782      771.60016     -88.502937      683.09722    
   4771000   305.02526      0.050123105    29.270414      756.77607     -85.56706       671.20901    
   4772000   280.84438      0.050123105    23.004187      696.78265     -94.446745      602.3359     
   4773000   298.21072      0.050123105    41.565618      739.86902     -89.170131      650.69889    
   4774000   305.99523      0.050123105    28.003526      759.1826      -90.121997      669.0606     
   4775000   306.85233      0.050123105    22.998786      761.30909     -83.907761      677.40132    
   4776000   298.21474      0.050123105    18.556646      739.87898     -84.652988      655.22599    
   4777000   302.15369      0.050123105    26.599887      749.65162     -75.891609      673.76001    
   4778000   298.75047      0.050123105    33.542632      741.20814     -81.425232      659.78291    
   4779000   295.76736      0.050123105    25.244213      733.80696     -85.545887      648.26107    
   4780000   298.91404      0.050123105    23.112297      741.61398     -81.36544       660.24854    
   4781000   303.77163      0.050123105    22.488158      753.6658      -85.703634      667.96216    
   4782000   306.41051      0.050123105    20.467694      760.21292     -75.208888      685.00403    
   4783000   300.5827       0.050123105    33.092542      745.75397     -74.986994      670.76698    
   4784000   289.12734      0.050123105    25.304068      717.33291     -77.636436      639.69647    
   4785000   301.9956       0.050123105    28.300605      749.25941     -73.907498      675.35191    
   4786000   309.34288      0.050123105    22.346865      767.48822     -74.648104      692.84012    
   4787000   309.60632      0.050123105    25.817239      768.14181     -78.391554      689.75026    
   4788000   295.70002      0.050123105    26.493656      733.6399      -80.562147      653.07776    
   4789000   302.6907       0.050123105    25.45122       750.98396     -79.522163      671.4618     
   4790000   290.62187      0.050123105    26.617523      721.04087     -70.928513      650.11236    
   4791000   287.82268      0.050123105    25.796465      714.09599     -74.597781      639.49821    
   4792000   305.22895      0.050123105    23.348557      757.28144     -77.01302       680.26842    
   4793000   297.66474      0.050123105    21.029882      738.51442     -76.484311      662.0301     
   4794000   294.57714      0.050123105    22.676755      730.85401     -76.807548      654.04646    
   4795000   311.78665      0.050123105    25.979694      773.55128     -79.431738      694.11954    
   4796000   306.46116      0.050123105    25.285658      760.33859     -81.557711      678.78088    
   4797000   283.09433      0.050123105    24.175602      702.36484     -80.094799      622.27004    
   4798000   303.78264      0.050123105    26.059185      753.6931      -85.040786      668.65232    
   4799000   317.69198      0.050123105    24.590238      788.20257     -80.435156      707.76741    
   4800000   295.2832       0.050123105    24.447541      732.60575     -77.549897      655.05586    
   4801000   293.77214      0.050123105    24.054846      728.85677     -84.070797      644.78597    
   4802000   298.94915      0.050123105    25.446502      741.70109     -93.401045      648.30004    
   4803000   311.20048      0.050123105    25.951968      772.09696     -90.906916      681.19004    
   4804000   306.879        0.050123105    26.513341      761.37526     -86.686014      674.68925    
   4805000   279.10508      0.050123105    19.878425      692.46739     -87.317729      605.14966    
   4806000   298.84102      0.050123105    26.266538      741.4328      -80.663427      660.76937    
   4807000   294.07577      0.050123105    17.276855      729.61009     -81.58059       648.0295     
   4808000   300.58628      0.050123105    26.401028      745.76283     -77.442135      668.3207     
   4809000   306.30851      0.050123105    31.808744      759.95985     -72.302743      687.65711    
   4810000   291.43022      0.050123105    32.512798      723.0464      -76.867352      646.17905    
   4811000   294.90724      0.050123105    23.49506       731.673       -84.079644      647.59336    
   4812000   318.79371      0.050123105    20.415248      790.93599     -84.030111      706.90588    
   4813000   303.34029      0.050123105    27.580377      752.59562     -79.231405      673.36421    
   4814000   291.1747       0.050123105    33.037982      722.41245     -75.644334      646.76811    
   4815000   294.33871      0.050123105    25.437846      730.26245     -72.910164      657.35228    
   4816000   316.8915       0.050123105    21.288051      786.21655     -68.677703      717.53885    
   4817000   305.49438      0.050123105    32.017455      757.93999     -76.468097      681.47189    
   4818000   290.53287      0.050123105    23.228364      720.82007     -76.280648      644.53942    
   4819000   298.21282      0.050123105    27.963596      739.87422     -79.490273      660.38395    
   4820000   296.04465      0.050123105    30.9556        734.49495     -83.330344      651.1646     
   4821000   306.3608       0.050123105    21.915291      760.08958     -82.887002      677.20258    
   4822000   307.73707      0.050123105    14.108778      763.50415     -81.639061      681.86509    
   4823000   299.7507       0.050123105    22.130495      743.68976     -84.673209      659.01655    
   4824000   313.78277      0.050123105    32.102424      778.50369     -89.954311      688.54938    
   4825000   298.90712      0.050123105    22.51535       741.59681     -94.928033      646.66877    
   4826000   297.76038      0.050123105    31.989308      738.75172     -75.293735      663.45799    
   4827000   293.24109      0.050123105    38.340914      727.53922     -80.106303      647.43291    
   4828000   302.45657      0.050123105    39.970119      750.4031      -81.674954      668.72814    
   4829000   297.12777      0.050123105    12.390094      737.18219     -81.986544      655.19565    
   4830000   309.20097      0.050123105    15.954869      767.13613     -89.097538      678.03859    
   4831000   305.96987      0.050123105    20.784686      759.11969     -81.315393      677.8043     
   4832000   290.87293      0.050123105    31.577271      721.66376     -77.895709      643.76805    
   4833000   308.78357      0.050123105    30.242887      766.10056     -75.856877      690.24368    
   4834000   295.71309      0.050123105    15.568586      733.67232     -83.806266      649.86605    
   4835000   303.90986      0.050123105    22.481596      754.00875     -84.432075      669.57667    
   4836000   300.0333       0.050123105    37.175452      744.39088     -80.596651      663.79423    
   4837000   304.45209      0.050123105    24.640955      755.35403     -83.308727      672.0453     
   4838000   298.16978      0.050123105    17.443329      739.76744     -79.876557      659.89089    
   4839000   306.67624      0.050123105    30.91315       760.8722      -79.584075      681.28812    
   4840000   306.83068      0.050123105    21.306254      761.25538     -78.311745      682.94363    
   4841000   292.87392      0.050123105    17.72717       726.62827     -85.633323      640.99495    
   4842000   291.71603      0.050123105    27.506911      723.75552     -81.231028      642.52449    
   4843000   290.42055      0.050123105    32.357232      720.5414      -86.57791       633.96348    
   4844000   307.63417      0.050123105    23.736164      763.24885     -83.873241      679.37561    
   4845000   305.33824      0.050123105    25.7138        757.55258     -79.859262      677.69332    
   4846000   294.11123      0.050123105    22.208726      729.69806     -88.32335       641.37471    
   4847000   292.05351      0.050123105    28.400101      724.5928      -84.860305      639.7325     
   4848000   313.80491      0.050123105    29.661766      778.55862     -78.084965      700.47366    
   4849000   300.47412      0.050123105    22.807531      745.48457     -73.475479      672.00909    
   4850000   297.71789      0.050123105    21.379945      738.6463      -79.629512      659.01679    
   4851000   299.27468      0.050123105    26.697606      742.50873     -76.966515      665.54222    
   4852000   304.8729       0.050123105    25.543459      756.39808     -80.028924      676.36916    
   4853000   304.88921      0.050123105    22.599591      756.43853     -78.435605      678.00292    
   4854000   302.00852      0.050123105    14.924332      749.29146     -86.003908      663.28756    
   4855000   290.89123      0.050123105    27.447216      721.70917     -86.241257      635.46791    
   4856000   305.36586      0.050123105    36.987619      757.62112     -89.588444      668.03268    
   4857000   303.61114      0.050123105    23.892148      753.2676      -89.788075      663.47953    
   4858000   303.11211      0.050123105    20.629689      752.02949     -94.153481      657.87601    
   4859000   288.89699      0.050123105    34.647881      716.7614      -94.092156      622.66924    
   4860000   300.16622      0.050123105    38.675856      744.72066     -90.893035      653.82763    
   4861000   300.05857      0.050123105    26.037703      744.45357     -89.200706      655.25287    
   4862000   303.00805      0.050123105    20.82423       751.77132     -96.448933      655.32239    
   4863000   283.33387      0.050123105    22.88959       702.95915     -98.999391      603.95976    
   4864000   306.32412      0.050123105    29.226218      759.99859     -94.862065      665.13652    
   4865000   310.28303      0.050123105    20.989219      769.82075     -88.932626      680.88812    
   4866000   291.37226      0.050123105    22.76366       722.9026      -89.373782      633.52882    
   4867000   299.20242      0.050123105    35.792386      742.32944     -90.049695      652.27975    
   4868000   309.97744      0.050123105    26.381074      769.06257     -96.336014      672.72656    
   4869000   301.04347      0.050123105    24.476526      746.89716     -94.613317      652.28384    
   4870000   294.53276      0.050123105    25.697006      730.7439      -90.323602      640.42029    
   4871000   306.05613      0.050123105    29.401348      759.3337      -95.137295      664.19641    
   4872000   320.66058      0.050123105    30.102699      795.56773     -89.749442      705.81829    
   4873000   297.84724      0.050123105    19.960262      738.96721     -89.681968      649.28524    
   4874000   291.55319      0.050123105    23.985885      723.35151     -87.543219      635.80829    
   4875000   293.98147      0.050123105    24.379012      729.37614     -91.139165      638.23697    
   4876000   327.18662      0.050123105    24.127077      811.75902     -85.570413      726.18861    
   4877000   304.30794      0.050123105    23.109377      754.99638     -90.905461      664.09092    
   4878000   288.93603      0.050123105    24.297252      716.85826     -87.80894       629.04932    
   4879000   298.71781      0.050123105    23.846602      741.12712     -86.339306      654.78781    
   4880000   316.46974      0.050123105    29.080029      785.17015     -88.615764      696.55438    
   4881000   308.75517      0.050123105    23.433646      766.03008     -84.786609      681.24348    
   4882000   293.3017       0.050123105    14.095222      727.68961     -86.574159      641.11545    
   4883000   301.92244      0.050123105    31.66582       749.0779      -76.090233      672.98766    
   4884000   300.42561      0.050123105    35.58114       745.36423     -79.157962      666.20627    
   4885000   297.4242       0.050123105    20.261345      737.91763     -86.288573      651.62905    
   4886000   300.48227      0.050123105    25.602011      745.50479     -90.354308      655.15048    
   4887000   312.06087      0.050123105    26.800051      774.23161     -81.627255      692.60436    
   4888000   299.49344      0.050123105    24.363368      743.05149     -82.027134      661.02435    
   4889000   300.52609      0.050123105    20.954279      745.6135      -84.743345      660.87016    
   4890000   317.56696      0.050123105    26.650838      787.89238     -90.727626      697.16475    
   4891000   296.1247       0.050123105    20.064116      734.69355     -85.314575      649.37898    
   4892000   284.90017      0.050123105    21.962692      706.84517     -85.054144      621.79103    
   4893000   300.09394      0.050123105    26.640296      744.54133     -75.515758      669.02557    
   4894000   316.49271      0.050123105    27.145719      785.22714     -77.468803      707.75834    
   4895000   285.23379      0.050123105    24.308855      707.6729      -85.455666      622.21724    
   4896000   295.05798      0.050123105    20.630633      732.04699     -81.046386      651.00061    
   4897000   310.94346      0.050123105    30.771618      771.45929     -80.396114      691.06317    
   4898000   293.05487      0.050123105    24.963332      727.07721     -74.619082      652.45812    
   4899000   306.1768       0.050123105    15.803358      759.63308     -71.922352      687.71073    
   4900000   316.65785      0.050123105    25.775318      785.63685     -74.012955      711.6239     
   4901000   291.90815      0.050123105    27.778579      724.23216     -77.790016      646.44215    
   4902000   297.31749      0.050123105    28.161321      737.6529      -70.587657      667.06524    
   4903000   305.33689      0.050123105    5.8514205      757.54923     -70.6427        686.90653    
   4904000   309.94879      0.050123105    30.981997      768.99148     -75.499783      693.4917     
   4905000   292.08223      0.050123105    31.280898      724.66405     -71.679059      652.985      
   4906000   292.60093      0.050123105    26.695309      725.95097     -69.53839       656.41258    
   4907000   303.13752      0.050123105    16.640777      752.09254     -74.070738      678.0218     
   4908000   300.84106      0.050123105    23.845592      746.39496     -79.021443      667.37351    
   4909000   300.47545      0.050123105    25.786102      745.48787     -73.181497      672.30638    
   4910000   298.11181      0.050123105    23.407573      739.62363     -72.220894      667.40273    
   4911000   293.25352      0.050123105    22.559232      727.57006     -72.355846      655.21421    
   4912000   301.3699       0.050123105    20.210684      747.70703     -70.757607      676.94943    
   4913000   312.51847      0.050123105    29.974369      775.36695     -76.413931      698.95302    
   4914000   306.77651      0.050123105    30.091756      761.12097     -69.3271        691.79387    
   4915000   302.46741      0.050123105    25.039771      750.42999     -76.072269      674.35772    
   4916000   315.42334      0.050123105    25.916387      782.574       -80.902484      701.67152    
   4917000   304.70802      0.050123105    27.543165      755.989       -81.1368        674.8522     
   4918000   289.84849      0.050123105    22.799257      719.12209     -77.346563      641.77552    
   4919000   314.4695       0.050123105    21.500869      780.20749     -79.200953      701.00653    
   4920000   309.94737      0.050123105    28.410937      768.98796     -79.174974      689.81298    
   4921000   291.79584      0.050123105    36.479558      723.95352     -84.133522      639.82       
   4922000   294.91707      0.050123105    21.773105      731.69738     -88.186815      643.51057    
   4923000   310.03647      0.050123105    19.692025      769.20903     -82.040928      687.1681     
   4924000   309.12237      0.050123105    27.282809      766.94113     -87.907486      679.03364    
   4925000   299.37463      0.050123105    31.556844      742.75671     -81.408779      661.34793    
   4926000   296.3659       0.050123105    21.664371      735.29197     -80.633183      654.65878    
   4927000   315.65298      0.050123105    27.787172      783.14373     -82.188268      700.95546    
   4928000   308.77474      0.050123105    27.36793       766.07863     -84.526862      681.55177    
   4929000   294.84036      0.050123105    9.7155129      731.50707     -84.29693       647.21014    
   4930000   294.10711      0.050123105    21.471055      729.68784     -81.530194      648.15764    
   4931000   304.55897      0.050123105    23.197046      755.61921     -88.690786      666.92842    
   4932000   313.86449      0.050123105    29.906606      778.70645     -82.359265      696.34719    
   4933000   288.71351      0.050123105    22.01509       716.30618     -86.998933      629.30725    
   4934000   299.1578       0.050123105    28.143377      742.21875     -74.265335      667.95342    
   4935000   299.51271      0.050123105    21.868819      743.09928     -75.85525       667.24403    
   4936000   321.75496      0.050123105    25.96925       798.28293     -86.568028      711.7149     
   4937000   287.07233      0.050123105    27.714543      712.23437     -83.227569      629.0068     
   4938000   288.69729      0.050123105    21.898288      716.26593     -80.614436      635.65149    
   4939000   306.30049      0.050123105    23.834784      759.93997     -74.41309       685.52688    
   4940000   317.29044      0.050123105    29.069713      787.20632     -70.699381      716.50694    
   4941000   307.75943      0.050123105    27.620222      763.55964     -69.618489      693.94115    
   4942000   296.68581      0.050123105    26.2482        736.08566     -77.4161        658.66956    
   4943000   284.35431      0.050123105    22.502976      705.49089     -77.308488      628.1824     
   4944000   302.19311      0.050123105    27.842659      749.74944     -76.04886       673.70058    
   4945000   317.94438      0.050123105    27.191512      788.82876     -74.284784      714.54398    
   4946000   292.64249      0.050123105    24.540022      726.05407     -71.000976      655.0531     
   4947000   289.31154      0.050123105    21.678437      717.78991     -72.096233      645.69367    
   4948000   301.3986       0.050123105    23.794025      747.77822     -78.622386      669.15584    
   4949000   289.72263      0.050123105    24.911741      718.80983     -79.95888       638.85095    
   4950000   295.52064      0.050123105    20.916196      733.19484     -83.28203       649.91281    
   4951000   303.80643      0.050123105    9.7643708      753.75212     -86.374948      667.37717    
   4952000   300.51552      0.050123105    22.191196      745.58729     -79.82515       665.76214    
   4953000   296.51602      0.050123105    25.033998      735.66442     -86.912979      648.75144    
   4954000   287.57534      0.050123105    26.371061      713.48236     -84.069562      629.4128     
   4955000   296.99231      0.050123105    22.008886      736.84611     -81.866374      654.97974    
   4956000   314.89337      0.050123105    24.445095      781.25912     -80.805023      700.4541     
   4957000   305.90344      0.050123105    22.285232      758.95486     -84.709268      674.24559    
   4958000   300.81437      0.050123105    32.776895      746.32874     -83.832632      662.49611    
   4959000   303.18382      0.050123105    19.465351      752.20743     -78.60082       673.60661    
   4960000   303.41979      0.050123105    22.607871      752.79287     -79.351172      673.4417     
   4961000   296.3335       0.050123105    30.523354      735.21159     -73.979176      661.23241    
   4962000   298.06266      0.050123105    37.243688      739.50169     -78.193072      661.30861    
   4963000   306.53602      0.050123105    30.269786      760.52431     -77.085593      683.43872    
   4964000   291.57259      0.050123105    21.780347      723.39964     -76.287321      647.11231    
   4965000   296.33152      0.050123105    23.537613      735.20666     -83.089491      652.11717    
   4966000   298.74101      0.050123105    19.218475      741.18467     -77.523766      663.6609     
   4967000   311.57333      0.050123105    31.142889      773.02202     -70.972548      702.04948    
   4968000   300.99192      0.050123105    47.39247       746.76925     -81.424728      665.34453    
   4969000   297.12567      0.050123105    19.291481      737.17698     -81.783613      655.39337    
   4970000   318.32087      0.050123105    6.7674533      789.76286     -84.44503       705.31783    
   4971000   296.57022      0.050123105    33.620703      735.7989      -82.321123      653.47777    
   4972000   291.90598      0.050123105    21.335274      724.22679     -79.699833      644.52696    
   4973000   317.03104      0.050123105    28.586404      786.56275     -82.386901      704.17585    
   4974000   299.7243       0.050123105    23.730123      743.62424     -80.760055      662.86419    
   4975000   299.50924      0.050123105    25.024886      743.09069     -78.309821      664.78087    
   4976000   305.12148      0.050123105    23.610833      757.01481     -78.518358      678.49645    
   4977000   302.87966      0.050123105    30.799376      751.45277     -69.254267      682.19851    
   4978000   308.87998      0.050123105    22.540951      766.33975     -70.728211      695.61154    
   4979000   298.35321      0.050123105    24.879781      740.22253     -68.976513      671.24602    
   4980000   288.15579      0.050123105    26.514607      714.92245     -72.93047       641.99198    
   4981000   304.19068      0.050123105    23.805988      754.70546     -75.702708      679.00275    
   4982000   304.63302      0.050123105    24.913375      755.80292     -76.858292      678.94463    
   4983000   304.31805      0.050123105    28.634021      755.02146     -75.110277      679.91119    
   4984000   292.16659      0.050123105    35.719319      724.87337     -78.2049        646.66847    
   4985000   292.93085      0.050123105    19.592235      726.76952     -81.697138      645.07238    
   4986000   313.25888      0.050123105    18.064123      777.20393     -84.615706      692.58822    
   4987000   292.09861      0.050123105    38.75312       724.70471     -68.797311      655.9074     
   4988000   291.73475      0.050123105    15.139598      723.80196     -78.14859       645.65337    
   4989000   309.29015      0.050123105    37.620766      767.35739     -79.922214      687.43518    
   4990000   313.93472      0.050123105    22.650966      778.8807      -80.753223      698.12747    
   4991000   302.00244      0.050123105    8.0398599      749.27637     -73.565768      675.7106     
   4992000   292.2577       0.050123105    30.738136      725.09942     -77.076269      648.02315    
   4993000   299.14206      0.050123105    24.22557       742.17969     -73.668314      668.51137    
   4994000   302.27195      0.050123105    15.130421      749.94503     -76.615149      673.32988    
   4995000   303.00981      0.050123105    28.637514      751.77569     -75.080795      676.6949     
   4996000   311.43381      0.050123105    27.095967      772.67586     -85.142734      687.53312    
   4997000   296.73627      0.050123105    27.740176      736.21087     -84.277772      651.9331     
   4998000   307.98512      0.050123105    29.716506      764.11957     -83.100306      681.01926    
   4999000   300.68386      0.050123105    31.132706      746.00495     -83.655129      662.34982    
   5000000   293.45634      0.050123105    25.842671      728.07327     -85.363466      642.70981    
   5001000   294.26156      0.050123105    23.489584      730.07105     -92.24937       637.82168    
   5002000   283.47799      0.050123105    32.035166      703.31671     -85.465845      617.85086    
   5003000   312.36565      0.050123105    31.88211       774.9878      -79.879668      695.10813    
   5004000   311.23608      0.050123105    16.843971      772.18529     -86.228751      685.95654    
   5005000   278.77149      0.050123105    27.667277      691.63974     -92.12831       599.51143    
   5006000   297.47045      0.050123105    28.057981      738.03238     -94.452913      643.57947    
   5007000   308.42862      0.050123105    30.764033      765.21992     -86.830801      678.38912    
   5008000   307.5213       0.050123105    16.30562       762.96881     -92.686191      670.28262    
   5009000   290.89082      0.050123105    25.985484      721.70813     -88.680676      633.02746    
   5010000   278.69908      0.050123105    21.055875      691.4601      -94.537654      596.92245    
   5011000   312.17865      0.050123105    21.019812      774.52384     -86.50932       688.01452    
   5012000   310.18742      0.050123105    21.720894      769.58354     -87.609263      681.97427    
   5013000   305.12411      0.050123105    28.247289      757.02132     -81.063365      675.95795    
   5014000   291.29274      0.050123105    20.72895       722.70532     -82.737968      639.96735    
   5015000   302.55338      0.050123105    28.867923      750.64328     -82.591967      668.05131    
   5016000   316.34868      0.050123105    24.360196      784.8698      -84.021912      700.84789    
   5017000   290.38144      0.050123105    14.972654      720.44437     -80.340677      640.10369    
   5018000   292.43916      0.050123105    26.350847      725.54963     -84.931257      640.61837    
   5019000   304.22841      0.050123105    27.874028      754.79907     -79.851578      674.94749    
   5020000   317.28173      0.050123105    27.155555      787.18471     -82.104415      705.0803     
   5021000   298.7504       0.050123105    24.659077      741.20797     -81.347439      659.86054    
   5022000   291.64961      0.050123105    23.412385      723.59072     -81.357222      642.2335     
   5023000   316.51912      0.050123105    35.841524      785.29266     -81.212812      704.07985    
   5024000   306.77468      0.050123105    21.450223      761.11644     -81.261504      679.85493    
   5025000   283.27686      0.050123105    22.211712      702.81769     -89.90165       612.91604    
   5026000   292.25483      0.050123105    23.429723      725.09229     -79.163009      645.92929    
   5027000   306.2293       0.050123105    21.569214      759.76333     -84.848238      674.9151     
   5028000   295.5612       0.050123105    1.1911231      733.29548     -80.292132      653.00335    
   5029000   284.19798      0.050123105    21.708289      705.10302     -80.300307      624.80271    
   5030000   302.67041      0.050123105    29.42388       750.93364     -82.313263      668.62038    
   5031000   317.10026      0.050123105    11.27283       786.73449     -75.439395      711.29509    
   5032000   290.23847      0.050123105    22.682664      720.08964     -75.209602      644.88003    
   5033000   301.77974      0.050123105    41.057233      748.72386     -82.772901      665.95096    
   5034000   301.92628      0.050123105    13.276883      749.08742     -80.55591       668.53151    
   5035000   292.82827      0.050123105    23.683204      726.51502     -81.433978      645.08104    
   5036000   288.27579      0.050123105    37.32091       715.22019     -83.66511       631.55508    
   5037000   303.02989      0.050123105    26.244898      751.8255      -83.562289      668.26321    
   5038000   288.92073      0.050123105    11.921182      716.8203      -85.760768      631.05954    
   5039000   309.47644      0.050123105    31.68819       767.81959     -87.926116      679.89347    
   5040000   314.33023      0.050123105    51.005334      779.86196     -88.44899       691.41297    
   5041000   299.78971      0.050123105    24.399134      743.78653     -83.171009      660.61552    
   5042000   292.42253      0.050123105    23.282301      725.50836     -76.710585      648.79777    
   5043000   300.62376      0.050123105    20.47058       745.85584     -86.380631      659.47521    
   5044000   293.74894      0.050123105    24.602616      728.79922     -93.110813      635.68841    
   5045000   310.2442       0.050123105    26.440048      769.72441     -92.596269      677.12814    
   5046000   298.30864      0.050123105    22.420868      740.11197     -91.522978      648.58899    
   5047000   294.11747      0.050123105    25.451352      729.71356     -95.636724      634.07684    
   5048000   307.03637      0.050123105    27.742344      761.76571     -80.402338      681.36337    
   5049000   299.11758      0.050123105    25.664954      742.11897     -86.219209      655.89976    
   5050000   300.30185      0.050123105    21.794705      745.05716     -81.458986      663.59817    
   5051000   295.25281      0.050123105    24.631259      732.53035     -83.135311      649.39504    
   5052000   311.03955      0.050123105    32.213366      771.6977      -82.442727      689.25497    
   5053000   299.88369      0.050123105    26.1728        744.01969     -81.439199      662.58049    
   5054000   301.85402      0.050123105    17.231026      748.90814     -82.46468       666.44345    
   5055000   307.93959      0.050123105    34.520717      764.00661     -79.642956      684.36366    
   5056000   295.72723      0.050123105    34.495748      733.7074      -75.310882      658.39652    
   5057000   290.70658      0.050123105    16.998238      721.25104     -79.851657      641.39939    
   5058000   309.65308      0.050123105    35.353242      768.25783     -87.558311      680.69952    
   5059000   310.23288      0.050123105    20.338752      769.69633     -84.16281       685.53352    
   5060000   312.63178      0.050123105    22.929094      775.64806     -79.227317      696.42074    
   5061000   301.36747      0.050123105    59.588348      747.70099     -79.84289       667.8581     
   5062000   283.77942      0.050123105    31.102863      704.06456     -79.85924       624.20532    
   5063000   297.23463      0.050123105   -2.3925978      737.44731     -83.232862      654.21445    
   5064000   298.52134      0.050123105    2.657689       740.63968     -82.009929      658.62975    
   5065000   309.76018      0.050123105    25.083586      768.52354     -89.756253      678.76728    
   5066000   300.18885      0.050123105    57.394898      744.77682     -87.678037      657.09878    
   5067000   295.62499      0.050123105    22.523059      733.45374     -79.527762      653.92598    
   5068000   292.23313      0.050123105    12.790293      725.03845     -79.858164      645.18029    
   5069000   307.02649      0.050123105    43.307983      761.74119     -87.418935      674.32225    
   5070000   318.16329      0.050123105    30.988515      789.37189     -89.95264       699.41925    
   5071000   289.00925      0.050123105    38.000305      717.03991     -87.696912      629.343      
   5072000   293.30239      0.050123105   -5.2979701      727.69131     -74.664296      653.02702    
   5073000   316.42713      0.050123105    35.779361      785.06443     -78.159491      706.90494    
   5074000   303.92728      0.050123105    33.102651      754.05197     -72.910403      681.14156    
   5075000   283.10959      0.050123105    26.483303      702.4027      -78.899509      623.50319    
   5076000   305.72581      0.050123105    5.3019462      758.51417     -74.36882       684.14535    
   5077000   308.06721      0.050123105    31.072611      764.32324     -77.209571      687.11367    
   5078000   309.89968      0.050123105    35.755264      768.86964     -82.099649      686.77       
   5079000   290.1476       0.050123105    28.170249      719.8642      -73.373023      646.49118    
   5080000   276.06349      0.050123105    22.356897      684.92113     -73.218824      611.7023     
   5081000   309.69957      0.050123105    22.300228      768.37317     -79.635309      688.73786    
   5082000   304.70287      0.050123105    21.264015      755.97623     -77.993889      677.98234    
   5083000   294.71894      0.050123105    22.689393      731.20581     -72.674913      658.5309     
   5084000   292.8202       0.050123105    26.745266      726.49499     -68.584252      657.91074    
   5085000   317.68062      0.050123105    29.153162      788.17438     -71.189225      716.98516    
   5086000   303.05857      0.050123105    24.399171      751.89666     -74.662011      677.23465    
   5087000   287.19555      0.050123105    23.55325       712.54008     -68.534568      644.00551    
   5088000   291.8882       0.050123105    30.70804       724.18267     -70.031289      654.15138    
   5089000   306.43702      0.050123105    32.256764      760.27868     -74.372103      685.90658    
   5090000   305.12815      0.050123105    27.653045      757.03135     -78.710838      678.32052    
   5091000   290.73272      0.050123105    11.995782      721.31588     -76.223246      645.09264    
   5092000   287.8328       0.050123105    28.745673      714.12112     -74.749957      639.37116    
   5093000   305.80882      0.050123105    24.431368      758.72012     -76.424945      682.29518    
   5094000   309.13526      0.050123105    23.614292      766.9731      -77.095429      689.87767    
   5095000   299.5831       0.050123105    25.181313      743.27394     -76.543214      666.73073    
   5096000   278.81056      0.050123105    18.355655      691.73669     -82.478226      609.25847    
   5097000   295.37278      0.050123105    23.71621       732.828       -85.385313      647.44269    
   5098000   303.41011      0.050123105    23.357753      752.76884     -84.459451      668.30938    
   5099000   292.62385      0.050123105    21.445091      726.00784     -76.242855      649.76499    
   5100000   288.87893      0.050123105    23.248994      716.71659     -79.80178       636.91481    
   5101000   295.8047       0.050123105    26.343106      733.89962     -75.886645      658.01297    
   5102000   304.80549      0.050123105    26.29056       756.23082     -82.235042      673.99578    
   5103000   291.56404      0.050123105    21.884588      723.37842     -85.093463      638.28496    
   5104000   299.70876      0.050123105    28.255551      743.5857      -90.696624      652.88907    
   5105000   318.0818       0.050123105    20.776144      789.16973     -91.171726      697.998      
   5106000   299.32249      0.050123105    25.117895      742.62735     -84.464758      658.16259    
   5107000   284.3296       0.050123105    27.56607       705.42957     -85.697308      619.73226    
   5108000   298.71683      0.050123105    27.985325      741.12469     -83.753843      657.37085    
   5109000   316.74153      0.050123105    23.73429       785.84447     -86.043168      699.8013     
   5110000   290.9894       0.050123105    15.896035      721.95272     -81.659246      640.29348    
   5111000   297.66447      0.050123105    29.075161      738.51377     -74.863289      663.65048    
   5112000   315.84997      0.050123105    22.725088      783.63249     -72.239996      711.39249    
   5113000   304.10999      0.050123105    22.732872      754.50526     -74.97739       679.52787    
   5114000   292.24298      0.050123105    26.723795      725.06289     -75.506248      649.55664    
   5115000   295.40018      0.050123105    24.694029      732.896       -81.948119      650.94788    
   5116000   295.67071      0.050123105    22.886686      733.56719     -77.233402      656.33379    
   5117000   299.94105      0.050123105    15.226274      744.16201     -84.525844      659.63617    
   5118000   287.84378      0.050123105    37.054773      714.14836     -82.83869       631.30967    
   5119000   313.80234      0.050123105    27.673393      778.55227     -80.396417      698.15585    
   5120000   288.50896      0.050123105    18.378112      715.79868     -71.936871      643.86181    
   5121000   287.24099      0.050123105    32.203263      712.65282     -82.357207      630.29562    
   5122000   305.68865      0.050123105    26.112857      758.42196     -89.754183      668.66778    
   5123000   307.50734      0.050123105    25.590231      762.9342      -82.384972      680.54922    
   5124000   288.20661      0.050123105    26.379503      715.04854     -74.174771      640.87377    
   5125000   298.58333      0.050123105    24.502717      740.79347     -83.003444      657.79002    
   5126000   307.01841      0.050123105    27.762142      761.72115     -79.682729      682.03842    
   5127000   302.1222       0.050123105    18.507627      749.57351     -90.30086       659.27265    
   5128000   296.48382      0.050123105    24.583952      735.58452     -81.988233      653.59629    
   5129000   309.35494      0.050123105    36.609018      767.51813     -85.167234      682.35089    
   5130000   309.15568      0.050123105    31.088436      767.02375     -90.864041      676.15971    
   5131000   298.96901      0.050123105    21.155317      741.75035     -84.807231      656.94311    
   5132000   306.87837      0.050123105    26.046685      761.3737      -80.97422       680.39948    
   5133000   307.7929       0.050123105    28.460234      763.64268     -84.872342      678.77033    
   5134000   305.53848      0.050123105    23.253861      758.04939     -87.162606      670.88678    
   5135000   304.24041      0.050123105    27.2339        754.82884     -85.132183      669.69665    
   5136000   289.4777       0.050123105    24.171377      718.20215     -84.05802       634.14413    
   5137000   300.14021      0.050123105    25.080754      744.65613     -81.964572      662.69156    
   5138000   306.17151      0.050123105    25.731252      759.61995     -80.975735      678.64421    
   5139000   304.43159      0.050123105    24.221283      755.30316     -87.319571      667.98359    
   5140000   289.72632      0.050123105    23.649788      718.81899     -76.962161      641.85683    
   5141000   295.89581      0.050123105    13.83622       734.12565     -81.189602      652.93605    
   5142000   307.11881      0.050123105    28.800497      761.97023     -81.931711      680.03852    
   5143000   310.03323      0.050123105    30.798553      769.20099     -91.204443      677.99655    
   5144000   292.40214      0.050123105    29.940305      725.45776     -92.706563      632.7512     
   5145000   289.37439      0.050123105    20.152611      717.94584     -88.777009      629.16883    
   5146000   295.11976      0.050123105    12.672778      732.20026     -92.427076      639.77318    
   5147000   308.37132      0.050123105    21.314294      765.07774     -96.611412      668.46633    
   5148000   289.63754      0.050123105    32.247932      718.59871     -93.619375      624.97934    
   5149000   287.39762      0.050123105    21.868832      713.04142     -90.628285      622.41314    
   5150000   305.45873      0.050123105    19.705857      757.85153     -82.570058      675.28147    
   5151000   301.31507      0.050123105    26.471733      747.57099     -81.963581      665.6074     
   5152000   296.80512      0.050123105    22.025168      736.38168     -89.941313      646.44036    
   5153000   296.01952      0.050123105    25.062581      734.43259     -77.833524      656.59907    
   5154000   316.32876      0.050123105    23.275862      784.82038     -79.080851      705.73953    
   5155000   296.39931      0.050123105    20.892147      735.37486     -76.751593      658.62327    
   5156000   292.66959      0.050123105    21.710612      726.12131     -78.554202      647.56711    
   5157000   304.35371      0.050123105    30.784509      755.10994     -80.032802      675.07714    
   5158000   307.25532      0.050123105    25.652489      762.30892     -74.068777      688.24014    
   5159000   303.05941      0.050123105    13.881916      751.89875     -76.385113      675.51364    
   5160000   299.97006      0.050123105    18.142397      744.23398     -77.95014       666.28384    
   5161000   297.56908      0.050123105    32.168011      738.2771      -76.901895      661.3752     
   5162000   281.64683      0.050123105    36.99963       698.77355     -86.293711      612.47984    
   5163000   306.17365      0.050123105    27.286349      759.62528     -87.097889      672.52739    
   5164000   322.09413      0.050123105    9.4655653      799.12442     -84.009838      715.11458    
   5165000   298.79252      0.050123105    16.054722      741.31248     -87.014329      654.29815    
   5166000   286.20528      0.050123105    11.578355      710.0832      -89.376789      620.70641    
   5167000   294.33643      0.050123105    9.9310178      730.2568      -81.983334      648.27346    
   5168000   305.57676      0.050123105    41.156504      758.14437     -83.758675      674.38569    
   5169000   296.29122      0.050123105    33.927089      735.10669     -80.350629      654.75606    
   5170000   302.6003       0.050123105    37.86147       750.75967     -81.677874      669.0818     
   5171000   308.80485      0.050123105    8.6029119      766.15334     -79.193722      686.95962    
   5172000   288.34575      0.050123105    19.718137      715.39376     -80.159701      635.23406    
   5173000   300.29856      0.050123105    30.905057      745.04899     -82.592447      662.45655    
   5174000   292.50211      0.050123105    6.4355397      725.70579     -78.959009      646.74678    
   5175000   283.15698      0.050123105    22.954232      702.52027     -83.482861      619.03741    
   5176000   301.32623      0.050123105    29.747535      747.59868     -81.014047      666.58464    
   5177000   307.8696       0.050123105    24.377282      763.83297     -81.578504      682.25446    
   5178000   295.80663      0.050123105    22.032254      733.9044      -84.746111      649.15828    
   5179000   294.86994      0.050123105    32.760993      731.58045     -95.12218       636.45827    
   5180000   313.38688      0.050123105    40.678859      777.52149     -93.967184      683.55431    
   5181000   310.24684      0.050123105    27.543686      769.73095     -91.388998      678.34196    
   5182000   302.94084      0.050123105    29.517507      751.60457     -87.393809      664.21076    
   5183000   294.71788      0.050123105    17.823229      731.20319     -82.335007      648.86818    
   5184000   303.79814      0.050123105    25.507103      753.73155     -85.406289      668.32526    
   5185000   312.79236      0.050123105    26.829319      776.04648     -86.688337      689.35814    
   5186000   305.17283      0.050123105    28.343318      757.1422      -82.608488      674.53371    
   5187000   296.96565      0.050123105    20.569666      736.77995     -82.112193      654.66776    
   5188000   294.37709      0.050123105    20.709129      730.35767     -88.18288       642.17479    
   5189000   308.59891      0.050123105    23.268939      765.64241     -93.106513      672.5359     
   5190000   298.9831       0.050123105    27.461931      741.78532     -91.809525      649.9758     
   5191000   297.78079      0.050123105    26.198828      738.80234     -92.050326      646.75201    
   5192000   305.01994      0.050123105    25.966035      756.76288     -88.520985      668.2419     
   5193000   293.22053      0.050123105    33.983756      727.48821     -92.189303      635.2989     
   5194000   310.39316      0.050123105    20.651113      770.09399     -85.864252      684.22973    
   5195000   295.59682      0.050123105    21.332049      733.38386     -82.393917      650.98994    
   5196000   298.99883      0.050123105    41.929503      741.82434     -90.419303      651.40504    
   5197000   300.89538      0.050123105    26.930051      746.52974     -85.895447      660.63429    
   5198000   297.01724      0.050123105    21.621139      736.90796     -89.305137      647.60282    
   5199000   303.24985      0.050123105    21.695452      752.37123     -88.175214      664.19602    
   5200000   301.82794      0.050123105    30.828199      748.84343     -80.494957      668.34847    
   5201000   308.12718      0.050123105    24.55971       764.47202     -77.218541      687.25348    
   5202000   301.23816      0.050123105    18.643172      747.38017     -70.563411      676.81676    
   5203000   282.28834      0.050123105    25.308311      700.36516     -70.418972      629.94619    
   5204000   302.96516      0.050123105    29.350739      751.66492     -79.229453      672.43546    
   5205000   313.61885      0.050123105    20.117538      778.097       -74.371834      703.72517    
   5206000   303.65362      0.050123105    23.156668      753.373       -74.253036      679.11996    
   5207000   291.57189      0.050123105    20.659847      723.3979      -78.18945       645.20845    
   5208000   288.24013      0.050123105    25.779939      715.13171     -85.562428      629.56928    
   5209000   304.57187      0.050123105    28.970599      755.65121     -81.386564      674.26465    
   5210000   294.41382      0.050123105    32.126166      730.4488      -73.656168      656.79263    
   5211000   309.93501      0.050123105    19.149218      768.95731     -88.572928      680.38438    
   5212000   300.87686      0.050123105    22.86506       746.48379     -82.515869      663.96792    
   5213000   309.33445      0.050123105    29.080331      767.4673      -83.99203       683.47527    
   5214000   306.08517      0.050123105    18.556936      759.40574     -84.424128      674.98161    
   5215000   289.37168      0.050123105    22.508192      717.93912     -79.266686      638.67243    
   5216000   293.79283      0.050123105    26.664301      728.90811     -79.344309      649.5638     
   5217000   312.50501      0.050123105    29.797933      775.33354     -76.989322      698.34422    
   5218000   302.16878      0.050123105    30.070384      749.68908     -80.522403      669.16668    
   5219000   286.74981      0.050123105    24.839934      711.43418     -81.716812      629.71737    
   5220000   300.03021      0.050123105    20.733564      744.38322     -83.988183      660.39504    
   5221000   303.43116      0.050123105    26.842901      752.82108     -79.988062      672.83302    
   5222000   295.07498      0.050123105    27.605178      732.08917     -81.064758      651.02441    
   5223000   280.94814      0.050123105    20.536633      697.04008     -75.486353      621.55373    
   5224000   319.24302      0.050123105    25.903172      792.05074     -78.291052      713.75969    
   5225000   305.44623      0.050123105    25.236051      757.82053     -75.42849       682.39204    
   5226000   300.43829      0.050123105    30.24466       745.39567     -78.200735      667.19493    
   5227000   309.76328      0.050123105    24.031537      768.53124     -82.095966      686.43528    
   5228000   292.42206      0.050123105    25.385124      725.5072      -75.932187      649.57502    
   5229000   300.38351      0.050123105    19.568818      745.25977     -84.898488      660.36128    
   5230000   305.76983      0.050123105    27.131208      758.62338     -81.398895      677.22449    
   5231000   301.27924      0.050123105    30.966629      747.48211     -80.803499      666.67861    
   5232000   292.48446      0.050123105    23.433547      725.66201     -86.962472      638.69954    
   5233000   288.14183      0.050123105    22.463656      714.88782     -82.651465      632.23635    
   5234000   307.78431      0.050123105    15.750696      763.62136     -94.893462      668.7279     
   5235000   307.52329      0.050123105    26.123572      762.97375     -86.28127       676.69249    
   5236000   295.59383      0.050123105    27.972366      733.37644     -88.854569      644.52188    
   5237000   293.82144      0.050123105    23.250333      728.97909     -87.506274      641.47282    
   5238000   311.59444      0.050123105    21.823677      773.07439     -88.741422      684.33297    
   5239000   301.78233      0.050123105    34.838333      748.73028     -85.837549      662.89273    
   5240000   290.35577      0.050123105    37.908779      720.38067     -83.640826      636.73985    
   5241000   292.90712      0.050123105    25.266711      726.71065     -80.428791      646.28186    
   5242000   317.41978      0.050123105    12.549801      787.52723     -81.726782      705.80044    
   5243000   301.93646      0.050123105    32.660387      749.11268     -78.354075      670.7586     
   5244000   292.58209      0.050123105    25.269063      725.90423     -77.074262      648.82997    
   5245000   298.3523       0.050123105    25.183442      740.22028     -76.113489      664.1068     
   5246000   300.47739      0.050123105    25.944799      745.49268     -76.766159      668.72652    
   5247000   315.83462      0.050123105    28.718076      783.59439     -85.329959      698.26443    
   5248000   305.28268      0.050123105    31.740885      757.41475     -81.69729       675.71746    
   5249000   290.39719      0.050123105    24.814729      720.48343     -79.631999      640.85143    
   5250000   302.16023      0.050123105    18.342075      749.66785     -77.819845      671.848      
   5251000   307.75186      0.050123105    25.804966      763.54086     -81.360243      682.18061    
   5252000   290.8738       0.050123105    25.056169      721.66593     -92.067207      629.59872    
   5253000   301.64016      0.050123105    25.218396      748.37755     -91.279561      657.09799    
   5254000   304.69033      0.050123105    28.613949      755.9451      -89.260768      666.68433    
   5255000   283.51211      0.050123105    29.638438      703.40136     -86.740194      616.66117    
   5256000   307.11014      0.050123105    23.760156      761.94871     -90.389699      671.55901    
   5257000   302.66397      0.050123105    26.911217      750.91766     -81.965514      668.95215    
   5258000   306.26711      0.050123105    26.188279      759.85714     -75.603954      684.25318    
   5259000   306.67685      0.050123105    21.188986      760.87372     -86.66028       674.21344    
   5260000   297.25328      0.050123105    23.2346        737.49359     -81.567516      655.92607    
   5261000   305.57315      0.050123105    31.14649       758.13542     -86.570709      671.56471    
   5262000   301.76469      0.050123105    25.759606      748.68652     -91.640137      657.04639    
   5263000   297.08601      0.050123105    21.926688      737.07859     -90.428692      646.64989    
   5264000   306.7549       0.050123105    23.75546       761.06736     -88.352432      672.71492    
   5265000   309.88115      0.050123105    24.537883      768.82367     -92.77404       676.04963    
   5266000   292.17798      0.050123105    25.911186      724.90162     -85.126105      639.77551    
   5267000   303.57929      0.050123105    31.775693      753.18859     -78.201489      674.9871     
   5268000   312.47924      0.050123105    26.341         775.2696      -86.283565      688.98604    
   5269000   303.58718      0.050123105    27.045376      753.20816     -87.365363      665.8428     
   5270000   285.48308      0.050123105    20.809038      708.29139     -84.069586      624.2218     
   5271000   300.51994      0.050123105    25.061945      745.59826     -83.345414      662.25284    
   5272000   313.71006      0.050123105    17.739097      778.32331     -85.320907      693.0024     
   5273000   293.0318       0.050123105    26.923392      727.01997     -83.463631      643.55634    
   5274000   295.68423      0.050123105    26.463461      733.60074     -87.239886      646.36085    
   5275000   308.35106      0.050123105    21.258213      765.02749     -84.230509      680.79698    
   5276000   304.08688      0.050123105    13.370124      754.44793     -87.838794      666.60914    
   5277000   305.48935      0.050123105    50.78686       757.9275      -88.966665      668.96083    
   5278000   303.38297      0.050123105    24.852416      752.70151     -90.767173      661.93433    
   5279000   299.26468      0.050123105    15.061234      742.48392     -92.933566      649.55035    
   5280000   284.90941      0.050123105    11.822035      706.86809     -91.669308      615.19878    
   5281000   306.98358      0.050123105    62.379108      761.63472     -89.041407      672.59331    
   5282000   314.36232      0.050123105    39.779226      779.94157     -81.750548      698.19103    
   5283000   291.22073      0.050123105    17.980978      722.52665     -89.373445      633.1532     
   5284000   302.95358      0.050123105    22.118962      751.63618     -92.757084      658.87909    
   5285000   299.85873      0.050123105    45.513637      743.95779     -97.904679      646.05311    
   5286000   299.30118      0.050123105    30.926853      742.57448     -94.402347      648.17214    
   5287000   304.6851       0.050123105    11.418782      755.93214     -93.510807      662.42133    
   5288000   291.92558      0.050123105    28.444648      724.27542     -91.96908       632.30634    
   5289000   297.78742      0.050123105    23.805579      738.81879     -89.130472      649.68832    
   5290000   287.07756      0.050123105    14.65357       712.24733     -92.820258      619.42707    
   5291000   292.05822      0.050123105    32.593068      724.60449     -95.249638      629.35486    
   5292000   321.77661      0.050123105    31.278633      798.33664     -102.83108      695.50556    
   5293000   303.57081      0.050123105    31.919502      753.16754     -93.310635      659.85691    
   5294000   300.52649      0.050123105    18.605127      745.61449     -98.400584      647.21391    
   5295000   300.44833      0.050123105    18.933421      745.42059     -93.859347      651.56125    
   5296000   310.87546      0.050123105    44.854324      771.29058     -93.023084      678.26749    
   5297000   300.82201      0.050123105    20.603029      746.34771     -90.923347      655.42436    
   5298000   298.68993      0.050123105    18.669156      741.05795     -86.67619       654.38176    
   5299000   310.06046      0.050123105    17.28696       769.26854     -86.664857      682.60369    
   5300000   297.27272      0.050123105    21.596809      737.5418      -83.564236      653.97756    
   5301000   298.31128      0.050123105    21.686399      740.11851     -88.070671      652.04784    
   5302000   297.29965      0.050123105    24.73785       737.60862     -94.835673      642.77294    
   5303000   301.51168      0.050123105    25.513297      748.05879     -99.174669      648.88412    
   5304000   304.632        0.050123105    20.846653      755.80038     -96.557242      659.24314    
   5305000   282.4604       0.050123105    5.6286428      700.79205     -86.812502      613.97954    
   5306000   294.18996      0.050123105    22.606053      729.8934      -98.202645      631.69075    
   5307000   291.34734      0.050123105    24.465841      722.84078     -92.966067      629.87472    
   5308000   311.17943      0.050123105    24.272173      772.04474     -94.499064      677.54568    
   5309000   292.00637      0.050123105    15.435416      724.47584     -96.517153      627.95869    
   5310000   291.94157      0.050123105    26.167861      724.31508     -87.780689      636.5344     
   5311000   302.48184      0.050123105    39.944461      750.46578     -77.713186      672.75259    
   5312000   311.6607       0.050123105    27.106702      773.23878     -83.400322      689.83846    
   5313000   295.40885      0.050123105    22.378976      732.9175      -86.644507      646.27299    
   5314000   285.77258      0.050123105    29.767397      709.00965     -91.003612      618.00604    
   5315000   303.4489       0.050123105    22.731359      752.86509     -95.276447      657.58864    
   5316000   308.4861       0.050123105    24.705504      765.36251     -95.412746      669.94977    
   5317000   304.41185      0.050123105    28.622313      755.25419     -101.32065      653.93355    
   5318000   310.30445      0.050123105    37.47441       769.87389     -98.559142      671.31475    
   5319000   301.28601      0.050123105    18.978643      747.4989      -92.370686      655.12822    
   5320000   303.03067      0.050123105    26.686415      751.82744     -87.076144      664.7513     
   5321000   295.84273      0.050123105    25.395129      733.99397     -94.412741      639.58123    
   5322000   291.80472      0.050123105    26.398194      723.97556     -86.759813      637.21575    
   5323000   291.24091      0.050123105    20.930014      722.57673     -87.385236      635.1915     
   5324000   293.95593      0.050123105    25.850977      729.31276     -89.881399      639.43136    
   5325000   309.48441      0.050123105    23.162375      767.83935     -94.25288       673.58647    
   5326000   307.9714       0.050123105    28.872983      764.08553     -88.097617      675.98791    
   5327000   285.20921      0.050123105    19.375931      707.6119      -92.820521      614.79138    
   5328000   304.63538      0.050123105    26.454877      755.80878     -83.818221      671.99056    
   5329000   306.76626      0.050123105    23.754219      761.09555     -93.464973      667.63057    
   5330000   293.34897      0.050123105    23.519356      727.80687     -94.14385       633.66302    
   5331000   289.80394      0.050123105    21.368149      719.01157     -91.355636      627.65593    
   5332000   295.60339      0.050123105    25.151225      733.40016     -100.39227      633.00789    
   5333000   315.12506      0.050123105    28.632746      781.83396     -99.926969      681.90699    
   5334000   293.35733      0.050123105    26.464709      727.82763     -101.19203      626.6356     
   5335000   288.57191      0.050123105    29.598078      715.95487     -99.944338      616.01053    
   5336000   306.646        0.050123105    22.138676      760.79717     -102.02179      658.77538    
   5337000   300.58157      0.050123105    26.404478      745.75116     -91.495214      654.25594    
   5338000   297.54766      0.050123105    25.919364      738.22395     -84.183723      654.04023    
   5339000   299.36327      0.050123105    22.61768       742.72852     -95.443889      647.28463    
   5340000   307.43972      0.050123105    24.826969      762.76641     -92.349087      670.41732    
   5341000   292.62682      0.050123105    24.441682      726.01521     -92.801278      633.21393    
   5342000   299.90732      0.050123105    20.295686      744.07834     -96.512614      647.56573    
   5343000   303.86053      0.050123105    29.310598      753.88634     -96.12688       657.75946    
   5344000   300.49947      0.050123105    23.096553      745.54746     -104.37701      641.17045    
   5345000   289.63524      0.050123105    24.236263      718.593       -99.83305       618.75995    
   5346000   306.87813      0.050123105    27.388445      761.3731      -90.806238      670.56686    
   5347000   309.13979      0.050123105    30.155215      766.98434     -91.537704      675.44663    
   5348000   299.94019      0.050123105    22.510572      744.15988     -86.560911      657.59897    
   5349000   297.52051      0.050123105    22.21528       738.15658     -87.085979      651.0706     
   5350000   297.0796       0.050123105    26.358821      737.06268     -85.508827      651.55385    
   5351000   294.56935      0.050123105    28.758104      730.83469     -84.347885      646.4868     
   5352000   292.82745      0.050123105    22.52366       726.51298     -89.330246      637.18273    
   5353000   308.03479      0.050123105    27.754605      764.2428      -84.762506      679.4803     
   5354000   308.53008      0.050123105    28.213384      765.47163     -94.976325      670.49531    
   5355000   290.6211       0.050123105    20.57041       721.03896     -102.09591      618.94305    
   5356000   305.41153      0.050123105    24.444388      757.73442     -93.938374      663.79605    
   5357000   301.04902      0.050123105    25.744409      746.91092     -86.587155      660.32376    
   5358000   306.36458      0.050123105    25.577986      760.09897     -88.374547      671.72442    
   5359000   291.25095      0.050123105    22.019352      722.60163     -89.927496      632.67413    
   5360000   300.38521      0.050123105    22.358275      745.26399     -95.944396      649.31959    
   5361000   300.79645      0.050123105    30.610475      746.28429     -82.657717      663.62658    
   5362000   297.87526      0.050123105    28.096613      739.03672     -88.029309      651.00741    
   5363000   304.7929       0.050123105    20.200829      756.19959     -91.184215      665.01537    
   5364000   305.95443      0.050123105    18.868873      759.08137     -93.895771      665.1856     
   5365000   306.97714      0.050123105    28.016009      761.61874     -87.477371      674.14137    
   5366000   303.46485      0.050123105    28.668971      752.90466     -87.638784      665.26588    
   5367000   297.94486      0.050123105    26.237804      739.20942     -80.641224      658.5682     
   5368000   286.42023      0.050123105    22.135701      710.61648     -85.756486      624.85999    
   5369000   302.7076       0.050123105    24.172582      751.0259      -87.187329      663.83857    
   5370000   303.20588      0.050123105    31.278442      752.26215     -93.785643      658.47651    
   5371000   296.4893       0.050123105    23.151676      735.59814     -85.211433      650.3867     
   5372000   301.29962      0.050123105    27.618325      747.53266     -86.679215      660.85344    
   5373000   305.32646      0.050123105    27.466835      757.52336     -94.667929      662.85544    
   5374000   310.37793      0.050123105    25.715518      770.05621     -90.425415      679.63079    
   5375000   291.6705       0.050123105    24.081389      723.64256     -80.239703      643.40285    
   5376000   300.84957      0.050123105    20.95232       746.41609     -90.195804      656.22028    
   5377000   302.97485      0.050123105    36.127908      751.68895     -86.921828      664.76712    
   5378000   297.59841      0.050123105    15.073819      738.34985     -90.141985      648.20787    
   5379000   308.7763       0.050123105    22.904523      766.0825      -91.509426      674.57308    
   5380000   295.77298      0.050123105    24.543298      733.82091     -78.030892      655.79002    
   5381000   307.15282      0.050123105    40.455589      762.05462     -76.299882      685.75473    
   5382000   292.19136      0.050123105    27.703146      724.93483     -80.41196       644.52287    
   5383000   297.31996      0.050123105   -15.193874      737.65902     -77.094056      660.56496    
   5384000   309.52213      0.050123105    13.800457      767.93295     -78.790479      689.14247    
   5385000   305.73268      0.050123105    59.145098      758.5312      -76.299932      682.23127    
   5386000   283.81047      0.050123105    29.434313      704.14159     -83.675808      620.46579    
   5387000   298.04986      0.050123105    22.88025       739.46992     -75.987944      663.48198    
   5388000   310.99979      0.050123105    21.826262      771.59905     -68.895201      702.70385    
   5389000   316.44227      0.050123105    8.6617326      785.102       -77.353622      707.74838    
   5390000   288.28853      0.050123105    33.996156      715.25179     -85.953616      629.29817    
   5391000   284.19253      0.050123105    19.568774      705.08951     -88.883444      616.20607    
   5392000   302.94378      0.050123105    7.2005979      751.61188     -85.800472      665.81141    
   5393000   321.66163      0.050123105    23.418982      798.05138     -83.958973      714.09241    
   5394000   294.86855      0.050123105    30.701395      731.57701     -80.475625      651.10138    
   5395000   302.9737       0.050123105    10.411396      751.6861      -92.155503      659.5306     
   5396000   307.89097      0.050123105    26.069023      763.88597     -88.284311      675.60166    
   5397000   298.70278      0.050123105    34.904216      741.08984     -89.573543      651.5163     
   5398000   305.31927      0.050123105    23.679728      757.50552     -93.974012      663.5315     
   5399000   289.62282      0.050123105    16.484579      718.56219     -92.894239      625.66795    
   5400000   304.68775      0.050123105    23.309845      755.93871     -100.65587      655.28283    
   5401000   304.99585      0.050123105    29.908401      756.7031      -98.394966      658.30814    
   5402000   297.13779      0.050123105    24.299734      737.20704     -97.009386      640.19765    
   5403000   301.19319      0.050123105    32.329984      747.26861     -88.714344      658.55427    
   5404000   308.50362      0.050123105    25.80604       765.406       -88.161471      677.24453    
   5405000   300.35761      0.050123105    30.49793       745.19551     -86.610205      658.5853     
   5406000   292.00097      0.050123105    29.045951      724.46245     -101.70641      622.75604    
   5407000   297.95626      0.050123105    22.047418      739.2377      -104.98341      634.25428    
   5408000   310.82424      0.050123105    28.140879      771.16351     -105.47231      665.6912     
   5409000   294.57188      0.050123105    32.321981      730.84095     -94.787146      636.05381    
   5410000   293.87341      0.050123105    16.657244      729.10804     -104.45419      624.65385    
   5411000   306.23313      0.050123105    21.326206      759.77284     -104.95399      654.81885    
   5412000   298.59563      0.050123105    34.426974      740.82399     -103.39928      637.4247     
   5413000   291.53657      0.050123105    20.669265      723.31026     -101.45653      621.85373    
   5414000   320.07776      0.050123105    31.353346      794.12174     -102.79174      691.33       
   5415000   307.96538      0.050123105    22.816898      764.07059     -99.716238      664.35435    
   5416000   290.53988      0.050123105    23.27394       720.83744     -96.509684      624.32776    
   5417000   294.56886      0.050123105    27.12636       730.83346     -96.242559      634.5909     
   5418000   301.67257      0.050123105    23.176752      748.45797     -92.52671       655.93126    
   5419000   291.22245      0.050123105    21.301066      722.53094     -95.387475      627.14346    
   5420000   305.6772       0.050123105    31.508511      758.39356     -96.912467      661.48109    
   5421000   302.6408       0.050123105    23.319145      750.86017     -103.28664      647.57353    
   5422000   290.74904      0.050123105    11.558259      721.35639     -100.15724      621.19915    
   5423000   300.92257      0.050123105    22.955627      746.59718     -103.95036      642.64682    
   5424000   304.65821      0.050123105    46.869955      755.86541     -98.670058      657.19535    
   5425000   297.365        0.050123105    22.004308      737.77077     -98.286824      639.48395    
   5426000   306.70647      0.050123105    21.501837      760.94721     -102.50219      658.44502    
   5427000   304.09356      0.050123105    23.334565      754.4645      -97.945362      656.51914    
   5428000   299.77172      0.050123105    32.564354      743.74189     -92.273638      651.46825    
   5429000   298.57266      0.050123105    22.024089      740.76699     -94.835917      645.93107    
   5430000   298.49608      0.050123105    25.045901      740.57699     -91.006397      649.5706     
   5431000   295.75872      0.050123105    18.422365      733.78555     -76.449341      657.3362     
   5432000   297.20815      0.050123105    27.869245      737.38162     -82.826162      654.55546    
   5433000   307.66632      0.050123105    36.598199      763.32863     -84.905279      678.42335    
   5434000   307.6058       0.050123105    16.717244      763.17847     -80.562362      682.6161     
   5435000   290.35622      0.050123105    20.984859      720.38179     -86.210265      634.17152    
   5436000   307.98985      0.050123105    29.23751       764.13132     -86.860965      677.27035    
   5437000   304.04123      0.050123105    9.3952828      754.33468     -82.777118      671.55756    
   5438000   291.27331      0.050123105    29.30157       722.65711     -84.462373      638.19474    
   5439000   317.89979      0.050123105    35.668457      788.71813     -87.926198      700.79193    
   5440000   295.89405      0.050123105    13.791995      734.1213      -79.452938      654.66837    
   5441000   290.84613      0.050123105    25.10812       721.59727     -83.916656      637.68062    
   5442000   302.0847       0.050123105    31.830951      749.48046     -88.771457      660.709      
   5443000   309.03139      0.050123105    33.766798      766.71539     -91.197345      675.51804    
   5444000   309.62365      0.050123105    19.631086      768.18481     -92.326153      675.85865    
   5445000   295.90224      0.050123105    25.114836      734.14161     -87.870189      646.27142    
   5446000   290.29508      0.050123105    22.874365      720.23011     -92.647549      627.58256    
   5447000   301.88318      0.050123105    33.19844       748.98049     -85.722821      663.25767    
   5448000   310.22081      0.050123105    26.038336      769.66638     -87.574901      682.09148    
   5449000   303.52118      0.050123105    22.084563      753.04442     -81.265931      671.77849    
   5450000   291.03294      0.050123105    18.010587      722.06076     -88.578634      633.48212    
   5451000   285.18449      0.050123105    30.10285       707.55058     -87.414465      620.13611    
   5452000   316.70992      0.050123105    19.487469      785.76603     -89.690981      696.07505    
   5453000   300.68398      0.050123105    14.138501      746.00524     -91.836213      654.16903    
   5454000   292.27207      0.050123105    36.928919      725.13506     -90.091667      635.04339    
   5455000   299.62167      0.050123105    25.61964       743.36963     -90.750314      652.61932    
   5456000   307.78252      0.050123105    17.270666      763.61691     -91.951437      671.66547    
   5457000   296.45807      0.050123105    22.213147      735.52064     -91.777534      643.7431     
   5458000   301.39188      0.050123105    26.097069      747.76157     -84.334108      663.42746    
   5459000   310.73086      0.050123105    36.336986      770.93184     -83.865873      687.06597    
   5460000   296.90741      0.050123105    20.116671      736.63547     -88.518006      648.11746    
   5461000   284.16292      0.050123105    40.285517      705.01603     -81.639096      623.37694    
   5462000   304.77984      0.050123105    23.210342      756.16719     -87.097927      669.06927    
   5463000   316.95388      0.050123105    14.062364      786.3713      -90.424945      695.94636    
   5464000   313.74173      0.050123105    12.755007      778.40189     -92.439152      685.96274    
   5465000   296.58283      0.050123105    20.840148      735.83019     -89.353869      646.47632    
   5466000   289.76366      0.050123105    21.185589      718.91162     -89.501564      629.41005    
   5467000   308.85102      0.050123105    20.908212      766.26791     -84.275453      681.99245    
   5468000   314.33737      0.050123105    27.28219       779.87967     -79.206602      700.67307    
   5469000   301.07108      0.050123105    25.891007      746.96564     -83.143214      663.82243    
   5470000   287.64788      0.050123105    23.003556      713.66233     -79.278558      634.38377    
   5471000   302.3954       0.050123105    29.034907      750.25133     -75.139301      675.11203    
   5472000   321.68701      0.050123105    22.447569      798.11433     -81.020676      717.09365    
   5473000   295.78412      0.050123105    21.936282      733.84856     -82.237116      651.61144    
   5474000   296.94788      0.050123105    23.154473      736.73588     -85.438322      651.29756    
   5475000   305.71763      0.050123105    29.67978       758.49386     -88.082311      670.41155    
   5476000   312.87237      0.050123105    25.451594      776.24497     -91.125018      685.11995    
   5477000   295.05037      0.050123105    23.085333      732.0281      -95.583542      636.44456    
   5478000   300.61429      0.050123105    17.871932      745.83235     -89.805951      656.02639    
   5479000   305.08759      0.050123105    45.23397       756.93072     -87.498514      669.4322     
   5480000   297.23069      0.050123105    23.354051      737.43752     -88.660426      648.7771     
   5481000   293.53973      0.050123105    13.696502      728.28016     -86.975624      641.30453    
   5482000   315.92602      0.050123105    18.797369      783.82117     -91.559975      692.2612     
   5483000   310.50142      0.050123105    48.01904       770.36258     -93.798124      676.56446    
   5484000   291.63725      0.050123105    30.976357      723.56006     -91.366005      632.19406    
   5485000   307.64471      0.050123105   -10.597645      763.27499     -92.591781      670.68321    
   5486000   304.2857       0.050123105    32.406945      754.94121     -90.804745      664.13647    
   5487000   287.50057      0.050123105    24.59775       713.29684     -92.175106      621.12174    
   5488000   296.07618      0.050123105    19.795741      734.57317     -88.286635      646.28653    
   5489000   303.0364       0.050123105    25.087284      751.84167     -85.272492      666.56918    
   5490000   297.62203      0.050123105    35.867185      738.40845     -81.78907       656.61938    
   5491000   296.31071      0.050123105    23.761881      735.15504     -93.691347      641.4637     
   5492000   311.80504      0.050123105    6.724387       773.59689     -87.94289       685.654      
   5493000   322.30097      0.050123105    18.936713      799.63759     -90.776511      708.86107    
   5494000   311.36728      0.050123105    29.617622      772.51081     -84.672351      687.83846    
   5495000   300.70102      0.050123105    20.779481      746.04752     -85.609679      660.43784    
   5496000   311.50888      0.050123105    16.073365      772.86212     -83.728672      689.13345    
   5497000   311.35123      0.050123105    30.187045      772.47098     -86.013694      686.45729    
   5498000   291.07676      0.050123105    36.991421      722.16948     -87.451987      634.71749    
   5499000   289.09694      0.050123105    23.439365      717.25747     -84.471256      632.78621    
   5500000   303.47845      0.050123105    15.71345       752.9384      -86.326938      666.61146    
   5501000   306.66538      0.050123105    23.975548      760.84525     -80.490145      680.35511    
   5502000   310.16192      0.050123105    40.532119      769.52027     -93.253125      676.26714    
   5503000   302.65904      0.050123105    27.239818      750.90543     -86.675741      664.22969    
   5504000   292.89454      0.050123105    5.2068385      726.67944     -92.356594      634.32284    
   5505000   304.2739       0.050123105    25.570564      754.91193     -88.62571       666.28622    
   5506000   294.78243      0.050123105    34.397806      731.36333     -86.776422      644.58691    
   5507000   295.34105      0.050123105    7.3453182      732.74929     -89.408325      643.34097    
   5508000   318.55466      0.050123105    42.076369      790.34289     -90.743339      699.59955    
   5509000   297.5847       0.050123105    23.584137      738.31583     -98.04794       640.26789    
   5510000   298.26205      0.050123105    12.932959      739.99638     -85.434173      654.56221    
   5511000   305.51342      0.050123105    30.253348      757.98722     -94.477541      663.50968    
   5512000   297.15967      0.050123105    28.639959      737.26133     -89.636801      647.62453    
   5513000   291.7201       0.050123105    23.29072       723.7656      -87.004394      636.76121    
   5514000   305.65412      0.050123105    24.805727      758.33631     -80.428807      677.9075     
   5515000   294.97096      0.050123105    22.516067      731.83108     -83.010213      648.82087    
   5516000   302.14478      0.050123105    27.980488      749.62953     -76.881773      672.74776    
   5517000   309.79231      0.050123105    20.145742      768.60327     -81.016939      687.58633    
   5518000   300.10448      0.050123105    27.876176      744.5675      -84.962953      659.60454    
   5519000   284.26285      0.050123105    23.745568      705.26397     -81.33969       623.92428    
   5520000   312.80464      0.050123105    25.217979      776.07693     -82.88997       693.18696    
   5521000   306.00278      0.050123105    26.955348      759.20133     -81.557003      677.64433    
   5522000   312.58565      0.050123105    28.009108      775.5336      -79.369722      696.16388    
   5523000   301.10617      0.050123105    17.217378      747.05272     -80.718362      666.33435    
   5524000   319.53274      0.050123105    25.052447      792.76952     -84.855243      707.91428    
   5525000   298.94447      0.050123105    20.271338      741.68947     -86.783516      654.90595    
   5526000   285.39296      0.050123105    28.550002      708.0678      -87.395366      620.67243    
   5527000   300.30209      0.050123105    27.180309      745.05777     -89.564203      655.49356    
   5528000   316.59673      0.050123105    16.190531      785.48522     -85.721213      699.76401    
   5529000   290.33004      0.050123105    24.980144      720.31683     -83.523873      636.79296    
   5530000   295.34261      0.050123105    40.436714      732.75316     -85.409951      647.34321    
   5531000   311.05948      0.050123105    22.7507        771.74714     -90.799298      680.94784    
   5532000   297.30528      0.050123105    5.7859792      737.62259     -86.727683      650.8949     
   5533000   289.18548      0.050123105    33.180402      717.47715     -77.718846      639.7583     
   5534000   316.74346      0.050123105    27.721395      785.84925     -75.47253       710.37672    
   5535000   296.53891      0.050123105    12.282992      735.72121     -80.107003      655.6142     
   5536000   297.2562       0.050123105    32.863755      737.50083     -74.935211      662.56562    
   5537000   320.32807      0.050123105    36.185961      794.74277     -78.433223      716.30955    
   5538000   301.53739      0.050123105    20.795288      748.12257     -82.968008      665.15456    
   5539000   291.69831      0.050123105    26.733309      723.71156     -80.665833      643.04572    
   5540000   299.57029      0.050123105    53.80354       743.24214     -83.592687      659.64945    
   5541000   311.28605      0.050123105    17.332091      772.30927     -85.860751      686.44852    
   5542000   311.04892      0.050123105    17.442101      771.72094     -85.957272      685.76367    
   5543000   290.36453      0.050123105    28.159603      720.4024      -85.671465      634.73094    
   5544000   292.04893      0.050123105    43.805161      724.58145     -78.817663      645.76378    
   5545000   314.28102      0.050123105    6.586659       779.73988     -70.846041      708.89384    
   5546000   304.08171      0.050123105    25.460328      754.4351      -78.690612      675.74449    
   5547000   297.88978      0.050123105    31.779135      739.07275     -81.435205      657.63754    
   5548000   290.28501      0.050123105    34.957869      720.20511     -83.727656      636.47746    
   5549000   312.24211      0.050123105    18.09986       774.68129     -78.138766      696.54252    
   5550000   320.00011      0.050123105    9.1469484      793.92909     -82.196282      711.73281    
   5551000   292.38097      0.050123105    3.4124741      725.40524     -84.22156       641.18368    
   5552000   285.97833      0.050123105    32.043689      709.52012     -85.718825      623.80129    
   5553000   284.38521      0.050123105    45.945105      705.56753     -83.201716      622.36582    
   5554000   301.7504       0.050123105    64.100129      748.65105     -85.108228      663.54282    
   5555000   308.77625      0.050123105    20.876454      766.08239     -84.448627      681.63377    
   5556000   297.81609      0.050123105    15.005408      738.88992     -84.797648      654.09227    
   5557000   294.49746      0.050123105    29.268218      730.65633     -89.751037      640.90529    
   5558000   301.83654      0.050123105    59.535526      748.86478     -85.076799      663.78798    
   5559000   313.70277      0.050123105    35.262498      778.30522     -88.846175      689.45904    
   5560000   300.27748      0.050123105    9.4050686      744.9967      -90.182092      654.8146     
   5561000   296.2776       0.050123105    12.654168      735.0729      -86.093191      648.97971    
   5562000   305.08823      0.050123105    25.998098      756.93231     -83.760852      673.17146    
   5563000   315.13652      0.050123105    28.488063      781.8624      -88.813912      693.04848    
   5564000   291.52736      0.050123105    21.784876      723.28742     -83.487366      639.80005    
   5565000   291.28319      0.050123105    27.667268      722.68161     -81.948108      640.7335     
   5566000   297.76911      0.050123105    26.427003      738.77338     -93.764731      645.00865    
   5567000   313.29466      0.050123105    37.952791      777.29268     -91.447941      685.84474    
   5568000   306.8406       0.050123105    1.7564409      761.27998     -89.239567      672.04041    
   5569000   284.69684      0.050123105    11.616953      706.3407      -85.379538      620.96116    
   5570000   303.71773      0.050123105    42.153948      753.53206     -83.194582      670.33748    
   5571000   308.01772      0.050123105    3.9438626      764.20045     -89.182456      675.01799    
   5572000   295.92503      0.050123105    38.991883      734.19816     -82.680706      651.51745    
   5573000   302.81557      0.050123105    28.694048      751.29377     -79.779094      671.51468    
   5574000   292.59977      0.050123105    15.179542      725.9481      -71.36721       654.58089    
   5575000   302.11265      0.050123105    38.001237      749.54981     -79.099033      670.45077    
   5576000   311.43902      0.050123105    24.857395      772.68879     -76.144016      696.54477    
   5577000   283.05423      0.050123105    15.721209      702.26535     -79.978381      622.28696    
   5578000   311.16514      0.050123105    27.368539      772.00929     -76.12106       695.88823    
   5579000   307.80024      0.050123105    23.364867      763.66087     -76.602286      687.05858    
   5580000   293.7182       0.050123105    25.417051      728.72295     -81.91427       646.80868    
   5581000   289.6099       0.050123105    24.023641      718.53014     -78.421406      640.10873    
   5582000   295.11668      0.050123105    36.521425      732.19262     -87.142871      645.04975    
   5583000   304.6868       0.050123105    30.453157      755.93634     -91.297663      664.63868    
   5584000   298.95713      0.050123105    21.956666      741.72088     -96.019072      645.70181    
   5585000   286.24475      0.050123105    17.280559      710.18111     -90.010381      620.17073    
   5586000   305.98882      0.050123105    26.255637      759.16671     -82.317889      676.84882    
   5587000   311.91885      0.050123105    28.766038      773.87926     -89.110029      684.76924    
   5588000   297.47681      0.050123105    18.890946      738.04816     -94.149065      643.89909    
   5589000   306.83479      0.050123105    25.088656      761.26557     -91.170573      670.095      
   5590000   293.4359       0.050123105    30.075036      728.02256     -83.264571      644.75799    
   5591000   294.75452      0.050123105    15.587997      731.29408     -78.607643      652.68644    
   5592000   306.42032      0.050123105    25.63171       760.23725     -83.238749      676.99851    
   5593000   306.1743       0.050123105    33.30217       759.62688     -78.0687        681.55818    
   5594000   285.12975      0.050123105    37.062489      707.41476     -80.116671      627.29809    
   5595000   289.56378      0.050123105    48.774292      718.41572     -87.388306      631.02741    
   5596000   298.85935      0.050123105    4.8744009      741.47828     -87.668738      653.80954    
   5597000   307.48637      0.050123105    28.845348      762.88215     -81.456623      681.42553    
   5598000   295.02464      0.050123105    29.601134      731.96427     -83.103004      648.86127    
   5599000   303.69037      0.050123105    24.035084      753.46419     -86.369443      667.09475    
   5600000   290.89625      0.050123105    6.593292       721.72161     -86.255426      635.46618    
   5601000   301.04939      0.050123105    20.548266      746.91182     -86.84704       660.06478    
   5602000   312.555        0.050123105    29.873717      775.45756     -84.508013      690.94955    
   5603000   291.3566       0.050123105    47.050163      722.86375     -87.603399      635.26035    
   5604000   288.43594      0.050123105    15.132244      715.61751     -91.893882      623.72363    
   5605000   292.7866       0.050123105    11.468834      726.41162     -88.815413      637.59621    
   5606000   296.69913      0.050123105   -2.6335862      736.11873     -86.850435      649.26829    
   5607000   322.86855      0.050123105    30.863534      801.04577     -86.418486      714.62728    
   5608000   303.91211      0.050123105    51.725989      754.01431     -88.143201      665.87111    
   5609000   300.24179      0.050123105    45.486679      744.90816     -86.721853      658.18631    
   5610000   305.4816       0.050123105    31.787933      757.90828     -92.132666      665.77561    
   5611000   304.52943      0.050123105    28.384102      755.5459      -93.396195      662.14971    
   5612000   300.28236      0.050123105    22.441543      745.0088      -87.774775      657.23403    
   5613000   295.69253      0.050123105    15.276607      733.62132     -96.787873      636.83345    
   5614000   293.97226      0.050123105    25.680233      729.35328     -98.535258      630.81802    
   5615000   295.5656       0.050123105    41.003318      733.30639     -92.335002      640.97139    
   5616000   300.33066      0.050123105    22.693788      745.12865     -89.229611      655.89903    
   5617000   313.03107      0.050123105    19.338389      776.63872     -100.32636      676.31236    
   5618000   303.59339      0.050123105    25.064524      753.22358     -89.024275      664.19931    
   5619000   303.9531       0.050123105    11.897164      754.11603     -91.595837      662.52019    
   5620000   309.36492      0.050123105    29.634269      767.54288     -88.303352      679.23953    
   5621000   289.5672       0.050123105    26.488381      718.42421     -99.063733      619.36047    
   5622000   300.67325      0.050123105    19.346265      745.97863     -91.623324      654.3553     
   5623000   303.75487      0.050123105    32.517102      753.62421     -94.952309      658.6719     
   5624000   299.63962      0.050123105    24.047518      743.41416     -94.476331      648.93782    
   5625000   300.33098      0.050123105    19.741421      745.12945     -98.912203      646.21725    
   5626000   312.19159      0.050123105    28.774076      774.55595     -99.024452      675.5315     
   5627000   303.40606      0.050123105    48.421055      752.75879     -93.386716      659.37207    
   5628000   296.58834      0.050123105    20.630954      735.84386     -97.523626      638.32023    
   5629000   308.41733      0.050123105    23.727062      765.1919      -95.38104       669.81086    
   5630000   294.89526      0.050123105    30.713867      731.64328     -94.158276      637.485      
   5631000   293.52301      0.050123105    23.070226      728.23867     -94.062212      634.17646    
   5632000   311.71758      0.050123105    25.243173      773.37991     -91.753373      681.62653    
   5633000   292.58499      0.050123105    17.945375      725.91142     -97.196588      628.71483    
   5634000   283.41505      0.050123105    25.235146      703.16054     -94.111144      609.0494     
   5635000   291.04338      0.050123105    22.068358      722.08665     -96.260256      625.8264     
   5636000   305.52562      0.050123105    22.911672      758.01749     -97.799537      660.21795    
   5637000   303.57349      0.050123105    21.734534      753.17419     -89.512628      663.66156    
   5638000   285.17022      0.050123105    42.298243      707.51518     -89.406825      618.10835    
   5639000   302.53636      0.050123105    18.142615      750.60105     -95.836885      654.76417    
   5640000   299.96166      0.050123105    24.379443      744.21315     -89.116341      655.09681    
   5641000   303.70001      0.050123105    24.329797      753.4881      -92.130994      661.3571     
   5642000   274.96586      0.050123105    21.772245      682.19787     -93.364314      588.83356    
   5643000   300.96023      0.050123105    21.917074      746.69064     -99.292977      647.39766    
   5644000   306.60657      0.050123105    36.252614      760.69936     -98.954708      661.74465    
   5645000   305.46283      0.050123105    28.678053      757.86171     -90.270309      667.5914     
   5646000   301.80258      0.050123105    9.3756257      748.78053     -97.084351      651.69618    
   5647000   291.75256      0.050123105    25.20902       723.84614     -88.068316      635.77782    
   5648000   302.88233      0.050123105    35.857291      751.4594      -89.241212      662.21819    
   5649000   306.55774      0.050123105    15.883349      760.57819     -90.876182      669.70201    
   5650000   286.4853       0.050123105    17.90512       710.77792     -87.772812      623.00511    
   5651000   292.89726      0.050123105    37.159051      726.68618     -94.01205       632.67413    
   5652000   303.29934      0.050123105    29.081708      752.49402     -96.794016      655.7        
   5653000   309.0024       0.050123105    12.919175      766.64348     -95.997535      670.64595    
   5654000   292.10063      0.050123105    16.142078      724.70971     -97.243467      627.46624    
   5655000   290.97227      0.050123105    52.828548      721.91022     -101.74944      620.16078    
   5656000   302.72082      0.050123105    30.532026      751.0587      -94.610437      656.44826    
   5657000   306.33724      0.050123105    8.603096       760.03115     -93.291158      666.73999    
   5658000   295.67762      0.050123105    16.001477      733.58432     -93.611795      639.97252    
   5659000   292.16137      0.050123105    18.764822      724.86042     -92.729314      632.13111    
   5660000   304.73382      0.050123105    30.716509      756.053       -99.306455      656.74654    
   5661000   301.60265      0.050123105    19.212013      748.28449     -100.36013      647.92436    
   5662000   295.39105      0.050123105    19.823395      732.87333     -94.43209       638.44124    
   5663000   301.1207       0.050123105    25.576982      747.08875     -90.805545      656.28321    
   5664000   292.36142      0.050123105    26.42878       725.35675     -87.198612      638.15814    
   5665000   308.99997      0.050123105    22.757671      766.63745     -98.155402      668.48205    
   5666000   292.55411      0.050123105    22.105893      725.83482     -92.276097      633.55872    
   5667000   310.74075      0.050123105    21.917609      770.95637     -96.541798      674.41457    
   5668000   298.41512      0.050123105    25.483842      740.37615     -93.125376      647.25077    
   5669000   297.65895      0.050123105    33.127122      738.50006     -88.511671      649.98838    
   5670000   306.80844      0.050123105    31.351668      761.2002      -87.788298      673.4119     
   5671000   294.67034      0.050123105    17.95244       731.08523     -92.068768      639.01646    
   5672000   298.20821      0.050123105    22.260387      739.86279     -94.086807      645.77599    
   5673000   300.89188      0.050123105    27.697586      746.52105     -96.491181      650.02987    
   5674000   294.67838      0.050123105    23.301986      731.10517     -92.222211      638.88296    
   5675000   299.75332      0.050123105    21.73956       743.69626     -94.402718      649.29354    
   5676000   307.87837      0.050123105    25.994416      763.85472     -88.871085      674.98364    
   5677000   296.30499      0.050123105    18.736788      735.14084     -89.880141      645.2607     
   5678000   312.76318      0.050123105    37.014247      775.97407     -86.331841      689.64223    
   5679000   304.05008      0.050123105    29.762069      754.35663     -82.174278      672.18235    
   5680000   291.02308      0.050123105    20.994609      722.03627     -74.82422       647.21205    
   5681000   297.76063      0.050123105    18.426675      738.75233     -81.876525      656.87581    
   5682000   310.82718      0.050123105    23.914692      771.1708      -85.26908       685.90172    
   5683000   326.37981      0.050123105    26.291352      809.75731     -83.748124      726.00919    
   5684000   293.16187      0.050123105    26.117598      727.34269     -86.406441      640.93625    
   5685000   294.4561       0.050123105    21.374627      730.55371     -88.755839      641.79787    
   5686000   310.06684      0.050123105    28.247219      769.28438     -88.668711      680.61567    
   5687000   313.47355      0.050123105    27.387018      777.73651     -84.609841      693.12667    
   5688000   310.76191      0.050123105    22.31439       771.00886     -86.369854      684.63901    
   5689000   285.60574      0.050123105    22.57697       708.59572     -90.706344      617.88937    
   5690000   280.6612       0.050123105    20.660259      696.32817     -93.519488      602.80868    
   5691000   307.18716      0.050123105    20.03607       762.13981     -86.402182      675.73763    
   5692000   323.54021      0.050123105    25.189701      802.71217     -85.904268      716.80791    
   5693000   300.92515      0.050123105    27.911724      746.6036      -86.690731      659.91286    
   5694000   305.61712      0.050123105    26.767523      758.24449     -87.323203      670.92129    
   5695000   293.3575       0.050123105    16.40976       727.82804     -92.28948       635.53856    
   5696000   299.29399      0.050123105    31.631701      742.55664     -97.303819      645.25282    
   5697000   296.71045      0.050123105    29.861201      736.14681     -99.975167      636.17165    
   5698000   299.34778      0.050123105    8.0134917      742.6901      -100.53027      642.15983    
   5699000   310.63199      0.050123105    26.418795      770.68652     -99.579722      671.1068     
   5700000   295.87627      0.050123105    35.179486      734.07717     -95.183577      638.8936     
   5701000   295.12352      0.050123105    19.197614      732.20959     -95.856681      636.35291    
   5702000   293.94718      0.050123105    6.1668067      729.29106     -85.989092      643.30197    
   5703000   311.68568      0.050123105    29.609117      773.30075     -83.509323      689.79143    
   5704000   292.12947      0.050123105    33.223286      724.78128     -81.395843      643.38543    
   5705000   293.07304      0.050123105    22.333586      727.12229     -81.728287      645.39401    
   5706000   299.35595      0.050123105    17.898466      742.71036     -82.487845      660.22251    
   5707000   313.35089      0.050123105    28.359535      777.4322      -82.453368      694.97884    
   5708000   292.49512      0.050123105    35.157882      725.68845     -83.600861      642.08759    
   5709000   299.38772      0.050123105    12.490762      742.7892      -89.274982      653.51421    
   5710000   308.60524      0.050123105    23.584403      765.65809     -84.809238      680.84886    
   5711000   293.68055      0.050123105    33.418143      728.62953     -88.396613      640.23292    
   5712000   294.8257       0.050123105    23.428835      731.47069     -91.390195      640.0805     
   5713000   310.63175      0.050123105    15.136499      770.68593     -87.991031      682.6949     
   5714000   298.25838      0.050123105    48.994145      739.98726     -84.384294      655.60296    
   5715000   299.98198      0.050123105    11.27752       744.26356     -91.202656      653.0609     
   5716000   316.54163      0.050123105    27.933186      785.34852     -85.657038      699.69148    
   5717000   303.71046      0.050123105    28.123435      753.51401     -83.838054      669.67596    
   5718000   287.77936      0.050123105    31.702262      713.98852     -84.750664      629.23785    
   5719000   302.91243      0.050123105    24.991316      751.53408     -82.960196      668.57389    
   5720000   297.05166      0.050123105    17.17908       736.99336     -85.858934      651.13443    
   5721000   300.57217      0.050123105    24.143282      745.72783     -88.997775      656.73005    
   5722000   308.56401      0.050123105    30.333179      765.55581     -83.397771      682.15804    
   5723000   291.82065      0.050123105    26.640235      724.01507     -75.85705       648.15802    
   5724000   298.83016      0.050123105    24.96898       741.40587     -83.46096       657.94491    
   5725000   311.66355      0.050123105    28.981987      773.24586     -90.289043      682.95681    
   5726000   296.36422      0.050123105    38.024637      735.28779     -87.592035      647.69575    
   5727000   290.56073      0.050123105    19.037142      720.88919     -93.909333      626.97985    
   5728000   295.12965      0.050123105    14.09444       732.22479     -93.013566      639.21123    
   5729000   299.99793      0.050123105    17.049433      744.30313     -94.282048      650.02109    
   5730000   301.57774      0.050123105    27.220161      748.22269     -101.89424      646.32845    
   5731000   275.32699      0.050123105    17.189396      683.09384     -96.490442      586.6034     
   5732000   295.62709      0.050123105    21.992805      733.45896     -97.189264      636.2697     
   5733000   301.08346      0.050123105    27.119228      746.99637     -96.86312       650.13325    
   5734000   295.18614      0.050123105    23.926676      732.36496     -98.76586       633.5991     
   5735000   306.81557      0.050123105    24.50328       761.21788     -92.849771      668.36811    
   5736000   302.44537      0.050123105    23.837968      750.3753      -98.986623      651.38867    
   5737000   290.0501       0.050123105    17.521598      719.62229     -98.272729      621.34956    
   5738000   296.72944      0.050123105    30.378581      736.19392     -96.533082      639.66084    
   5739000   316.86292      0.050123105    32.472964      786.14564     -90.598392      695.54725    
   5740000   311.46572      0.050123105    25.966211      772.75504     -91.450424      681.30462    
   5741000   282.35854      0.050123105    7.9161927      700.53931     -93.457587      607.08172    
   5742000   291.55531      0.050123105    27.939568      723.35677     -90.991125      632.36564    
   5743000   295.57071      0.050123105    27.769015      733.31909     -91.430911      641.88818    
   5744000   319.10507      0.050123105    43.53008       791.70848     -91.274635      700.43385    
   5745000   308.96313      0.050123105    25.276387      766.54604     -90.872358      675.67368    
   5746000   287.36033      0.050123105    12.265297      712.94891     -96.691554      616.25736    
   5747000   295.33028      0.050123105    21.452112      732.72256     -93.650782      639.07178    
   5748000   300.11275      0.050123105    20.02177       744.588       -88.384549      656.20345    
   5749000   299.97086      0.050123105    36.122204      744.23596     -84.261121      659.97484    
   5750000   305.46034      0.050123105    29.613981      757.85552     -84.883839      672.97168    
   5751000   294.14899      0.050123105    12.05966       729.79175     -81.155335      648.63642    
   5752000   285.13151      0.050123105    29.273315      707.41913     -90.000431      617.4187     
   5753000   297.32064      0.050123105    31.952078      737.66071     -88.204444      649.45626    
   5754000   320.32567      0.050123105    28.131506      794.73683     -91.81889       702.91794    
   5755000   320.79799      0.050123105    15.465817      795.90865     -94.132821      701.77583    
   5756000   291.25819      0.050123105    13.817785      722.61959     -97.94009       624.6795     
   5757000   296.79837      0.050123105    28.843431      736.36493     -97.146064      639.21887    
   5758000   305.0145       0.050123105    26.903559      756.74938     -94.184483      662.5649     
   5759000   302.89495      0.050123105    1.4634317      751.49072     -95.495671      655.99504    
   5760000   295.9112       0.050123105    35.158648      734.16385     -88.82005       645.3438     
   5761000   300.02492      0.050123105    35.024533      744.37009     -93.317078      651.05301    
   5762000   315.44901      0.050123105    21.997316      782.6377      -88.404421      694.23328    
   5763000   313.84497      0.050123105    2.9408446      778.65802     -84.671812      693.98621    
   5764000   290.17769      0.050123105    23.091906      719.93886     -85.094223      634.84463    
   5765000   293.21737      0.050123105    28.692875      727.48038     -87.09023       640.39015    
   5766000   311.25149      0.050123105    28.831661      772.22354     -79.546812      692.67672    
   5767000   303.94605      0.050123105    25.217166      754.09852     -82.629747      671.46877    
   5768000   293.98019      0.050123105    25.246891      729.37297     -86.752566      642.6204     
   5769000   293.73911      0.050123105    39.269694      728.77483     -82.967988      645.80684    
   5770000   308.59449      0.050123105    33.487439      765.63143     -82.39928       683.23215    
   5771000   315.49334      0.050123105    22.756815      782.74768     -86.143385      696.60429    
   5772000   307.56956      0.050123105    19.930703      763.08855     -85.78925       677.2993     
   5773000   299.71939      0.050123105    13.0517        743.61206     -86.130559      657.4815     
   5774000   300.35605      0.050123105    25.008472      745.19164     -87.722734      657.4689     
   5775000   300.59575      0.050123105    33.975863      745.78635     -88.408144      657.37821    
   5776000   304.10543      0.050123105    14.6364        754.49395     -80.411877      674.08207    
   5777000   295.92992      0.050123105    42.426175      734.2103      -83.9252        650.2851     
   5778000   295.90951      0.050123105    27.940835      734.15965     -76.408559      657.75109    
   5779000   306.07315      0.050123105    24.731345      759.37591     -82.894846      676.48107    
   5780000   309.98085      0.050123105    25.345487      769.07103     -85.029862      684.04117    
   5781000   304.46014      0.050123105    23.704304      755.37401     -96.387588      658.98642    
   5782000   291.24615      0.050123105    16.668078      722.58974     -93.203315      629.38642    
   5783000   285.85653      0.050123105    22.583539      709.21794     -87.897194      621.32075    
   5784000   305.85477      0.050123105    29.043205      758.83412     -89.323167      669.51095    
   5785000   298.22195      0.050123105    23.553864      739.89689     -88.199         651.69789    
   5786000   305.05863      0.050123105    29.566162      756.85887     -87.592288      669.26658    
   5787000   297.85233      0.050123105    17.299054      738.97984     -91.724296      647.25555    
   5788000   298.04743      0.050123105    34.529028      739.46388     -83.938152      655.52573    
   5789000   298.87441      0.050123105    36.120137      741.51564     -80.435095      661.08055    
   5790000   309.78441      0.050123105    23.443896      768.58367     -87.663009      680.92066    
   5791000   300.48404      0.050123105    7.6850336      745.50918     -83.192531      662.31665    
   5792000   286.4377       0.050123105    22.971055      710.65982     -89.9412        620.71862    
   5793000   303.90585      0.050123105    46.692983      753.99879     -88.56247       665.43632    
   5794000   302.79453      0.050123105    28.966626      751.24159     -84.394668      666.84692    
   5795000   295.14164      0.050123105    23.156226      732.25455     -86.69476       645.55979    
   5796000   292.39624      0.050123105    30.151913      725.44314     -85.342986      640.10016    
   5797000   309.72444      0.050123105    24.641064      768.43488     -87.099306      681.33557    
   5798000   303.92674      0.050123105    10.127839      754.05063     -81.418275      672.63236    
   5799000   275.08187      0.050123105    21.527611      682.4857      -90.905252      591.58044    
   5800000   286.15152      0.050123105    22.512203      709.9498      -87.397414      622.55238    
   5801000   314.55547      0.050123105    28.454954      780.42079     -90.700559      689.72023    
   5802000   306.05389      0.050123105    12.71039       759.32814     -87.75536       671.57278    
   5803000   287.00084      0.050123105    23.877575      712.05701     -85.247694      626.80931    
   5804000   293.118        0.050123105    42.122008      727.23383     -81.442664      645.79117    
   5805000   303.20726      0.050123105    20.609424      752.26557     -87.155362      665.1102     
   5806000   290.64368      0.050123105    19.893984      721.09498     -77.254311      643.84067    
   5807000   302.70426      0.050123105    37.030486      751.01762     -90.570734      660.44688    
   5808000   296.66729      0.050123105    29.907147      736.03971     -81.008909      655.0308     
   5809000   298.37328      0.050123105    22.120869      740.27233     -80.311675      659.96065    
   5810000   305.01773      0.050123105    18.867788      756.75739     -80.735896      676.02149    
   5811000   306.89138      0.050123105    30.348357      761.40597     -82.105903      679.30007    
   5812000   305.92706      0.050123105    25.479887      759.01346     -82.678325      676.33513    
   5813000   309.01077      0.050123105    13.889614      766.66424     -79.9214        686.74284    
   5814000   296.38612      0.050123105    20.501909      735.34215     -83.418782      651.92336    
   5815000   297.99359      0.050123105    14.742448      739.33031     -83.915795      655.41452    
   5816000   296.4954       0.050123105    61.186985      735.61327     -88.894827      646.71844    
   5817000   308.24412      0.050123105    32.375892      764.76217     -96.541908      668.22026    
   5818000   315.07656      0.050123105    14.500114      781.71363     -94.719108      686.99452    
   5819000   295.47151      0.050123105    27.478988      733.07297     -85.715465      647.3575     
   5820000   301.42981      0.050123105    25.303266      747.85567     -90.00176       657.85391    
   5821000   298.38663      0.050123105    19.475097      740.30544     -79.009012      661.29643    
   5822000   296.34862      0.050123105    25.80944       735.2491      -78.932569      656.31653    
   5823000   311.64193      0.050123105    34.816974      773.19222     -84.303534      688.88869    
   5824000   314.27167      0.050123105    26.820114      779.71668     -80.643136      699.07354    
   5825000   295.80276      0.050123105    23.422726      733.8948      -84.569806      649.32499    
   5826000   304.15226      0.050123105    26.209196      754.61015     -78.022512      676.58764    
   5827000   300.30436      0.050123105    19.569745      745.06341     -76.997409      668.066      
   5828000   304.50582      0.050123105    30.849785      755.48732     -75.001121      680.4862     
   5829000   295.30467      0.050123105    27.169219      732.65902     -78.109506      654.54952    
   5830000   298.50668      0.050123105    10.493975      740.6033      -79.242682      661.36062    
   5831000   311.37405      0.050123105    4.1965213      772.52761     -82.60205       689.92556    
   5832000   299.8006       0.050123105    35.430331      743.81356     -85.250763      658.56279    
   5833000   284.94197      0.050123105    36.696404      706.94887     -91.177023      615.77185    
   5834000   301.67173      0.050123105    7.4872146      748.45588     -90.963431      657.49245    
   5835000   305.00728      0.050123105    25.102146      756.73148     -88.032388      668.69909    
   5836000   301.60344      0.050123105    25.352337      748.28645     -86.545268      661.74118    
   5837000   301.99657      0.050123105    11.633678      749.2618      -88.073493      661.18831    
   5838000   302.32769      0.050123105    39.812878      750.08332     -86.545887      663.53744    
   5839000   298.03619      0.050123105    28.986302      739.436       -81.266771      658.16923    
   5840000   297.11258      0.050123105    22.757642      737.14449     -80.93814       656.20635    
   5841000   298.71052      0.050123105    21.867883      741.10902     -80.438787      660.67024    
   5842000   307.67547      0.050123105    22.856927      763.35132     -87.46975       675.88157    
   5843000   295.06339      0.050123105    25.05499       732.0604      -89.969581      642.09082    
   5844000   288.94166      0.050123105    29.204777      716.87222     -88.409815      628.46241    
   5845000   296.815        0.050123105    20.762866      736.4062      -85.890346      650.51585    
   5846000   322.96055      0.050123105    20.854749      801.27403     -91.630315      709.64372    
   5847000   307.93709      0.050123105    32.273545      764.00042     -80.49193       683.50849    
   5848000   291.3224       0.050123105    12.83939       722.77891     -84.500656      638.27825    
   5849000   293.18673      0.050123105    17.12331       727.40435     -84.799975      642.60437    
   5850000   303.81559      0.050123105    31.339618      753.77487     -81.657358      672.11751    
   5851000   301.1062       0.050123105    41.653353      747.05279     -76.356201      670.69659    
   5852000   299.63246      0.050123105    15.418577      743.39638     -79.535178      663.8612     
   5853000   308.45487      0.050123105    39.856068      765.28503     -71.653683      693.63135    
   5854000   301.27251      0.050123105    34.803228      747.46541     -68.829751      678.63566    
   5855000   294.15098      0.050123105    68.993832      729.79669     -80.211798      649.58489    
   5856000   291.09494      0.050123105    10.500927      722.21458     -85.668672      636.5459     
   5857000   303.32296      0.050123105    14.917429      752.55262     -88.44974       664.10288    
   5858000   311.9111       0.050123105    27.815921      773.86005     -84.43629       689.42376    
   5859000   297.32652      0.050123105    34.94658       737.67529     -86.913354      650.76194    
   5860000   285.61709      0.050123105    27.780333      708.62388     -87.384919      621.23896    
   5861000   289.19175      0.050123105    13.36118       717.49271     -83.865684      633.62703    
   5862000   315.55457      0.050123105    18.597403      782.89959     -78.756962      704.14262    
   5863000   306.69678      0.050123105    15.95815       760.92317     -80.083844      680.83933    
   5864000   300.01863      0.050123105    52.981182      744.3545      -70.338735      674.01577    
   5865000   278.299        0.050123105    36.394953      690.4675      -73.883397      616.5841     
   5866000   299.03054      0.050123105    18.359885      741.90301     -79.643075      662.25994    
   5867000   303.91441      0.050123105    39.997856      754.02004     -74.823391      679.19665    
   5868000   294.55141      0.050123105    24.193402      730.79016     -81.355653      649.43451    
   5869000   298.23009      0.050123105    14.647019      739.91708     -90.80269       649.11439    
   5870000   300.73384      0.050123105    28.760612      746.12893     -95.465238      650.6637     
   5871000   307.25045      0.050123105    28.20014       762.29684     -87.479917      674.81693    
   5872000   287.32128      0.050123105    14.735498      712.85202     -82.860397      629.99162    
   5873000   299.61152      0.050123105    26.71316       743.34444     -81.250049      662.09439    
   5874000   301.98278      0.050123105    29.575086      749.2276      -76.061629      673.16597    
   5875000   302.39584      0.050123105    31.382394      750.25241     -85.29682       664.95559    
   5876000   300.47461      0.050123105    21.679438      745.4858      -80.67526       664.81054    
   5877000   309.76023      0.050123105    28.211814      768.52366     -79.340773      689.18289    
   5878000   308.4579       0.050123105    28.058407      765.29254     -79.211633      686.08091    
   5879000   290.70757      0.050123105    20.491084      721.25349     -82.960558      638.29293    
   5880000   294.78545      0.050123105    20.665753      731.37083     -83.718254      647.65258    
   5881000   319.34512      0.050123105    26.443515      792.30404     -86.16023       706.14381    
   5882000   307.03583      0.050123105    20.998379      761.76436     -88.689052      673.07531    
   5883000   294.19254      0.050123105    22.194056      729.89979     -84.696345      645.20345    
   5884000   296.882        0.050123105    33.051324      736.57242     -77.941789      658.63063    
   5885000   296.11725      0.050123105    23.827818      734.67506     -79.212184      655.46287    
   5886000   280.11474      0.050123105    24.600884      694.97239     -73.806397      621.16599    
   5887000   306.89563      0.050123105    24.952148      761.41653     -85.075377      676.34115    
   5888000   310.00764      0.050123105    34.952229      769.13751     -76.873526      692.26398    
   5889000   301.08605      0.050123105    23.457695      747.0028      -82.447544      664.55525    
   5890000   299.38374      0.050123105    24.615749      742.77932     -79.711743      663.06758    
   5891000   297.32188      0.050123105    27.598616      737.66378     -78.169657      659.49412    
   5892000   301.52568      0.050123105    25.146449      748.09352     -71.124877      676.96864    
   5893000   300.58171      0.050123105    22.060254      745.75151     -76.038329      669.71318    
   5894000   304.80953      0.050123105    15.360872      756.24085     -80.677706      675.56314    
   5895000   293.53809      0.050123105    24.499502      728.2761      -78.292248      649.98385    
   5896000   296.33487      0.050123105    29.008886      735.21499     -81.484097      653.73089    
   5897000   300.96252      0.050123105    23.192701      746.69631     -76.041851      670.65446    
   5898000   302.42355      0.050123105    35.603693      750.32116     -73.906232      676.41492    
   5899000   326.8515       0.050123105    32.415596      810.92758     -72.645341      738.28223    
   5900000   306.00388      0.050123105    27.111788      759.20407     -77.758641      681.44543    
   5901000   296.12601      0.050123105    21.495075      734.69679     -73.865043      660.83175    
   5902000   293.22863      0.050123105    20.8993        727.50832     -77.56739       649.94093    
   5903000   309.01126      0.050123105    37.955031      766.66546     -74.030499      692.63496    
   5904000   307.65769      0.050123105    18.627654      763.30722     -79.428644      683.87857    
   5905000   298.19621      0.050123105    20.460012      739.83301     -86.147117      653.68589    
   5906000   289.93925      0.050123105    14.008604      719.34728     -91.198314      628.14896    
   5907000   309.64001      0.050123105    38.335658      768.2254      -90.857068      677.36833    
   5908000   301.58834      0.050123105    25.29118       748.24899     -88.628282      659.62071    
   5909000   311.63741      0.050123105    1.4744709      773.18101     -84.39698       688.78403    
   5910000   284.19001      0.050123105    25.276489      705.08326     -77.299585      627.78367    
   5911000   294.60279      0.050123105    35.999003      730.91765     -78.577491      652.34016    
   5912000   297.1796       0.050123105   -26.240763      737.31077     -78.628792      658.68198    
   5913000   298.6306       0.050123105    37.693036      740.91074     -76.954282      663.95646    
   5914000   294.49386      0.050123105    58.212656      730.64737     -78.692119      651.95525    
   5915000   296.55888      0.050123105    65.064542      735.77076     -86.647046      649.12371    
   5916000   311.06947      0.050123105    44.915274      771.77192     -89.442928      682.32899    
   5917000   288.94602      0.050123105    9.5704517      716.88304     -80.021084      636.86195    
   5918000   294.3898       0.050123105    35.207404      730.38921     -84.784854      645.60436    
   5919000   306.78917      0.050123105    26.633915      761.15239     -81.153118      679.99927    
   5920000   300.96113      0.050123105    21.464443      746.69285     -82.937496      663.75535    
   5921000   280.76685      0.050123105    24.541587      696.59029     -86.364041      610.22625    
   5922000   297.61398      0.050123105    22.609691      738.3885      -85.79938       652.58912    
   5923000   289.00944      0.050123105    18.636266      717.04039     -92.635787      624.40461    
   5924000   302.85525      0.050123105    25.513475      751.39223     -83.035461      668.35676    
   5925000   312.48384      0.050123105    24.256118      775.28101     -87.028242      688.25277    
   5926000   309.41398      0.050123105    25.581566      767.66462     -91.928458      675.73616    
   5927000   293.49897      0.050123105    28.17893       728.17903     -94.037631      634.1414     
   5928000   298.4949       0.050123105    24.414979      740.57408     -87.375988      653.19809    
   5929000   305.54217      0.050123105    20.53655       758.05855     -85.177574      672.88097    
   5930000   291.49248      0.050123105    30.285445      723.20087     -86.703245      636.49763    
   5931000   302.44979      0.050123105    22.506396      750.38627     -83.630053      666.75622    
   5932000   308.39851      0.050123105    25.630596      765.14521     -81.261923      683.88329    
   5933000   298.92359      0.050123105    23.96806       741.63766     -85.268405      656.36925    
   5934000   305.18492      0.050123105    25.399684      757.1722      -83.181717      673.99048    
   5935000   309.42896      0.050123105    26.056971      767.70179     -82.147109      685.55468    
   5936000   295.81789      0.050123105    23.142599      733.93235     -81.570118      652.36223    
   5937000   293.07115      0.050123105    23.367883      727.11759     -83.601078      643.51651    
   5938000   305.54891      0.050123105    24.739189      758.07526     -84.471281      673.60398    
   5939000   289.28683      0.050123105    23.16226       717.7286      -86.389541      631.33906    
   5940000   304.29644      0.050123105    26.788881      754.96786     -80.353629      674.61423    
   5941000   307.92731      0.050123105    31.159773      763.97615     -83.331613      680.64453    
   5942000   308.0299       0.050123105    26.874141      764.23066     -76.661444      687.56922    
   5943000   285.46503      0.050123105    21.917229      708.24661     -80.002836      628.24377    
   5944000   305.38831      0.050123105    25.89597       757.67681     -81.692355      675.98445    
   5945000   304.7943       0.050123105    22.653897      756.20305     -91.600981      664.60207    
   5946000   280.48457      0.050123105    30.639586      695.88995     -83.493433      612.39652    
   5947000   300.2006       0.050123105    23.415503      744.80597     -93.159999      651.64597    
   5948000   306.7528       0.050123105    21.705085      761.06216     -87.202891      673.85927    
   5949000   296.8867       0.050123105    32.372097      736.5841      -86.116465      650.46763    
   5950000   301.51882      0.050123105    24.303954      748.07649     -89.527382      658.54911    
   5951000   289.51701      0.050123105    19.395673      718.29968     -87.089193      631.21049    
   5952000   303.4106       0.050123105    23.160216      752.77007     -88.534234      664.23584    
   5953000   304.49854      0.050123105    28.448579      755.46928     -90.539527      664.92975    
   5954000   297.91189      0.050123105    25.696662      739.12761     -89.318928      649.80868    
   5955000   301.89332      0.050123105    13.013969      749.00564     -83.748681      665.25696    
   5956000   297.27537      0.050123105    24.532426      737.5484      -84.114541      653.43386    
   5957000   299.67074      0.050123105    23.632315      743.49136     -85.434763      658.0566     
   5958000   293.92277      0.050123105    12.509734      729.23048     -77.426836      651.80365    
   5959000   294.99773      0.050123105    29.959855      731.89749     -86.740536      645.15695    
   5960000   305.50217      0.050123105    24.929378      757.95931     -82.272974      675.68634    
   5961000   287.53789      0.050123105   -5.4879277      713.38943     -85.227064      628.16237    
   5962000   299.16324      0.050123105    35.409103      742.23224     -77.372534      664.8597     
   5963000   300.42668      0.050123105    38.699003      745.36687     -80.308953      665.05791    
   5964000   309.6811       0.050123105    18.610913      768.32734     -75.101984      693.22536    
   5965000   297.88566      0.050123105    9.2352239      739.06253     -73.654495      665.40804    
   5966000   291.30432      0.050123105    32.94771       722.73404     -72.300874      650.43317    
   5967000   287.35232      0.050123105    52.539037      712.92902     -75.176105      637.75292    
   5968000   294.03037      0.050123105    41.285683      729.49744     -79.761392      649.73605    
   5969000   304.36669      0.050123105    33.976765      755.14214     -81.583586      673.55856    
   5970000   318.47238      0.050123105    15.780796      790.13874     -74.56318       715.57556    
   5971000   291.19643      0.050123105    7.6435478      722.46637     -75.920483      646.54589    
   5972000   295.61585      0.050123105    31.974401      733.43107     -82.47281       650.95826    
   5973000   295.20557      0.050123105    31.914829      732.41316     -81.77562       650.63754    
   5974000   297.10796      0.050123105    28.076197      737.13303     -78.151302      658.98173    
   5975000   299.21724      0.050123105    20.905919      742.36622     -80.226708      662.13951    
   5976000   299.82016      0.050123105    19.92032       743.86208     -82.832518      661.02956    
   5977000   304.40204      0.050123105    24.974188      755.22984     -86.120775      669.10907    
   5978000   293.03156      0.050123105    34.020416      727.01937     -77.974464      649.0449     
   5979000   311.74913      0.050123105    28.618712      773.45817     -80.972518      692.48566    
   5980000   313.2881       0.050123105    27.24945       777.27641     -80.311198      696.96521    
   5981000   296.32091      0.050123105    27.390959      735.18035     -84.679444      650.5009     
   5982000   285.5821       0.050123105    23.343367      708.53707     -79.360717      629.17635    
   5983000   301.2038       0.050123105    22.553869      747.29493     -79.871752      667.42318    
   5984000   299.04108      0.050123105    21.43014       741.92916     -72.092006      669.83715    
   5985000   289.64695      0.050123105    24.879084      718.62207     -72.548129      646.07394    
   5986000   304.68178      0.050123105    28.48633       755.9239      -71.316708      684.60719    
   5987000   303.68526      0.050123105    26.696972      753.45149     -70.404204      683.04729    
   5988000   297.05339      0.050123105    25.365109      736.99766     -73.714669      663.28299    
   5989000   289.52779      0.050123105    27.015569      718.32643     -78.113426      640.213      
   5990000   308.38095      0.050123105    14.340146      765.10164     -87.09239       678.00925    
   5991000   315.86298      0.050123105    23.814365      783.66477     -87.603181      696.06159    
   5992000   284.00363      0.050123105    32.831859      704.62083     -83.94816       620.67267    
   5993000   295.13424      0.050123105    22.629614      732.23617     -77.922473      654.3137     
   5994000   313.25993      0.050123105    26.502279      777.20651     -73.436542      703.76997    
   5995000   298.51282      0.050123105    25.590288      740.61855     -68.943714      671.67483    
   5996000   288.12261      0.050123105    23.525258      714.84014     -73.62395       641.21619    
   5997000   301.32849      0.050123105    30.006379      747.60429     -72.393199      675.21109    
   5998000   302.59471      0.050123105    26.941173      750.74581     -76.293955      674.45185    
   5999000   310.88779      0.050123105    17.60786       771.32118     -71.548351      699.77283    
   6000000   297.3229       0.050123105    21.570912      737.66631     -76.748133      660.91817    
   6001000   287.19318      0.050123105    30.31665       712.53419     -70.429825      642.10436    
   6002000   292.60944      0.050123105    23.064733      725.97208     -70.571732      655.40035    
   6003000   310.30805      0.050123105    25.74879       769.88283     -71.824487      698.05834    
   6004000   304.37282      0.050123105    25.063172      755.15737     -73.013349      682.14402    
   6005000   293.30226      0.050123105    25.997405      727.69098     -72.397157      655.29382    
   6006000   289.64901      0.050123105    22.342168      718.62718     -77.651474      640.9757     
   6007000   312.08343      0.050123105    25.919251      774.2876      -72.240026      702.04758    
   6008000   302.49948      0.050123105    22.521034      750.50955     -81.414497      669.09505    
   6009000   293.62939      0.050123105    17.848716      728.50261     -83.482572      645.02004    
   6010000   294.59228      0.050123105    24.352712      730.89158     -89.260823      641.63075    
   6011000   305.95304      0.050123105    28.175177      759.07793     -76.215199      682.86273    
   6012000   311.912        0.050123105    33.339261      773.86226     -77.831406      696.03086    
   6013000   294.30277      0.050123105    18.894136      730.17327     -74.084895      656.08838    
   6014000   293.7608       0.050123105    25.311349      728.82864     -82.543746      646.2849     
   6015000   326.04914      0.050123105    28.561312      808.93691     -77.641265      731.29565    
   6016000   311.38437      0.050123105    30.380906      772.55321     -80.98251       691.5707     
   6017000   292.4119       0.050123105    17.454568      725.48198     -79.072332      646.40965    
   6018000   294.2474       0.050123105    24.869219      730.03591     -81.300552      648.73536    
   6019000   305.00581      0.050123105    23.796691      756.72782     -86.972465      669.75535    
   6020000   295.12807      0.050123105    19.722901      732.22087     -82.939886      649.28098    
   6021000   294.90775      0.050123105    18.478061      731.67425     -76.654214      655.02004    
   6022000   317.51943      0.050123105    26.281571      787.77447     -77.254664      710.5198     
   6023000   298.12593      0.050123105    31.015139      739.65865     -77.676872      661.98178    
   6024000   281.46199      0.050123105   -1.0082871      698.31496     -74.391398      623.92357    
   6025000   302.16266      0.050123105    22.355956      749.67389     -78.40445       671.26944    
   6026000   308.8407       0.050123105    20.214256      766.2423      -74.744506      691.49779    
   6027000   300.5006       0.050123105    38.57056       745.55027     -71.711826      673.83844    
   6028000   304.20323      0.050123105    27.070663      754.7366      -78.829397      675.9072     
   6029000   302.58124      0.050123105    20.279648      750.71239     -84.321538      666.39085    
   6030000   307.70968      0.050123105    25.449737      763.4362      -80.514887      682.92132    
   6031000   293.06786      0.050123105    28.663401      727.10943     -81.330084      645.77935    
   6032000   299.623        0.050123105    49.800394      743.37292     -76.479105      666.89382    
   6033000   294.2713       0.050123105    14.234763      730.0952      -83.718155      646.37704    
   6034000   310.04259      0.050123105    32.056164      769.2242      -85.761936      683.46227    
   6035000   300.50306      0.050123105    26.165473      745.55637     -88.742294      656.81408    
   6036000   292.40639      0.050123105    9.0917873      725.46832     -87.792999      637.67532    
   6037000   297.03636      0.050123105    4.5114058      736.9554      -89.013368      647.94203    
   6038000   324.39701      0.050123105    1.5016422      804.83792     -84.967554      719.87037    
   6039000   309.20607      0.050123105    29.978245      767.14878     -83.917191      683.23159    
   6040000   295.26698      0.050123105    27.911212      732.56552     -77.93929       654.62623    
   6041000   289.96434      0.050123105    17.675888      719.40951     -79.826248      639.58327    
   6042000   314.56446      0.050123105    22.683139      780.4431      -77.50323       702.93987    
   6043000   290.73499      0.050123105    35.39093       721.32153     -75.832188      645.48934    
   6044000   292.88464      0.050123105    22.070194      726.65488     -76.54217       650.11271    
   6045000   307.88234      0.050123105    24.625387      763.86458     -72.740342      691.12424    
   6046000   294.72522      0.050123105    33.94005       731.22138     -71.737168      659.48422    
   6047000   292.22544      0.050123105    21.089033      725.01937     -72.414767      652.60461    
   6048000   296.39382      0.050123105    24.544007      735.36123     -71.934246      663.42698    
   6049000   304.64062      0.050123105    26.85198       755.82177     -71.700765      684.121      
   6050000   309.28184      0.050123105    26.717508      767.33678     -72.400241      694.93654    
   6051000   293.80761      0.050123105    24.290275      728.94478     -71.281786      657.66299    
   6052000   294.69166      0.050123105    31.446667      731.13812     -74.448475      656.68965    
   6053000   302.23241      0.050123105    25.359657      749.84694     -83.67396       666.17298    
   6054000   304.62407      0.050123105    25.770734      755.78072     -79.047673      676.73305    
   6055000   311.47723      0.050123105    29.637796      772.78358     -77.944336      694.83925    
   6056000   295.84494      0.050123105    21.909979      733.99945     -78.297892      655.70156    
   6057000   291.06746      0.050123105    25.936205      722.14639     -79.944816      642.20158    
   6058000   302.21107      0.050123105    26.906774      749.794       -78.33197       671.46203    
   6059000   311.57529      0.050123105    23.297769      773.02689     -79.568728      693.45816    
   6060000   291.91771      0.050123105    18.539444      724.25589     -79.325349      644.93054    
   6061000   287.36708      0.050123105    23.804043      712.96565     -74.360345      638.60531    
   6062000   292.22245      0.050123105    31.500222      725.01196     -84.670395      640.34156    
   6063000   319.08859      0.050123105    24.620285      791.66759     -89.305093      702.3625     
   6064000   301.78542      0.050123105    21.714884      748.73795     -91.556275      657.18167    
   6065000   288.95924      0.050123105    18.931939      716.91583     -85.048312      631.86752    
   6066000   307.54699      0.050123105    27.887234      763.03257     -85.561732      677.47083    
   6067000   296.02147      0.050123105    29.217874      734.43742     -87.35744       647.07998    
   6068000   297.25292      0.050123105    25.668491      737.49268     -86.011274      651.48141    
   6069000   308.53125      0.050123105    23.716624      765.47453     -83.003203      682.47133    
   6070000   291.38848      0.050123105    19.111289      722.94285     -79.895902      643.04695    
   6071000   304.55453      0.050123105    25.453716      755.60817     -77.056103      678.55207    
   6072000   296.18673      0.050123105    24.323459      734.84745     -85.189154      649.6583     
   6073000   302.77562      0.050123105    24.942534      751.19466     -86.186499      665.00816    
   6074000   298.22249      0.050123105    23.95512       739.89821     -79.919903      659.97831    
   6075000   296.06425      0.050123105    32.308049      734.54357     -82.771063      651.7725     
   6076000   295.90452      0.050123105    24.866223      734.14726     -78.705125      655.44214    
   6077000   310.28446      0.050123105    22.447156      769.8243      -82.477124      687.34718    
   6078000   301.96956      0.050123105    26.513107      749.19481     -77.467538      671.72727    
   6079000   286.1139       0.050123105    20.382638      709.85648     -86.979744      622.87674    
   6080000   306.01382      0.050123105    24.886521      759.22873     -89.314216      669.91452    
   6081000   315.38344      0.050123105    21.835521      782.47501     -86.657184      695.81783    
   6082000   306.59463      0.050123105    27.124465      760.66972     -85.582887      675.08683    
   6083000   291.22396      0.050123105    20.470271      722.53466     -93.459155      629.07551    
   6084000   299.88483      0.050123105    25.777522      744.02252     -90.285962      653.73656    
   6085000   303.91912      0.050123105    20.283464      754.03172     -91.905606      662.12612    
   6086000   309.52619      0.050123105    25.392917      767.94301     -81.82782       686.11519    
   6087000   289.76726      0.050123105    22.286809      718.92056     -87.802226      631.11834    
   6088000   289.82962      0.050123105    27.058399      719.07527     -86.146079      632.92919    
   6089000   305.10967      0.050123105    29.453353      756.98551     -83.995321      672.99018    
   6090000   309.49317      0.050123105    33.8682        767.86109     -80.244235      687.61686    
   6091000   309.77976      0.050123105    25.861466      768.57213     -81.469405      687.10272    
   6092000   294.13635      0.050123105    20.820229      729.7604      -82.325968      647.43443    
   6093000   289.91551      0.050123105    20.391668      719.28837     -84.330758      634.95762    
   6094000   299.0932       0.050123105    28.063606      742.05847     -84.714917      657.34355    
   6095000   304.33984      0.050123105    25.354302      755.07552     -83.209553      671.86597    
   6096000   307.50174      0.050123105    26.543098      762.92029     -85.747918      677.17238    
   6097000   299.5577       0.050123105    18.465535      743.2109      -86.55493       656.65597    
   6098000   291.06569      0.050123105    24.009775      722.14199     -85.887272      636.25472    
   6099000   303.68947      0.050123105    30.379221      753.46196     -83.882242      669.57971    
   6100000   312.20945      0.050123105    29.305242      774.60025     -85.296142      689.30411    
   6101000   301.71994      0.050123105   -3.6075061      748.57549     -89.103744      659.47174    
   6102000   290.93842      0.050123105    28.505393      721.82623     -85.136603      636.68963    
   6103000   303.94326      0.050123105    24.414035      754.0916      -84.68038       669.41122    
   6104000   303.89931      0.050123105    24.012559      753.98256     -84.040291      669.94227    
   6105000   298.60014      0.050123105    18.801613      740.83517     -83.899551      656.93562    
   6106000   304.3097       0.050123105    9.9813696      755.00075     -89.742242      665.25851    
   6107000   293.98154      0.050123105    27.717804      729.37631     -81.780969      647.59534    
   6108000   297.83635      0.050123105    44.327862      738.94019     -85.927334      653.01286    
   6109000   299.95138      0.050123105    25.461116      744.18765     -91.073846      653.1138     
   6110000   299.02981      0.050123105    19.273065      741.9012      -82.328271      659.57293    
   6111000   298.4081       0.050123105    25.016904      740.35872     -82.301596      658.05712    
   6112000   312.98618      0.050123105    31.963848      776.52735     -73.775683      702.75167    
   6113000   297.12772      0.050123105    15.05162       737.18206     -83.020649      654.16141    
   6114000   285.81671      0.050123105    21.373649      709.11913     -80.476849      628.64228    
   6115000   308.88008      0.050123105    41.894936      766.34        -83.237052      683.10295    
   6116000   300.47532      0.050123105    23.245598      745.48756     -80.40237       665.08519    
   6117000   288.76443      0.050123105    14.780079      716.43252     -82.678462      633.75405    
   6118000   299.179        0.050123105    28.49064       742.27134     -85.023583      657.24776    
   6119000   313.13002      0.050123105    25.02426       776.8842      -80.305356      696.57884    
   6120000   303.99688      0.050123105    22.119408      754.22464     -77.075597      677.14904    
   6121000   295.00018      0.050123105    26.30121       731.90358     -79.316417      652.58716    
   6122000   285.21071      0.050123105    38.243336      707.61564     -82.685553      624.93009    
   6123000   307.64899      0.050123105    26.194994      763.28562     -78.879009      684.40661    
   6124000   302.69203      0.050123105    16.960249      750.98726     -77.738966      673.24829    
   6125000   282.63176      0.050123105    25.464791      701.21719     -71.076797      630.14039    
   6126000   288.84313      0.050123105    19.919412      716.62777     -75.178772      641.449      
   6127000   320.15562      0.050123105    26.772799      794.31492     -77.948767      716.36616    
   6128000   302.25121      0.050123105    29.305199      749.89358     -81.942914      667.95067    
   6129000   295.28474      0.050123105    22.102189      732.60958     -83.399959      649.20962    
   6130000   283.94331      0.050123105    22.389167      704.47119     -87.877913      616.59328    
   6131000   294.01262      0.050123105    31.708629      729.45342     -80.265012      649.18841    
   6132000   316.53768      0.050123105    25.219892      785.33871     -80.978335      704.36037    
   6133000   304.88186      0.050123105    26.868065      756.4203      -81.127098      675.2932     
   6134000   288.73891      0.050123105    17.124902      716.3692      -84.441728      631.92748    
   6135000   297.73348      0.050123105    25.533354      738.68498     -83.052503      655.63247    
   6136000   305.84553      0.050123105    28.435724      758.8112      -85.752177      673.05902    
   6137000   312.55476      0.050123105    35.514388      775.45698     -88.392185      687.0648     
   6138000   306.28123      0.050123105    21.964949      759.89217     -89.161838      670.73033    
   6139000   298.4881       0.050123105    17.501611      740.55721     -89.116112      651.4411     
   6140000   308.08684      0.050123105    31.155684      764.37193     -85.087978      679.28396    
   6141000   299.00941      0.050123105    24.206926      741.85058     -94.748769      647.10181    
   6142000   302.13545      0.050123105    27.058623      749.60638     -90.670274      658.93611    
   6143000   301.5097       0.050123105    21.813192      748.05388     -93.114606      654.93928    
   6144000   292.21278      0.050123105    23.32195       724.98797     -92.350368      632.6376     
   6145000   306.90506      0.050123105    14.261294      761.43992     -86.434878      675.00504    
   6146000   310.93848      0.050123105    35.03604       771.44694     -92.376061      679.07088    
   6147000   292.78809      0.050123105    46.311189      726.41532     -91.587942      634.82738    
   6148000   296.99888      0.050123105    38.235144      736.86241     -93.16321       643.6992     
   6149000   300.10261      0.050123105    13.438506      744.56284     -88.598056      655.96478    
   6150000   318.65265      0.050123105    27.316902      790.58601     -76.080939      714.50507    
   6151000   287.81713      0.050123105    25.508924      714.08224     -79.79312       634.28912    
   6152000   299.12961      0.050123105    23.631256      742.1488      -78.939137      663.20967    
   6153000   314.21513      0.050123105    12.645782      779.57641     -79.71341       699.863      
   6154000   304.2717       0.050123105    54.275116      754.90649     -79.167703      675.73878    
   6155000   288.8419       0.050123105    34.357547      716.62471     -78.147902      638.4768     
   6156000   298.33788      0.050123105    23.993743      740.1845      -82.428034      657.75646    
   6157000   310.22625      0.050123105    19.798755      769.67989     -80.231283      689.44861    
   6158000   312.03384      0.050123105    25.480827      774.16457     -86.080304      688.08426    
   6159000   308.30876      0.050123105    27.772615      764.92253     -80.473435      684.4491     
   6160000   288.26837      0.050123105    22.192857      715.20177     -83.35257       631.8492     
   6161000   289.47637      0.050123105    23.077178      718.19886     -75.629797      642.56906    
   6162000   299.39319      0.050123105    25.164058      742.80277     -73.999739      668.80303    
   6163000   310.20524      0.050123105    26.450303      769.62776     -80.44785       689.17991    
   6164000   284.25595      0.050123105    23.219587      705.24685     -82.280369      622.96649    
   6165000   303.61752      0.050123105    17.596477      753.28344     -79.218485      674.06495    
   6166000   308.32035      0.050123105    7.6484336      764.95129     -76.015907      688.93539    
   6167000   299.82889      0.050123105    31.108901      743.88373     -84.18002       659.70371    
   6168000   302.01056      0.050123105    28.152303      749.29654     -83.008224      666.28831    
   6169000   295.07624      0.050123105    22.010339      732.0923      -78.38643       653.70587    
   6170000   301.65294      0.050123105    25.889037      748.40926     -71.395822      677.01344    
   6171000   314.71091      0.050123105    33.136177      780.80645     -70.014228      710.79223    
   6172000   289.69173      0.050123105    31.041072      718.73317     -76.589332      642.14384    
   6173000   285.38687      0.050123105    14.865392      708.05268     -63.768651      644.28403    
   6174000   291.49834      0.050123105    15.905533      723.21542     -71.658548      651.55687    
   6175000   302.35195      0.050123105    26.869883      750.14352     -74.293645      675.84988    
   6176000   304.13993      0.050123105    30.251819      754.57956     -73.196786      681.38278    
   6177000   294.37751      0.050123105    35.545881      730.35872     -65.931456      664.42726    
   6178000   292.1521       0.050123105    8.3327498      724.83741     -72.54528       652.29213    
   6179000   317.54648      0.050123105    22.993833      787.84156     -78.330778      709.51078    
   6180000   306.92611      0.050123105    38.579135      761.49214     -76.282799      685.20934    
   6181000   297.06284      0.050123105    30.238951      737.0211      -72.641919      664.37919    
   6182000   302.45215      0.050123105    21.465601      750.39213     -71.547294      678.84483    
   6183000   302.82944      0.050123105    32.692581      751.32818     -69.075527      682.25265    
   6184000   299.04488      0.050123105    15.429656      741.9386      -66.518574      675.42002    
   6185000   308.32837      0.050123105    25.14255       764.97118     -69.60605       695.36513    
   6186000   303.14482      0.050123105    28.771692      752.11064     -72.532805      679.57784    
   6187000   290.28318      0.050123105    19.885301      720.20056     -75.689894      644.51067    
   6188000   293.28324      0.050123105    23.509907      727.64381     -79.165144      648.47866    
   6189000   292.00296      0.050123105    32.857038      724.4674      -78.423298      646.04411    
   6190000   280.13513      0.050123105    10.513067      695.02298     -82.386965      612.63602    
   6191000   308.8343       0.050123105    29.121769      766.22642     -81.311268      684.91515    
   6192000   300.91842      0.050123105    26.693415      746.58691     -82.265934      664.32097    
   6193000   299.97296      0.050123105    11.980831      744.24119     -84.746894      659.49429    
   6194000   309.36498      0.050123105    18.21757       767.54304     -83.005763      684.53728    
   6195000   297.0668       0.050123105    22.31539       737.03091     -84.812532      652.21838    
   6196000   300.13861      0.050123105    23.554454      744.65217     -79.522587      665.12959    
   6197000   294.88662      0.050123105    22.862848      731.62184     -80.364574      651.25726    
   6198000   299.70542      0.050123105    24.373998      743.57741     -82.000872      661.57654    
   6199000   303.1628       0.050123105    22.541556      752.15527     -86.259585      665.89569    
   6200000   288.94055      0.050123105    13.782788      716.86947     -79.642406      637.22706    
   6201000   309.35683      0.050123105    23.896733      767.52282     -84.145362      683.37746    
   6202000   297.42623      0.050123105    29.228264      737.92268     -84.130363      653.79231    
   6203000   303.79447      0.050123105    25.353181      753.72245     -82.828292      670.89416    
   6204000   297.61681      0.050123105    14.746415      738.3955      -82.178218      656.21728    
   6205000   299.11118      0.050123105    30.959977      742.10309     -80.049616      662.05348    
   6206000   303.52271      0.050123105    25.864018      753.04821     -84.445446      668.60276    
   6207000   293.12799      0.050123105    9.2918314      727.25863     -79.186551      648.07207    
   6208000   294.36892      0.050123105    24.017006      730.33739     -81.354125      648.98327    
   6209000   301.90553      0.050123105    24.727799      749.03595     -82.468489      666.56746    
   6210000   307.27556      0.050123105    28.260567      762.35914     -81.794602      680.56454    
   6211000   296.41777      0.050123105    31.564399      735.42066     -84.280423      651.14024    
   6212000   297.75652      0.050123105    25.406209      738.74212     -80.979701      657.76242    
   6213000   301.23626      0.050123105    24.268359      747.37547     -84.183978      663.19149    
   6214000   298.53506      0.050123105    24.967258      740.67371     -91.781438      648.89228    
   6215000   296.09246      0.050123105    25.481922      734.61355     -95.060873      639.55267    
   6216000   307.23295      0.050123105    23.903906      762.25342     -93.297916      668.95551    
   6217000   304.66475      0.050123105    28.086355      755.88163     -91.883296      663.99834    
   6218000   286.00066      0.050123105    21.744455      709.57552     -88.558148      621.01737    
   6219000   291.54137      0.050123105    31.104409      723.32217     -87.872167      635.45       
   6220000   306.33895      0.050123105    27.992244      760.03537     -79.983063      680.05231    
   6221000   300.77926      0.050123105    25.711531      746.24164     -78.888487      667.35315    
   6222000   300.47785      0.050123105    23.95008       745.49383     -83.858485      661.63534    
   6223000   300.41241      0.050123105    25.070628      745.33148     -87.359349      657.97213    
   6224000   322.48806      0.050123105    27.237981      800.10177     -88.415374      711.6864     
   6225000   296.81699      0.050123105    31.730013      736.41113     -89.395838      647.01529    
   6226000   289.58122      0.050123105    23.812577      718.45899     -97.918444      620.54054    
   6227000   305.65228      0.050123105    20.502676      758.33173     -95.583977      662.74775    
   6228000   315.20268      0.050123105    26.941818      782.02655     -90.626591      691.39996    
   6229000   295.25529      0.050123105    11.329223      732.53653     -87.733948      644.80258    
   6230000   289.16157      0.050123105    25.576405      717.41782     -83.209347      634.20847    
   6231000   278.02855      0.050123105    22.434035      689.79649     -86.169513      603.62697    
   6232000   303.8259       0.050123105    27.495775      753.80043     -79.941144      673.85929    
   6233000   310.14814      0.050123105    15.077769      769.48609     -81.207092      688.279      
   6234000   294.4488       0.050123105    23.49858       730.53559     -82.159769      648.37582    
   6235000   294.67493      0.050123105    27.959152      731.09663     -85.550157      645.54648    
   6236000   312.42554      0.050123105    26.908851      775.13637     -78.869319      696.26705    
   6237000   304.75335      0.050123105    8.3565254      756.10147     -80.097213      676.00426    
   6238000   289.56002      0.050123105    24.065863      718.40638     -81.09683       637.30955    
   6239000   304.58484      0.050123105    37.278594      755.68337     -77.039354      678.64402    
   6240000   310.84822      0.050123105    25.701775      771.22299     -67.171596      704.0514     
   6241000   310.17374      0.050123105    16.280832      769.54961     -71.72844       697.82117    
   6242000   286.88828      0.050123105    27.620146      711.77773     -71.470638      640.3071     
   6243000   302.3582       0.050123105    34.164536      750.15903     -66.223322      683.9357     
   6244000   304.39689      0.050123105    23.758191      755.21706     -67.94382       687.27324    
   6245000   288.56436      0.050123105    17.812723      715.93612     -70.439653      645.49647    
   6246000   294.25837      0.050123105    19.521065      730.06312     -72.355429      657.70769    
   6247000   308.13796      0.050123105    27.527149      764.49878     -67.734163      696.76462    
   6248000   308.23137      0.050123105    26.194022      764.73052     -76.092528      688.63799    
   6249000   295.77745      0.050123105    28.420745      733.83201     -70.794615      663.03739    
   6250000   297.78389      0.050123105    22.038294      738.81004     -76.312047      662.49799    
   6251000   302.57219      0.050123105    22.661667      750.68995     -76.593852      674.0961     
   6252000   317.63865      0.050123105    26.501062      788.07025     -83.06691       705.00334    
   6253000   298.5192       0.050123105    31.549816      740.63437     -85.756371      654.878      
   6254000   312.28104      0.050123105    25.016561      774.77787     -81.434666      693.34321    
   6255000   301.24302      0.050123105    24.933227      747.39224     -87.889282      659.50296    
   6256000   301.008        0.050123105    20.434822      746.80914     -86.111862      660.69728    
   6257000   310.23576      0.050123105    22.967609      769.70348     -82.126115      687.57737    
   6258000   298.71064      0.050123105    29.594642      741.10933     -83.535231      657.5741     
   6259000   280.60741      0.050123105    24.409222      696.19471     -87.300959      608.89375    
   6260000   308.2436       0.050123105    30.233468      764.76087     -76.425371      688.3355     
   6261000   307.8011       0.050123105    27.399482      763.66302     -73.166031      690.49699    
   6262000   293.40164      0.050123105    21.280612      727.93756     -75.837378      652.10018    
   6263000   293.19774      0.050123105    21.930294      727.43168     -79.662772      647.76891    
   6264000   305.15774      0.050123105    29.564883      757.10475     -86.033811      671.07094    
   6265000   311.13527      0.050123105    28.009119      771.93519     -89.81802       682.11717    
   6266000   291.29716      0.050123105    27.283057      722.71628     -84.593238      638.12304    
   6267000   288.80038      0.050123105    22.764137      716.5217      -77.56723       638.95447    
   6268000   304.07069      0.050123105    25.861136      754.40775     -85.672027      668.73573    
   6269000   317.02562      0.050123105    16.639199      786.54931     -87.542762      699.00655    
   6270000   308.80125      0.050123105    25.494407      766.14441     -88.82363       677.32078    
   6271000   290.17164      0.050123105    23.81374       719.92384     -85.914815      634.00903    
   6272000   306.17222      0.050123105    29.217779      759.62172     -84.801036      674.82068    
   6273000   314.3069       0.050123105    28.597037      779.80408     -79.927716      699.87636    
   6274000   289.52387      0.050123105    29.844494      718.3167      -82.174426      636.14228    
   6275000   289.99957      0.050123105    30.490027      719.49693     -85.781737      633.7152     
   6276000   296.88469      0.050123105    24.631797      736.5791      -74.532558      662.04655    
   6277000   308.92859      0.050123105    23.190423      766.46035     -79.833232      686.62711    
   6278000   303.88852      0.050123105    21.171953      753.9558      -79.340449      674.61535    
   6279000   294.19569      0.050123105    24.702081      729.90761     -87.7174        642.19021    
   6280000   306.21902      0.050123105    31.705571      759.73784     -91.249339      668.4885     
   6281000   308.43022      0.050123105    25.618466      765.22387     -86.344159      678.87971    
   6282000   311.17114      0.050123105    31.018898      772.02417     -87.923917      684.10025    
   6283000   300.16242      0.050123105    24.608221      744.71123     -86.093014      658.61822    
   6284000   288.282        0.050123105    24.226759      715.23559     -87.897343      627.33825    
   6285000   286.47236      0.050123105    21.787737      710.74583     -82.838345      627.90748    
   6286000   305.86441      0.050123105    23.505227      758.85804     -87.876179      670.98186    
   6287000   306.15471      0.050123105    30.10727       759.57826     -89.491723      670.08654    
   6288000   306.85416      0.050123105    29.314703      761.31363     -86.406988      674.90664    
   6289000   296.71482      0.050123105    16.406001      736.15765     -87.860928      648.29672    
   6290000   304.47191      0.050123105    30.577263      755.40319     -83.059676      672.34351    
   6291000   300.31838      0.050123105    33.92217       745.09817     -89.260091      655.83808    
   6292000   297.99155      0.050123105    21.423307      739.32526     -88.726772      650.59849    
   6293000   296.14534      0.050123105    24.794028      734.74474     -85.047269      649.69747    
   6294000   299.26428      0.050123105    27.030747      742.48293     -82.291369      660.19156    
   6295000   310.08591      0.050123105    23.669844      769.33169     -76.874857      692.45684    
   6296000   312.98149      0.050123105    27.818686      776.51571     -79.623985      696.89173    
   6297000   308.15128      0.050123105    20.493944      764.53182     -76.971573      687.56025    
   6298000   287.23531      0.050123105    19.944151      712.63872     -73.868691      638.77003    
   6299000   293.27936      0.050123105    34.779174      727.63419     -71.773941      655.86025    
   6300000   297.00105      0.050123105    45.749725      736.8678      -85.695387      651.17241    
   6301000   302.83759      0.050123105    34.368035      751.34842     -84.427105      666.92132    
   6302000   308.6294       0.050123105    24.477812      765.71805     -86.739923      678.97813    
   6303000   308.85888      0.050123105    21.375422      766.28739     -82.906826      683.38056    
   6304000   292.80581      0.050123105    21.629916      726.45928     -85.332149      641.12713    
   6305000   300.58689      0.050123105    28.50821       745.76436     -84.678116      661.08625    
   6306000   305.81644      0.050123105    12.211626      758.73902     -87.580768      671.15825    
   6307000   307.51128      0.050123105    17.793627      762.94396     -89.591804      673.35215    
   6308000   292.7237       0.050123105    18.361897      726.25556     -92.192604      634.06295    
   6309000   299.88549      0.050123105    31.858886      744.02417     -88.751892      655.27228    
   6310000   305.38584      0.050123105    13.586305      757.67068     -96.978349      660.69233    
   6311000   298.55203      0.050123105    26.265196      740.71581     -97.46593       643.24988    
   6312000   302.56815      0.050123105    44.378206      750.67991     -89.439051      661.24086    
   6313000   301.61349      0.050123105    16.323023      748.31137     -87.931653      660.37972    
   6314000   300.94221      0.050123105    23.02487       746.64591     -81.847785      664.79813    
   6315000   281.60598      0.050123105    28.308047      698.67221     -79.490876      619.18133    
   6316000   294.25769      0.050123105    24.947739      730.06144     -81.669985      648.39145    
   6317000   299.01465      0.050123105    35.255957      741.86358     -77.80079       664.06279    
   6318000   317.56461      0.050123105    13.420822      787.88656     -86.314677      701.57188    
   6319000   311.74666      0.050123105    23.15057       773.45206     -90.107209      683.34485    
   6320000   298.75918      0.050123105    7.6896793      741.22975     -83.929297      657.30045    
   6321000   293.82558      0.050123105    26.974099      728.98935     -81.465711      647.52364    
   6322000   306.83255      0.050123105    32.79326       761.26001     -79.138127      682.12189    
   6323000   299.07246      0.050123105    13.004715      742.00702     -76.40114       665.60588    
   6324000   289.17836      0.050123105    32.465159      717.45947     -73.950529      643.50894    
   6325000   302.35163      0.050123105    35.919741      750.14273     -73.875346      676.26739    
   6326000   308.46841      0.050123105   -4.28817        765.31864     -77.454333      687.86431    
   6327000   292.74399      0.050123105    31.994509      726.30592     -70.392762      655.91316    
   6328000   293.9054       0.050123105    34.08999       729.18741     -83.254885      645.93252    
   6329000   309.3291       0.050123105    25.759562      767.45402     -89.009273      678.44475    
   6330000   305.63681      0.050123105    27.553649      758.29336     -88.997067      669.29629    
   6331000   316.64868      0.050123105    31.605204      785.6141      -85.836245      699.77786    
   6332000   293.82678      0.050123105    24.574928      728.99233     -84.407517      644.58481    
   6333000   306.50969      0.050123105    19.989902      760.459       -77.982348      682.47665    
   6334000   306.13596      0.050123105    23.383779      759.53176     -87.512571      672.01919    
   6335000   296.2575       0.050123105    45.43266       735.02302     -81.000984      654.02204    
   6336000   304.86131      0.050123105    28.082604      756.36931     -86.36351       670.0058     
   6337000   299.32553      0.050123105    19.382535      742.6349      -82.436484      660.19841    
   6338000   296.36936      0.050123105    39.241094      735.30056     -76.316147      658.98441    
   6339000   298.67112      0.050123105    27.243027      741.01128     -80.178891      660.83239    
   6340000   307.26618      0.050123105    22.23419       762.33586     -77.771039      684.56482    
   6341000   294.78709      0.050123105    18.04361       731.37489     -80.974529      650.40036    
   6342000   301.84302      0.050123105    45.916861      748.88085     -76.246525      672.63432    
   6343000   302.67         0.050123105    23.06901       750.93262     -78.58584       672.34678    
   6344000   288.83011      0.050123105    28.317854      716.59546     -76.437619      640.15785    
   6345000   292.74395      0.050123105    41.526244      726.30581     -77.807397      648.49841    
   6346000   299.42825      0.050123105    21.932272      742.88974     -85.877719      657.01202    
   6347000   287.58603      0.050123105    27.848192      713.50887     -76.37921       637.12966    
   6348000   294.73982      0.050123105    29.931843      731.25763     -78.274558      652.98307    
   6349000   313.296        0.050123105    27.032448      777.29602     -78.996783      698.29924    
   6350000   288.78261      0.050123105    28.611239      716.47762     -73.550993      642.92662    
   6351000   287.80759      0.050123105    22.575702      714.05857     -71.406947      642.65162    
   6352000   297.54199      0.050123105    26.216498      738.20987     -75.035416      663.17445    
   6353000   310.62641      0.050123105    25.191043      770.67268     -71.570611      699.10207    
   6354000   282.35496      0.050123105    23.308142      700.53043     -66.850533      633.6799     
   6355000   282.18151      0.050123105    28.176897      700.10011     -80.286448      619.81366    
   6356000   294.62379      0.050123105    15.708307      730.96974     -78.183891      652.78585    
   6357000   311.36333      0.050123105    32.602606      772.50101     -80.634527      691.86649    
   6358000   283.00183      0.050123105    17.267951      702.13534     -78.450803      623.68454    
   6359000   292.83941      0.050123105    18.088476      726.54266     -75.930003      650.61266    
   6360000   312.5223       0.050123105    35.45677       775.37645     -74.556308      700.82014    
   6361000   298.79492      0.050123105    29.669532      741.31843     -74.803985      666.51444    
   6362000   297.18121      0.050123105    19.609527      737.31477     -76.893953      660.42082    
   6363000   309.96885      0.050123105    16.122484      769.04127     -71.607067      697.43421    
   6364000   307.80318      0.050123105    25.737236      763.66818     -73.838841      689.82934    
   6365000   296.30046      0.050123105    30.577957      735.1296      -79.591399      655.5382     
   6366000   292.12123      0.050123105    22.873694      724.76083     -74.469956      650.29087    
   6367000   310.31662      0.050123105    24.754331      769.9041      -74.162136      695.74196    
   6368000   295.26785      0.050123105    18.29593       732.56767     -74.323882      658.24379    
   6369000   287.59713      0.050123105    20.020088      713.5364      -74.238061      639.29834    
   6370000   306.09118      0.050123105    21.044088      759.42064     -75.815168      683.60547    
   6371000   301.82687      0.050123105    27.232089      748.84078     -75.477249      673.36353    
   6372000   305.15645      0.050123105    29.885908      757.10157     -73.693888      683.40768    
   6373000   304.00439      0.050123105    26.654357      754.24327     -86.872238      667.37103    
   6374000   296.04208      0.050123105    18.516919      734.48855     -80.481887      654.00666    
   6375000   299.26809      0.050123105    30.562351      742.49239     -83.887231      658.60516    
   6376000   319.70677      0.050123105    25.208837      793.20132     -84.63079       708.57053    
   6377000   298.03331      0.050123105    17.677097      739.42886     -94.107221      645.32163    
   6378000   292.31925      0.050123105    23.357224      725.25212     -90.752344      634.49977    
   6379000   295.84627      0.050123105    26.814275      734.00275     -82.866293      651.13645    
   6380000   298.48133      0.050123105    25.931254      740.54041     -81.222126      659.31828    
   6381000   301.33372      0.050123105    18.787418      747.61728     -82.478564      665.13871    
   6382000   299.98847      0.050123105    29.197747      744.27966     -85.569142      658.71052    
   6383000   292.71087      0.050123105    26.566791      726.22375     -85.926653      640.29709    
   6384000   311.41404      0.050123105    31.251277      772.62683     -78.317867      694.30896    
   6385000   304.96352      0.050123105    20.811299      756.62291     -76.590817      680.03209    
   6386000   285.69055      0.050123105    26.520167      708.80612     -77.513082      631.29304    
   6387000   295.85448      0.050123105    26.26441       734.02313     -78.976353      655.04678    
   6388000   300.89644      0.050123105    20.498724      746.53236     -76.912081      669.62028    
   6389000   306.11873      0.050123105    26.317476      759.48901     -75.266035      684.22297    
   6390000   318.27513      0.050123105    28.96219       789.64937     -78.119245      711.53012    
   6391000   312.38582      0.050123105    32.78621       775.03784     -80.667403      694.37043    
   6392000   305.77785      0.050123105    29.277557      758.64326     -76.911958      681.73131    
   6393000   278.52597      0.050123105    21.25532       691.03061     -80.978815      610.05179    
   6394000   314.62322      0.050123105    24.177476      780.58887     -76.275719      704.31315    
   6395000   294.15067      0.050123105    32.598914      729.79592     -76.116009      653.67991    
   6396000   296.02252      0.050123105    24.64518       734.44004     -80.585877      653.85416    
   6397000   309.45457      0.050123105    14.238544      767.76532     -79.733349      688.03197    
   6398000   306.31852      0.050123105    31.284451      759.9847      -76.023605      683.96109    
   6399000   291.64615      0.050123105    34.016566      723.58214     -71.397778      652.18436    
   6400000   292.74475      0.050123105    23.340387      726.3078      -72.759775      653.54802    
   6401000   301.90509      0.050123105    25.516565      749.03484     -71.485592      677.54925    
   6402000   300.44739      0.050123105    25.162542      745.41827     -70.269298      675.14897    
   6403000   298.41317      0.050123105    25.832811      740.3713      -70.631368      669.73993    
   6404000   299.60065      0.050123105    28.929068      743.31746     -74.727713      668.58975    
   6405000   310.08187      0.050123105    25.675369      769.32166     -72.417296      696.90436    
   6406000   292.94456      0.050123105    24.544738      726.80353     -73.108395      653.69514    
   6407000   296.62144      0.050123105    26.205496      735.92598     -76.48401       659.44197    
   6408000   317.19179      0.050123105    34.388732      786.96158     -69.280286      717.6813     
   6409000   310.57643      0.050123105    25.519976      770.54869     -75.650108      694.89858    
   6410000   297.42728      0.050123105    23.536995      737.92529     -74.780062      663.14523    
   6411000   295.93427      0.050123105    29.426304      734.22108     -80.073192      654.14788    
   6412000   307.62822      0.050123105    27.04509       763.23408     -77.259909      685.97418    
   6413000   307.65157      0.050123105    22.060323      763.29203     -83.849983      679.44205    
   6414000   285.46598      0.050123105    25.048846      708.24896     -78.909645      629.33931    
   6415000   297.68693      0.050123105    25.602116      738.56947     -84.983857      653.58561    
   6416000   295.16785      0.050123105    15.256087      732.31956     -81.71329       650.60627    
   6417000   295.5786       0.050123105    24.901099      733.33865     -79.566415      653.77224    
   6418000   287.01113      0.050123105    26.734031      712.08252     -81.559353      630.52317    
   6419000   302.75695      0.050123105    30.102064      751.14833     -79.40263       671.7457     
   6420000   315.86157      0.050123105    23.769281      783.66126     -78.514641      705.14662    
   6421000   299.36984      0.050123105    26.182405      742.74482     -83.298248      659.44657    
   6422000   291.73648      0.050123105    27.807939      723.80625     -83.675492      640.13076    
   6423000   298.67158      0.050123105    23.714339      741.01243     -83.236577      657.77585    
   6424000   310.12547      0.050123105    26.774329      769.42985     -80.248302      689.18155    
   6425000   311.09452      0.050123105    26.097553      771.83408     -82.010745      689.82334    
   6426000   285.33316      0.050123105    24.721307      707.91944     -75.556102      632.36334    
   6427000   297.19657      0.050123105    23.147413      737.35289     -78.273707      659.07919    
   6428000   311.23563      0.050123105    25.196459      772.18417     -77.228123      694.95605    
   6429000   306.40709      0.050123105    27.11055       760.20444     -81.350683      678.85375    
   6430000   287.17404      0.050123105    25.043505      712.4867      -85.634499      626.8522     
   6431000   296.37625      0.050123105    21.067864      735.31764     -84.993629      650.32401    
   6432000   320.27803      0.050123105    20.180643      794.61863     -67.923316      726.69531    
   6433000   316.21456      0.050123105    36.748581      784.53703     -70.95396       713.58307    
   6434000   295.88645      0.050123105    32.330578      734.10243     -82.192383      651.91005    
   6435000   297.79342      0.050123105    21.813132      738.83368     -75.698652      663.13503    
   6436000   298.02954      0.050123105    8.9001464      739.4195      -70.911838      668.50766    
   6437000   300.32039      0.050123105    26.594129      745.10317     -72.905358      672.19781    
   6438000   323.18048      0.050123105    54.681732      801.81969     -68.844487      732.9752     
   6439000   288.07982      0.050123105    35.079338      714.73397     -61.115189      653.61878    
   6440000   300.14773      0.050123105    17.962284      744.67478     -62.813996      681.86079    
   6441000   299.71417      0.050123105    24.263427      743.59911     -60.456455      683.14266    
   6442000   292.98916      0.050123105    36.228277      726.91419     -62.035141      664.87905    
   6443000   297.22289      0.050123105    22.897962      737.41817     -62.078538      675.33964    
   6444000   299.19059      0.050123105    25.33681       742.3001      -63.280419      679.01968    
   6445000   296.78752      0.050123105    23.669494      736.33802     -69.67053       666.66749    
   6446000   304.44512      0.050123105    26.700267      755.33674     -69.279585      686.05716    
   6447000   290.62397      0.050123105    21.230395      721.04607     -69.682847      651.36322    
   6448000   299.64081      0.050123105    25.246204      743.41712     -69.903178      673.51394    
   6449000   305.29669      0.050123105    22.181771      757.44951     -71.498192      685.95132    
   6450000   303.63791      0.050123105    26.561216      753.33402     -74.630084      678.70394    
   6451000   293.67755      0.050123105    23.08557       728.62211     -83.405047      645.21706    
   6452000   291.2333       0.050123105    25.642671      722.55784     -75.737808      646.82003    
   6453000   318.79701      0.050123105    26.266314      790.94418     -76.676658      714.26752    
   6454000   308.22842      0.050123105    24.530488      764.72321     -73.386778      691.33643    
   6455000   292.09455      0.050123105    25.944907      724.69462     -75.220301      649.47432    
   6456000   294.69739      0.050123105    21.038583      731.15234     -79.4454        651.70694    
   6457000   304.01619      0.050123105    13.82651       754.27255     -75.551111      678.72144    
   6458000   311.33348      0.050123105    27.418124      772.42696     -72.366423      700.06053    
   6459000   296.24987      0.050123105    32.467671      735.0041      -73.267376      661.73673    
   6460000   296.51763      0.050123105    24.028077      735.66842     -75.015463      660.65296    
   6461000   305.43681      0.050123105    22.969702      757.79715     -70.023145      687.774      
   6462000   303.5076       0.050123105    31.667388      753.01073     -71.879351      681.13138    
   6463000   305.1204       0.050123105    22.009225      757.01213     -76.622049      680.39008    
   6464000   299.60442      0.050123105    21.081401      743.32684     -74.372426      668.95441    
   6465000   301.45482      0.050123105    39.707739      747.91771     -73.091239      674.82647    
   6466000   295.24659      0.050123105    30.567376      732.51492     -77.983361      654.53156    
   6467000   304.19021      0.050123105    17.058394      754.70428     -72.628713      682.07557    
   6468000   285.41871      0.050123105    24.311686      708.1317      -78.424056      629.70764    
   6469000   292.72768      0.050123105    21.588996      726.26545     -82.099581      644.16587    
   6470000   294.64932      0.050123105    23.296187      731.03309     -80.198207      650.83488    
   6471000   306.57331      0.050123105    46.859642      760.61682     -82.508255      678.10857    
   6472000   310.04036      0.050123105    24.079582      769.21868     -88.176577      681.0421     
   6473000   291.99552      0.050123105    17.352053      724.44894     -92.465533      631.98341    
   6474000   307.4641       0.050123105    36.593733      762.8269      -86.555046      676.27185    
   6475000   311.96618      0.050123105    28.547144      773.99669     -91.94772       682.04897    
   6476000   298.54295      0.050123105    21.134353      740.69329     -79.217761      661.47553    
   6477000   289.87893      0.050123105    35.492052      719.1976      -77.389028      641.80858    
   6478000   306.36827      0.050123105    29.649066      760.10813     -74.517758      685.59038    
   6479000   311.50234      0.050123105    19.829529      772.84589     -80.524219      692.32167    
   6480000   300.97144      0.050123105    16.276499      746.71844     -81.060755      665.65769    
   6481000   298.70521      0.050123105    34.347782      741.09585     -84.20555       656.8903     
   6482000   304.28039      0.050123105    26.418647      754.92803     -77.142891      677.78514    
   6483000   298.06105      0.050123105    18.391124      739.49769     -85.82841       653.66928    
   6484000   288.36564      0.050123105    33.48487       715.4431      -81.420355      634.02274    
   6485000   304.34888      0.050123105    27.485795      755.09796     -86.216931      668.88103    
   6486000   299.93867      0.050123105    3.3219769      744.15611     -75.119167      669.03694    
   6487000   291.37741      0.050123105    24.729979      722.91539     -79.848956      643.06644    
   6488000   302.17493      0.050123105    30.149459      749.70434     -76.588867      673.11547    
   6489000   312.74889      0.050123105    27.629521      775.93861     -81.467425      694.47119    
   6490000   302.61225      0.050123105    20.452153      750.78933     -85.565132      665.2242     
   6491000   282.8031       0.050123105    20.672665      701.64228     -79.204346      622.43794    
   6492000   297.32261      0.050123105    24.110615      737.6656      -84.797097      652.8685     
   6493000   309.89266      0.050123105    25.364138      768.85223     -86.663115      682.18912    
   6494000   299.80666      0.050123105    24.264217      743.82859     -86.238673      657.58992    
   6495000   281.93177      0.050123105    24.209975      699.48049     -78.759202      620.72129    
   6496000   308.52885      0.050123105    21.39702       765.46858     -79.167931      686.30065    
   6497000   301.3713       0.050123105    25.763081      747.71049     -81.051404      666.65909    
   6498000   292.75261      0.050123105    28.60199       726.32729     -75.360237      650.96706    
   6499000   310.19987      0.050123105    25.551908      769.61444     -78.470805      691.14363    
   6500000   307.30798      0.050123105    23.272545      762.43957     -83.931475      678.50809    
   6501000   300.23056      0.050123105    38.726525      744.88029     -87.149172      657.73112    
   6502000   304.89415      0.050123105    32.840054      756.45078     -79.853513      676.59727    
   6503000   289.83504      0.050123105    25.847866      719.08872     -72.029138      647.05958    
   6504000   299.14317      0.050123105    4.0289549      742.18244     -77.561162      664.62128    
   6505000   315.66904      0.050123105    18.819367      783.18359     -74.178384      709.00521    
   6506000   305.87791      0.050123105    37.20218       758.89152     -78.389912      680.50161    
   6507000   287.76313      0.050123105    39.552943      713.94827     -73.539421      640.40884    
   6508000   289.3499       0.050123105    5.3939927      717.88509     -84.227888      633.6572     
   6509000   296.63422      0.050123105   -4.2534516      735.95768     -80.9777        654.97998    
   6510000   308.86931      0.050123105    47.085501      766.31327     -82.322407      683.99087    
   6511000   297.33255      0.050123105    65.190812      737.69026     -89.321144      648.36912    
   6512000   281.05048      0.050123105    32.651919      697.29399     -83.493919      613.80007    
   6513000   307.05516      0.050123105    20.202426      761.8123      -85.895983      675.91632    
   6514000   301.4901       0.050123105    36.571924      748.00526     -78.621623      669.38363    
   6515000   298.13512      0.050123105    26.147571      739.68145     -80.9865        658.69495    
   6516000   296.88786      0.050123105    28.713343      736.58695     -82.462721      654.12423    
   6517000   299.62334      0.050123105    23.005007      743.37375     -92.366114      651.00764    
   6518000   298.147        0.050123105    23.991976      739.71092     -89.527412      650.18351    
   6519000   304.59648      0.050123105    24.867289      755.71226     -82.798845      672.91342    
   6520000   287.09809      0.050123105    23.021588      712.29829     -90.90953       621.38876    
   6521000   297.5398       0.050123105    28.937829      738.20444     -89.129471      649.07497    
   6522000   306.15728      0.050123105    23.154515      759.58466     -95.31341       664.27125    
   6523000   298.78221      0.050123105    19.017287      741.2869      -88.818336      652.46857    
   6524000   293.79091      0.050123105    29.013263      728.90335     -90.363984      638.53936    
   6525000   312.27436      0.050123105    22.76222       774.76129     -93.962711      680.79858    
   6526000   315.50678      0.050123105    19.389663      782.78101     -90.209801      692.57121    
   6527000   281.6889       0.050123105    23.413999      698.87792     -91.453189      607.42473    
   6528000   303.66535      0.050123105    26.987848      753.40211     -84.707775      668.69434    
   6529000   295.29756      0.050123105    23.670383      732.6414      -89.379664      643.26173    
   6530000   305.01808      0.050123105    20.445567      756.75827     -87.344756      669.41352    
   6531000   300.66864      0.050123105    31.561914      745.96718     -78.837042      667.13014    
   6532000   306.038        0.050123105    38.257785      759.2887      -83.221945      676.06676    
   6533000   304.9653       0.050123105    12.346579      756.62731     -84.429992      672.19732    
   6534000   294.16425      0.050123105    23.488025      729.82962     -94.185667      635.64395    
   6535000   291.88037      0.050123105    24.733706      724.16325     -86.565448      637.5978     
   6536000   306.8041       0.050123105    25.566611      761.18942     -88.239789      672.94963    
   6537000   313.61224      0.050123105    25.184491      778.0806      -79.060764      699.01984    
   6538000   295.10034      0.050123105    22.351354      732.15208     -75.793109      656.35897    
   6539000   297.08926      0.050123105    20.332973      737.08664     -85.000299      652.08635    
   6540000   287.24846      0.050123105    34.398376      712.67134     -75.070833      637.60051    
   6541000   307.54662      0.050123105    25.014026      763.03163     -77.464981      685.56665    
   6542000   293.07111      0.050123105    20.65833       727.11749     -81.804244      645.31325    
   6543000   303.92303      0.050123105    43.479862      754.04143     -79.657768      674.38366    
   6544000   305.41908      0.050123105    24.394155      757.75317     -89.16699       668.58618    
   6545000   298.77724      0.050123105    4.5802174      741.27457     -82.741604      658.53297    
   6546000   276.2044       0.050123105    17.737913      685.27072     -81.116057      604.15466    
   6547000   302.82779      0.050123105    30.735559      751.32409     -89.084321      662.23977    
   6548000   307.64029      0.050123105    20.475159      763.26404     -85.907758      677.35628    
   6549000   293.63805      0.050123105    16.936466      728.52409     -87.443259      641.08083    
   6550000   301.89362      0.050123105    33.566713      749.00639     -94.366129      654.64026    
   6551000   306.78364      0.050123105    29.064139      761.13867     -88.97839       672.16028    
   6552000   307.5804       0.050123105    16.521792      763.11545     -80.166933      682.94852    
   6553000   295.46015      0.050123105    19.6875        733.04477     -85.074911      647.96986    
   6554000   290.07985      0.050123105    42.927431      719.69611     -81.254176      638.44193    
   6555000   316.5294       0.050123105    32.096076      785.31817     -86.859451      698.45872    
   6556000   301.52534      0.050123105    25.116121      748.09267     -83.151835      664.94084    
   6557000   292.62837      0.050123105    21.842987      726.01905     -77.582866      648.43619    
   6558000   298.77237      0.050123105    23.980912      741.26249     -80.182956      661.07954    
   6559000   309.54152      0.050123105    27.943943      767.98105     -78.45647       689.52458    
   6560000   300.89649      0.050123105    10.148426      746.53249     -78.481182      668.0513     
   6561000   295.35644      0.050123105    19.855534      732.78747     -81.874869      650.9126     
   6562000   297.9251       0.050123105    35.400008      739.16038     -81.129772      658.03061    
   6563000   303.79917      0.050123105    21.169741      753.73412     -86.464275      667.26985    
   6564000   310.40648      0.050123105    44.713316      770.12704     -88.99114       681.1359     
   6565000   315.12398      0.050123105    19.030335      781.83128     -87.084059      694.74722    
   6566000   297.3036       0.050123105    22.064132      737.61843     -88.626886      648.99155    
   6567000   299.95121      0.050123105    33.513595      744.18722     -91.233291      652.95393    
   6568000   304.39367      0.050123105    25.206995      755.20909     -87.067152      668.14194    
   6569000   318.3891       0.050123105    27.279625      789.93214     -88.928914      701.00322    
   6570000   311.36599      0.050123105    23.937119      772.50759     -78.582494      693.9251     
   6571000   301.22167      0.050123105    22.746874      747.33926     -84.9956        662.34366    
   6572000   309.90333      0.050123105    25.821696      768.8787      -87.326504      681.5522     
   6573000   306.0832       0.050123105    28.719921      759.40084     -78.062186      681.33866    
   6574000   306.67843      0.050123105    24.309348      760.87764     -82.49119       678.38645    
   6575000   287.78698      0.050123105    23.145643      714.00744     -77.159031      636.84841    
   6576000   292.79402      0.050123105    26.883818      726.43003     -82.583772      643.84625    
   6577000   314.6308       0.050123105    14.570173      780.60768     -85.933391      694.67429    
   6578000   303.36729      0.050123105    44.614378      752.6626      -88.954424      663.70818    
   6579000   296.61989      0.050123105    23.698413      735.92213     -82.431517      653.49062    
   6580000   302.24003      0.050123105    17.196644      749.86583     -88.729217      661.13662    
   6581000   312.99935      0.050123105    28.257667      776.56002     -84.808529      691.75149    
   6582000   302.81124      0.050123105    25.662896      751.28304     -71.193094      680.08995    
   6583000   293.66413      0.050123105    24.861227      728.5888      -77.12506       651.46374    
   6584000   299.57109      0.050123105    22.293152      743.24414     -81.378331      661.86581    
   6585000   305.25351      0.050123105    29.027079      757.34237     -74.982472      682.35989    
   6586000   287.99224      0.050123105    25.175744      714.5167      -78.26229       636.25441    
   6587000   299.54772      0.050123105    24.560624      743.18615     -74.088597      669.09756    
   6588000   300.97822      0.050123105    26.435763      746.73527     -74.862409      671.87286    
   6589000   298.30872      0.050123105    23.674612      740.11217     -75.002185      665.10998    
   6590000   291.85153      0.050123105    26.89483       724.09169     -78.526494      645.5652     
   6591000   302.74772      0.050123105    25.678007      751.12544     -82.059619      669.06582    
   6592000   292.42571      0.050123105    24.432521      725.51625     -69.272344      656.2439     
   6593000   297.38123      0.050123105    26.380849      737.81104     -73.079822      664.73122    
   6594000   303.24893      0.050123105    20.458112      752.36895     -80.518728      671.85023    
   6595000   296.18855      0.050123105    28.974558      734.85195     -76.730272      658.12168    
   6596000   298.53564      0.050123105    19.478529      740.67515     -79.865062      660.81009    
   6597000   306.07383      0.050123105    27.91267       759.37761     -77.393719      681.98389    
   6598000   304.21084      0.050123105    31.480515      754.75547     -81.14298       673.61249    
   6599000   300.74676      0.050123105    17.757831      746.16101     -78.540913      667.62009    
   6600000   293.98953      0.050123105    23.435789      729.39612     -81.75682       647.6393     
   6601000   293.59062      0.050123105    20.563958      728.40643     -75.110888      653.29554    
   6602000   312.93889      0.050123105    20.47448       776.41002     -73.255502      703.15452    
   6603000   301.83929      0.050123105    41.516323      748.87161     -70.378186      678.49342    
   6604000   289.38101      0.050123105    31.6578        717.96227     -80.754693      637.20758    
   6605000   304.717        0.050123105   -5.0417708      756.01126     -85.609068      670.4022     
   6606000   306.21429      0.050123105    26.859479      759.72608     -83.764809      675.96127    
   6607000   301.27999      0.050123105    27.086135      747.48397     -81.236301      666.24767    
   6608000   284.48639      0.050123105    13.422415      705.81857     -93.829713      611.98886    
   6609000   304.29223      0.050123105    21.678986      754.95741     -90.804745      664.15266    
   6610000   296.70044      0.050123105    39.474102      736.12197     -86.002293      650.11968    
   6611000   288.65489      0.050123105    40.435396      716.16075     -87.126471      629.03428    
   6612000   300.84969      0.050123105    35.190089      746.41638     -88.627407      657.78898    
   6613000   302.07948      0.050123105    10.180411      749.46752     -80.862498      668.60503    
   6614000   297.67768      0.050123105    27.915667      738.54652     -81.619345      656.92717    
   6615000   297.19479      0.050123105    25.620287      737.34846     -87.011637      650.33682    
   6616000   296.76354      0.050123105    17.599704      736.27853     -85.460168      650.81836    
   6617000   303.84646      0.050123105    21.359046      753.85145     -87.239592      666.61186    
   6618000   287.92481      0.050123105    36.692681      714.34938     -92.927275      621.4221     
   6619000   295.64701      0.050123105    24.229176      733.50837     -86.193367      647.31501    
   6620000   297.29328      0.050123105    22.828375      737.59283     -82.60791       654.98492    
   6621000   307.53438      0.050123105    31.318077      763.00127     -81.336198      681.66507    
   6622000   297.3353       0.050123105    29.5079        737.69707     -88.727154      648.96992    
   6623000   294.43802      0.050123105    17.285329      730.50884     -87.498791      643.01005    
   6624000   312.24988      0.050123105    22.870837      774.70056     -91.96152       682.73904    
   6625000   299.69778      0.050123105    37.455985      743.55844     -89.074498      654.48395    
   6626000   289.807        0.050123105    26.352816      719.01915     -95.532841      623.48631    
   6627000   302.37971      0.050123105    0.97043632     750.21241     -95.380948      654.83146    
   6628000   304.96393      0.050123105    33.092785      756.62392     -88.892118      667.73181    
   6629000   297.11064      0.050123105    63.289768      737.13969     -91.026784      646.1129     
   6630000   304.22881      0.050123105    24.469432      754.80006     -85.861442      668.93862    
   6631000   300.33253      0.050123105    35.697847      745.13328     -76.635614      668.49766    
   6632000   287.94351      0.050123105    15.124111      714.39578     -84.968619      629.42716    
   6633000   300.23513      0.050123105    5.011309       744.89163     -80.064626      664.827      
   6634000   316.87014      0.050123105    16.607578      786.16356     -90.311592      695.85196    
   6635000   300.09934      0.050123105    28.089697      744.55473     -89.902978      654.65175    
   6636000   285.42533      0.050123105    20.41138       708.14811     -82.669057      625.47906    
   6637000   302.8549       0.050123105    28.229396      751.39136     -88.728274      662.66309    
   6638000   304.41928      0.050123105    25.16219       755.27262     -85.748999      669.52363    
   6639000   316.03118      0.050123105    28.2089        784.08207     -77.146138      706.93593    
   6640000   297.58828      0.050123105    26.70385       738.32473     -85.3755        652.94923    
   6641000   294.53739      0.050123105    17.720858      730.75538     -81.369362      649.38602    
   6642000   307.021        0.050123105    21.852582      761.72757     -81.385684      680.34189    
   6643000   287.28593      0.050123105    23.594843      712.7643      -75.417328      637.34697    
   6644000   301.57793      0.050123105    26.189004      748.22316     -79.087265      669.1359     
   6645000   300.97495      0.050123105    26.241362      746.72715     -84.871059      661.85609    
   6646000   303.29941      0.050123105    18.919983      752.49421     -87.675306      664.8189     
   6647000   309.13022      0.050123105    13.927853      766.96058     -93.739459      673.22113    
   6648000   290.56501      0.050123105    22.337964      720.89981     -84.740305      636.1595     
   6649000   295.32471      0.050123105    41.41395       732.70874     -74.935969      657.77277    
   6650000   310.25948      0.050123105    17.294319      769.76233     -71.525385      698.23694    
   6651000   311.92796      0.050123105    20.551974      773.90186     -83.790932      690.11093    
   6652000   292.39125      0.050123105    7.7677606      725.43074     -81.238823      644.19192    
   6653000   296.88992      0.050123105    28.944104      736.59207     -84.088305      652.50376    
   6654000   310.17767      0.050123105    34.757727      769.55936     -84.95038       684.60898    
   6655000   301.38254      0.050123105    8.8566126      747.7384      -85.072672      662.66573    
   6656000   301.51307      0.050123105    24.93376       748.06223     -84.785877      663.27635    
   6657000   313.51215      0.050123105    32.136215      777.83228     -91.430224      686.40205    
   6658000   295.60582      0.050123105    16.792527      733.40619     -85.964577      647.44161    
   6659000   298.50915      0.050123105    38.401133      740.60944     -84.218272      656.39116    
   6660000   299.52955      0.050123105    35.092175      743.14107     -86.877582      656.26348    
   6661000   297.42418      0.050123105    11.197462      737.91759     -81.819238      656.09836    
   6662000   300.22767      0.050123105    22.569424      744.87313     -74.21843       670.6547     
   6663000   302.76612      0.050123105    29.593224      751.17109     -78.71246       672.45863    
   6664000   309.1124       0.050123105    23.100754      766.91639     -78.082591      688.8338     
   6665000   298.18726      0.050123105    13.6027        739.81082     -84.039791      655.77103    
   6666000   284.07224      0.050123105    4.3659138      704.79107     -80.585822      624.20525    
   6667000   283.64913      0.050123105    33.50841       703.74132     -76.321423      627.41989    
   6668000   307.93747      0.050123105    27.826327      764.00135     -73.672559      690.32879    
   6669000   305.17373      0.050123105    23.946646      757.14442     -78.70758       678.43684    
   6670000   282.76264      0.050123105    7.6045907      701.5419      -84.416399      617.1255     
   6671000   290.99806      0.050123105    31.445403      721.97422     -88.537977      633.43624    
   6672000   307.82629      0.050123105    31.908509      763.72551     -86.79333       676.93218    
   6673000   306.12595      0.050123105    24.627247      759.50693     -94.599769      664.90716    
   6674000   299.29082      0.050123105    29.506411      742.54878     -88.072199      654.47658    
   6675000   306.39446      0.050123105    24.378401      760.17309     -98.444193      661.7289     
   6676000   307.94023      0.050123105    0.79404846     764.00821     -87.292453      676.71575    
   6677000   296.77649      0.050123105    19.817599      736.31065     -94.001288      642.30937    
   6678000   300.06264      0.050123105    24.505317      744.46369     -85.028889      659.4348     
   6679000   313.19062      0.050123105    27.05345       777.03456     -89.970817      687.06374    
   6680000   296.95165      0.050123105    23.189346      736.74522     -91.580009      645.16521    
   6681000   301.42405      0.050123105    21.39137       747.84138     -87.805513      660.03587    
   6682000   307.28458      0.050123105    23.799631      762.38152     -84.578379      677.80314    
   6683000   291.53379      0.050123105    27.429622      723.30337     -75.680635      647.62274    
   6684000   294.78969      0.050123105    23.815165      731.38135     -76.47343       654.90793    
   6685000   321.19978      0.050123105    23.714327      796.9055      -78.952837      717.95266    
   6686000   300.86284      0.050123105    23.257656      746.44899     -76.821135      669.62786    
   6687000   281.12587      0.050123105    24.039402      697.48103     -83.385161      614.09587    
   6688000   302.18643      0.050123105    21.082414      749.73285     -78.264089      671.46876    
   6689000   307.74032      0.050123105    44.199039      763.51221     -69.724837      693.78737    
   6690000   293.51067      0.050123105    22.814806      728.20806     -76.479117      651.72894    
   6691000   291.73775      0.050123105    16.284797      723.80939     -80.594908      643.21448    
   6692000   281.33995      0.050123105    6.6955297      698.01216     -74.080212      623.93195    
   6693000   314.3447       0.050123105   -1.8251159      779.89786     -74.129801      705.76806    
   6694000   310.87404      0.050123105    45.218536      771.28706     -80.666054      690.621      
   6695000   293.78099      0.050123105    24.456555      728.87874     -79.921673      648.95707    
   6696000   299.0623       0.050123105   -0.33475945     741.9818      -78.601036      663.38077    
   6697000   308.26302      0.050123105    46.281648      764.80904     -77.649955      687.15909    
   6698000   301.75211      0.050123105    14.766302      748.65531     -79.846448      668.80886    
   6699000   307.32228      0.050123105    22.184145      762.47506     -78.375564      684.09949    
   6700000   305.03379      0.050123105    38.729981      756.79724     -78.277091      678.52015    
   6701000   297.2605       0.050123105    36.143825      737.51151     -73.164869      664.34664    
   6702000   305.52995      0.050123105    9.4056465      758.02824     -72.115913      685.91233    
   6703000   307.05584      0.050123105    24.567077      761.81401     -68.81305       693.00096    
   6704000   299.99668      0.050123105    30.762086      744.30004     -79.347847      664.95219    
   6705000   309.05164      0.050123105    28.998451      766.76563     -73.403036      693.3626     
   6706000   281.54669      0.050123105    20.523943      698.5251      -81.248326      617.27677    
   6707000   305.6557       0.050123105    23.208446      758.34021     -84.14065       674.19956    
   6708000   310.2241       0.050123105    22.212672      769.67453     -82.803231      686.8713     
   6709000   292.97965      0.050123105    22.49534       726.89058     -89.841298      637.04928    
   6710000   302.42191      0.050123105    32.4924        750.31709     -91.827798      658.48929    
   6711000   304.06379      0.050123105    23.529955      754.39064     -88.901022      665.48962    
   6712000   295.04857      0.050123105    24.852255      732.02363     -80.55721       651.46642    
   6713000   290.1824       0.050123105    25.369631      719.95053     -90.216694      629.73384    
   6714000   318.69216      0.050123105    29.981801      790.68404     -88.407416      702.27662    
   6715000   307.72147      0.050123105    25.858548      763.46545     -86.510309      676.95515    
   6716000   303.66078      0.050123105    23.143144      753.39077     -93.618542      659.77223    
   6717000   298.37682      0.050123105    25.105589      740.28113     -89.720146      650.56098    
   6718000   305.61363      0.050123105    25.588096      758.23583     -83.95794       674.27789    
   6719000   295.99766      0.050123105    25.786064      734.37835     -81.767369      652.61098    
   6720000   314.39287      0.050123105    28.304092      780.01739     -81.151368      698.86602    
   6721000   313.30755      0.050123105    24.444682      777.32466     -86.842936      690.48173    
   6722000   295.41067      0.050123105    23.29821       732.92201     -89.624024      643.29799    
   6723000   291.6357       0.050123105    32.808715      723.55621     -92.360356      631.19585    
   6724000   305.80235      0.050123105    20.092954      758.70406     -100.94815      657.75591    
   6725000   307.49028      0.050123105    26.512364      762.89187     -97.02831       665.86356    
   6726000   297.47761      0.050123105    28.782732      738.05015     -96.298606      641.75154    
   6727000   304.55353      0.050123105    26.405973      755.60571     -98.773775      656.83194    
   6728000   310.02774      0.050123105    17.067288      769.18737     -87.680821      681.50654    
   6729000   291.04977      0.050123105    25.856256      722.10251     -87.895432      634.20707    
   6730000   295.87313      0.050123105    29.170004      734.06939     -86.810256      647.25913    
   6731000   308.17193      0.050123105    26.822526      764.58305     -84.054941      680.5281     
   6732000   301.98498      0.050123105    24.749493      749.23307     -84.348035      664.88503    
   6733000   300.64309      0.050123105    20.937518      745.9038      -88.401429      657.50237    
   6734000   287.07226      0.050123105    21.879826      712.23418     -85.383551      626.85063    
   6735000   301.5039       0.050123105    31.767009      748.0395      -80.598681      667.44082    
   6736000   303.72763      0.050123105    18.908106      753.55662     -89.004715      664.55191    
   6737000   300.56139      0.050123105    22.396246      745.70109     -93.133653      652.56744    
   6738000   299.20901      0.050123105    65.253953      742.34579     -85.391322      656.95447    
   6739000   301.77122      0.050123105    25.801468      748.70272     -84.317731      664.38499    
   6740000   309.57848      0.050123105    12.620425      768.07275     -92.609759      675.463      
   6741000   284.65227      0.050123105    32.195216      706.23013     -88.691582      617.53855    
   6742000   298.36685      0.050123105    37.313721      740.25638     -85.478598      654.77778    
   6743000   308.20738      0.050123105    4.4090405      764.67101     -89.041656      675.62935    
   6744000   297.82016      0.050123105    12.756151      738.90004     -93.744485      645.15555    
   6745000   299.35779      0.050123105    38.422773      742.71493     -91.894679      650.82025    
   6746000   293.52705      0.050123105    34.322935      728.24869     -94.987453      633.26124    
   6747000   297.04975      0.050123105    20.698624      736.98862     -89.174205      647.81442    
   6748000   290.95759      0.050123105    22.946448      721.8738      -95.009634      626.86417    
   6749000   303.29946      0.050123105    21.865387      752.49431     -93.13472       659.35959    
   6750000   299.8341       0.050123105    62.546527      743.89666     -86.388607      657.50805    
   6751000   301.73521      0.050123105    30.385747      748.61336     -96.877282      651.73608    
   6752000   290.31994      0.050123105    24.113471      720.29178     -89.21435       631.07743    
   6753000   299.31488      0.050123105    38.4494        742.60846     -92.165328      650.44313    
   6754000   313.37024      0.050123105    35.442056      777.4802      -92.842143      684.63806    
   6755000   308.08328      0.050123105    0.023534949    764.3631      -93.213898      671.1492     
   6756000   292.0953       0.050123105    23.596594      724.69649     -87.975387      636.7211     
   6757000   307.63457      0.050123105    55.567546      763.24986     -87.64316       675.6067     
   6758000   309.48516      0.050123105    42.649026      767.84121     -93.327788      674.51343    
   6759000   305.92002      0.050123105    14.209004      758.99601     -97.052679      661.94333    
   6760000   312.06937      0.050123105    9.8447839      774.25271     -97.490149      676.76256    
   6761000   305.0926       0.050123105    28.815835      756.94315     -94.776425      662.16672    
   6762000   299.80948      0.050123105    34.598339      743.8356      -92.468038      651.36756    
   6763000   288.81136      0.050123105   -13.137883      716.54895     -87.54729       629.00166    
   6764000   297.92195      0.050123105    26.444607      739.15256     -85.79535       653.35721    
   6765000   305.91425      0.050123105    39.353331      758.98169     -82.592868      676.38882    
   6766000   292.41653      0.050123105    31.443048      725.49348     -82.984473      642.50901    
   6767000   296.97218      0.050123105    27.102656      736.79616     -80.965609      655.83055    
   6768000   300.03158      0.050123105    25.025732      744.38662     -82.705806      661.68081    
   6769000   297.87818      0.050123105    18.404375      739.04397     -88.117341      650.92663    
   6770000   299.55992      0.050123105    21.841103      743.21642     -83.637451      659.57897    
   6771000   300.49903      0.050123105    27.995337      745.54637     -82.131832      663.41453    
   6772000   302.35659      0.050123105    32.212846      750.15503     -77.532428      672.6226     
   6773000   314.73377      0.050123105    24.472592      780.86315     -76.960907      703.90224    
   6774000   286.37099      0.050123105    24.049126      710.49433     -78.158864      632.33546    
   6775000   292.04258      0.050123105    26.929092      724.56568     -79.90481       644.66087    
   6776000   309.0118       0.050123105    37.418017      766.6668      -77.101309      689.56549    
   6777000   297.86452      0.050123105    26.17161       739.01008     -84.64189       654.36819    
   6778000   291.93183      0.050123105    22.367086      724.29091     -81.283641      643.00727    
   6779000   299.89242      0.050123105    22.037604      744.04136     -77.543855      666.4975     
   6780000   316.67247      0.050123105    18.985924      785.67313     -80.358903      705.31423    
   6781000   302.23869      0.050123105    19.670294      749.86251     -76.377509      673.485      
   6782000   297.62482      0.050123105    37.861487      738.41537     -68.04304       670.37233    
   6783000   291.89591      0.050123105    17.491752      724.2018      -77.30984       646.89196    
   6784000   317.7169       0.050123105    15.960927      788.26439     -73.01455       715.24984    
   6785000   314.46854      0.050123105    27.096009      780.20512     -71.361402      708.84372    
   6786000   305.74781      0.050123105    40.933973      758.56876     -76.264112      682.30464    
   6787000   282.92916      0.050123105    36.384342      701.95506     -77.051927      624.90313    
   6788000   283.91093      0.050123105    19.105391      704.39084     -76.328943      628.0619     
   6789000   287.37332      0.050123105    13.841106      712.98113     -80.05998       632.92115    
   6790000   318.9368       0.050123105    12.01342       791.291       -77.012424      714.27858    
   6791000   309.61056      0.050123105    52.262348      768.15233     -74.485391      693.66693    
   6792000   286.16049      0.050123105    25.992433      709.97207     -74.202291      635.76978    
   6793000   307.53335      0.050123105    24.123264      762.99873     -71.466665      691.53206    
   6794000   298.6157       0.050123105    37.971543      740.87378     -74.384447      666.48933    
   6795000   292.40323      0.050123105    40.294606      725.46048     -67.823201      657.63728    
   6796000   301.46411      0.050123105    23.158691      747.94077     -73.022131      674.91864    
   6797000   296.60472      0.050123105    20.997861      735.88449     -68.771394      667.11309    
   6798000   297.49795      0.050123105    27.111305      738.10062     -75.767945      662.33267    
   6799000   289.40881      0.050123105    20.338507      718.03124     -72.142998      645.88824    
   6800000   295.72033      0.050123105    25.669917      733.69028     -66.627619      667.06266    
   6801000   303.97527      0.050123105    24.037787      754.17104     -69.797098      684.37394    
   6802000   310.41798      0.050123105    26.585199      770.15557     -75.527456      694.62811    
   6803000   284.0024       0.050123105    24.748305      704.61779     -75.589058      629.02873    
   6804000   292.84697      0.050123105    23.452513      726.5614      -75.699679      650.86172    
   6805000   299.54134      0.050123105    26.058759      743.17031     -69.490704      673.67961    
   6806000   304.88089      0.050123105    31.025093      756.41789     -73.269082      683.14881    
   6807000   302.47881      0.050123105    31.978151      750.45826     -76.43324       674.02502    
   6808000   310.15962      0.050123105    18.286951      769.51457     -81.516745      687.99782    
   6809000   299.65182      0.050123105    21.369757      743.44442     -76.615774      666.82864    
   6810000   297.54889      0.050123105    39.325697      738.227       -75.854837      662.37216    
   6811000   306.63592      0.050123105    21.894429      760.77216     -80.817515      679.95464    
   6812000   298.30094      0.050123105    23.265849      740.09285     -75.053987      665.03887    
   6813000   298.54107      0.050123105    30.809581      740.68863     -76.536111      664.15252    
   6814000   305.73929      0.050123105    24.982638      758.54762     -75.401026      683.14659    
   6815000   301.06319      0.050123105    10.930829      746.94607     -73.771698      673.17437    
   6816000   292.9287       0.050123105    22.802246      726.76419     -72.084987      654.6792     
   6817000   307.89665      0.050123105    26.354069      763.90007     -71.16433       692.73574    
   6818000   315.95998      0.050123105    17.641188      783.90543     -79.903056      704.00237    
   6819000   283.42984      0.050123105    27.103536      703.19725     -74.574588      628.62266    
   6820000   291.21829      0.050123105    26.428999      722.52061     -77.479891      645.04072    
   6821000   301.83462      0.050123105    23.722225      748.86        -83.417437      665.44257    
   6822000   320.09977      0.050123105    25.391624      794.17635     -72.214614      721.96174    
   6823000   296.0723       0.050123105    27.265448      734.56353     -77.202918      657.36061    
   6824000   297.23169      0.050123105    26.049542      737.44002     -78.180008      659.26001    
   6825000   288.26682      0.050123105    26.104057      715.19793     -79.944173      635.25375    
   6826000   304.04551      0.050123105    22.447519      754.34528     -82.630051      671.71523    
   6827000   315.49368      0.050123105    26.86189       782.74851     -77.221258      705.52725    
   6828000   291.10505      0.050123105    23.000577      722.23966     -79.880378      642.35928    
   6829000   284.09222      0.050123105    20.923653      704.84063     -84.363919      620.47671    
   6830000   287.06472      0.050123105    26.707865      712.21547     -82.965408      629.25006    
   6831000   316.60331      0.050123105    23.379103      785.50154     -86.884091      698.61745    
   6832000   303.87874      0.050123105    32.609623      753.93154     -84.988849      668.94269    
   6833000   280.80265      0.050123105    22.073557      696.67912     -82.875214      613.80391    
   6834000   292.41314      0.050123105    23.604408      725.48507     -79.994038      645.49103    
   6835000   315.34025      0.050123105    25.8287        782.36786     -89.200764      693.1671     
   6836000   319.43163      0.050123105    22.872496      792.51867     -83.849313      708.66936    
   6837000   313.80547      0.050123105    28.288083      778.56002     -77.69936       700.86066    
   6838000   294.18981      0.050123105    24.789988      729.89302     -74.911822      654.9812     
   6839000   296.51726      0.050123105    25.998578      735.66749     -72.259514      663.40798    
   6840000   306.54968      0.050123105    21.892838      760.55822     -63.294257      697.26396    
   6841000   291.88725      0.050123105    25.6434        724.1803      -64.963483      659.21682    
   6842000   313.29566      0.050123105    33.427761      777.29516     -71.873167      705.422      
   6843000   295.92626      0.050123105    30.539098      734.2012      -76.432238      657.76896    
   6844000   292.03433      0.050123105    22.715478      724.54522     -70.391437      654.15379    
   6845000   306.83053      0.050123105    28.803335      761.25501     -75.632129      685.62288    
   6846000   309.44533      0.050123105    25.690345      767.74239     -82.037066      685.70532    
   6847000   307.54822      0.050123105    25.320754      763.03562     -78.233797      684.80182    
   6848000   288.16678      0.050123105    29.110901      714.94971     -85.983995      628.96572    
   6849000   290.32541      0.050123105    23.525637      720.30534     -88.129522      632.17582    
   6850000   305.79012      0.050123105    22.470841      758.67371     -86.526313      672.1474     
   6851000   306.3629       0.050123105    27.478855      760.09479     -87.180474      672.91432    
   6852000   302.99029      0.050123105    24.071966      751.72727     -94.177781      657.54949    
   6853000   278.98515      0.050123105    18.8052        692.16985     -95.403226      596.76662    
   6854000   305.18398      0.050123105    24.555876      757.16986     -85.894383      671.27548    
   6855000   287.11028      0.050123105    27.350976      712.32852     -83.130197      629.19832    
   6856000   285.04984      0.050123105    23.52887       707.21652     -86.192728      621.02379    
   6857000   307.29393      0.050123105    16.947926      762.40471     -83.912076      678.49264    
   6858000   294.0703       0.050123105    26.706048      729.59651     -80.60568       648.99083    
   6859000   300.16096      0.050123105    25.816691      744.70762     -85.473867      659.23375    
   6860000   291.53222      0.050123105    39.110031      723.29948     -84.828719      638.47076    
   6861000   296.84576      0.050123105    21.20067       736.4825      -89.111523      647.37098    
   6862000   302.68193      0.050123105    21.448938      750.96221     -86.811608      664.1506     
   6863000   299.0111       0.050123105    25.184744      741.85479     -81.128181      660.72661    
   6864000   304.44042      0.050123105    28.31861       755.32507     -81.548791      673.77628    
   6865000   307.91687      0.050123105    23.576351      763.95025     -83.697406      680.25284    
   6866000   302.70336      0.050123105    22.563584      751.01538     -76.23069       674.78469    
   6867000   291.49039      0.050123105    17.516768      723.19569     -72.76654       650.42915    
   6868000   296.79084      0.050123105    33.768321      736.34624     -75.406868      660.93938    
   6869000   289.79612      0.050123105    19.305909      718.99216     -83.69416       635.298      
   6870000   301.61293      0.050123105   -18.490002      748.30999     -84.717241      663.59275    
   6871000   323.91948      0.050123105    10.637286      803.65317     -88.403416      715.24975    
   6872000   298.09569      0.050123105    36.570069      739.58361     -85.170845      654.41277    
   6873000   279.28294      0.050123105    31.104101      692.90868     -77.004257      615.90442    
   6874000   307.57712      0.050123105    16.241642      763.10732     -80.591714      682.5156     
   6875000   313.48633      0.050123105    42.820996      777.76822     -86.57223       691.19599    
   6876000   288.29038      0.050123105    23.359776      715.25638     -80.562345      634.69404    
   6877000   307.7372       0.050123105    21.352795      763.50448     -77.911661      685.59282    
   6878000   302.67001      0.050123105    39.606671      750.93264     -77.350479      673.58216    
   6879000   296.81734      0.050123105    18.021981      736.412       -83.803885      652.60812    
   6880000   305.4689       0.050123105    26.466639      757.87677     -84.106182      673.77059    
   6881000   288.53573      0.050123105    21.924531      715.8651      -84.402775      631.46233    
   6882000   305.38654      0.050123105    23.037052      757.67242     -84.544141      673.12828    
   6883000   314.18896      0.050123105    22.303489      779.51147     -86.10583       693.40564    
   6884000   300.32835      0.050123105    28.136024      745.12291     -74.765268      670.35764    
   6885000   281.4641       0.050123105    33.21437       698.32019     -78.724121      619.59607    
   6886000   301.02026      0.050123105    21.919499      746.83957     -74.704247      672.13533    
   6887000   305.42018      0.050123105    19.1204        757.75589     -79.780621      677.97527    
   6888000   302.51844      0.050123105    25.010021      750.55659     -76.226096      674.33049    
   6889000   300.4267       0.050123105    41.288206      745.36692     -76.723566      668.64335    
   6890000   300.04677      0.050123105    22.568759      744.42431     -80.866466      663.55784    
   6891000   320.96281      0.050123105    31.511384      796.31758     -78.499388      717.81819    
   6892000   303.27704      0.050123105    25.626821      752.43869     -78.77748       673.66121    
   6893000   299.30271      0.050123105    21.49416       742.57827     -82.743404      659.83486    
   6894000   306.12333      0.050123105    26.172619      759.50043     -81.865538      677.63489    
   6895000   302.8206       0.050123105    23.143428      751.30626     -89.671987      661.63427    
   6896000   293.83107      0.050123105    26.434623      729.00297     -89.477206      639.52577    
   6897000   301.9121       0.050123105    26.896474      749.05225     -83.215014      665.83723    
   6898000   298.5254       0.050123105    37.947151      740.64976     -76.711103      663.93865    
   6899000   300.1123       0.050123105    22.520007      744.58689     -81.778672      662.80822    
   6900000   297.25672      0.050123105    12.05826       737.50212     -78.128815      659.37331    
   6901000   295.48353      0.050123105    21.771034      733.10279     -74.78604       658.31675    
   6902000   300.42671      0.050123105    29.463469      745.36694     -79.974772      665.39216    
   6903000   298.98161      0.050123105    26.540238      741.78163     -82.927212      658.85441    
   6904000   298.05707      0.050123105    6.7933339      739.48782     -87.846063      651.64175    
   6905000   303.25354      0.050123105    13.890609      752.38038     -88.057029      664.32335    
   6906000   287.25457      0.050123105    33.491661      712.68651     -86.828348      625.85816    
   6907000   300.42835      0.050123105    33.066981      745.37102     -85.07824       660.29278    
   6908000   308.5761       0.050123105    18.66952       765.58581     -95.815968      669.76985    
   6909000   295.70755      0.050123105    23.729185      733.65858     -86.998181      646.6604     
   6910000   294.26088      0.050123105    25.116993      730.06936     -96.586196      633.48316    
   6911000   307.18226      0.050123105    41.537403      762.12765     -98.23075       663.8969     
   6912000   311.51791      0.050123105    29.968145      772.88452     -92.407057      680.47746    
   6913000   297.41808      0.050123105    20.346108      737.90246     -93.133847      644.76861    
   6914000   294.08575      0.050123105    28.419832      729.63484     -94.010645      635.62419    
   6915000   303.30795      0.050123105    23.993789      752.51538     -89.377889      663.13749    
   6916000   305.37911      0.050123105    21.735644      757.65399     -87.332342      670.32165    
   6917000   293.72479      0.050123105    26.133549      728.73931     -86.943959      641.79535    
   6918000   302.6859       0.050123105    31.075082      750.97206     -90.950657      660.0214     
   6919000   302.35491      0.050123105    32.306307      750.15086     -90.386275      659.76459    
   6920000   298.82053      0.050123105    15.609786      741.38196     -103.46877      637.91319    
   6921000   301.02665      0.050123105    16.680605      746.85542     -89.186921      657.6685     
   6922000   288.78529      0.050123105    17.344726      716.48426     -90.237563      626.2467     
   6923000   295.8806       0.050123105    38.353794      734.08793     -76.257784      657.83015    
   6924000   295.5547       0.050123105    29.387484      733.27937     -85.905858      647.37351    
   6925000   302.09255      0.050123105    16.502364      749.49995     -89.601872      659.89808    
   6926000   286.92989      0.050123105    37.241304      711.88097     -90.488589      621.39239    
   6927000   300.49418      0.050123105    37.073977      745.53433     -92.439425      653.09491    
   6928000   307.97243      0.050123105    30.421873      764.0881      -86.863482      677.22461    
   6929000   295.37216      0.050123105    20.608056      732.82646     -90.408966      642.41749    
   6930000   296.88275      0.050123105    29.162431      736.57428     -91.992769      644.58151    
   6931000   310.59713      0.050123105    21.589504      770.60005     -90.757931      679.84212    
   6932000   294.7627       0.050123105    19.625998      731.3144      -92.261079      639.05332    
   6933000   291.13124      0.050123105    31.800306      722.30464     -86.636552      635.66809    
   6934000   310.68372      0.050123105    35.488358      770.81488     -86.445019      684.36986    
   6935000   316.56874      0.050123105    12.088162      785.41577     -84.91813       700.49764    
   6936000   297.89093      0.050123105    11.225207      739.0756      -86.875413      652.20019    
   6937000   304.78804      0.050123105    35.169204      756.18754     -87.771283      668.41625    
   6938000   293.58873      0.050123105    24.975656      728.40172     -84.415481      643.98624    
   6939000   294.06843      0.050123105    11.871821      729.59188     -82.43281       647.15907    
   6940000   294.62845      0.050123105    28.71727       730.98131     -89.406383      641.57493    
   6941000   312.40058      0.050123105    35.56894       775.07445     -82.76783       692.30662    
   6942000   308.65962      0.050123105    31.095154      765.79302     -79.730733      686.06229    
   6943000   307.71306      0.050123105    22.741814      763.44458     -86.800675      676.64391    
   6944000   305.43262      0.050123105    3.8779951      757.78675     -86.978104      670.80864    
   6945000   281.06072      0.050123105    24.468374      697.3194      -85.483375      611.83602    
   6946000   310.87636      0.050123105    40.982285      771.29283     -84.962022      686.33081    
   6947000   307.46393      0.050123105    17.66973       762.82648     -77.759341      685.06714    
   6948000   276.15661      0.050123105    19.266089      685.15217     -77.673381      607.47879    
   6949000   296.6826       0.050123105    23.73763       736.07771     -74.889948      661.18777    
   6950000   307.68845      0.050123105    0.87470474     763.38353     -77.597067      685.78647    
   6951000   294.63127      0.050123105    4.0548637      730.9883      -83.135235      647.85307    
   6952000   289.40567      0.050123105    26.302838      718.02345     -90.982162      627.04129    
   6953000   300.88229      0.050123105    31.624454      746.49727     -91.09598       655.40129    
   6954000   310.2036       0.050123105    16.088013      769.62368     -92.399211      677.22447    
   6955000   287.36689      0.050123105    22.394468      712.96517     -82.878184      630.08699    
   6956000   299.01691      0.050123105    28.447734      741.86919     -82.798649      659.07055    
   6957000   310.73913      0.050123105    23.261105      770.95236     -77.040763      693.9116     
   6958000   296.09244      0.050123105    13.653431      734.61352     -77.338697      657.27482    
   6959000   299.54913      0.050123105    25.498249      743.18965     -84.242545      658.94711    
   6960000   305.62554      0.050123105    30.603199      758.26539     -86.911192      671.3542     
   6961000   319.35379      0.050123105    20.353437      792.32555     -91.999735      700.32581    
   6962000   294.67754      0.050123105    25.221792      731.1031      -89.790669      641.31243    
   6963000   297.11871      0.050123105    28.19384       737.15971     -86.664365      650.49534    
   6964000   294.71957      0.050123105    11.268198      731.20738     -86.224778      644.9826     
   6965000   315.76018      0.050123105    22.516925      783.40971     -93.92157       689.48814    
   6966000   296.21791      0.050123105    28.976603      734.9248      -87.751731      647.17307    
   6967000   290.64725      0.050123105    28.814603      721.10384     -91.526348      629.57749    
   6968000   300.62801      0.050123105    21.656422      745.86639     -91.50504       654.36135    
   6969000   306.36856      0.050123105    23.931191      760.10885     -84.40955       675.6993     
   6970000   305.97247      0.050123105    12.43815       759.12613     -89.338576      669.78756    
   6971000   297.17146      0.050123105    46.394438      737.29059     -86.724702      650.56589    
   6972000   293.9885       0.050123105    19.025775      729.39356     -93.40236       635.9912     
   6973000   295.69966      0.050123105    15.876378      733.63902     -87.913428      645.72559    
   6974000   308.36374      0.050123105    17.231895      765.05895     -92.683735      672.37521    
   6975000   311.37387      0.050123105    32.287094      772.52715     -88.430205      684.09694    
   6976000   296.52429      0.050123105    32.824112      735.68495     -94.092946      641.592      
   6977000   294.52324      0.050123105    21.2172        730.72027     -89.915109      640.80516    
   6978000   303.13672      0.050123105    15.730196      752.09055     -88.022174      664.06838    
   6979000   318.73395      0.050123105    22.537501      790.78771     -87.270076      703.51764    
   6980000   290.60764      0.050123105    34.928789      721.00556     -85.174706      635.83085    
   6981000   291.07544      0.050123105    21.960144      722.16619     -89.060175      633.10601    
   6982000   312.14427      0.050123105    13.786991      774.43853     -86.531136      687.90739    
   6983000   299.41275      0.050123105    27.582451      742.85128     -83.783326      659.06795    
   6984000   275.2447       0.050123105    24.354795      682.8897      -94.208629      588.68107    
   6985000   291.76174      0.050123105    21.91572       723.86892     -95.126484      628.74243    
   6986000   305.62739      0.050123105    23.833176      758.26998     -89.19994       669.07004    
   6987000   302.85835      0.050123105    23.552028      751.39992     -91.391406      660.00852    
   6988000   307.82046      0.050123105    31.367374      763.71105     -91.811039      671.90001    
   6989000   295.34083      0.050123105    27.318156      732.74873     -95.298686      637.45004    
   6990000   301.29025      0.050123105    16.746762      747.5094      -97.770707      649.7387     
   6991000   317.58707      0.050123105    40.660367      787.94227     -98.055137      689.88713    
   6992000   293.60769      0.050123105    30.473261      728.44877     -88.239809      640.20896    
   6993000   282.97673      0.050123105    6.9789259      702.07307     -89.557451      612.51562    
   6994000   294.54349      0.050123105    21.082766      730.77052     -75.715994      655.05452    
   6995000   302.62107      0.050123105    35.587517      750.81121     -80.483858      670.32735    
   6996000   291.73691      0.050123105    14.144605      723.80731     -87.765957      636.04136    
   6997000   283.3891       0.050123105    29.084362      703.09616     -90.934801      612.16136    
   6998000   301.89704      0.050123105    6.9572264      749.01487     -96.836668      652.1782     
   6999000   315.89876      0.050123105    35.320418      783.75354     -95.739288      688.01426    
   7000000   295.93628      0.050123105    16.842005      734.22606     -104.48596      629.74011    
   7001000   303.8677       0.050123105    26.301558      753.90414     -98.826992      655.07714    
   7002000   286.73929      0.050123105    27.178522      711.40809     -100.51679      610.8913     
   7003000   294.00693      0.050123105    18.403504      729.43929     -106.04738      623.39192    
   7004000   306.26503      0.050123105    18.162182      759.85198     -108.91042      650.94156    
   7005000   292.85705      0.050123105    26.779896      726.58641     -105.20979      621.37663    
   7006000   301.13735      0.050123105    25.895353      747.13008     -98.268001      648.86208    
   7007000   304.17979      0.050123105    24.764436      754.67843     -101.44308      653.23535    
   7008000   306.54424      0.050123105    18.311619      760.54471     -108.47511      652.06961    
   7009000   295.3056       0.050123105    24.989515      732.66135     -100.54335      632.118      
   7010000   298.18305      0.050123105    22.614436      739.80036     -96.700875      643.09948    
   7011000   296.70028      0.050123105    21.290653      736.12157     -110.55671      625.56486    
   7012000   324.32521      0.050123105    32.019752      804.65978     -101.78292      702.87685    
   7013000   295.90796      0.050123105    20.096716      734.1558      -103.69308      630.46272    
   7014000   286.69164      0.050123105    8.8315397      711.28986     -102.91821      608.37165    
   7015000   306.56404      0.050123105    29.542611      760.59384     -102.83308      657.76076    
   7016000   307.32691      0.050123105    33.508362      762.48653     -95.066987      667.41954    
   7017000   308.77761      0.050123105    5.359382       766.08577     -91.594631      674.49114    
   7018000   286.91256      0.050123105   -3.4478189      711.83796     -89.595246      622.24271    
   7019000   286.60294      0.050123105    22.569001      711.0698      -88.692264      622.37753    
   7020000   306.72923      0.050123105    31.291256      761.00367     -90.208527      670.79515    
   7021000   302.1003       0.050123105    8.8060242      749.51917     -91.460949      658.05822    
   7022000   301.88569      0.050123105    22.392464      748.98672     -91.967486      657.01923    
   7023000   293.3429       0.050123105    23.530423      727.79181     -86.733443      641.05837    
   7024000   302.44016      0.050123105    53.408512      750.36238     -85.830541      664.53184    
   7025000   312.63966      0.050123105    45.000001      775.66761     -89.666992      686.00062    
   7026000   310.65078      0.050123105    6.881011       770.73315     -89.936957      680.79619    
   7027000   291.3341       0.050123105    25.40823       722.80794     -96.613732      626.1942     
   7028000   308.593        0.050123105    20.118736      765.62774     -94.526658      671.10108    
   7029000   293.30952      0.050123105    16.998344      727.70901     -94.794904      632.9141     
   7030000   305.13316      0.050123105    47.000499      757.04378     -89.521154      667.52262    
   7031000   300.68948      0.050123105    4.9570762      746.01889     -88.221869      657.79702    
   7032000   290.55812      0.050123105    30.198634      720.8827      -88.921217      631.96148    
   7033000   305.5795       0.050123105    40.40937       758.15116     -77.069027      681.08214    
   7034000   302.85611      0.050123105    24.655633      751.39435     -84.046167      667.34819    
   7035000   293.94343      0.050123105    22.327953      729.28175     -82.550392      646.73136    
   7036000   296.89788      0.050123105    12.313987      736.61181     -75.539919      661.07189    
   7037000   301.02315      0.050123105    34.541793      746.84674     -77.869763      668.97698    
   7038000   309.89365      0.050123105    36.590643      768.85469     -78.67559       690.1791     
   7039000   305.31357      0.050123105    3.455244       757.49138     -84.888699      672.60268    
   7040000   290.63305      0.050123105   -10.457171      721.06861     -85.022986      636.04563    
   7041000   305.96562      0.050123105    33.006414      759.10913     -83.261672      675.84746    
   7042000   303.39309      0.050123105    41.804612      752.72663     -77.503382      675.22325    
   7043000   309.65335      0.050123105    13.330333      768.2585      -81.039922      687.21858    
   7044000   286.25479      0.050123105   -6.5933553      710.20603     -77.601932      632.6041     
   7045000   289.97669      0.050123105    26.359811      719.44017     -86.243616      633.19655    
   7046000   295.60122      0.050123105    27.334022      733.39478     -95.431045      637.96373    
   7047000   308.61581      0.050123105    40.063197      765.68433     -90.418114      675.26622    
   7048000   314.92682      0.050123105    20.870601      781.34211     -90.428365      690.91375    
   7049000   293.01395      0.050123105    20.333894      726.97569     -77.827514      649.14817    
   7050000   294.31011      0.050123105    38.998313      730.19149     -78.69781       651.49368    
   7051000   307.00932      0.050123105    37.74921       761.69858     -68.077677      693.6209     
   7052000   304.65927      0.050123105    14.906647      755.86804     -79.640914      676.22712    
   7053000   291.62783      0.050123105    19.947567      723.5367      -94.141567      629.39513    
   7054000   297.02231      0.050123105    23.411626      736.92053     -87.875848      649.04468    
   7055000   291.70014      0.050123105    21.581658      723.71608     -88.462908      635.25318    
   7056000   298.35287      0.050123105    25.120845      740.22169     -93.23744       646.98425    
   7057000   302.92408      0.050123105    26.465409      751.563       -85.249554      666.31345    
   7058000   295.7512       0.050123105    21.472705      733.76689     -90.535444      643.23144    
   7059000   293.56104      0.050123105    18.179508      728.33303     -92.554402      635.77863    
   7060000   309.15656      0.050123105    26.6657        767.02596     -93.286458      673.7395     
   7061000   295.30201      0.050123105    27.796073      732.65241     -91.186834      641.46558    
   7062000   287.71371      0.050123105    23.227249      713.82563     -90.569744      623.25589    
   7063000   288.40437      0.050123105    24.571132      715.53919     -92.089005      623.45018    
   7064000   310.42851      0.050123105    11.187697      770.18169     -92.830805      677.35089    
   7065000   317.7144       0.050123105    29.808217      788.25818     -92.391357      695.86682    
   7066000   290.33999      0.050123105    23.475009      720.34151     -92.482835      627.85867    
   7067000   296.44325      0.050123105    23.492055      735.48388     -89.010205      646.47368    
   7068000   308.35476      0.050123105    17.765316      765.03666     -94.179694      670.85697    
   7069000   289.46156      0.050123105    23.259594      718.1621      -90.137802      628.0243     
   7070000   291.44081      0.050123105    44.061816      723.07268     -87.87183       635.20085    
   7071000   296.55505      0.050123105    20.384787      735.76125     -86.146605      649.61465    
   7072000   305.04441      0.050123105    15.868348      756.82359     -85.797972      671.02562    
   7073000   301.40522      0.050123105    36.519635      747.79466     -86.391573      661.40309    
   7074000   294.16181      0.050123105    31.637928      729.82357     -85.777804      644.04576    
   7075000   300.57082      0.050123105    26.371008      745.72449     -82.465495      663.259      
   7076000   302.87769      0.050123105    23.673576      751.4479      -82.935222      668.51268    
   7077000   317.09833      0.050123105    22.129628      786.7297      -77.901718      708.82798    
   7078000   305.09998      0.050123105    30.412685      756.96147     -84.080704      672.88076    
   7079000   292.54631      0.050123105    26.951954      725.81547     -80.758038      645.05743    
   7080000   307.91559      0.050123105    15.888379      763.94707     -75.72228       688.22479    
   7081000   308.01519      0.050123105    34.588732      764.19419     -83.652182      680.54201    
   7082000   290.5292       0.050123105    29.103905      720.81095     -74.142058      646.66889    
   7083000   278.18192      0.050123105    19.614898      690.17701     -76.436651      613.74036    
   7084000   307.84572      0.050123105    21.574009      763.77372     -74.062768      689.71096    
   7085000   300.53047      0.050123105    32.839566      745.62439     -74.174674      671.44972    
   7086000   291.96773      0.050123105    17.71876       724.38        -79.575013      644.80499    
   7087000   298.33347      0.050123105    2.224079       740.17357     -71.072928      669.10064    
   7088000   307.12786      0.050123105    21.8576        761.99267     -76.492465      685.50021    
   7089000   299.67551      0.050123105    76.838395      743.5032      -71.619329      671.88387    
   7090000   297.61251      0.050123105   -21.72421       738.38485     -77.015725      661.36912    
   7091000   302.55678      0.050123105    35.842238      750.6517      -79.67738       670.97432    
   7092000   294.72409      0.050123105    25.463851      731.21859     -77.409138      653.80945    
   7093000   296.83566      0.050123105    22.113343      736.45745     -68.272323      668.18513    
   7094000   299.48208      0.050123105    13.256712      743.02331     -78.303718      664.71959    
   7095000   317.29083      0.050123105    32.4087        787.2073      -84.822428      702.38488    
   7096000   301.97717      0.050123105    29.830222      749.21369     -76.802779      672.41091    
   7097000   289.5009       0.050123105    22.313246      718.25972     -79.101248      639.15847    
   7098000   304.11211      0.050123105    5.7497052      754.51053     -70.903813      683.60672    
   7099000   297.0928       0.050123105    24.817752      737.09542     -61.906538      675.18889    
   7100000   292.68382      0.050123105    41.085212      726.15663     -73.75925       652.39738    
   7101000   301.73775      0.050123105    26.057315      748.61967     -78.789619      669.83005    
   7102000   298.99946      0.050123105    17.774458      741.82591     -67.109793      674.71612    
   7103000   306.37263      0.050123105    24.365248      760.11894     -68.809701      691.30924    
   7104000   305.83717      0.050123105    25.783356      758.79046     -74.211873      684.57858    
   7105000   308.23863      0.050123105    45.925834      764.74854     -83.11423       681.63431    
   7106000   292.34989      0.050123105    29.365901      725.32814     -78.066514      647.26163    
   7107000   286.87462      0.050123105    14.674414      711.74384     -76.117478      635.62636    
   7108000   297.06474      0.050123105    25.697575      737.02582     -76.824132      660.20169    
   7109000   301.04511      0.050123105    38.973459      746.90123     -76.604048      670.29718    
   7110000   301.57899      0.050123105    20.779638      748.22579     -86.698502      661.52729    
   7111000   295.56163      0.050123105    20.969019      733.29654     -86.210557      647.08598    
   7112000   309.21378      0.050123105    26.02707       767.16791     -86.12294       681.04497    
   7113000   306.44824      0.050123105    31.800356      760.30654     -82.370243      677.93629    
   7114000   290.10303      0.050123105    30.020216      719.75362     -85.250161      634.50346    
   7115000   296.62355      0.050123105    24.928357      735.9312      -81.467401      654.4638     
   7116000   313.8759       0.050123105    25.802099      778.73477     -86.387611      692.34716    
   7117000   287.05887      0.050123105    23.437098      712.20098     -87.143723      625.05726    
   7118000   289.52021      0.050123105    26.021124      718.30761     -80.343786      637.96383    
   7119000   308.3738       0.050123105    30.901141      765.0839      -81.993626      683.09027    
   7120000   301.51386      0.050123105    8.453685       748.06419     -87.88562       660.17857    
   7121000   296.22774      0.050123105    25.94838       734.94918     -86.522586      648.42659    
   7122000   311.72603      0.050123105    21.182961      773.40088     -90.357497      683.04339    
   7123000   290.8718       0.050123105    18.774055      721.66095     -97.92158       623.73937    
   7124000   292.29777      0.050123105    25.506724      725.19882     -96.431897      628.76692    
   7125000   294.65978      0.050123105    22.43554       731.05903     -101.30462      629.75441    
   7126000   302.52752      0.050123105    24.115197      750.57911     -92.300401      658.27871    
   7127000   303.79895      0.050123105    24.912975      753.73356     -85.73939       667.99417    
   7128000   311.7129       0.050123105    29.135297      773.36829     -88.746619      684.62167    
   7129000   311.36562      0.050123105    21.223502      772.5067      -93.6263        678.8804     
   7130000   282.58605      0.050123105    22.348999      701.10377     -89.027963      612.07581    
   7131000   303.85874      0.050123105    46.563902      753.88191     -90.331133      663.55078    
   7132000   314.39343      0.050123105    24.924442      780.01877     -85.437385      694.58139    
   7133000   307.44596      0.050123105    15.102566      762.7819      -86.262134      676.51977    
   7134000   295.09472      0.050123105    23.99726       732.13813     -81.125506      651.01262    
   7135000   295.69893      0.050123105    28.036606      733.63719     -81.999306      651.63788    
   7136000   316.00243      0.050123105    25.851247      784.01073     -87.666908      696.34382    
   7137000   323.92652      0.050123105    22.842526      803.67062     -90.444095      713.22653    
   7138000   301.51633      0.050123105    25.680165      748.07032     -85.959478      662.11084    
   7139000   303.04787      0.050123105    15.533257      751.87012     -87.298151      664.57197    
   7140000   303.28282      0.050123105    15.713926      752.45305     -83.110355      669.34269    
   7141000   298.8046       0.050123105    22.395892      741.34246     -86.655055      654.6874     
   7142000   292.31185      0.050123105    21.7452        725.23375     -92.575481      632.65826    
   7143000   313.13388      0.050123105    27.308176      776.89378     -91.203608      685.69017    
   7144000   309.69383      0.050123105    24.500427      768.35892     -94.575257      673.78366    
   7145000   292.62127      0.050123105    21.97914       726.00144     -88.846089      637.15535    
   7146000   302.10917      0.050123105    25.649056      749.54118     -87.214774      662.3264     
   7147000   328.80926      0.050123105    26.337572      815.78483     -98.537444      717.24739    
   7148000   293.51406      0.050123105    17.442728      728.21647     -95.518261      632.69821    
   7149000   270.84884      0.050123105    21.169457      671.98345     -94.770164      577.21328    
   7150000   302.62874      0.050123105    40.367661      750.83024     -92.058946      658.7713     
   7151000   306.4994       0.050123105    12.725811      760.43346     -84.219034      676.21443    
   7152000   293.9461       0.050123105    7.5516152      729.28838     -85.872778      643.4156     
   7153000   289.15597      0.050123105    46.955014      717.40392     -89.683539      627.72038    
   7154000   298.65037      0.050123105    34.930957      740.9598      -83.657344      657.30246    
   7155000   311.02443      0.050123105    37.5889        771.66019     -85.773682      685.88651    
   7156000   297.66285      0.050123105   -6.3660215      738.50973     -82.576763      655.93297    
   7157000   293.7506       0.050123105    31.867546      728.80333     -76.733695      652.06963    
   7158000   302.51376      0.050123105    50.287906      750.54497     -80.96359       669.58138    
   7159000   306.09927      0.050123105    38.57493       759.44073     -75.103902      684.33683    
   7160000   300.89149      0.050123105    25.934762      746.52007     -84.07008       662.44999    
   7161000   305.95879      0.050123105    20.347102      759.0922      -74.018139      685.07406    
   7162000   302.54267      0.050123105    22.703611      750.6167      -74.773107      675.8436     
   7163000   299.49967      0.050123105    24.560207      743.06693     -73.635829      669.4311     
   7164000   290.78956      0.050123105    24.255034      721.4569      -71.957609      649.49929    
   7165000   302.87782      0.050123105    30.327565      751.44823     -70.894559      680.55367    
   7166000   325.2775       0.050123105    19.110326      807.02244     -67.896202      739.12624    
   7167000   290.94409      0.050123105    25.803578      721.84031     -75.085684      646.75462    
   7168000   300.49132      0.050123105    29.754571      745.52724     -73.828759      671.69848    
   7169000   305.70956      0.050123105    18.845993      758.47385     -72.533842      685.94001    
   7170000   286.58214      0.050123105    29.678519      711.01818     -69.952521      641.06566    
   7171000   305.07994      0.050123105    40.59579       756.91174     -70.086432      686.82531    
   7172000   303.00641      0.050123105    25.105354      751.76726     -79.822846      671.94441    
   7173000   296.46399      0.050123105    23.60562       735.53533     -80.429859      655.10547    
   7174000   293.07996      0.050123105    25.18206       727.13946     -70.382238      656.75723    
   7175000   307.87342      0.050123105    27.458582      763.84243     -72.362974      691.47946    
   7176000   296.52941      0.050123105    18.683178      735.69764     -81.473495      654.22414    
   7177000   293.78584      0.050123105    25.247831      728.89077     -77.175347      651.71542    
   7178000   308.93836      0.050123105    24.067158      766.48458     -73.396852      693.08773    
   7179000   306.454        0.050123105    43.696181      760.32082     -76.11865       684.20217    
   7180000   287.35751      0.050123105    19.76745       712.9419      -77.877138      635.06476    
   7181000   308.44098      0.050123105    28.8218        765.25057     -87.163216      678.08735    
   7182000   287.10226      0.050123105    31.781181      712.30861     -83.785423      628.52319    
   7183000   293.67178      0.050123105    19.381771      728.60779     -76.853892      651.7539     
   7184000   291.82116      0.050123105    25.213271      724.01633     -80.841598      643.17473    
   7185000   310.60469      0.050123105    25.531654      770.61879     -76.023378      694.59541    
   7186000   308.23107      0.050123105    27.026298      764.72978     -79.104421      685.62536    
   7187000   305.41907      0.050123105    25.693017      757.75313     -79.51923       678.2339     
   7188000   299.0333       0.050123105    29.194798      741.90985     -83.303847      658.606      
   7189000   292.29693      0.050123105    27.947916      725.19673     -82.109951      643.08678    
   7190000   304.9509       0.050123105    31.206626      756.59158     -79.24549       677.34609    
   7191000   301.60347      0.050123105    24.434162      748.28653     -72.175005      676.11153    
   7192000   283.39417      0.050123105    24.779724      703.10875     -76.200285      626.90846    
   7193000   296.14194      0.050123105    23.432182      734.73631     -78.155978      656.58033    
   7194000   278.95075      0.050123105    21.593229      692.0845      -76.009958      616.07455    
   7195000   285.48479      0.050123105    21.254636      708.29563     -78.928877      629.36676    
   7196000   298.05687      0.050123105    25.364288      739.4873      -68.065259      671.42204    
   7197000   305.26016      0.050123105    24.219076      757.35886     -75.24491       682.11395    
   7198000   305.71994      0.050123105    30.157951      758.49959     -76.492105      682.00748    
   7199000   306.06476      0.050123105    17.308867      759.35512     -76.817649      682.53747    
   7200000   296.57969      0.050123105    26.679455      735.82238     -81.951744      653.87063    
   7201000   307.78293      0.050123105    27.491366      763.61793     -79.637369      683.98056    
   7202000   302.93529      0.050123105    25.993859      751.5908      -82.000141      669.59065    
   7203000   299.94306      0.050123105    25.51445       744.16701     -74.877372      669.28964    
   7204000   308.23442      0.050123105    25.094943      764.7381      -85.016083      679.72202    
   7205000   302.20632      0.050123105    18.141805      749.7822      -76.381764      673.40043    
   7206000   295.57159      0.050123105    30.146391      733.32125     -72.972189      660.34906    
   7207000   294.2132       0.050123105    33.073191      729.95107     -76.070492      653.88058    
   7208000   310.48464      0.050123105    19.883841      770.32095     -82.297704      688.02324    
   7209000   298.60388      0.050123105    36.843944      740.84446     -80.156372      660.68809    
   7210000   301.7027       0.050123105    29.95624       748.53271     -80.833246      667.69946    
   7211000   297.34465      0.050123105    17.04551       737.72028     -77.488615      660.23167    
   7212000   301.44012      0.050123105    4.230586       747.88126     -75.109727      672.77153    
   7213000   313.62437      0.050123105    22.671261      778.1107      -78.9011        699.2096     
   7214000   299.57504      0.050123105    37.072074      743.25392     -80.221281      663.03264    
   7215000   290.5329       0.050123105    25.670181      720.82014     -75.020363      645.79977    
   7216000   306.11808      0.050123105    16.842488      759.4874      -84.621069      674.86633    
   7217000   312.66997      0.050123105    33.45891       775.7428      -76.371852      699.37095    
   7218000   304.19718      0.050123105    33.498038      754.72158     -77.211293      677.51029    
   7219000   289.95521      0.050123105    24.432087      719.38687     -67.306359      652.08051    
   7220000   298.00676      0.050123105    18.4104        739.36298     -75.759843      663.60314    
   7221000   299.64971      0.050123105    26.240484      743.43918     -76.058159      667.38102    
   7222000   300.13754      0.050123105    42.042433      744.6495      -82.258392      662.39111    
   7223000   294.82851      0.050123105    21.635141      731.47765     -89.768286      641.70937    
   7224000   300.56028      0.050123105    16.186302      745.69833     -86.413048      659.28528    
   7225000   313.57791      0.050123105    24.618104      777.99543     -84.105008      693.89043    
   7226000   301.92128      0.050123105    30.176116      749.07502     -82.657797      666.41722    
   7227000   285.29128      0.050123105    25.891659      707.81553     -80.291869      627.52366    
   7228000   304.99995      0.050123105    24.461563      756.71327     -88.68793       668.02534    
   7229000   313.00043      0.050123105    26.945647      776.5627      -88.255483      688.30722    
   7230000   305.86212      0.050123105    26.474902      758.85234     -90.125477      668.72687    
   7231000   292.6347       0.050123105    22.880826      726.03476     -86.216404      639.81836    
   7232000   302.59089      0.050123105    34.351857      750.73635     -83.758008      666.97834    
   7233000   308.07064      0.050123105    26.614067      764.33175     -91.056854      673.2749     
   7234000   309.14618      0.050123105    20.597441      767.00018     -81.635975      685.36421    
   7235000   290.78613      0.050123105    16.998877      721.44841     -88.185424      633.26299    
   7236000   294.29598      0.050123105    31.532354      730.15644     -79.48744       650.669      
   7237000   297.27109      0.050123105    28.044423      737.53776     -79.064419      658.47334    
   7238000   296.26113      0.050123105    23.676973      735.03204     -82.300478      652.73156    
   7239000   306.51523      0.050123105    20.344014      760.47274     -83.463545      677.0092     
   7240000   291.52335      0.050123105    29.636337      723.27746     -76.480655      646.7968     
   7241000   293.54921      0.050123105    25.521827      728.30369     -81.562328      646.74136    
   7242000   305.77574      0.050123105    21.983589      758.63805     -81.947011      676.69104    
   7243000   294.13804      0.050123105    21.374772      729.76458     -75.454277      654.31031    
   7244000   294.39712      0.050123105    25.988093      730.40737     -77.122347      653.28503    
   7245000   314.86773      0.050123105    32.933774      781.19551     -71.857327      709.33818    
   7246000   314.63077      0.050123105    28.711778      780.60762     -84.569862      696.03775    
   7247000   301.87744      0.050123105    9.0924144      748.96625     -85.237564      663.72869    
   7248000   283.93102      0.050123105    24.375729      704.44068     -88.478609      615.96207    
   7249000   305.59291      0.050123105    25.789637      758.18444     -87.105264      671.07918    
   7250000   305.35314      0.050123105    7.6055951      757.58956     -78.952798      678.63677    
   7251000   280.45446      0.050123105    15.142244      695.81525     -88.814921      607.00033    
   7252000   301.79564      0.050123105    33.700152      748.7633      -78.953976      669.80932    
   7253000   319.78739      0.050123105    20.813238      793.40134     -85.829274      707.57206    
   7254000   294.72406      0.050123105    19.190046      731.21852     -83.969926      647.24859    
   7255000   299.87419      0.050123105    44.346763      743.99612     -88.582504      655.41362    
   7256000   304.97934      0.050123105    27.6099        756.66214     -94.136766      662.52538    
   7257000   302.07473      0.050123105    12.453676      749.45572     -87.65051       661.80521    
   7258000   293.61944      0.050123105    21.419307      728.47793     -84.237518      644.24041    
   7259000   299.54778      0.050123105    33.748966      743.18629     -75.153732      668.03256    
   7260000   318.2964       0.050123105    22.56429       789.70215     -82.891202      706.81095    
   7261000   297.08345      0.050123105    23.857354      737.07223     -79.080019      657.99221    
   7262000   285.98653      0.050123105    24.36078       709.54047     -78.93974       630.60073    
   7263000   300.15601      0.050123105    26.545181      744.69533     -85.465789      659.22954    
   7264000   309.11427      0.050123105    26.520439      766.92102     -91.348795      675.57222    
   7265000   305.28538      0.050123105    24.420815      757.42144     -82.764592      674.65684    
   7266000   293.89689      0.050123105    23.220251      729.16628     -87.176051      641.99023    
   7267000   300.45256      0.050123105    26.770303      745.43109     -88.230309      657.20078    
   7268000   296.2098       0.050123105    26.398938      734.90469     -92.775801      642.12888    
   7269000   304.37129      0.050123105    30.539653      755.15356     -82.274373      672.87918    
   7270000   296.83364      0.050123105    20.156522      736.45245     -82.046188      654.40627    
   7271000   311.4824       0.050123105    25.347753      772.79641     -92.651735      680.14468    
   7272000   303.23916      0.050123105    25.29156       752.34471     -93.83271       658.512      
   7273000   302.12189      0.050123105    28.903332      749.57273     -82.015929      667.5568     
   7274000   299.36663      0.050123105    27.230745      742.73686     -81.247227      661.48964    
   7275000   287.85854      0.050123105    24.622423      714.18497     -81.205263      632.9797     
   7276000   295.30381      0.050123105    20.445545      732.65688     -78.030497      654.62639    
   7277000   313.78752      0.050123105    27.468817      778.51549     -89.135804      689.37968    
   7278000   301.73412      0.050123105    25.220291      748.61066     -88.005379      660.60529    
   7279000   307.88798      0.050123105    31.540839      763.87857     -89.602392      674.27618    
   7280000   291.44846      0.050123105    27.709687      723.09167     -96.86814       626.22353    
   7281000   304.07781      0.050123105    24.147913      754.42542     -92.421703      662.00372    
   7282000   308.2453       0.050123105    13.921884      764.76509     -92.226522      672.53857    
   7283000   316.05754      0.050123105    20.572825      784.14746     -92.79982       691.34764    
   7284000   308.27412      0.050123105    41.844665      764.83659     -90.74539       674.0912     
   7285000   276.48309      0.050123105    30.849392      685.96218     -95.765162      590.19701    
   7286000   299.45177      0.050123105    14.14394       742.94808     -93.473221      649.47486    
   7287000   311.64804      0.050123105    29.347812      773.20738     -89.473023      683.73436    
   7288000   297.65237      0.050123105    42.503918      738.48373     -97.668982      640.81475    
   7289000   287.77385      0.050123105    19.060794      713.97485     -94.86557       619.10928    
   7290000   307.5681       0.050123105    13.551153      763.08493     -98.726781      664.35815    
   7291000   298.83723      0.050123105    46.841516      741.42341     -98.215305      643.20811    
   7292000   296.15866      0.050123105    24.510239      734.77779     -91.766213      643.01158    
   7293000   309.21408      0.050123105   -12.281725      767.16865     -96.301531      670.86712    
   7294000   309.57857      0.050123105    21.795695      768.07295     -89.151778      678.92118    
   7295000   299.93355      0.050123105    17.562766      744.14341     -90.556438      653.58698    
   7296000   309.58356      0.050123105    29.906899      768.08535     -98.944446      669.1409     
   7297000   291.33111      0.050123105    31.03122       722.80053     -90.488694      632.31183    
   7298000   296.92566      0.050123105    24.135597      736.68075     -94.127154      642.5536     
   7299000   286.28404      0.050123105    37.356691      710.27858     -90.87645       619.40213    
   7300000   298.14541      0.050123105    28.498507      739.70698     -96.004844      643.70214    
   7301000   296.76252      0.050123105    9.2512946      736.276       -90.257172      646.01882    
   7302000   304.4077       0.050123105    37.923902      755.24389     -84.752659      670.49123    
   7303000   291.11952      0.050123105    30.348373      722.27555     -98.226478      624.04908    
   7304000   298.93555      0.050123105    8.3145033      741.66733     -93.640809      648.02652    
   7305000   306.61131      0.050123105    20.081851      760.71111     -97.216668      663.49444    
   7306000   302.07003      0.050123105    26.703078      749.44408     -87.768022      661.67606    
   7307000   297.19972      0.050123105    29.449466      737.36069     -95.259377      642.10131    
   7308000   297.75085      0.050123105    15.541418      738.72807     -97.255571      641.4725     
   7309000   318.99121      0.050123105    39.581611      791.42599     -96.423658      695.00233    
   7310000   287.42565      0.050123105    25.898455      713.11096     -88.636235      624.47472    
   7311000   291.74254      0.050123105    19.665535      723.82128     -101.25912      622.56216    
   7312000   314.97532      0.050123105    19.903274      781.46244     -94.743309      686.71913    
   7313000   317.70041      0.050123105    23.465381      788.22347     -90.853986      697.36949    
   7314000   298.60884      0.050123105    26.821655      740.85676     -91.024438      649.83232    
   7315000   300.0787       0.050123105    10.475629      744.50353     -98.312278      646.19125    
   7316000   305.73625      0.050123105    22.098559      758.54007     -94.309567      664.2305     
   7317000   308.53139      0.050123105    27.500028      765.47488     -90.060323      675.41455    
   7318000   290.45088      0.050123105    17.723419      720.61663     -89.867439      630.74919    
   7319000   302.92178      0.050123105    16.930487      751.55729     -84.034415      667.52287    
   7320000   307.98945      0.050123105    25.649036      764.13032     -85.931712      678.19861    
   7321000   291.11206      0.050123105    18.727891      722.25704     -89.85732       632.39972    
   7322000   290.04919      0.050123105    18.601232      719.62005     -88.781953      630.83809    
   7323000   306.16185      0.050123105    26.913362      759.59598     -82.766769      676.82921    
   7324000   283.98457      0.050123105    22.146227      704.57354     -92.065856      612.50769    
   7325000   297.16742      0.050123105    26.8538        737.28057     -87.340818      649.93975    
   7326000   304.31984      0.050123105    16.751079      755.0259      -92.100156      662.92575    
   7327000   292.98313      0.050123105    25.236264      726.89922     -89.107845      637.79137    
   7328000   303.62549      0.050123105    28.521095      753.3032      -94.456893      658.84631    
   7329000   297.36494      0.050123105    11.275651      737.77062     -101.1038       636.66682    
   7330000   291.4831       0.050123105    37.167278      723.17761     -97.166072      626.01154    
   7331000   315.64709      0.050123105    27.023132      783.12913     -95.375106      687.75403    
   7332000   300.16409      0.050123105    14.335215      744.71538     -94.139646      650.57574    
   7333000   293.2372       0.050123105    24.103533      727.52959     -89.584317      637.94527    
   7334000   310.30351      0.050123105    43.663836      769.87156     -96.666991      673.20457    
   7335000   301.48935      0.050123105    22.349956      748.00339     -99.951746      648.05164    
   7336000   299.51254      0.050123105    19.144788      743.09887     -103.56914      639.52974    
   7337000   299.63458      0.050123105    19.501779      743.40165     -94.130252      649.27139    
   7338000   306.17836      0.050123105    26.142131      759.63695     -95.640048      663.9969     
   7339000   315.89768      0.050123105    30.342542      783.75084     -81.761991      701.98885    
   7340000   290.9865       0.050123105    19.993919      721.94553     -89.4272        632.51833    
   7341000   289.47804      0.050123105    20.872828      718.20299     -84.863836      633.33915    
   7342000   301.27355      0.050123105    27.62665       747.46798     -88.619157      658.84882    
   7343000   310.18484      0.050123105    29.866314      769.57713     -88.876815      680.70031    
   7344000   303.81487      0.050123105    26.42708       753.77307     -88.436506      665.33656    
   7345000   299.52587      0.050123105    23.628955      743.13193     -96.79204       646.33989    
   7346000   310.80866      0.050123105    24.72245       771.12485     -94.176214      676.94863    
   7347000   320.25047      0.050123105    24.528784      794.55025     -103.66925      690.881      
   7348000   294.99306      0.050123105    24.57924       731.88592     -99.178587      632.70733    
   7349000   285.82954      0.050123105    28.05812       709.15098     -95.932443      613.21853    
   7350000   324.30896      0.050123105    32.47658       804.61946     -93.974865      710.6446     
   7351000   297.82247      0.050123105    28.29677       738.90575     -88.409144      650.49661    
   7352000   294.02064      0.050123105    28.787427      729.47332     -88.896196      640.57712    
   7353000   290.15919      0.050123105    19.535806      719.89296     -90.281676      629.61128    
   7354000   302.79097      0.050123105    22.465201      751.23274     -89.432342      661.8004     
   7355000   295.63099      0.050123105    22.846582      733.46865     -86.845179      646.62347    
   7356000   300.47465      0.050123105    23.219149      745.48588     -75.116338      670.36954    
   7357000   303.16695      0.050123105    25.674179      752.16555     -79.433552      672.732      
   7358000   298.89552      0.050123105    24.892806      741.56801     -78.902292      662.66572    
   7359000   306.46292      0.050123105    25.648923      760.34294     -79.905026      680.43792    
   7360000   321.44746      0.050123105    21.770797      797.52001     -81.768272      715.75174    
   7361000   295.39917      0.050123105    23.382091      732.89349     -83.503663      649.38983    
   7362000   288.31655      0.050123105    26.148841      715.3213      -72.666428      642.65487    
   7363000   309.01667      0.050123105    28.240002      766.67889     -77.259945      689.41894    
   7364000   306.86571      0.050123105    23.106284      761.34229     -80.931513      680.41077    
   7365000   298.00164      0.050123105    18.019671      739.35027     -84.787426      654.56284    
   7366000   280.01193      0.050123105    19.158708      694.71732     -88.621772      606.09555    
   7367000   296.14452      0.050123105    27.59881       734.74271     -85.238639      649.50407    
   7368000   315.5688       0.050123105    41.259686      782.93488     -83.815248      699.11963    
   7369000   317.95454      0.050123105    23.7377        788.85397     -90.248667      698.60531    
   7370000   291.33732      0.050123105    22.123499      722.81593     -80.864737      641.95119    
   7371000   274.6145       0.050123105    23.657994      681.32614     -90.437077      590.88906    
   7372000   301.72629      0.050123105    30.873596      748.59124     -82.552686      666.03855    
   7373000   317.42184      0.050123105    51.055339      787.53232     -90.008243      697.52408    
   7374000   291.70324      0.050123105    13.919777      723.72377     -85.922231      637.80154    
   7375000   294.94819      0.050123105    30.137961      731.77459     -80.827527      650.94706    
   7376000   312.33317      0.050123105    42.518042      774.90721     -84.548051      690.35916    
   7377000   309.11842      0.050123105    23.243413      766.93133     -82.065072      684.86626    
   7378000   282.78593      0.050123105    14.074591      701.59969     -79.529223      622.07047    
   7379000   293.99103      0.050123105    24.548376      729.39984     -77.325798      652.07405    
   7380000   303.35553      0.050123105    45.897866      752.63344     -80.000197      672.63325    
   7381000   299.26757      0.050123105    38.621647      742.49108     -74.543974      667.94711    
   7382000   310.95702      0.050123105    36.621406      771.49294     -75.470936      696.022      
   7383000   295.20477      0.050123105    9.448646       732.41118     -72.746301      659.66488    
   7384000   278.10171      0.050123105    30.417488      689.97802     -72.102362      617.87565    
   7385000   304.78892      0.050123105    35.566409      756.1897      -75.900484      680.28922    
   7386000   301.34747      0.050123105    15.882087      747.65137     -73.329084      674.32229    
   7387000   303.68518      0.050123105    26.756203      753.4513      -77.284303      676.167      
   7388000   304.98116      0.050123105    23.564487      756.66666     -71.208528      685.45813    
   7389000   302.53959      0.050123105    17.272945      750.60906     -68.475332      682.13373    
   7390000   302.21435      0.050123105    23.90321       749.80212     -79.104997      670.69712    
   7391000   295.63338      0.050123105    34.731952      733.47457     -72.875649      660.59892    
   7392000   284.4447       0.050123105    34.409145      705.71513     -81.578223      624.13691    
   7393000   312.28122      0.050123105    30.078278      774.77831     -93.743859      681.03445    
   7394000   306.62161      0.050123105    19.308583      760.73667     -94.480743      666.25592    
   7395000   282.52752      0.050123105    24.071196      700.95858     -88.27335       612.68523    
   7396000   296.33853      0.050123105    29.309605      735.22406     -93.841309      641.38275    
   7397000   303.53151      0.050123105    29.959362      753.07005     -89.682637      663.38741    
   7398000   311.33978      0.050123105    13.818192      772.44258     -86.049652      686.39293    
   7399000   295.00979      0.050123105    24.827998      731.92741     -88.193392      643.73402    
   7400000   305.84674      0.050123105    40.479869      758.8142      -94.106003      664.7082     
   7401000   312.2074       0.050123105    32.321392      774.59517     -94.589309      680.00586    
   7402000   305.95413      0.050123105    23.305991      759.08064     -97.878235      661.2024     
   7403000   294.15089      0.050123105    14.622512      729.79648     -102.58339      627.21309    
   7404000   292.08339      0.050123105    14.40486       724.66694     -97.734945      626.93199    
   7405000   289.11605      0.050123105    22.385833      717.30489     -99.121575      618.18332    
   7406000   307.39852      0.050123105    29.109185      762.66421     -97.850109      664.8141     
   7407000   313.23946      0.050123105    21.969651      777.15574     -93.917213      683.23852    
   7408000   295.21051      0.050123105    19.357611      732.42541     -91.241201      641.18421    
   7409000   301.66317      0.050123105    31.482185      748.43464     -92.107814      656.32683    
   7410000   304.51926      0.050123105    23.145321      755.52067     -101.22759      654.29308    
   7411000   295.11781      0.050123105    23.071586      732.19542     -85.907231      646.28818    
   7412000   306.84706      0.050123105    23.527858      761.29601     -86.955446      674.34056    
   7413000   297.58637      0.050123105    23.927233      738.31999     -91.200355      647.11964    
   7414000   312.68016      0.050123105    29.393706      775.7681      -93.970077      681.79802    
   7415000   294.64398      0.050123105    30.021326      731.01984     -97.535316      633.48453    
   7416000   292.23554      0.050123105    18.028317      725.04442     -95.050038      629.99438    
   7417000   303.94904      0.050123105    22.869276      754.10595     -94.987269      659.11869    
   7418000   311.89427      0.050123105    32.314267      773.81829     -90.038799      683.77949    
   7419000   295.76324      0.050123105    28.1269        733.79675     -91.34451       642.45224    
   7420000   291.90145      0.050123105    24.955307      724.21555     -89.475355      634.7402     
   7421000   304.29999      0.050123105    21.800714      754.97667     -95.471278      659.50539    
   7422000   315.93385      0.050123105    29.488132      783.84058     -93.57851       690.26207    
   7423000   290.82626      0.050123105    30.418498      721.54797     -94.939028      626.60895    
   7424000   305.76255      0.050123105    21.05776       758.60531     -89.186027      669.41928    
   7425000   316.91145      0.050123105    29.772452      786.26605     -97.582454      688.6836     
   7426000   301.98262      0.050123105    33.671967      749.2272      -99.55013       649.67707    
   7427000   297.8527       0.050123105    19.350749      738.98075     -104.42636      634.55439    
   7428000   308.26108      0.050123105    22.759278      764.80423     -93.251912      671.55232    
   7429000   300.68         0.050123105    22.154028      745.99536     -92.702112      653.29325    
   7430000   309.93936      0.050123105    30.707815      768.96809     -93.537245      675.43085    
   7431000   305.49492      0.050123105    22.528862      757.94131     -94.172782      663.76853    
   7432000   295.0351       0.050123105    21.260218      731.99022     -88.605863      643.38435    
   7433000   298.31979      0.050123105    24.997899      740.13962     -90.979266      649.16035    
   7434000   317.31755      0.050123105    24.753177      787.27358     -98.612969      688.66061    
   7435000   312.16011      0.050123105    23.816508      774.47783     -93.825871      680.65196    
   7436000   295.48931      0.050123105    17.478691      733.11712     -95.394253      637.72287    
   7437000   288.15544      0.050123105    46.754166      714.9216      -95.399973      619.52162    
   7438000   316.47686      0.050123105    27.791129      785.18781     -92.562185      692.62563    
   7439000   302.53721      0.050123105    20.986353      750.60316     -98.416955      652.18621    
   7440000   286.18123      0.050123105    24.145841      710.02353     -96.764765      613.25877    
   7441000   307.57853      0.050123105    25.107153      763.11081     -95.838754      667.27205    
   7442000   305.88388      0.050123105    24.123805      758.90633     -91.055372      667.85096    
   7443000   283.3305       0.050123105    24.349708      702.95078     -95.821379      607.1294     
   7444000   304.88886      0.050123105    32.570302      756.43766     -93.017718      663.41994    
   7445000   305.68891      0.050123105    8.4306532      758.4226      -89.393521      669.02908    
   7446000   298.13254      0.050123105    8.7399628      739.67506     -97.437415      642.23764    
   7447000   292.92285      0.050123105    18.468943      726.74967     -99.238382      627.51129    
   7448000   292.47379      0.050123105    50.992515      725.63554     -100.56951      625.06603    
   7449000   313.03301      0.050123105    20.015933      776.64352     -96.157733      680.48579    
   7450000   304.56936      0.050123105    24.044578      755.64498     -104.06476      651.58022    
   7451000   292.69398      0.050123105    25.026881      726.18183     -102.40691      623.77492    
   7452000   286.36118      0.050123105    29.1501        710.46999     -94.775293      615.69469    
   7453000   303.73376      0.050123105    29.944739      753.57183     -99.416604      654.15522    
   7454000   313.05995      0.050123105    27.020461      776.71036     -100.74648      675.96388    
   7455000   294.00704      0.050123105    24.256395      729.43958     -92.355991      637.08359    
   7456000   287.89412      0.050123105    24.8693        714.27326     -89.68102       624.59224    
   7457000   302.25123      0.050123105    24.604241      749.89364     -95.29945       654.59419    
   7458000   306.68873      0.050123105    22.105345      760.9032      -100.85329      660.04992    
   7459000   293.30429      0.050123105    17.105844      727.69602     -93.524355      634.17167    
   7460000   282.65746      0.050123105    36.899372      701.28095     -91.261218      610.01973    
   7461000   311.48014      0.050123105    59.753494      772.79082     -99.610115      673.1807     
   7462000   301.31633      0.050123105    21.132836      747.57411     -94.528177      653.04594    
   7463000   291.11895      0.050123105    8.8246397      722.27414     -84.654113      637.62003    
   7464000   311.46674      0.050123105    27.631701      772.75756     -83.483881      689.27368    
   7465000   300.7843       0.050123105    32.018143      746.25414     -79.490919      666.76322    
   7466000   295.10389      0.050123105    26.520309      732.16088     -82.675132      649.48575    
   7467000   289.73474      0.050123105    21.892362      718.83988     -82.851931      635.98794    
   7468000   304.8995       0.050123105    32.45403       756.46407     -87.038248      669.42582    
   7469000   293.29851      0.050123105    27.465704      727.68168     -92.449304      635.23238    
   7470000   306.29849      0.050123105    16.279515      759.935       -91.236106      668.69889    
   7471000   296.75724      0.050123105    21.845075      736.2629      -94.63317       641.62973    
   7472000   286.76672      0.050123105    35.235492      711.47615     -89.482292      621.99386    
   7473000   292.35605      0.050123105    27.536113      725.34341     -91.467976      633.87544    
   7474000   297.88006      0.050123105    32.565089      739.04863     -84.364223      654.68441    
   7475000   312.44988      0.050123105    31.124801      775.19677     -78.296078      696.90069    
   7476000   295.72479      0.050123105    23.343911      733.70137     -88.731341      644.97003    
   7477000   300.13899      0.050123105    31.45865       744.65312     -82.878461      661.77466    
   7478000   304.97327      0.050123105    25.454694      756.64708     -81.672364      674.97472    
   7479000   299.29115      0.050123105    23.425059      742.54958     -94.806859      647.74272    
   7480000   291.94385      0.050123105    24.011384      724.32073     -92.368666      631.95206    
   7481000   292.15353      0.050123105    19.35691       724.84097     -92.857821      631.98315    
   7482000   319.04207      0.050123105    18.668588      791.55217     -91.534053      700.01812    
   7483000   312.32049      0.050123105    26.498896      774.87575     -97.765288      677.11046    
   7484000   292.64624      0.050123105    25.321767      726.0634      -89.559869      636.50353    
   7485000   304.43249      0.050123105    19.763446      755.3054      -92.346769      662.95863    
   7486000   312.91359      0.050123105    20.736002      776.34724     -88.517304      687.82993    
   7487000   309.09725      0.050123105    37.512254      766.8788      -87.381774      679.49703    
   7488000   294.51009      0.050123105    27.178588      730.68764     -81.671756      649.01588    
   7489000   298.4832       0.050123105    16.645595      740.54504     -80.113951      660.43109    
   7490000   297.24334      0.050123105    28.416618      737.46893     -87.539039      649.92989    
   7491000   294.16281      0.050123105    25.191568      729.82605     -92.484691      637.34136    
   7492000   301.48804      0.050123105    24.721543      748.00014     -90.996627      657.00351    
   7493000   304.20526      0.050123105    26.209371      754.74164     -87.873542      666.8681     
   7494000   295.99272      0.050123105    27.764228      734.36611     -85.201744      649.16436    
   7495000   289.82433      0.050123105    24.140092      719.06215     -81.278572      637.78358    
   7496000   320.48888      0.050123105    28.250536      795.14174     -86.13861       709.00313    
   7497000   301.72492      0.050123105    28.592786      748.58785     -77.997696      670.59015    
   7498000   300.84385      0.050123105    17.120528      746.40188     -81.679319      664.72256    
   7499000   302.48286      0.050123105    24.473194      750.46832     -84.675831      665.79249    
   7500000   310.78192      0.050123105    28.629237      771.0585      -85.037731      686.02077    
   7501000   307.06578      0.050123105    26.206264      761.83865     -80.498959      681.33969    
   7502000   295.44189      0.050123105    24.941262      732.99947     -79.493215      653.50626    
   7503000   298.52254      0.050123105    23.809         740.64264     -81.803092      658.83955    
   7504000   307.59559      0.050123105    32.859642      763.15314     -85.760797      677.39234    
   7505000   309.28409      0.050123105    29.115412      767.34236     -86.778416      680.56394    
   7506000   289.46647      0.050123105    25.964818      718.17429     -90.313188      627.8611     
   7507000   307.13765      0.050123105    28.098584      762.01697     -85.42917       676.5878     
   7508000   308.36938      0.050123105    23.429627      765.07293     -90.39877       674.67416    
   7509000   298.10876      0.050123105    33.477051      739.61604     -90.783141      648.8329     
   7510000   290.43985      0.050123105    13.121094      720.58927     -91.538495      629.05077    
   7511000   302.73739      0.050123105    10.37689       751.0998      -84.035841      667.06396    
   7512000   305.0871       0.050123105    24.565313      756.9295      -81.283546      675.64595    
   7513000   302.07054      0.050123105    32.643806      749.44534     -85.288469      664.15687    
   7514000   298.93609      0.050123105    65.181917      741.66868     -89.171286      652.49739    
   7515000   306.84783      0.050123105    6.8117395      761.29792     -84.157152      677.14076    
   7516000   295.86828      0.050123105   -28.023723      734.05735     -81.537412      652.51994    
   7517000   309.21234      0.050123105   -1.2050004      767.16434     -77.446828      689.71751    
   7518000   301.74781      0.050123105    33.916545      748.64465     -75.413007      673.23164    
   7519000   286.91904      0.050123105    29.753307      711.85405     -75.604292      636.24975    
   7520000   307.73285      0.050123105    6.5803664      763.49368     -84.511714      678.98196    
   7521000   304.98506      0.050123105    23.800954      756.67634     -85.173627      671.50272    
   7522000   294.81101      0.050123105    24.591383      731.43425     -88.661378      642.77288    
   7523000   290.69667      0.050123105    1.1872197      721.22645     -83.692554      637.53389    
   7524000   309.17451      0.050123105    31.858842      767.07047     -84.560779      682.50969    
   7525000   309.94437      0.050123105    38.76998       768.98053     -79.426772      689.55376    
   7526000   303.45533      0.050123105    30.317321      752.88104     -78.47929       674.40175    
   7527000   304.75465      0.050123105    17.399241      756.10468     -84.840373      671.2643     
   7528000   293.82949      0.050123105    36.664762      728.99905     -75.938062      653.06099    
   7529000   291.26844      0.050123105    33.351755      722.64503     -73.314454      649.33057    
   7530000   301.90157      0.050123105   -5.8550745      749.02611     -77.718981      671.30713    
   7531000   303.093        0.050123105    42.867729      751.98209     -82.660674      669.32142    
   7532000   296.42225      0.050123105    29.038482      735.43178     -77.540176      657.8916     
   7533000   292.22367      0.050123105    22.061426      725.01499     -78.407543      646.60744    
   7534000   294.51339      0.050123105    18.883734      730.69583     -83.141312      647.55452    
   7535000   292.27937      0.050123105    13.210949      725.15318     -78.022823      647.13035    
   7536000   310.74022      0.050123105    45.96013       770.95504     -82.284697      688.67034    
   7537000   294.73884      0.050123105    25.611083      731.25518     -85.609021      645.64616    
   7538000   292.11537      0.050123105   -24.096501      724.74629     -80.730921      644.01537    
   7539000   312.64414      0.050123105    22.526314      775.67873     -85.488578      690.19016    
   7540000   312.13482      0.050123105    31.681158      774.4151      -80.684209      693.73089    
   7541000   304.29771      0.050123105    17.992906      754.971       -83.815293      671.15571    
   7542000   304.5021       0.050123105    46.262236      755.4781      -79.552014      675.92609    
   7543000   300.49164      0.050123105    29.059104      745.52803     -77.432255      668.09577    
   7544000   302.15804      0.050123105    9.7675757      749.66242     -75.073191      674.58923    
   7545000   301.50153      0.050123105    25.372951      748.0336      -72.629047      675.40455    
   7546000   297.94414      0.050123105    25.130998      739.20763     -82.128664      657.07897    
   7547000   293.54261      0.050123105    23.789356      728.28731     -69.402681      658.88463    
   7548000   312.63506      0.050123105    23.793492      775.6562      -70.777556      704.87864    
   7549000   309.72867      0.050123105    26.206987      768.44538     -67.033474      701.4119     
   7550000   292.79605      0.050123105    24.788524      726.43508     -71.244853      655.19023    
   7551000   300.88813      0.050123105    27.076406      746.51175     -76.322667      670.18909    
   7552000   305.18114      0.050123105    23.928405      757.16282     -77.851669      679.31115    
   7553000   299.48023      0.050123105    23.743498      743.01871     -72.514901      670.50381    
   7554000   301.14741      0.050123105    31.737842      747.15503     -66.728077      680.42695    
   7555000   303.05518      0.050123105    17.90461       751.88826     -69.884518      682.00374    
   7556000   309.17915      0.050123105    18.955036      767.082       -76.297447      690.78455    
   7557000   300.88823      0.050123105    24.206297      746.51198     -70.592667      675.91931    
   7558000   291.75912      0.050123105    23.313346      723.86243     -73.543007      650.31942    
   7559000   314.8799       0.050123105    25.915662      781.2257      -75.304271      705.92143    
   7560000   298.75151      0.050123105    16.740352      741.21074     -75.223974      665.98676    
   7561000   297.60299      0.050123105    25.097778      738.36121     -74.159825      664.20139    
   7562000   290.73138      0.050123105    41.480897      721.31256     -76.908836      644.40372    
   7563000   313.63708      0.050123105    27.724776      778.14224     -75.330729      702.81151    
   7564000   297.52361      0.050123105    21.407977      738.16428     -76.097864      662.06642    
   7565000   293.32882      0.050123105    31.524688      727.75688     -73.156513      654.60037    
   7566000   317.27714      0.050123105    32.03215       787.17333     -77.403024      709.77031    
   7567000   309.2693       0.050123105    22.439752      767.30566     -79.728354      687.57731    
   7568000   279.79843      0.050123105    11.63826       694.18761     -80.447789      613.73982    
   7569000   306.78478      0.050123105    32.053583      761.14151     -74.504793      686.63671    
   7570000   313.56773      0.050123105    32.243514      777.97018     -77.826516      700.14366    
   7571000   300.41877      0.050123105    20.75157       745.34724     -83.41329       661.93395    
   7572000   298.103        0.050123105    14.946964      739.60177     -86.475905      653.12587    
   7573000   304.47313      0.050123105    37.225387      755.40623     -83.653587      671.75264    
   7574000   298.7823       0.050123105   -3.0123749      741.28713     -82.439284      658.84785    
   7575000   295.99757      0.050123105    10.85329       734.37813     -81.601154      652.77697    
   7576000   302.56803      0.050123105    45.102078      750.67963     -79.909039      670.7706     
   7577000   298.75851      0.050123105    34.060818      741.2281      -80.913203      660.3149     
   7578000   315.2997       0.050123105    33.174029      782.26724     -82.777849      699.48939    
   7579000   304.1379       0.050123105    20.921997      754.57451     -81.203159      673.37135    
   7580000   294.72382      0.050123105    26.193219      731.21792     -81.473039      649.74488    
   7581000   324.28161      0.050123105    29.488046      804.55161     -81.085487      723.46612    
   7582000   298.66486      0.050123105    20.168792      740.99576     -85.797829      655.19793    
   7583000   291.24195      0.050123105    21.187786      722.57931     -85.760715      636.8186     
   7584000   297.22696      0.050123105    22.929121      737.42828     -81.983321      655.44496    
   7585000   313.10232      0.050123105    28.929076      776.81549     -81.560365      695.25512    
   7586000   326.28474      0.050123105    27.207605      809.52145     -80.357806      729.16364    
   7587000   293.08398      0.050123105    22.948064      727.14943     -84.270839      642.87859    
   7588000   298.38888      0.050123105    20.184216      740.31104     -87.25337       653.05767    
   7589000   309.61247      0.050123105    27.093085      768.15708     -84.7198        683.43728    
   7590000   304.70578      0.050123105    28.701666      755.98345     -85.216754      670.76669    
   7591000   307.49366      0.050123105    25.537895      762.90024     -86.954007      675.94624    
   7592000   294.6546       0.050123105    20.54876       731.04619     -85.139587      645.9066     
   7593000   299.23587      0.050123105    23.421532      742.41245     -90.441021      651.97143    
   7594000   299.53895      0.050123105    27.443008      743.1644      -87.214407      655.94999    
   7595000   297.93241      0.050123105    26.847313      739.17852     -90.282233      648.89629    
   7596000   304.95717      0.050123105    29.888207      756.60714     -94.192862      662.41427    
   7597000   300.07709      0.050123105    25.376223      744.49954     -96.283714      648.21583    
   7598000   299.22911      0.050123105    26.448202      742.39567     -91.527093      650.86858    
   7599000   304.59321      0.050123105    15.86271       755.70414     -96.652954      659.05119    
   7600000   303.54323      0.050123105    20.636999      753.09911     -91.001155      662.09796    
   7601000   296.6391       0.050123105    28.102522      735.96978     -90.614632      645.35515    
   7602000   296.95875      0.050123105    28.788102      736.76284     -87.546559      649.21628    
   7603000   308.52016      0.050123105    20.481027      765.44701     -91.743678      673.70334    
   7604000   302.12105      0.050123105    23.494029      749.57064     -78.019162      671.55148    
   7605000   313.00989      0.050123105    35.806872      776.58616     -81.966099      694.62006    
   7606000   301.08913      0.050123105    24.072016      747.01042     -92.723969      654.28645    
   7607000   295.10418      0.050123105    26.287933      732.16161     -91.886231      640.27538    
   7608000   294.77108      0.050123105    24.234177      731.33517     -94.584877      636.75029    
   7609000   296.62579      0.050123105    23.193112      735.93676     -93.666459      642.2703     
   7610000   299.05191      0.050123105    24.165878      741.95604     -87.045259      654.91078    
   7611000   310.31426      0.050123105    24.390811      769.89825     -84.461416      685.43683    
   7612000   294.9245       0.050123105    22.817902      731.7158      -87.055111      644.66069    
   7613000   298.51836      0.050123105    22.651237      740.63228     -81.379807      659.25247    
   7614000   297.67268      0.050123105    32.02621       738.53413     -84.476134      654.05799    
   7615000   297.39387      0.050123105    27.968632      737.8424      -83.664826      654.17757    
   7616000   313.96494      0.050123105    25.683177      778.95568     -84.987703      693.96797    
   7617000   293.24557      0.050123105    20.658908      727.55034     -88.42155       639.12879    
   7618000   277.90161      0.050123105    26.284972      689.48155     -94.500774      594.98078    
   7619000   299.49689      0.050123105    34.894245      743.06004     -89.570881      653.48916    
   7620000   308.31369      0.050123105    22.798081      764.93476     -88.550365      676.3844     
   7621000   317.77404      0.050123105    24.696075      788.40615     -92.202885      696.20327    
   7622000   292.43056      0.050123105    23.911752      725.52828     -90.63972       634.88856    
   7623000   298.94186      0.050123105    23.495635      741.68298     -91.119266      650.56372    
   7624000   306.84059      0.050123105    23.815755      761.27997     -89.507179      671.77279    
   7625000   310.20789      0.050123105    16.375356      769.63432     -98.673439      670.96088    
   7626000   296.81631      0.050123105    21.471755      736.40946     -85.899529      650.50993    
   7627000   289.17451      0.050123105    26.131897      717.44992     -80.407652      637.04227    
   7628000   305.34466      0.050123105    25.701287      757.56853     -83.412543      674.15598    
   7629000   311.49873      0.050123105    29.736848      772.83694     -77.986846      694.8501     
   7630000   297.47186      0.050123105    9.6740899      738.03589     -80.120762      657.91513    
   7631000   282.35546      0.050123105    25.713424      700.53167     -78.906923      621.62475    
   7632000   305.81045      0.050123105    28.744531      758.72415     -80.870194      677.85396    
   7633000   307.16998      0.050123105   -5.9424206      762.09718     -84.075705      678.02147    
   7634000   300.84397      0.050123105    32.765313      746.40219     -85.46993       660.93225    
   7635000   305.68924      0.050123105    18.509188      758.42342     -89.087338      669.33608    
   7636000   291.61802      0.050123105    19.051541      723.51234     -95.335113      628.17723    
   7637000   300.67763      0.050123105    29.756476      745.98949     -81.130274      664.85921    
   7638000   314.12642      0.050123105    20.979147      779.35631     -81.076045      698.28027    
   7639000   284.65184      0.050123105    26.675351      706.22906     -74.038577      632.19049    
   7640000   305.46558      0.050123105    42.225504      757.86853     -75.564254      682.30428    
   7641000   316.32393      0.050123105    17.269126      784.80838     -78.070081      706.7383     
   7642000   295.60253      0.050123105    24.724294      733.39802     -74.083504      659.31452    
   7643000   297.64636      0.050123105    25.292643      738.46882     -75.762283      662.70654    
   7644000   300.87661      0.050123105    25.755537      746.48316     -75.738629      670.74453    
   7645000   309.64142      0.050123105    26.753112      768.22889     -77.216051      691.01284    
   7646000   291.88323      0.050123105    23.402687      724.17033     -83.595804      640.57453    
   7647000   303.7588       0.050123105    27.305732      753.63395     -87.921646      665.71231    
   7648000   314.06664      0.050123105    29.796091      779.208       -81.824075      697.38393    
   7649000   304.87903      0.050123105    25.820849      756.41327     -84.296886      672.11639    
   7650000   279.30275      0.050123105    21.369352      692.95783     -84.250661      608.70717    
   7651000   293.75634      0.050123105    20.861872      728.81758     -87.65535       641.16223    
   7652000   302.65948      0.050123105    26.231579      750.90651     -84.841866      666.06464    
   7653000   291.36126      0.050123105    25.782918      722.87532     -83.589632      639.28569    
   7654000   298.28958      0.050123105    31.918256      740.06468     -83.060411      657.00427    
   7655000   294.02456      0.050123105    24.074439      729.48304     -84.518602      644.96444    
   7656000   309.24647      0.050123105    30.072564      767.24901     -76.794489      690.45452    
   7657000   298.03071      0.050123105    20.988552      739.4224      -85.607106      653.81529    
   7658000   298.97968      0.050123105    25.282695      741.77682     -82.77977       658.99705    
   7659000   303.02248      0.050123105    31.769671      751.80713     -85.101445      666.70569    
   7660000   305.79375      0.050123105    25.975466      758.68272     -90.710537      667.97219    
   7661000   297.24378      0.050123105    23.239473      737.47002     -91.089145      646.38087    
   7662000   306.42405      0.050123105    22.67044       760.24652     -89.328257      670.91826    
   7663000   300.23381      0.050123105    26.171412      744.88835     -80.055015      664.83334    
   7664000   312.74829      0.050123105    27.050176      775.93713     -85.032478      690.90466    
   7665000   304.71388      0.050123105    27.659714      756.00352     -83.245366      672.75816    
   7666000   302.689        0.050123105    14.03043       750.97976     -81.704498      669.27526    
   7667000   294.26689      0.050123105    26.955137      730.08427     -80.917803      649.16647    
   7668000   300.13357      0.050123105    29.386584      744.63966     -69.74697       674.89269    
   7669000   300.53782      0.050123105    30.509758      745.64263     -72.730862      672.91177    
   7670000   308.91201      0.050123105    12.806697      766.41921     -76.411602      690.00761    
   7671000   302.92123      0.050123105    18.09119       751.55592     -79.215653      672.34027    
   7672000   291.18317      0.050123105    30.47481       722.43347     -79.901756      642.53171    
   7673000   303.71115      0.050123105    28.787728      753.51574     -84.191848      669.32389    
   7674000   305.89051      0.050123105    23.022898      758.9228      -80.760323      678.16247    
   7675000   300.58057      0.050123105    20.485419      745.74867     -80.133673      665.615      
   7676000   282.88817      0.050123105    29.677973      701.85336     -69.491813      632.36154    
   7677000   293.12888      0.050123105    35.551965      727.26083     -66.083956      661.17688    
   7678000   322.53535      0.050123105    26.586694      800.21909     -71.017932      729.20116    
   7679000   295.0221       0.050123105    18.900081      731.95797     -75.327454      656.63052    
   7680000   300.53295      0.050123105    26.458877      745.63054     -82.327603      663.30294    
   7681000   298.42754      0.050123105    24.935892      740.40695     -90.506439      649.90051    
   7682000   309.26462      0.050123105    27.244647      767.29404     -84.919273      682.37476    
   7683000   301.12283      0.050123105    22.225861      747.09404     -86.020485      661.07356    
   7684000   297.14405      0.050123105    24.689507      737.22259     -76.697485      660.5251     
   7685000   290.28725      0.050123105    16.398626      720.21066     -82.375507      637.83515    
   7686000   298.30056      0.050123105    16.107903      740.09192     -85.584902      654.50702    
   7687000   314.28942      0.050123105    21.743347      779.76071     -88.399077      691.36164    
   7688000   301.48013      0.050123105    29.026187      747.98052     -87.861075      660.11944    
   7689000   287.46914      0.050123105    22.870208      713.21887     -89.994126      623.22474    
   7690000   293.50941      0.050123105    22.054767      728.20492     -82.980936      645.22399    
   7691000   329.46081      0.050123105    27.722975      817.40136     -76.286148      741.11521    
   7692000   299.26143      0.050123105    25.495329      742.47586     -73.331331      669.14453    
   7693000   306.15655      0.050123105    22.63204       759.58284     -77.669079      681.91376    
   7694000   305.56286      0.050123105    26.469455      758.10988     -80.844546      677.26534    
   7695000   293.09873      0.050123105    20.908487      727.18604     -83.835303      643.35073    
   7696000   296.226        0.050123105    24.611096      734.94487     -84.645472      650.2994     
   7697000   308.52196      0.050123105    31.336028      765.45149     -80.042904      685.40859    
   7698000   306.24777      0.050123105    25.48853       759.80915     -81.748134      678.06102    
   7699000   276.97623      0.050123105    33.921318      687.18567     -77.136959      610.04871    
   7700000   292.82407      0.050123105    25.356245      726.50459     -79.41753       647.08706    
   7701000   296.27734      0.050123105    25.697792      735.07224     -77.393741      657.6785     
   7702000   292.81931      0.050123105    39.069062      726.49278     -77.437343      649.05544    
   7703000   311.25958      0.050123105    21.655721      772.2436      -75.587765      696.65584    
   7704000   300.11179      0.050123105    20.356642      744.58562     -77.846655      666.73897    
   7705000   295.84455      0.050123105    25.001451      733.99849     -82.893806      651.10469    
   7706000   302.5952       0.050123105    26.74713       750.74702     -76.722938      674.02408    
   7707000   298.74132      0.050123105    13.880584      741.18545     -75.28182       665.90363    
   7708000   300.61848      0.050123105    22.423814      745.84275     -75.884916      669.95783    
   7709000   293.3783       0.050123105    32.309431      727.87966     -82.372586      645.50707    
   7710000   303.23088      0.050123105    28.635587      752.32416     -78.28228       674.04188    
   7711000   298.04621      0.050123105    22.198386      739.46086     -76.220686      663.24018    
   7712000   297.44408      0.050123105    21.685889      737.96696     -72.833203      665.13375    
   7713000   301.77325      0.050123105    20.041157      748.70775     -77.77335       670.9344     
   7714000   300.77289      0.050123105    21.474594      746.22582     -75.654935      670.57089    
   7715000   298.30417      0.050123105    27.294158      740.10086     -73.955837      666.14503    
   7716000   297.1173       0.050123105    22.74665       737.15622     -77.050243      660.10598    
   7717000   317.46528      0.050123105    23.720125      787.6401      -76.736376      710.90373    
   7718000   304.38913      0.050123105    35.553914      755.19783     -79.045526      676.1523     
   7719000   294.70715      0.050123105    28.096093      731.17657     -80.634131      650.54244    
   7720000   304.54955      0.050123105    20.049561      755.59583     -84.167293      671.42854    
   7721000   303.10293      0.050123105    25.775709      752.00671     -82.438224      669.56849    
   7722000   307.35284      0.050123105    25.965263      762.55088     -85.351563      677.19932    
   7723000   288.1891       0.050123105    26.857214      715.00509     -82.073822      632.93127    
   7724000   294.91843      0.050123105    23.684432      731.70076     -94.307638      637.39312    
   7725000   304.30835      0.050123105    23.03895       754.99741     -88.400235      666.59717    
   7726000   293.91793      0.050123105    22.130911      729.2185      -89.580388      639.63811    
   7727000   301.244        0.050123105    24.319144      747.39467     -79.668148      667.72652    
   7728000   305.9639       0.050123105    25.438498      759.10488     -80.418373      678.68651    
   7729000   306.01679      0.050123105    21.869591      759.23608     -83.010015      676.22607    
   7730000   306.93414      0.050123105    29.101189      761.51206     -80.072274      681.43978    
   7731000   301.50758      0.050123105    30.4599        748.04863     -80.350837      667.69779    
   7732000   304.54544      0.050123105    25.993094      755.58562     -80.583633      675.00199    
   7733000   298.5076       0.050123105    12.016327      740.60559     -73.980021      666.62557    
   7734000   297.69672      0.050123105    26.617507      738.59376     -75.661956      662.9318     
   7735000   308.26874      0.050123105    32.54324       764.82324     -74.280838      690.5424     
   7736000   301.66647      0.050123105    19.779624      748.44282     -73.007305      675.43552    
   7737000   298.67133      0.050123105    24.648289      741.01179     -68.631425      672.38037    
   7738000   300.27128      0.050123105    16.426448      744.98132     -76.670224      668.3111     
   7739000   295.2045       0.050123105    27.687098      732.4105      -73.132034      659.27846    
   7740000   285.88639      0.050123105    19.248183      709.29202     -84.341722      624.9503     
   7741000   295.23706      0.050123105    23.97714       732.49129     -79.656521      652.83477    
   7742000   304.59528      0.050123105    21.480219      755.70929     -77.736397      677.97289    
   7743000   289.44702      0.050123105    18.640955      718.12603     -80.191134      637.93489    
   7744000   302.25903      0.050123105    26.375648      749.91298     -79.791572      670.12141    
   7745000   307.23313      0.050123105    29.225782      762.25385     -78.621975      683.63188    
   7746000   314.02992      0.050123105    16.239815      779.11689     -90.341479      688.77541    
   7747000   282.23713      0.050123105    11.965734      700.23809     -86.163498      614.0746     
   7748000   287.99245      0.050123105    30.313993      714.51721     -87.956856      626.56035    
   7749000   288.76835      0.050123105    25.468984      716.44224     -95.211894      621.23034    
   7750000   314.31282      0.050123105    28.44059       779.81878     -89.113368      690.70541    
   7751000   299.83234      0.050123105    26.795117      743.89231     -85.392051      658.50025    
   7752000   297.724        0.050123105    21.656172      738.66146     -80.160999      658.50046    
   7753000   302.00808      0.050123105    25.241916      749.29038     -84.605328      664.68505    
   7754000   302.16476      0.050123105    22.340595      749.6791      -84.112582      665.56652    
   7755000   300.57334      0.050123105    23.52509       745.73073     -83.562885      662.16784    
   7756000   300.56211      0.050123105    27.105703      745.70288     -85.624882      660.078      
   7757000   276.1094       0.050123105    19.80728       685.03502     -81.225169      603.80985    
   7758000   305.58067      0.050123105    26.715896      758.15407     -92.028068      666.12601    
   7759000   307.85243      0.050123105    24.706092      763.79035     -90.104043      673.68631    
   7760000   288.22943      0.050123105    22.984268      715.10516     -88.485056      626.6201     
   7761000   304.85772      0.050123105    25.10794       756.36041     -89.60546       666.75495    
   7762000   308.21682      0.050123105    28.601813      764.69442     -91.112408      673.58201    
   7763000   301.73622      0.050123105    29.066181      748.61589     -85.666218      662.94967    
   7764000   289.98955      0.050123105    29.070594      719.47208     -84.223055      635.24902    
   7765000   300.25373      0.050123105    25.731492      744.93779     -83.985188      660.9526     
   7766000   309.94933      0.050123105    21.446346      768.99284     -89.505666      679.48717    
   7767000   304.05182      0.050123105    32.529169      754.36095     -82.452816      671.90814    
   7768000   298.48119      0.050123105    23.629721      740.54005     -84.483961      656.05609    
   7769000   301.35202      0.050123105    17.113538      747.66267     -79.275296      668.38738    
   7770000   297.71801      0.050123105    24.092227      738.64659     -76.092446      662.55414    
   7771000   303.79178      0.050123105    29.113077      753.71578     -74.10172       679.61406    
   7772000   300.28369      0.050123105    30.192523      745.01212     -72.171081      672.84104    
   7773000   286.49016      0.050123105    21.321802      710.78999     -73.184467      637.60552    
   7774000   298.68737      0.050123105    24.867923      741.05159     -70.99102       670.06057    
   7775000   302.83521      0.050123105    29.90544       751.34251     -73.171883      678.17063    
   7776000   291.17326      0.050123105    25.675742      722.40889     -76.281919      646.12697    
   7777000   304.08116      0.050123105    27.695184      754.43374     -73.234728      681.19901    
   7778000   311.44415      0.050123105    34.791544      772.70152     -78.985041      693.71648    
   7779000   286.87024      0.050123105    21.967445      711.73296     -82.652057      629.0809     
   7780000   303.08817      0.050123105    27.496418      751.9701      -87.28798       664.68212    
   7781000   288.22645      0.050123105    23.244222      715.09776     -83.576439      631.52132    
   7782000   312.08029      0.050123105    23.259272      774.27979     -93.50194       680.77785    
   7783000   305.7698       0.050123105    28.2153        758.6233      -89.739394      668.88391    
   7784000   302.2604       0.050123105    29.238902      749.91639     -89.497189      660.4192     
   7785000   279.59516      0.050123105    21.1172        693.68329     -85.373961      608.30933    
   7786000   305.7988       0.050123105    14.735004      758.69525     -88.77104       669.92421    
   7787000   306.02118      0.050123105    26.789202      759.24697     -89.483839      669.76313    
   7788000   281.80552      0.050123105    21.29619       699.16726     -85.084155      614.08311    
   7789000   300.16837      0.050123105    23.040199      744.72599     -88.655379      656.07061    
   7790000   309.53204      0.050123105    22.735881      767.95753     -90.875621      677.08191    
   7791000   303.86215      0.050123105    24.539182      753.89038     -92.088204      661.80218    
   7792000   306.53107      0.050123105    24.97238       760.51204     -94.670444      665.8416     
   7793000   278.53245      0.050123105    22.549869      691.0467      -95.586089      595.46061    
   7794000   310.51417      0.050123105    37.712744      770.39421     -95.966313      674.42789    
   7795000   303.32655      0.050123105    27.888588      752.56153     -92.446048      660.11549    
   7796000   282.12946      0.050123105    29.134224      699.97097     -85.633558      614.33741    
   7797000   292.02163      0.050123105    18.590986      724.51371     -88.303358      636.21035    
   7798000   314.8454       0.050123105    22.425854      781.14011     -92.033921      689.10619    
   7799000   303.20814      0.050123105    29.695603      752.26776     -96.892813      655.37495    
   7800000   290.91533      0.050123105   -15.795454      721.76896     -86.597313      635.17165    
   7801000   303.28329      0.050123105    28.434354      752.45421     -85.733011      666.7212     
   7802000   288.89122      0.050123105    26.564515      716.74709     -84.685915      632.06117    
   7803000   299.58376      0.050123105    24.472734      743.27556     -93.506272      649.76929    
   7804000   300.9974       0.050123105    19.802931      746.78284     -95.382942      651.3999     
   7805000   296.13732      0.050123105    28.229044      734.72485     -89.251278      645.47357    
   7806000   288.2469       0.050123105    44.728081      715.14849     -89.715633      625.43286    
   7807000   302.23077      0.050123105    38.716357      749.84287     -88.334671      661.5082     
   7808000   296.97455      0.050123105    20.00419       736.80204     -97.934699      638.86734    
   7809000   303.29609      0.050123105    21.856866      752.48597     -92.228786      660.25718    
   7810000   305.61227      0.050123105    24.300168      758.23247     -83.194611      675.03786    
   7811000   322.02711      0.050123105    28.672441      798.95815     -87.216776      711.74137    
   7812000   298.30665      0.050123105    25.100968      740.10701     -83.42873       656.67828    
   7813000   291.6592       0.050123105    26.2196        723.61451     -87.553957      636.06055    
   7814000   311.97662      0.050123105    32.246927      774.02261     -80.599711      693.42289    
   7815000   300.41643      0.050123105    20.037239      745.34145     -85.244593      660.09686    
   7816000   304.19511      0.050123105    21.424937      754.71646     -91.908962      662.8075     
   7817000   299.98724      0.050123105    24.928464      744.27662     -88.123704      656.15292    
   7818000   306.58969      0.050123105    28.273073      760.65748     -84.098539      676.55894    
   7819000   286.95852      0.050123105    28.154985      711.95201     -81.221814      630.73019    
   7820000   301.43118      0.050123105    23.501591      747.85907     -85.39722       662.46185    
   7821000   307.49226      0.050123105    29.007571      762.89676     -88.003673      674.89309    
   7822000   310.94552      0.050123105    26.773099      771.4644      -86.714405      684.74999    
   7823000   311.06733      0.050123105    27.432812      771.76663     -86.064455      685.70218    
   7824000   307.87643      0.050123105    11.697985      763.84992     -85.675581      678.17434    
   7825000   285.34355      0.050123105    21.003271      707.94521     -85.532929      622.41228    
   7826000   307.94055      0.050123105    26.481915      764.009       -83.793381      680.21562    
   7827000   314.97147      0.050123105    24.600998      781.45291     -85.06441       696.3885     
   7828000   297.78268      0.050123105    27.287511      738.80704     -88.183664      650.62337    
   7829000   290.82781      0.050123105    23.479427      721.5518      -85.940746      635.61106    
   7830000   303.23142      0.050123105    15.545         752.3255      -87.054272      665.27123    
   7831000   307.37295      0.050123105    33.559259      762.60076     -92.526686      670.07407    
   7832000   291.25152      0.050123105    25.393991      722.60305     -86.089639      636.51341    
   7833000   297.52346      0.050123105    26.621383      738.16391     -94.680903      643.483      
   7834000   295.93287      0.050123105    23.887259      734.2176      -86.977795      647.2398     
   7835000   306.99758      0.050123105    15.054729      761.66945     -83.158149      678.5113     
   7836000   292.50524      0.050123105    26.419313      725.71356     -78.318516      647.39505    
   7837000   303.07943      0.050123105    28.226917      751.94842     -78.712619      673.23581    
   7838000   307.0217       0.050123105    19.206796      761.72929     -73.742721      687.98657    
   7839000   274.48948      0.050123105    13.180982      681.01597     -72.957326      608.05865    
   7840000   303.27721      0.050123105    30.439516      752.43911     -77.313905      675.1252     
   7841000   318.94289      0.050123105    28.908487      791.3061      -76.028403      715.27769    
   7842000   304.66029      0.050123105    32.673778      755.87059     -71.523599      684.34699    
   7843000   296.84995      0.050123105    19.294699      736.49292     -75.368653      661.12427    
   7844000   300.6826       0.050123105    27.255152      746.00182     -87.668468      658.33336    
   7845000   301.34594      0.050123105    47.781784      747.64758     -79.000409      668.64717    
   7846000   303.04177      0.050123105    25.417674      751.855       -96.538474      655.31652    
   7847000   291.71694      0.050123105    5.0218811      723.75776     -89.560399      634.19736    
   7848000   304.29086      0.050123105    30.311763      754.95401     -79.899295      675.05472    
   7849000   304.01543      0.050123105    36.364533      754.27065     -80.177067      674.09359    
   7850000   306.7327       0.050123105    14.884474      761.01228     -77.424272      683.58801    
   7851000   280.4781       0.050123105    11.96426       695.8739      -81.198473      614.67542    
   7852000   295.63947      0.050123105    27.233569      733.48967     -83.376801      650.11287    
   7853000   306.385        0.050123105    25.364347      760.14963     -82.029469      678.12016    
   7854000   308.75162      0.050123105    26.155272      766.02128     -76.653533      689.36775    
   7855000   283.11872      0.050123105    24.964671      702.42535     -74.619204      627.80614    
   7856000   294.51438      0.050123105    19.08532       730.6983      -76.548584      654.14972    
   7857000   304.7383       0.050123105    21.726712      756.06412     -80.836258      675.22786    
   7858000   310.6196       0.050123105    29.559851      770.6558      -77.035679      693.62012    
   7859000   283.51974      0.050123105    30.143213      703.42029     -78.358221      625.06207    
   7860000   310.67522      0.050123105    25.732805      770.79378     -77.622084      693.1717     
   7861000   312.626        0.050123105    24.185394      775.63372     -81.211851      694.42187    
   7862000   311.59799      0.050123105    27.518749      773.08321     -73.552879      699.53033    
   7863000   294.56471      0.050123105    25.935934      730.82316     -73.994392      656.82877    
   7864000   310.18964      0.050123105    23.010876      769.58905     -76.206841      693.38221    
   7865000   308.74091      0.050123105    26.88947       765.99471     -74.099946      691.89476    
   7866000   295.98421      0.050123105    24.379584      734.34499     -74.141983      660.203      
   7867000   300.01894      0.050123105    24.737852      744.35526     -76.376768      667.97849    
   7868000   308.27983      0.050123105    28.091453      764.85076     -73.339593      691.51117    
   7869000   297.32747      0.050123105    19.974189      737.67764     -82.521322      655.15632    
   7870000   302.36938      0.050123105    25.795194      750.18676     -79.878892      670.30787    
   7871000   305.76626      0.050123105    22.234719      758.61452     -84.334856      674.27967    
   7872000   291.6674       0.050123105    26.825476      723.63485     -80.213411      643.42144    
   7873000   286.66075      0.050123105    18.174104      711.21322     -76.726568      634.48665    
   7874000   311.49378      0.050123105    19.85391       772.82465     -71.513515      701.31114    
   7875000   308.22267      0.050123105    27.096966      764.70894     -72.402748      692.3062     
   7876000   273.79235      0.050123105    23.255424      679.28636     -70.495198      608.79116    
   7877000   292.50297      0.050123105    21.938461      725.70792     -73.051895      652.65603    
   7878000   303.62348      0.050123105    29.867398      753.29822     -72.008429      681.28979    
   7879000   291.84089      0.050123105    30.138124      724.06529     -81.696291      642.369      
   7880000   300.66049      0.050123105    23.325058      745.94696     -78.237899      667.70906    
   7881000   307.84895      0.050123105    28.041348      763.78172     -76.535729      687.24599    
   7882000   293.76951      0.050123105    27.408232      728.85024     -71.481148      657.3691     
   7883000   293.96141      0.050123105    12.030302      729.32635     -81.909526      647.41683    
   7884000   303.96484      0.050123105    31.676046      754.14516     -84.138578      670.00658    
   7885000   304.77633      0.050123105    21.196667      756.15847     -80.371937      675.78653    
   7886000   290.14352      0.050123105    19.957931      719.85408     -73.870176      645.9839     
   7887000   291.07193      0.050123105    48.28444       722.15748     -79.187507      642.96997    
   7888000   304.80108      0.050123105    26.315548      756.21988     -85.076997      671.14289    
   7889000   301.06282      0.050123105    25.287574      746.94516     -80.673356      666.2718     
   7890000   299.90984      0.050123105    38.166341      744.08458     -81.591295      662.49328    
   7891000   297.81235      0.050123105    29.179285      738.88065     -76.671691      662.20896    
   7892000   305.31814      0.050123105    25.133547      757.50272     -82.547723      674.955      
   7893000   312.27229      0.050123105    29.942624      774.75616     -83.610653      691.1455     
   7894000   299.86561      0.050123105    27.950009      743.97484     -80.236549      663.73829    
   7895000   296.85947      0.050123105    20.976447      736.51652     -84.026152      652.49037    
   7896000   308.4747       0.050123105    21.075466      765.33423     -78.14923       687.185      
   7897000   306.65611      0.050123105    27.09603       760.82225     -83.97993       676.84232    
   7898000   300.16644      0.050123105    31.755415      744.72122     -84.194122      660.5271     
   7899000   305.57202      0.050123105    20.135172      758.13261     -84.048847      674.08377    
   7900000   301.27357      0.050123105    23.897308      747.46803     -80.958413      666.50962    
   7901000   298.08922      0.050123105    29.778336      739.56758     -86.073734      653.49385    
   7902000   286.18535      0.050123105    31.696834      710.03375     -87.932925      622.10083    
   7903000   300.71728      0.050123105    10.121548      746.08786     -86.438725      659.64913    
   7904000   310.4903       0.050123105    29.543843      770.335       -80.899192      689.4358     
   7905000   298.64128      0.050123105    29.301951      740.93725     -90.337799      650.59945    
   7906000   283.70701      0.050123105    41.774579      703.8849      -90.340656      613.54424    
   7907000   300.22671      0.050123105    13.820795      744.87074     -85.256575      659.61417    
   7908000   303.72932      0.050123105   -11.662732      753.56081     -83.252549      670.30826    
   7909000   300.42467      0.050123105    32.650778      745.36189     -87.624068      657.73783    
   7910000   285.66484      0.050123105    31.396717      708.74235     -88.153381      620.58896    
   7911000   306.80777      0.050123105    12.296974      761.19854     -87.12641       674.07213    
   7912000   304.90782      0.050123105    22.112929      756.48471     -93.346817      663.13789    
   7913000   288.05931      0.050123105    47.98029       714.6831      -90.42649       624.25661    
   7914000   298.49262      0.050123105    16.382188      740.56842     -88.349296      652.21912    
   7915000   317.38112      0.050123105    34.373446      787.43131     -83.261226      704.17008    
   7916000   301.49902      0.050123105    14.821297      748.02737     -84.390617      663.63676    
   7917000   293.08105      0.050123105    41.379764      727.14217     -83.529618      643.61255    
   7918000   300.64995      0.050123105    25.133024      745.9208      -80.901768      665.01903    
   7919000   306.23658      0.050123105    13.850693      759.7814      -79.454197      680.32721    
   7920000   304.60409      0.050123105    28.276678      755.73116     -84.361543      671.36961    
   7921000   288.27724      0.050123105    23.614533      715.22378     -82.220909      633.00288    
   7922000   285.56594      0.050123105    26.755572      708.49696     -87.45029       621.04667    
   7923000   316.7865       0.050123105    27.153852      785.95604     -90.508542      695.4475     
   7924000   305.49784      0.050123105    24.189376      757.94855     -85.651824      672.29673    
   7925000   287.8441       0.050123105    19.890555      714.14915     -88.128062      626.02108    
   7926000   283.60371      0.050123105    24.306571      703.62862     -90.92586       612.70276    
   7927000   304.36076      0.050123105    25.038885      755.12744     -92.167256      662.96018    
   7928000   295.58682      0.050123105    25.013361      733.35904     -91.678487      641.68055    
   7929000   309.63107      0.050123105    22.811499      768.20322     -95.83068       672.37253    
   7930000   295.33567      0.050123105    25.580869      732.73594     -97.435442      635.3005     
   7931000   301.25223      0.050123105    23.249187      747.4151      -95.457913      651.95719    
   7932000   298.51398      0.050123105    25.14473       740.62141     -89.675255      650.94615    
   7933000   308.72896      0.050123105    28.400318      765.96505     -93.42735       672.5377     
   7934000   299.2474       0.050123105    21.822236      742.44105     -95.549765      646.89129    
   7935000   301.11889      0.050123105    23.694932      747.08428     -100.86752      646.21675    
   7936000   298.59344      0.050123105    28.885187      740.81856     -96.577268      644.2413     
   7937000   300.37773      0.050123105    24.927374      745.24542     -105.82342      639.42201    
   7938000   287.73591      0.050123105    20.561005      713.88074     -103.28387      610.59686    
   7939000   308.33594      0.050123105    27.074754      764.98997     -95.116025      669.87395    
   7940000   307.59761      0.050123105    24.612624      763.15814     -89.067481      674.09066    
   7941000   296.18909      0.050123105    24.150789      734.85329     -87.382919      647.47037    
   7942000   294.29242      0.050123105    31.027665      730.14761     -89.063853      641.08376    
   7943000   308.32992      0.050123105    31.630098      764.97503     -91.395131      673.5799     
   7944000   301.09198      0.050123105    19.952352      747.01751     -94.376649      652.64086    
   7945000   294.0043       0.050123105    22.989929      729.43278     -91.831006      637.60178    
   7946000   302.62955      0.050123105    28.428838      750.83225     -94.41041       656.42184    
   7947000   312.92246      0.050123105    21.065557      776.36926     -89.550951      686.8183     
   7948000   296.42165      0.050123105    19.487371      735.43028     -93.707606      641.72268    
   7949000   286.06761      0.050123105    20.71795       709.74163     -90.415501      619.32613    
   7950000   312.71761      0.050123105    40.610818      775.861       -92.937392      682.92361    
   7951000   300.9462       0.050123105    19.952421      746.65582     -90.492832      656.16299    
   7952000   293.71591      0.050123105    28.544173      728.71728     -91.313418      637.40386    
   7953000   308.10799      0.050123105    27.786138      764.42441     -86.460627      677.96378    
   7954000   296.69317      0.050123105    14.146698      736.10394     -91.523398      644.58054    
   7955000   291.38362      0.050123105    9.9766758      722.9308      -84.449347      638.48146    
   7956000   298.24887      0.050123105    24.240803      739.96366     -86.619362      653.3443     
   7957000   306.31845      0.050123105    36.025651      759.98451     -88.635705      671.34881    
   7958000   307.93373      0.050123105    21.865487      763.99206     -86.238145      677.75392    
   7959000   296.56341      0.050123105    21.52258       735.78199     -79.655623      656.12636    
   7960000   281.4771       0.050123105    7.6767261      698.35245     -84.180661      614.17178    
   7961000   300.03497      0.050123105    55.28467       744.39504     -85.340436      659.0546     
   7962000   310.06477      0.050123105    19.256315      769.27925     -89.782149      679.4971     
   7963000   306.6732       0.050123105    15.16442       760.86465     -90.585738      670.27891    
   7964000   293.9592       0.050123105    41.701043      729.32088     -82.52483       646.79605    
   7965000   301.92103      0.050123105    37.18329       749.0744      -79.605684      669.46872    
   7966000   305.56664      0.050123105   -5.0785188      758.11925     -79.468822      678.65043    
   7967000   287.13132      0.050123105    3.0329293      712.38073     -85.644555      626.73618    
   7968000   293.68128      0.050123105    24.572834      728.63135     -80.250826      648.38052    
   7969000   296.78801      0.050123105    27.248144      736.33923     -83.65734       652.68189    
   7970000   308.41717      0.050123105    8.5645358      765.1915      -88.370711      676.82079    
   7971000   297.20272      0.050123105    13.990331      737.36815     -85.40662       651.96153    
   7972000   288.87184      0.050123105    32.877582      716.699       -87.634756      629.06425    
   7973000   294.07469      0.050123105    33.577926      729.60742     -84.737224      644.8702     
   7974000   304.39005      0.050123105    17.202018      755.2001      -87.2611        667.939      
   7975000   304.87844      0.050123105    21.659139      756.4118      -90.982376      665.42943    
   7976000   290.84561      0.050123105    28.572616      721.59597     -89.322722      632.27325    
   7977000   303.84834      0.050123105    31.272935      753.85611     -79.390868      674.46525    
   7978000   313.54061      0.050123105    22.810056      777.90291     -74.289123      703.61378    
   7979000   286.56874      0.050123105    21.782495      710.98495     -82.402094      628.58285    
   7980000   287.6105       0.050123105    34.050386      713.56957     -86.452613      627.11696    
   7981000   301.21057      0.050123105    27.462998      747.31172     -88.763172      658.54854    
   7982000   306.0087       0.050123105    5.2864853      759.21601     -87.489958      671.72606    
   7983000   304.45497      0.050123105    15.854324      755.36117     -81.51911       673.84206    
   7984000   291.92413      0.050123105    45.838153      724.27181     -83.34202       640.92979    
   7985000   300.39479      0.050123105    25.2999        745.28776     -80.635317      664.65244    
   7986000   308.13336      0.050123105    38.167189      764.48736     -84.343474      680.14388    
   7987000   309.24458      0.050123105    26.847547      767.24432     -83.878357      683.36597    
   7988000   303.04335      0.050123105    22.557799      751.8589      -84.505166      667.35374    
   7989000   295.44107      0.050123105    21.85539       732.99745     -88.70443       644.29302    
   7990000   297.37112      0.050123105    26.196346      737.78595     -89.193053      648.5929     
   7991000   299.27269      0.050123105    26.169927      742.50379     -88.956686      653.5471     
   7992000   308.05723      0.050123105    27.156061      764.29847     -78.736329      685.56214    
   7993000   296.20782      0.050123105    32.760379      734.89976     -81.297387      653.60237    
   7994000   294.56207      0.050123105    21.694647      730.81661     -82.071159      648.74545    
   7995000   300.32028      0.050123105    21.963745      745.10289     -83.601387      661.5015     
   7996000   311.66697      0.050123105    51.074954      773.25435     -86.399719      686.85463    
   7997000   294.79216      0.050123105    24.997798      731.38748     -84.645429      646.74205    
   7998000   292.89347      0.050123105    14.760982      726.67676     -78.604749      648.07201    
   7999000   292.76095      0.050123105    11.511427      726.34798     -76.704105      649.64388    
   8000000   298.04066      0.050123105    29.621122      739.44708     -72.44703       667.00005    
Loop time of 15355.4 on 1 procs for 8000000 steps with 1500 atoms

Performance: 11.253 ns/day, 2.133 hours/ns, 520.989 timesteps/s, 781.484 katom-step/s
99.6% CPU use with 1 MPI tasks x 1 OpenMP threads

MPI task timing breakdown:
Section |  min time  |  avg time  |  max time  |%varavg| %total
---------------------------------------------------------------
Pair    | 1261       | 1261       | 1261       |   0.0 |  8.21
Bond    | 362.55     | 362.55     | 362.55     |   0.0 |  2.36
Kspace  | 12036      | 12036      | 12036      |   0.0 | 78.38
Neigh   | 0.067386   | 0.067386   | 0.067386   |   0.0 |  0.00
Comm    | 67.597     | 67.597     | 67.597     |   0.0 |  0.44
Output  | 0.2677     | 0.2677     | 0.2677     |   0.0 |  0.00
Modify  | 1592.1     | 1592.1     | 1592.1     |   0.0 | 10.37
Other   |            | 35.91      |            |       |  0.23

Nlocal:           1500 ave        1500 max        1500 min
Histogram: 1 0 0 0 0 0 0 0 0 0
Nghost:           2025 ave        2025 max        2025 min
Histogram: 1 0 0 0 0 0 0 0 0 0
Neighs:              0 ave           0 max           0 min
Histogram: 1 0 0 0 0 0 0 0 0 0

Total # of neighbors = 0
Ave neighs/atom = 0
Ave special neighs/atom = 2
Neighbor list builds = 29695
Dangerous builds = 0
write_data	last_conf.data pair ij
System init for write_data ...
PPPM initialization ...
  using 12-bit tables for long-range coulomb (src/kspace.cpp:342)
  G vector (1/distance) = 0.18386167
  grid = 24 24 24
  stencil order = 5
  estimated absolute RMS force accuracy = 0.023168919
  estimated relative force accuracy = 6.977251e-05
  using double precision FFTW3
  3d grid and FFT values/proc = 24389 13824
Generated 1 of 1 mixed pair_coeff terms from arithmetic mixing rule
Total wall time: 4:15:55
