LAMMPS (29 Aug 2024 - Update 1)
  using 1 OpenMP thread(s) per MPI task
package gpu 1 gpuID 0
# GCMC for CO2 molecular fluid, rigid/small/nvt dynamics
# Rigid CO2 TraPPE model
# [Potoff and J.I. Siepmann, Vapor-liquid equilibria of
# mixtures containing alkanes, carbon dioxide and
# nitrogen AIChE J., 47,1676-1682 (2001)].

# global model settings

units           real
atom_style      full
boundary        p p p
pair_style      lj/cut/coul/long  12
pair_modify     mix arithmetic shift yes
kspace_style    pppm 1.0e-4
bond_style      harmonic
angle_style     harmonic
neigh_modify    one 4000

# box, start molecules on simple cubic lattice
region          mbox block 0 ${lbox} 0 ${lbox} 0 ${lbox} units box
region          mbox block 0 100 0 ${lbox} 0 ${lbox} units box
region          mbox block 0 100 0 100 0 ${lbox} units box
region          mbox block 0 100 0 100 0 100 units box
create_box      2 mbox                                       bond/types 1                                angle/types 1                               extra/bond/per/atom 2                       extra/angle/per/atom 1                      extra/special/per/atom 2
Created orthogonal box = (0 0 0) to (100 100 100)
  1 by 1 by 1 MPI processor grid
molecule        co2mol ../CO2.txt
Read molecule template co2mol:
# CO2 molecule file. TraPPE model.
  1 molecules
  0 fragments
  3 atoms with max type 2
  2 bonds with max type 1
  1 angles with max type 1
  0 dihedrals with max type 0
  0 impropers with max type 0
create_atoms   	0 random ${nmols} 34578 mbox mol co2mol 464563 overlap 1.2
create_atoms   	0 random 500 34578 mbox mol co2mol 464563 overlap 1.2
Created 1500 atoms
  using lattice units in orthogonal box = (0 0 0) to (100 100 100)
  create_atoms CPU = 0.012 seconds

# rigid CO2 TraPPE model

pair_coeff      1   1  0.053649   2.800
pair_coeff      2   2  0.156973   3.050
bond_coeff      1       0       1.16
angle_coeff     1       0       180

# masses

mass 1 12.0107
mass 2 15.9994

write_data init_conf.data  pair ij
System init for write_data ...
PPPM initialization ...
  using 12-bit tables for long-range coulomb (src/kspace.cpp:342)
  G vector (1/distance) = 0.17553521
  grid = 24 24 24
  stencil order = 5
  estimated absolute RMS force accuracy = 0.030437558
  estimated relative force accuracy = 9.1661803e-05
  using double precision FFTW3
  3d grid and FFT values/proc = 24389 13824
Generated 1 of 1 mixed pair_coeff terms from arithmetic mixing rule

# MD settings

group           co2 type 1 2
1500 atoms in group co2
velocity       	all create 300 54654
timestep        0.25

# rigid constraints with thermostat
fix             myrigidnvt co2 rigid/nvt molecule temp 300 300 $(100*dt)
fix             myrigidnvt co2 rigid/nvt molecule temp 300 300 25
  500 rigid bodies with 1500 atoms

thermo 1000
thermo_style custom step temp density press ke pe etotal


variable    mvol equal vol
variable    mden equal density
variable	mtmp equal temp
variable    mpre equal press

fix mydat all ave/time 1 4000 4000 v_mtmp v_mden v_mpre file statistics.dat ## every 1ps

run 4000000 ## 1ns

CITE-CITE-CITE-CITE-CITE-CITE-CITE-CITE-CITE-CITE-CITE-CITE-CITE

Your simulation uses code contributions which should be cited:

- GPU package (short-range, long-range and three-body potentials): doi:10.1016/j.cpc.2010.12.021, doi:10.1016/j.cpc.2011.10.012, doi:10.1016/j.cpc.2013.08.002, doi:10.1016/j.commatsci.2014.10.068, doi:10.1016/j.cpc.2016.10.020, doi:10.3233/APC200086

@Article{Brown11,
 author = {W. M. Brown and P. Wang and S. J. Plimpton and A. N. Tharrington},
 title = {Implementing Molecular Dynamics on Hybrid High Performance Computers---Short Range Forces},
 journal = {Comput.\ Phys.\ Commun.},
 year =    2011,
 volume =  182,
 pages =   {898--911},
 doi =     {10.1016/j.cpc.2010.12.021}
}

@Article{Brown12,
 author = {W. M. Brown and A. Kohlmeyer and S. J. Plimpton and A. N. Tharrington},
 title = {Implementing Molecular Dynamics on Hybrid High Performance Computers - Particle-Particle Particle-Mesh},
 journal = {Comput.\ Phys.\ Commun.},
 year =    2012,
 volume =  183,
 doi =     {10.1016/j.cpc.2011.10.012},
 pages =   {449--459}
}

@Article{Brown13,
 author = {W. M. Brown and Y. Masako},
 title = {Implementing Molecular Dynamics on Hybrid High Performance Computers---Three-Body Potentials},
 journal = {Comput.\ Phys.\ Commun.},
 year =    2013,
 volume =  184,
 pages =   {2785--2793},
 doi =     {10.1016/j.cpc.2013.08.002},
}

@Article{Trung15,
 author = {T. D. Nguyen and S. J. Plimpton},
 title = {Accelerating Dissipative Particle Dynamics Simulations for Soft Matter Systems},
 journal = {Comput.\ Mater.\ Sci.},
 year =    2015,
 doi =     {10.1016/j.commatsci.2014.10.068},
 volume =  100,
 pages =   {173--180}
}

@Article{Trung17,
 author = {T. D. Nguyen},
 title = {{GPU}-Accelerated {T}ersoff Potentials for Massively Parallel
    Molecular Dynamics Simulations},
 journal = {Comput.\ Phys.\ Commun.},
 year =    2017,
 doi =     {10.1016/j.cpc.2016.10.020},
 volume =  212,
 pages =   {113--122}
}

@inproceedings{Nikolskiy19,
 author = {V. Nikolskiy and V. Stegailov},
 title = {{GPU} Acceleration of Four-Site Water Models in {LAMMPS}},
 booktitle = {Proceedings of the International Conference on Parallel
    Computing (ParCo 2019), Prague, Czech Republic},
 doi =     {10.3233/APC200086},
 year =    2019
}

CITE-CITE-CITE-CITE-CITE-CITE-CITE-CITE-CITE-CITE-CITE-CITE-CITE

PPPM initialization ...
  using 12-bit tables for long-range coulomb (src/kspace.cpp:342)
  G vector (1/distance) = 0.17553521
  grid = 24 24 24
  stencil order = 5
  estimated absolute RMS force accuracy = 0.030437558
  estimated relative force accuracy = 9.1661803e-05
  using double precision FFTW3
  3d grid and FFT values/proc = 24389 13824
Generated 1 of 1 mixed pair_coeff terms from arithmetic mixing rule
Per MPI rank memory allocation (min/avg/max) = 9.615 | 9.615 | 9.615 Mbytes
   Step          Temp         Density         Press          KinEng         PotEng         TotEng    
         0   305.66621      0.036539744   -1269.9347      758.3663       15091.722      15850.088    
      1000   317.14149      0.036539744    12.96427       786.83677     -46.282744      740.55403    
      2000   306.08885      0.036539744    23.423467      759.41488     -65.70679       693.70809    
      3000   286.97859      0.036539744    18.549938      712.00179     -74.912921      637.08887    
      4000   303.99625      0.036539744    17.838181      754.22307     -84.219181      670.00389    
      5000   293.62379      0.036539744    24.578989      728.48871     -83.530319      644.9584     
      6000   297.91014      0.036539744    12.535279      739.12327     -100.26913      638.85414    
      7000   293.07984      0.036539744    18.679661      727.13915     -96.397315      630.74184    
      8000   302.85963      0.036539744    16.767638      751.40308     -107.95891      643.44417    
      9000   291.03276      0.036539744    19.386575      722.06031     -113.37266      608.68765    
     10000   300.49214      0.036539744    21.664806      745.52928     -112.25564      633.27363    
     11000   311.67715      0.036539744    17.585871      773.27959     -117.55511      655.72448    
     12000   307.86653      0.036539744    21.054315      763.82536     -119.39932      644.42604    
     13000   292.76775      0.036539744    17.795284      726.36485     -127.32373      599.04113    
     14000   300.04321      0.036539744    20.017499      744.41547     -131.30676      613.10871    
     15000   301.192        0.036539744    16.405728      747.26564     -123.09939      624.16625    
     16000   301.41111      0.036539744    22.914397      747.80928     -128.56466      619.24462    
     17000   309.27647      0.036539744    17.879131      767.32344     -142.28815      625.03529    
     18000   303.2742       0.036539744    23.350038      752.43166     -140.12116      612.3105     
     19000   319.48333      0.036539744    23.482024      792.64696     -146.52005      646.1269     
     20000   293.39895      0.036539744    22.349242      727.93088     -134.68731      593.24357    
     21000   293.47387      0.036539744    12.232957      728.11676     -158.16948      569.94728    
     22000   315.14237      0.036539744    21.692864      781.8769      -156.92483      624.95207    
     23000   297.32593      0.036539744    19.688131      737.67384     -149.31927      588.35457    
     24000   288.64943      0.036539744    17.954329      716.14719     -150.48258      565.66461    
     25000   307.03427      0.036539744    16.083383      761.76048     -155.63587      606.12461    
     26000   308.58378      0.036539744    16.63929       765.60486     -153.42695      612.17791    
     27000   298.25723      0.036539744    14.486186      739.98441     -160.13919      579.84522    
     28000   281.36407      0.036539744    17.194334      698.07202     -166.15429      531.91773    
     29000   301.0954       0.036539744    21.837295      747.02597     -157.21016      589.81582    
     30000   304.11726      0.036539744    14.440608      754.52331     -161.51599      593.00732    
     31000   307.29333      0.036539744    12.083748      762.40323     -158.76217      603.64106    
     32000   296.68578      0.036539744    21.341545      736.0856      -169.66707      566.41852    
     33000   297.94067      0.036539744    8.3296737      739.19901     -170.50806      568.69095    
     34000   311.29705      0.036539744    18.352133      772.33656     -175.13084      597.20571    
     35000   295.43974      0.036539744    19.288807      732.99414     -171.66261      561.33153    
     36000   291.60062      0.036539744    15.8484        723.46919     -175.45866      548.01052    
     37000   289.94086      0.036539744    14.7046        719.35126     -174.52436      544.8269     
     38000   306.64671      0.036539744    19.455381      760.79894     -167.55121      593.24773    
     39000   295.13221      0.036539744    18.146604      732.23116     -162.28191      569.94925    
     40000   286.86187      0.036539744    22.433324      711.7122      -155.65489      556.05731    
     41000   293.02686      0.036539744    20.556131      727.00771     -156.6071       570.40061    
     42000   303.1873       0.036539744    9.748731       752.21605     -163.78082      588.43523    
     43000   288.50296      0.036539744    12.961519      715.7838      -174.75113      541.03268    
     44000   313.22253      0.036539744    20.058152      777.11372     -184.71276      592.40097    
     45000   292.1447       0.036539744    17.916204      724.81905     -178.42818      546.39087    
     46000   299.56196      0.036539744    18.805499      743.22149     -187.05136      556.17012    
     47000   302.79441      0.036539744    15.973188      751.24128     -183.5659       567.67539    
     48000   311.48153      0.036539744    13.910977      772.79425     -179.59362      593.20064    
     49000   291.19217      0.036539744    14.284909      722.45579     -185.88947      536.56632    
     50000   299.18507      0.036539744    10.132144      742.28641     -179.56078      562.72563    
     51000   313.43613      0.036539744    3.4940446      777.64367     -179.07339      598.57028    
     52000   306.17614      0.036539744    22.910271      759.63143     -179.70112      579.93031    
     53000   292.06844      0.036539744    25.249858      724.62986     -168.3687       556.26116    
     54000   293.97282      0.036539744   -7.9835879      729.35466     -164.62359      564.73107    
     55000   317.53042      0.036539744    10.891454      787.80171     -172.40524      615.39647    
     56000   301.0498       0.036539744    31.790526      746.91286     -169.71922      577.19364    
     57000   284.30451      0.036539744    12.758849      705.36732     -161.50669      543.86063    
     58000   302.22453      0.036539744    14.792778      749.82739     -166.2813       583.54609    
     59000   304.05858      0.036539744    1.9118662      754.37771     -167.44672      586.93099    
     60000   305.1639       0.036539744    41.855045      757.12004     -166.91351      590.20653    
     61000   296.98679      0.036539744    14.4004        736.83242     -168.14973      568.68269    
     62000   300.75113      0.036539744   -31.250858      746.17185     -165.84363      580.32822    
     63000   317.90166      0.036539744    14.896703      788.72277     -159.53728      629.18549    
     64000   314.82265      0.036539744    38.157062      781.08366     -165.32208      615.76159    
     65000   292.71681      0.036539744    30.75207       726.23848     -170.10007      556.13841    
     66000   294.5499       0.036539744    2.8920154      730.78643     -167.82394      562.96249    
     67000   308.68808      0.036539744    21.219825      765.86363     -165.62147      600.24217    
     68000   281.74049      0.036539744    17.564806      699.00593     -166.67356      532.33237    
     69000   299.2019       0.036539744    19.537628      742.32815     -162.96869      579.35946    
     70000   298.96097      0.036539744    16.567542      741.73041     -177.51401      564.21641    
     71000   303.15214      0.036539744    20.598708      752.12881     -169.50959      582.61922    
     72000   289.67505      0.036539744    17.214329      718.69179     -169.11043      549.58136    
     73000   307.90249      0.036539744    19.078365      763.91456     -174.08176      589.83279    
     74000   297.91608      0.036539744    18.478286      739.13802     -170.76369      568.37433    
     75000   297.28145      0.036539744    15.400178      737.56347     -168.37332      569.19015    
     76000   297.23648      0.036539744    10.721033      737.45191     -170.38163      567.07028    
     77000   302.57674      0.036539744    17.042438      750.70122     -172.23679      578.46443    
     78000   317.2877       0.036539744    16.431936      787.19952     -165.16564      622.03388    
     79000   299.08314      0.036539744    17.009422      742.03352     -164.56024      577.47327    
     80000   295.71029      0.036539744    17.729772      733.66537     -163.98287      569.68249    
     81000   299.10392      0.036539744    17.858638      742.08507     -161.96824      580.11684    
     82000   300.01333      0.036539744    11.411135      744.34133     -164.6917       579.64963    
     83000   301.03022      0.036539744    14.267294      746.86427     -166.44738      580.41689    
     84000   293.83865      0.036539744    18.683925      729.02178     -175.67137      553.35041    
     85000   300.16785      0.036539744    23.847926      744.72472     -169.93556      574.78916    
     86000   301.77049      0.036539744    6.6450216      748.70091     -164.75003      583.95088    
     87000   306.16823      0.036539744    12.961491      759.61182     -161.33552      598.2763     
     88000   282.01416      0.036539744    6.9832512      699.6849      -151.27049      548.4144     
     89000   294.40413      0.036539744    17.276427      730.42475     -153.84551      576.57924    
     90000   298.74594      0.036539744    28.945767      741.1969      -153.11201      588.08489    
     91000   314.13343      0.036539744    8.3285089      779.37369     -149.50239      629.8713     
     92000   294.63867      0.036539744    15.791597      731.00665     -145.34147      585.66519    
     93000   296.5767       0.036539744    19.439456      735.81497     -136.57635      599.23862    
     94000   320.55527      0.036539744    21.18789       795.30645     -146.557        648.74946    
     95000   284.62833      0.036539744    10.812805      706.17074     -139.88597      566.28477    
     96000   295.86964      0.036539744    27.235522      734.06074     -137.06536      596.99538    
     97000   314.44145      0.036539744    27.393125      780.13789     -142.98634      637.15155    
     98000   302.22588      0.036539744    14.446462      749.83073     -134.41022      615.42051    
     99000   285.27586      0.036539744    18.716824      707.77728     -130.95825      576.81903    
    100000   291.18597      0.036539744    14.695837      722.44041     -137.19384      585.24658    
    101000   302.90163      0.036539744    18.392091      751.50729     -131.92243      619.58487    
    102000   319.6719       0.036539744    30.065822      793.11479     -132.72864      660.38616    
    103000   300.93818      0.036539744    17.156835      746.63593     -128.40311      618.23281    
    104000   298.50443      0.036539744    23.190463      740.59773     -129.90557      610.69216    
    105000   286.40007      0.036539744    21.132636      710.56647     -122.1946       588.37186    
    106000   307.56347      0.036539744    17.915046      763.07346     -125.81275      637.26071    
    107000   306.5552       0.036539744    21.886543      760.5719      -126.03629      634.53561    
    108000   289.02798      0.036539744    13.836865      717.08639     -128.58661      588.49978    
    109000   281.19003      0.036539744    16.523206      697.64021     -130.26261      567.37761    
    110000   302.07584      0.036539744    19.003289      749.45849     -126.8333       622.62519    
    111000   296.45905      0.036539744    20.670051      735.52308     -125.04795      610.47513    
    112000   295.62101      0.036539744    16.838249      733.44389     -124.00853      609.43536    
    113000   308.49757      0.036539744    16.720329      765.39098     -131.18995      634.20103    
    114000   307.85347      0.036539744    23.048556      763.79294     -134.04475      629.74819    
    115000   289.66659      0.036539744    17.121957      718.67079     -138.32245      580.34834    
    116000   307.69446      0.036539744    16.081453      763.39843     -138.1872       625.21123    
    117000   294.60249      0.036539744    11.96364       730.9169      -133.01458      597.90232    
    118000   292.72751      0.036539744    12.840372      726.26503     -133.17185      593.09318    
    119000   288.34936      0.036539744    17.691005      715.40272     -132.18498      583.21774    
    120000   308.50435      0.036539744    19.327352      765.40781     -127.97906      637.42875    
    121000   300.97187      0.036539744    10.162699      746.7195      -130.37352      616.34598    
    122000   302.75165      0.036539744    19.20955       751.13519     -123.10894      628.02625    
    123000   301.15588      0.036539744    28.851849      747.17605     -121.4903       625.68575    
    124000   303.24901      0.036539744    13.866248      752.36916     -125.00521      627.36395    
    125000   287.1801       0.036539744    12.803072      712.50174     -128.77811      583.72363    
    126000   299.01052      0.036539744    19.61117       741.85333     -135.53862      606.31471    
    127000   308.6919       0.036539744    14.932668      765.87312     -136.98263      628.89049    
    128000   306.73279      0.036539744    18.849992      761.0125      -140.4871       620.5254     
    129000   293.60814      0.036539744    17.276848      728.44989     -137.40985      591.04004    
    130000   302.3529       0.036539744    17.12683       750.14588     -132.81442      617.33146    
    131000   316.44078      0.036539744    22.470809      785.0983      -128.28006      656.81823    
    132000   304.54669      0.036539744    17.792093      755.58874     -124.0852       631.50354    
    133000   292.55209      0.036539744    20.47515       725.82979     -120.72862      605.10117    
    134000   295.22962      0.036539744    15.164181      732.47281     -116.87201      615.6008     
    135000   285.87936      0.036539744   -2.8747826      709.27458     -116.84325      592.43133    
    136000   301.94111      0.036539744    14.64421       749.12423     -115.36736      633.75687    
    137000   316.24557      0.036539744    31.650923      784.61397     -105.93704      678.67693    
    138000   281.9755       0.036539744    16.893552      699.58899     -100.55625      599.03274    
    139000   291.78954      0.036539744    5.15758        723.93788     -107.46262      616.47526    
    140000   311.95092      0.036539744    32.786754      773.95883     -106.26508      667.69375    
    141000   303.6905       0.036539744    16.766374      753.46451     -107.72637      645.73814    
    142000   292.67048      0.036539744    16.406352      726.12353     -106.37338      619.75015    
    143000   302.35167      0.036539744    11.854633      750.14283     -106.51089      643.63194    
    144000   292.78271      0.036539744    25.474547      726.40198     -97.818747      628.58324    
    145000   290.66978      0.036539744    14.518811      721.15974     -99.777238      621.3825     
    146000   290.62855      0.036539744    3.4166498      721.05744     -98.559464      622.49798    
    147000   318.90877      0.036539744    10.012716      791.22145     -94.063367      697.15808    
    148000   301.80176      0.036539744    12.982134      748.77848     -103.15622      645.62226    
    149000   303.75341      0.036539744    20.081122      753.62059     -100.91104      652.70956    
    150000   304.31014      0.036539744    19.671121      755.00185     -97.4           657.60185    
    151000   288.62476      0.036539744    11.436964      716.08599     -100.39084      615.69515    
    152000   307.45         0.036539744    9.0571045      762.79192     -103.68657      659.10535    
    153000   309.19583      0.036539744    16.97498       767.12338     -101.20709      665.91629    
    154000   289.93219      0.036539744    31.946866      719.32976     -93.953786      625.37598    
    155000   285.66396      0.036539744    23.658628      708.74017     -88.606503      620.13367    
    156000   294.04196      0.036539744    5.8846266      729.52621     -96.483779      633.04243    
    157000   306.93198      0.036539744    15.380011      761.50671     -100.84585      660.66086    
    158000   295.58363      0.036539744    21.878963      733.35112     -99.434514      633.91661    
    159000   313.35157      0.036539744    21.024485      777.43389     -98.539867      678.89403    
    160000   286.55778      0.036539744    18.390387      710.95775     -101.29457      609.66318    
    161000   297.77262      0.036539744    10.852575      738.78208     -106.55162      632.23046    
    162000   302.69541      0.036539744    16.291591      750.99566     -104.78863      646.20703    
    163000   298.051        0.036539744    29.579373      739.47275     -99.537022      639.93573    
    164000   290.271        0.036539744    19.557604      720.17035     -101.46118      618.70918    
    165000   300.38625      0.036539744    3.6128162      745.26657     -104.37313      640.89344    
    166000   312.95849      0.036539744    8.5996764      776.45865     -105.01114      671.44751    
    167000   293.94846      0.036539744    29.879085      729.29423     -98.261912      631.03232    
    168000   293.57259      0.036539744    21.505391      728.3617      -102.8887       625.473      
    169000   302.31263      0.036539744    16.922873      750.04597     -89.226555      660.81941    
    170000   302.71339      0.036539744    15.091845      751.04026     -93.250876      657.78938    
    171000   299.44141      0.036539744    18.124954      742.92238     -95.28797       647.63441    
    172000   302.92806      0.036539744    17.421889      751.57287     -101.48561      650.08726    
    173000   317.30275      0.036539744    18.345044      787.23686     -104.96342      682.27345    
    174000   307.02286      0.036539744    8.5071019      761.73218     -107.95066      653.78151    
    175000   289.30395      0.036539744    17.901088      717.77107     -106.23383      611.53724    
    176000   305.48417      0.036539744    20.057905      757.91465     -101.60766      656.30699    
    177000   285.40011      0.036539744    13.825836      708.08555     -92.551965      615.53358    
    178000   294.99996      0.036539744    16.894885      731.90303     -88.67766       643.22537    
    179000   302.90437      0.036539744    24.960659      751.51409     -94.303005      657.21109    
    180000   296.84367      0.036539744    23.813721      736.47733     -89.534935      646.94239    
    181000   309.17988      0.036539744    19.283909      767.08379     -87.793549      679.29024    
    182000   311.15701      0.036539744    15.125561      771.98912     -88.703744      683.28537    
    183000   287.59928      0.036539744    22.185588      713.54173     -87.919242      625.62249    
    184000   300.90148      0.036539744    15.816276      746.54486     -93.044065      653.5008     
    185000   298.25804      0.036539744    11.569216      739.98642     -83.974723      656.0117     
    186000   289.75394      0.036539744    26.965825      718.88751     -79.800879      639.08663    
    187000   309.36256      0.036539744    17.467911      767.53705     -87.136922      680.40012    
    188000   303.11641      0.036539744    1.8346026      752.04016     -79.457678      672.58248    
    189000   293.93437      0.036539744    10.082981      729.25928     -78.848954      650.41032    
    190000   293.94333      0.036539744    21.247313      729.28151     -91.233319      638.0482     
    191000   311.7595       0.036539744    18.592985      773.48391     -87.203362      686.28055    
    192000   300.23292      0.036539744    13.092084      744.88616     -87.202212      657.68395    
    193000   298.19572      0.036539744    12.758607      739.8318      -82.297652      657.53415    
    194000   291.21912      0.036539744    18.214987      722.52265     -75.964551      646.5581     
    195000   308.68758      0.036539744    21.524844      765.8624      -81.291262      684.57114    
    196000   288.06828      0.036539744    10.330356      714.70534     -75.944968      638.76038    
    197000   295.82078      0.036539744    21.882791      733.93951     -75.948982      657.99053    
    198000   315.1147       0.036539744    25.357297      781.80825     -77.927374      703.88088    
    199000   313.40106      0.036539744    20.90718       777.55666     -78.712187      698.84448    
    200000   298.22187      0.036539744    15.713258      739.89669     -79.233118      660.66357    
    201000   294.97176      0.036539744    18.15302       731.83306     -76.227808      655.60525    
    202000   307.8098       0.036539744    25.190334      763.68459     -80.566         683.11859    
    203000   302.80206      0.036539744    12.016089      751.26026     -81.168222      670.09204    
    204000   298.24333      0.036539744    17.94925       739.94992     -76.883509      663.06641    
    205000   297.25841      0.036539744    21.124788      737.50632     -74.67091       662.83541    
    206000   302.18794      0.036539744    25.145907      749.73662     -82.644162      667.09246    
    207000   304.7781       0.036539744    14.303832      756.16287     -84.654821      671.50805    
    208000   287.02138      0.036539744    16.924121      712.10795     -82.847875      629.26007    
    209000   302.00377      0.036539744    17.656499      749.27968     -83.305823      665.97385    
    210000   311.59386      0.036539744    19.25457       773.07297     -82.534569      690.5384     
    211000   296.28625      0.036539744    9.1072268      735.09435     -78.481778      656.61257    
    212000   288.22221      0.036539744    18.923167      715.08726     -80.283277      634.80398    
    213000   299.57556      0.036539744    25.814479      743.25523     -70.372322      672.8829     
    214000   329.06709      0.036539744    19.608212      816.42452     -78.095579      738.32894    
    215000   301.67834      0.036539744    10.022831      748.47228     -74.109494      674.36278    
    216000   298.32345      0.036539744    16.95243       740.14869     -75.486782      664.66191    
    217000   297.19676      0.036539744    25.956412      737.35336     -74.3595        662.99386    
    218000   311.80571      0.036539744    17.73278       773.59856     -80.39345       693.20511    
    219000   301.98222      0.036539744    4.5024948      749.22622     -76.38903       672.83719    
    220000   283.40203      0.036539744    22.526899      703.12824     -79.153556      623.97468    
    221000   302.00765      0.036539744    19.766368      749.28931     -75.676412      673.6129     
    222000   314.44247      0.036539744    13.435003      780.14043     -73.12731       707.01312    
    223000   293.76011      0.036539744    21.133389      728.82694     -73.613733      655.21321    
    224000   307.86663      0.036539744    26.201467      763.8256      -83.460395      680.3652     
    225000   300.70671      0.036539744    14.438912      746.06163     -77.160473      668.90116    
    226000   284.82486      0.036539744    13.724976      706.65833     -83.103127      623.55521    
    227000   310.89186      0.036539744    29.596526      771.33128     -75.161272      696.17001    
    228000   295.52771      0.036539744    16.985537      733.21239     -71.559813      661.65257    
    229000   290.57546      0.036539744    15.578339      720.92572     -70.986602      649.93912    
    230000   311.16555      0.036539744    21.960855      772.01032     -73.662061      698.34826    
    231000   301.93493      0.036539744    17.799975      749.10889     -67.204199      681.90469    
    232000   288.90541      0.036539744    16.447997      716.78229     -75.332311      641.44998    
    233000   303.66957      0.036539744    20.202718      753.41258     -71.543557      681.86902    
    234000   302.49019      0.036539744    25.344095      750.48649     -65.686814      684.79968    
    235000   303.13718      0.036539744    14.86196       752.09169     -68.589904      683.50179    
    236000   299.2402       0.036539744    13.886873      742.4232      -71.808323      670.61487    
    237000   305.89622      0.036539744    27.95945       758.93695     -65.92062       693.01633    
    238000   301.94175      0.036539744    13.889331      749.12579     -73.553837      675.57196    
    239000   288.44131      0.036539744    24.662491      715.63084     -77.231957      638.39888    
    240000   314.53527      0.036539744    24.099259      780.37067     -74.224022      706.14665    
    241000   315.58304      0.036539744    19.087844      782.97021     -67.598077      715.37214    
    242000   296.81876      0.036539744    19.495538      736.41553     -58.19162       678.22391    
    243000   298.26545      0.036539744    22.623008      740.0048      -61.130401      678.8744     
    244000   310.78722      0.036539744    19.210053      771.07166     -61.711637      709.36002    
    245000   299.11089      0.036539744    13.425011      742.10237     -61.55705       680.54532    
    246000   291.56716      0.036539744    18.329328      723.38615     -61.818714      661.56744    
    247000   319.65996      0.036539744    20.352001      793.08516     -63.102723      729.98244    
    248000   304.02869      0.036539744    19.870561      754.30357     -62.534822      691.76875    
    249000   302.61277      0.036539744    19.031284      750.79063     -57.049398      693.74123    
    250000   294.14539      0.036539744    19.034537      729.78282     -64.900953      664.88186    
    251000   305.39667      0.036539744    27.302676      757.69756     -65.721235      691.97632    
    252000   294.11138      0.036539744    14.532927      729.69845     -74.678197      655.02025    
    253000   291.40893      0.036539744    16.64222       722.9936      -73.230988      649.76261    
    254000   310.86933      0.036539744    23.771774      771.27537     -76.665494      694.60988    
    255000   289.57775      0.036539744    16.779618      718.45037     -70.73534       647.71503    
    256000   290.7175       0.036539744    17.439833      721.27812     -71.092422      650.1857     
    257000   312.64999      0.036539744    20.508935      775.69325     -63.359168      712.33409    
    258000   308.55824      0.036539744    25.651376      765.54149     -62.091017      703.45047    
    259000   301.52591      0.036539744    15.734416      748.09409     -57.560981      690.5331     
    260000   299.98872      0.036539744    26.743545      744.28027     -71.797719      672.48256    
    261000   307.56176      0.036539744    20.770711      763.06921     -64.676204      698.39301    
    262000   298.02771      0.036539744    17.616748      739.41495     -61.834797      677.58016    
    263000   283.01856      0.036539744    7.6901385      702.17684     -69.761443      632.4154     
    264000   320.5186       0.036539744    21.731255      795.21548     -64.744325      730.47116    
    265000   307.18129      0.036539744    17.598531      762.12526     -64.49365       697.63161    
    266000   283.64885      0.036539744    18.650995      703.74061     -65.247227      638.49338    
    267000   293.37638      0.036539744    16.013163      727.87489     -62.275008      665.59988    
    268000   308.90069      0.036539744    12.422891      766.39113     -57.257568      709.13357    
    269000   301.92589      0.036539744    26.360697      749.08645     -55.750989      693.33547    
    270000   291.37654      0.036539744    20.900088      722.91323     -59.167399      663.74583    
    271000   293.7665       0.036539744    15.529305      728.84278     -61.421493      667.42129    
    272000   308.03988      0.036539744    9.2218496      764.25544     -64.057909      700.19753    
    273000   296.27817      0.036539744    32.017163      735.07431     -68.219853      666.85446    
    274000   297.23874      0.036539744    30.451852      737.45751     -66.981315      670.47619    
    275000   291.48608      0.036539744    20.320599      723.185       -56.649552      666.53545    
    276000   309.07109      0.036539744    13.685263      766.81389     -61.154501      705.65939    
    277000   302.41159      0.036539744    49.510426      750.29149     -61.842183      688.44931    
    278000   293.54194      0.036539744   -4.2430466      728.28564     -57.651945      670.63369    
    279000   301.36137      0.036539744    13.224421      747.68586     -65.186952      682.49891    
    280000   306.16276      0.036539744    32.614532      759.59825     -64.92226       694.67599    
    281000   290.81873      0.036539744    29.136621      721.52928     -63.549783      657.97949    
    282000   283.75327      0.036539744    20.650231      703.99968     -59.169939      644.82974    
    283000   304.04732      0.036539744    12.695555      754.34978     -59.176188      695.17359    
    284000   306.45981      0.036539744    26.373247      760.33524     -59.592117      700.74312    
    285000   301.81819      0.036539744    21.159379      748.81926     -57.430005      691.38925    
    286000   294.36701      0.036539744    13.434325      730.33267     -61.885055      668.44761    
    287000   296.25193      0.036539744    18.689316      735.00921     -66.883988      668.12522    
    288000   302.1291       0.036539744    17.863745      749.59062     -65.196317      684.3943     
    289000   308.52633      0.036539744    14.34323       765.46234     -61.335059      704.12728    
    290000   290.8273       0.036539744    22.508963      721.55055     -62.638131      658.91242    
    291000   308.45844      0.036539744    20.693208      765.29389     -58.621088      706.6728     
    292000   303.51439      0.036539744    19.189466      753.02758     -57.033228      695.99435    
    293000   294.21448      0.036539744    18.296583      729.95423     -67.162379      662.79185    
    294000   306.13238      0.036539744    11.54816       759.52287     -67.414127      692.10875    
    295000   310.30193      0.036539744    20.800603      769.86765     -63.745005      706.12264    
    296000   306.03601      0.036539744    22.608515      759.28378     -61.694748      697.58903    
    297000   306.04059      0.036539744    23.472688      759.29515     -69.807754      689.4874     
    298000   300.65145      0.036539744    28.919522      745.92453     -61.331391      684.59314    
    299000   287.48983      0.036539744    21.592765      713.27018     -64.015454      649.25473    
    300000   300.06964      0.036539744    17.825954      744.48104     -60.199095      684.28194    
    301000   298.43738      0.036539744    18.29633       740.43137     -64.472458      675.95891    
    302000   308.25259      0.036539744    24.268572      764.78317     -66.368083      698.41508    
    303000   288.3171       0.036539744    8.1444473      715.32268     -66.002274      649.32041    
    304000   299.57139      0.036539744    18.370351      743.24487     -61.41176       681.83311    
    305000   306.69803      0.036539744    30.961347      760.92626     -67.599197      693.32706    
    306000   295.59132      0.036539744    15.09504       733.3702      -60.519764      672.85044    
    307000   305.6147       0.036539744    16.622938      758.23849     -58.098621      700.13987    
    308000   302.21031      0.036539744    32.948194      749.7921      -57.749745      692.04236    
    309000   291.30546      0.036539744    19.03197       722.73688     -57.837237      664.89965    
    310000   294.28612      0.036539744    18.307649      730.13199     -58.075806      672.05618    
    311000   292.15272      0.036539744    19.620757      724.83895     -63.13885       661.7001     
    312000   308.99665      0.036539744    17.928122      766.62921     -66.517135      700.11207    
    313000   300.60162      0.036539744    17.514597      745.80092     -61.56199       684.23893    
    314000   302.44469      0.036539744    26.253194      750.37362     -59.443061      690.93056    
    315000   301.81515      0.036539744    10.834741      748.8117      -57.919288      690.89241    
    316000   295.73988      0.036539744    13.977885      733.7388      -60.64661       673.09219    
    317000   302.37376      0.036539744    20.383774      750.19762     -59.816399      690.38122    
    318000   298.48669      0.036539744    23.295141      740.5537      -53.85175       686.70195    
    319000   301.60467      0.036539744    16.573501      748.2895      -55.241981      693.04752    
    320000   308.60815      0.036539744    4.1882504      765.66532     -56.010056      709.65527    
    321000   292.74754      0.036539744    9.9323565      726.31472     -55.396687      670.91803    
    322000   301.73053      0.036539744    27.982972      748.60176     -63.834427      684.76734    
    323000   309.36104      0.036539744    21.109432      767.53326     -59.658521      707.87474    
    324000   303.77147      0.036539744    17.410532      753.66539     -60.774655      692.89074    
    325000   298.75996      0.036539744    18.370171      741.2317      -62.564791      678.66691    
    326000   296.89963      0.036539744    19.133857      736.61617     -62.892889      673.72328    
    327000   299.03854      0.036539744    17.115606      741.92287     -52.329829      689.59304    
    328000   309.96617      0.036539744    20.423423      769.03461     -51.185242      717.84936    
    329000   298.98411      0.036539744    20.876793      741.78781     -54.126176      687.66163    
    330000   296.13582      0.036539744    22.856968      734.72114     -49.144679      685.57647    
    331000   320.06245      0.036539744    19.094487      794.08377     -58.154464      735.9293     
    332000   298.6475       0.036539744    16.959117      740.95267     -63.104053      677.84862    
    333000   295.3697       0.036539744    24.368894      732.82037     -57.563868      675.2565     
    334000   306.99367      0.036539744    23.189548      761.65975     -58.973148      702.6866     
    335000   300.60126      0.036539744    12.858216      745.8         -64.266617      681.53339    
    336000   296.9292       0.036539744    18.708724      736.68954     -59.689991      676.99955    
    337000   306.48611      0.036539744    24.538387      760.40048     -60.362357      700.03812    
    338000   294.77526      0.036539744    8.6393204      731.34555     -58.535318      672.81023    
    339000   298.39855      0.036539744    27.687516      740.33503     -54.103488      686.23154    
    340000   305.05074      0.036539744    20.6831        756.83929     -59.423298      697.416      
    341000   293.07073      0.036539744    11.925977      727.11656     -59.864394      667.25217    
    342000   294.91016      0.036539744    13.229466      731.68025     -60.785531      670.89472    
    343000   309.25217      0.036539744    29.217703      767.26316     -59.848777      707.41439    
    344000   323.93309      0.036539744    5.9282828      803.68694     -53.746397      749.94054    
    345000   293.88988      0.036539744    7.8793166      729.14888     -56.863489      672.28539    
    346000   291.22177      0.036539744    22.427492      722.52924     -58.724016      663.80522    
    347000   315.96512      0.036539744    20.293442      783.91816     -50.402543      733.51562    
    348000   311.46975      0.036539744    18.095498      772.76504     -47.471806      725.29324    
    349000   296.98411      0.036539744    19.302389      736.82577     -54.73552       682.09025    
    350000   293.59945      0.036539744    21.163953      728.42832     -56.387736      672.04058    
    351000   311.27664      0.036539744    17.210959      772.28592     -57.179373      715.10655    
    352000   304.70453      0.036539744    20.129105      755.98034     -59.239954      696.74039    
    353000   290.87801      0.036539744    18.42848       721.67637     -63.317362      658.359      
    354000   293.74011      0.036539744    21.924908      728.7773      -63.811883      664.96542    
    355000   311.79768      0.036539744    21.975118      773.57865     -67.336713      706.24194    
    356000   295.44482      0.036539744    21.187571      733.00674     -61.408213      671.59853    
    357000   285.98959      0.036539744    16.622222      709.54806     -65.302961      644.2451     
    358000   296.78513      0.036539744    18.365291      736.33208     -67.066888      669.26519    
    359000   307.37326      0.036539744    13.284003      762.60153     -70.644569      691.95696    
    360000   299.73739      0.036539744    15.022322      743.65671     -71.262914      672.3938     
    361000   294.72001      0.036539744    29.542835      731.20848     -68.844288      662.36419    
    362000   301.42097      0.036539744    25.867832      747.83374     -62.86682       684.96692    
    363000   311.79712      0.036539744    1.1074891      773.57724     -66.870763      706.70648    
    364000   298.26262      0.036539744    13.715903      739.99779     -59.749543      680.24824    
    365000   291.63375      0.036539744    38.42689       723.55138     -60.885529      662.66585    
    366000   313.98009      0.036539744    35.454875      778.99325     -51.63773       727.35552    
    367000   311.31436      0.036539744   -6.0074926      772.3795      -61.055217      711.32428    
    368000   297.60617      0.036539744   -3.2330578      738.3691      -62.967747      675.40135    
    369000   295.08953      0.036539744    47.847223      732.12526     -59.723324      672.40193    
    370000   315.52553      0.036539744    15.032314      782.82755     -63.385777      719.44177    
    371000   298.37023      0.036539744    12.503432      740.26477     -59.841536      680.42323    
    372000   289.35657      0.036539744    34.40053       717.90162     -58.485245      659.41638    
    373000   303.54626      0.036539744    34.171608      753.10664     -61.894863      691.21177    
    374000   314.8138       0.036539744    8.3595524      781.06171     -64.95687       716.10484    
    375000   291.95989      0.036539744    11.438482      724.36053     -65.291828      659.0687     
    376000   282.8674       0.036539744    34.862718      701.80181     -60.963801      640.83801    
    377000   297.39117      0.036539744    23.200215      737.83568     -68.543641      669.29204    
    378000   311.09799      0.036539744    8.0991514      771.8427      -69.990548      701.85215    
    379000   301.33614      0.036539744    9.4057449      747.62326     -71.166533      676.45673    
    380000   295.32683      0.036539744    9.2724383      732.714       -70.434389      662.27961    
    381000   302.1999       0.036539744    19.159612      749.76627     -62.471634      687.29464    
    382000   304.37637      0.036539744    19.409155      755.16617     -59.84054       695.32563    
    383000   299.69334      0.036539744    27.653303      743.54745     -64.059124      679.48833    
    384000   315.29241      0.036539744    16.019381      782.24917     -61.708865      720.5403     
    385000   295.08115      0.036539744    17.103419      732.10446     -64.811231      667.29323    
    386000   297.46029      0.036539744    18.484101      738.00719     -61.095186      676.912      
    387000   302.77354      0.036539744    19.56352       751.18949     -63.920909      687.26859    
    388000   296.21025      0.036539744    15.029724      734.90578     -70.187087      664.7187     
    389000   314.0558       0.036539744    18.944309      779.1811      -74.991342      704.18975    
    390000   301.03478      0.036539744    23.432362      746.87558     -66.216164      680.65942    
    391000   284.49498      0.036539744    17.035199      705.83989     -64.932503      640.90739    
    392000   289.69218      0.036539744    14.784363      718.73429     -72.265769      646.46852    
    393000   311.17289      0.036539744    19.355213      772.02852     -66.37749       705.65103    
    394000   302.96898      0.036539744    19.307143      751.6744      -70.330215      681.34418    
    395000   322.94491      0.036539744    20.203006      801.23522     -69.891747      731.34348    
    396000   300.87856      0.036539744    20.406662      746.48801     -68.264217      678.22379    
    397000   297.48063      0.036539744    21.732338      738.05765     -68.869385      669.18826    
    398000   292.91007      0.036539744    18.257131      726.71795     -77.966215      648.75174    
    399000   305.71308      0.036539744    16.29595       758.48259     -74.168835      684.31376    
    400000   306.80135      0.036539744    19.342144      761.18261     -73.372206      687.8104     
    401000   291.21744      0.036539744    17.421368      722.51851     -65.788645      656.72986    
    402000   304.54261      0.036539744    10.217819      755.57862     -76.179158      679.39946    
    403000   308.94823      0.036539744    23.018037      766.50908     -68.932493      697.57658    
    404000   294.4645       0.036539744    18.585227      730.57453     -74.98806       655.58647    
    405000   297.50571      0.036539744    16.175898      738.11986     -76.041711      662.07815    
    406000   316.62342      0.036539744    18.194846      785.55144     -71.534806      714.01663    
    407000   296.65117      0.036539744    20.716434      735.99974     -69.473289      666.52645    
    408000   290.54891      0.036539744    16.628089      720.85985     -69.171391      651.68846    
    409000   295.18656      0.036539744    19.102689      732.36599     -62.888539      669.47745    
    410000   303.6761       0.036539744    21.657241      753.42876     -72.433361      680.9954     
    411000   301.01462      0.036539744    8.602171       746.82556     -73.789209      673.03635    
    412000   293.36867      0.036539744    22.633279      727.85576     -71.610431      656.24533    
    413000   303.04198      0.036539744    25.85248       751.85551     -73.610685      678.24482    
    414000   310.50221      0.036539744    20.728474      770.36455     -68.971793      701.39276    
    415000   305.42964      0.036539744    13.837844      757.77935     -71.711978      686.06737    
    416000   284.99138      0.036539744    18.351763      707.07147     -75.478127      631.59335    
    417000   302.49737      0.036539744    18.367356      750.50431     -68.751756      681.75256    
    418000   300.98677      0.036539744    4.5890268      746.75648     -67.760301      678.99618    
    419000   299.59028      0.036539744    23.572305      743.29175     -65.219345      678.07241    
    420000   291.48268      0.036539744    25.109059      723.17656     -70.034003      653.14256    
    421000   289.60934      0.036539744    11.668701      718.52876     -67.76079       650.76796    
    422000   302.63606      0.036539744    4.4029417      750.8484      -73.621919      677.22648    
    423000   303.94758      0.036539744    26.975938      754.10232     -71.763341      682.33898    
    424000   296.0335       0.036539744    17.655382      734.46727     -66.739192      667.72808    
    425000   295.13311      0.036539744    17.702815      732.23337     -69.992198      662.24117    
    426000   311.33862      0.036539744    14.14709       772.43971     -72.810292      699.62942    
    427000   296.48239      0.036539744    27.030464      735.58098     -68.940796      666.64018    
    428000   296.25145      0.036539744    14.897868      735.00801     -69.26474       665.74327    
    429000   315.50528      0.036539744    16.903156      782.77731     -77.026759      705.75055    
    430000   300.64734      0.036539744    19.479051      745.91433     -72.508499      673.40583    
    431000   280.65739      0.036539744    13.041211      696.31872     -63.235653      633.08307    
    432000   311.32216      0.036539744    17.41511       772.39886     -66.582282      705.81658    
    433000   305.69228      0.036539744    20.186674      758.43098     -61.177676      697.2533     
    434000   278.91441      0.036539744    18.336694      691.99434     -59.373074      632.62127    
    435000   302.60713      0.036539744    22.932327      750.77662     -62.561267      688.21535    
    436000   313.92091      0.036539744    20.188001      778.84643     -72.187687      706.65874    
    437000   295.08352      0.036539744    18.76802       732.11036     -72.894404      659.21595    
    438000   291.93587      0.036539744    16.784522      724.30094     -70.746008      653.55493    
    439000   296.61991      0.036539744    17.775357      735.92218     -87.341369      648.58081    
    440000   295.62747      0.036539744    18.075336      733.4599      -85.639085      647.82082    
    441000   306.13957      0.036539744    19.353394      759.54072     -84.116291      675.42443    
    442000   300.31538      0.036539744    20.327922      745.09074     -75.114048      669.9767     
    443000   298.56158      0.036539744    20.683265      740.7395      -75.422748      665.31676    
    444000   300.9846       0.036539744    15.980241      746.75109     -68.934963      677.81612    
    445000   299.04721      0.036539744    16.678794      741.94437     -68.71492       673.22945    
    446000   309.1816       0.036539744    21.639372      767.08807     -66.34076       700.74731    
    447000   306.79127      0.036539744    21.987539      761.15759     -68.52845       692.62914    
    448000   292.43473      0.036539744    17.363089      725.53864     -71.646609      653.89203    
    449000   286.11974      0.036539744    17.961431      709.87097     -68.117904      641.75306    
    450000   299.52929      0.036539744    19.89126       743.14043     -76.285232      666.8552     
    451000   318.85554      0.036539744    19.748431      791.08939     -74.918934      716.17046    
    452000   298.27208      0.036539744    22.466013      740.02126     -68.783307      671.23796    
    453000   284.33505      0.036539744    16.536983      705.4431      -71.222984      634.22012    
    454000   286.64562      0.036539744    18.356601      711.17568     -69.507563      641.66812    
    455000   301.76795      0.036539744    14.938874      748.69461     -69.260491      679.43412    
    456000   304.14782      0.036539744    12.682599      754.59912     -63.362933      691.23619    
    457000   303.88988      0.036539744    24.351777      753.95918     -59.695942      694.26324    
    458000   303.78471      0.036539744    19.010023      753.69825     -63.186872      690.51137    
    459000   295.44047      0.036539744    18.462234      732.99595     -73.436658      659.55929    
    460000   300.96108      0.036539744    15.42396       746.69273     -71.160158      675.53257    
    461000   298.79949      0.036539744    19.591786      741.32978     -64.000752      677.32902    
    462000   299.33137      0.036539744    18.244001      742.64937     -61.174097      681.47528    
    463000   290.42963      0.036539744    18.643468      720.56393     -63.783561      656.78037    
    464000   299.83362      0.036539744    21.018936      743.89547     -66.046049      677.84942    
    465000   310.41461      0.036539744    20.630786      770.14721     -66.721754      703.42545    
    466000   308.89909      0.036539744    17.056145      766.38716     -60.643659      705.7435     
    467000   291.03018      0.036539744    16.148656      722.05391     -68.599723      653.45419    
    468000   306.72698      0.036539744    21.480585      760.9981      -69.236687      691.76141    
    469000   299.79673      0.036539744    7.4984307      743.80394     -68.397186      675.40675    
    470000   321.69137      0.036539744    11.637475      798.12517     -69.683746      728.44142    
    471000   308.23598      0.036539744    20.131748      764.74195     -62.190779      702.55117    
    472000   291.23021      0.036539744    20.576594      722.55019     -70.197606      652.35258    
    473000   297.38362      0.036539744    24.712465      737.81697     -66.343793      671.47317    
    474000   297.49271      0.036539744    20.687767      738.08762     -62.212206      675.87542    
    475000   307.86709      0.036539744   -1.1499259      763.82673     -65.309182      698.51755    
    476000   303.56479      0.036539744    22.810202      753.15262     -67.522536      685.63008    
    477000   297.05724      0.036539744    17.776496      737.00721     -66.016925      670.99028    
    478000   305.84476      0.036539744    17.93788       758.80928     -59.869795      698.93949    
    479000   304.59223      0.036539744    20.890535      755.70172     -63.487745      692.21397    
    480000   284.12729      0.036539744    20.547115      704.92764     -57.895214      647.03242    
    481000   287.14382      0.036539744    15.635709      712.41174     -56.780286      655.63145    
    482000   302.03246      0.036539744    19.033464      749.35086     -60.577807      688.77305    
    483000   307.10724      0.036539744    21.330391      761.94153     -56.89109       705.05044    
    484000   300.64503      0.036539744    21.374412      745.90862     -65.031144      680.87747    
    485000   289.45951      0.036539744    18.462253      718.15703     -61.340585      656.81645    
    486000   296.87484      0.036539744    19.625632      736.55465     -67.280044      669.27461    
    487000   310.2624       0.036539744    17.650549      769.76956     -66.086537      703.68302    
    488000   299.32192      0.036539744    19.247328      742.62593     -70.059817      672.56611    
    489000   288.06598      0.036539744    17.694227      714.69964     -66.637436      648.06221    
    490000   292.7819       0.036539744    19.710813      726.39997     -79.312981      647.08699    
    491000   311.60084      0.036539744    15.13886       773.09028     -70.444396      702.64589    
    492000   293.88825      0.036539744    15.406194      729.14486     -72.79358       656.35128    
    493000   288.92376      0.036539744    24.00882       716.82781     -73.560481      643.26732    
    494000   299.39521      0.036539744    19.898902      742.80776     -63.783621      679.02414    
    495000   292.60973      0.036539744    18.233796      725.97282     -70.620545      655.35227    
    496000   300.68076      0.036539744    16.354404      745.99725     -65.215295      680.78195    
    497000   300.17848      0.036539744    17.381962      744.75108     -65.819251      678.93183    
    498000   295.19327      0.036539744    8.6208906      732.38264     -66.552349      665.83029    
    499000   293.97791      0.036539744    4.7690505      729.3673      -69.716213      659.65109    
    500000   302.1166       0.036539744    22.988645      749.5596      -68.67099       680.88861    
    501000   308.13655      0.036539744    18.45826       764.49526     -71.322878      693.17239    
    502000   309.98071      0.036539744    16.213926      769.07068     -68.28032       700.79036    
    503000   290.71287      0.036539744    20.707719      721.26665     -66.18043       655.08622    
    504000   297.95392      0.036539744    22.639086      739.23189     -65.484809      673.74708    
    505000   311.00289      0.036539744    12.923664      771.60675     -66.653406      704.95335    
    506000   288.3759       0.036539744    18.079054      715.46857     -64.462972      651.00559    
    507000   295.14871      0.036539744    19.059311      732.27208     -63.692231      668.57985    
    508000   297.74991      0.036539744    22.052716      738.72574     -54.800807      683.92493    
    509000   296.09401      0.036539744    19.446607      734.61739     -56.824258      677.79314    
    510000   310.33189      0.036539744    17.376969      769.94198     -57.287171      712.65481    
    511000   310.90239      0.036539744    19.110188      771.35741     -59.791839      711.56557    
    512000   291.50826      0.036539744    22.466827      723.24004     -63.472065      659.76797    
    513000   302.3848       0.036539744    25.673304      750.22503     -67.56139       682.66364    
    514000   290.68353      0.036539744    18.677744      721.19385     -62.930247      658.2636     
    515000   300.18956      0.036539744    15.338066      744.77857     -67.410741      677.36783    
    516000   315.89811      0.036539744    26.814837      783.75191     -67.693912      716.058      
    517000   296.99253      0.036539744    22.94913       736.84666     -59.883967      676.96269    
    518000   293.56122      0.036539744    15.855011      728.33349     -66.319935      662.01355    
    519000   289.63338      0.036539744    17.652118      718.58841     -62.634253      655.95416    
    520000   295.49926      0.036539744    18.322212      733.1418      -67.719927      665.42188    
    521000   313.22742      0.036539744    23.253231      777.12587     -61.442521      715.68335    
    522000   302.42651      0.036539744    18.809581      750.32852     -72.040308      678.28821    
    523000   288.79118      0.036539744    15.858174      716.49888     -72.031928      644.46695    
    524000   294.8615       0.036539744    19.972593      731.55952     -68.029151      663.53036    
    525000   305.71424      0.036539744    17.981891      758.48545     -69.481291      689.00416    
    526000   302.38815      0.036539744    19.191487      750.23333     -65.231269      685.00206    
    527000   296.29039      0.036539744    22.685209      735.10461     -62.399336      672.70528    
    528000   289.6135       0.036539744    14.405732      718.53907     -64.465984      654.07309    
    529000   307.91267      0.036539744    19.79341       763.93981     -68.016831      695.92298    
    530000   308.3162       0.036539744    19.929146      764.941       -60.433753      704.50725    
    531000   300.72545      0.036539744    20.041341      746.10812     -56.550828      689.55729    
    532000   287.41253      0.036539744    12.499511      713.07841     -60.161802      652.91661    
    533000   286.77371      0.036539744    18.980655      711.49349     -51.160386      660.3331     
    534000   306.34642      0.036539744    21.242535      760.05391     -58.082752      701.97116    
    535000   317.20945      0.036539744    17.605947      787.00539     -63.031928      723.97346    
    536000   294.7279       0.036539744    14.478105      731.22803     -61.447915      669.78012    
    537000   286.46771      0.036539744    10.998843      710.73429     -60.304814      650.42948    
    538000   293.73315      0.036539744    18.197191      728.76004     -67.247552      661.51249    
    539000   314.82358      0.036539744    25.686089      781.08598     -62.809202      718.27678    
    540000   307.61027      0.036539744    15.299991      763.18957     -65.653523      697.53605    
    541000   290.1931       0.036539744    11.496881      719.97707     -67.053984      652.92308    
    542000   303.25845      0.036539744    18.899023      752.39257     -62.349065      690.0435     
    543000   293.86335      0.036539744    6.8801466      729.08307     -57.220709      671.86236    
    544000   304.95486      0.036539744    25.921253      756.60142     -59.840072      696.76134    
    545000   315.37589      0.036539744    19.21958       782.45627     -62.571327      719.88494    
    546000   292.27077      0.036539744    20.583493      725.13184     -57.952408      667.17944    
    547000   287.85917      0.036539744    17.806494      714.18654     -55.380067      658.80647    
    548000   300.27851      0.036539744    18.306416      744.99927     -57.450448      687.54882    
    549000   308.29268      0.036539744    18.752331      764.88263     -61.323437      703.55919    
    550000   294.54892      0.036539744    20.778415      730.784       -58.397821      672.38618    
    551000   284.41632      0.036539744    16.668564      705.64473     -59.469797      646.17493    
    552000   298.96898      0.036539744    23.611303      741.75028     -58.121676      683.62861    
    553000   316.45204      0.036539744    16.505536      785.12624     -54.111025      731.01521    
    554000   304.68836      0.036539744    16.274639      755.94021     -56.166359      699.77385    
    555000   304.09783      0.036539744    17.047194      754.4751      -54.425767      700.04933    
    556000   296.09671      0.036539744    21.814544      734.62411     -53.884603      680.73951    
    557000   298.00382      0.036539744    17.496934      739.3557      -55.557651      683.79805    
    558000   306.02225      0.036539744    22.497336      759.24964     -50.542777      708.70686    
    559000   298.75422      0.036539744    16.109642      741.21746     -63.228616      677.98885    
    560000   282.93826      0.036539744    15.785809      701.97763     -60.175085      641.80254    
    561000   299.98927      0.036539744    30.97362       744.28164     -57.582917      686.69873    
    562000   314.00296      0.036539744    22.305572      779.05        -56.029402      723.0206     
    563000   296.83813      0.036539744    15.775697      736.46358     -55.003972      681.45961    
    564000   294.18798      0.036539744    21.980432      729.88848     -56.163783      673.7247     
    565000   310.72363      0.036539744    19.587235      770.91389     -51.325764      719.58813    
    566000   317.9833       0.036539744    17.892011      788.92534     -52.168971      736.75637    
    567000   311.82908      0.036539744    19.086371      773.65654     -55.353444      718.3031     
    568000   298.40894      0.036539744    15.54985       740.3608      -56.056732      684.30407    
    569000   296.11135      0.036539744    20.108991      734.66042     -55.720469      678.93995    
    570000   300.63955      0.036539744    19.163388      745.89501     -53.563006      692.33201    
    571000   299.71778      0.036539744    19.646148      743.60807     -54.422585      689.18549    
    572000   291.25112      0.036539744    18.372021      722.60205     -52.937204      669.66484    
    573000   310.12861      0.036539744    19.487608      769.43762     -52.79837       716.63925    
    574000   306.95992      0.036539744    17.889366      761.57603     -56.685166      704.89086    
    575000   291.40992      0.036539744    12.474853      722.99604     -59.281416      663.71462    
    576000   286.6106       0.036539744    20.4849        711.0888      -55.94993       655.13887    
    577000   312.9852       0.036539744    22.724793      776.52491     -54.68689       721.83802    
    578000   307.10181      0.036539744    17.393029      761.92806     -56.160861      705.7672     
    579000   290.96791      0.036539744    19.254078      721.8994      -53.025742      668.87366    
    580000   300.1631       0.036539744    16.851462      744.71292     -60.055972      684.65694    
    581000   311.6417       0.036539744    22.960741      773.19165     -60.225576      712.96608    
    582000   290.6534       0.036539744    17.216502      721.11911     -62.188407      658.9307     
    583000   298.85732      0.036539744    23.576863      741.47326     -62.764434      678.70882    
    584000   311.16586      0.036539744    20.686785      772.01108     -55.810564      716.20052    
    585000   310.48713      0.036539744    20.923285      770.32713     -55.531373      714.79576    
    586000   291.53884      0.036539744    11.524344      723.3159      -48.993381      674.32252    
    587000   293.04969      0.036539744    20.796746      727.06435     -54.447935      672.61642    
    588000   306.56122      0.036539744    19.663659      760.58683     -56.60332       703.98351    
    589000   307.6765       0.036539744    17.861955      763.35389     -55.606128      707.74776    
    590000   295.22194      0.036539744    12.149913      732.45376     -56.069431      676.38433    
    591000   289.68835      0.036539744    8.1626321      718.72478     -52.377909      666.34687    
    592000   302.59365      0.036539744    6.2327989      750.74318     -54.499826      696.24335    
    593000   301.57558      0.036539744    19.340603      748.21734     -49.937871      698.27946    
    594000   304.43627      0.036539744    19.629174      755.31478     -53.181963      702.13282    
    595000   308.30979      0.036539744    22.198417      764.92509     -57.273288      707.6518     
    596000   293.64335      0.036539744    10.206542      728.53725     -57.634145      670.90311    
    597000   295.65119      0.036539744    18.45816       733.51875     -60.946116      672.57263    
    598000   309.77967      0.036539744    27.737118      768.57191     -56.230266      712.34164    
    599000   301.84168      0.036539744    21.837771      748.87753     -53.078349      695.79918    
    600000   288.38658      0.036539744    4.2991802      715.49506     -56.957968      658.53709    
    601000   302.56775      0.036539744    21.112268      750.67893     -62.329103      688.34983    
    602000   300.66008      0.036539744    20.76856       745.94595     -59.916899      686.02905    
    603000   291.15282      0.036539744    5.5700702      722.35818     -63.98421       658.37397    
    604000   293.3686       0.036539744    20.131551      727.85558     -60.667136      667.18844    
    605000   300.24546      0.036539744    21.922547      744.91725     -62.825424      682.09183    
    606000   312.70951      0.036539744    20.143377      775.84093     -65.265726      710.5752     
    607000   302.29589      0.036539744    19.809258      750.00443     -63.551084      686.45334    
    608000   285.05684      0.036539744    17.193328      707.23387     -60.719899      646.51397    
    609000   304.71496      0.036539744    19.577715      756.00622     -67.378881      688.62734    
    610000   315.52204      0.036539744    25.643902      782.81889     -56.135912      726.68297    
    611000   301.73749      0.036539744    19.849579      748.61902     -58.254194      690.36483    
    612000   286.3143       0.036539744    23.932888      710.35367     -50.624682      659.72899    
    613000   298.71542      0.036539744    18.323993      741.12119     -47.710317      693.41088    
    614000   308.10782      0.036539744    5.6812761      764.42401     -46.327922      718.09608    
    615000   298.48887      0.036539744    27.208475      740.55912     -42.125461      698.43366    
    616000   293.10665      0.036539744    16.999935      727.20569     -48.16171       679.04398    
    617000   297.83945      0.036539744    4.3435121      738.94789     -50.662265      688.28562    
    618000   300.41027      0.036539744    21.559435      745.32617     -52.145741      693.18043    
    619000   309.53237      0.036539744    26.422207      767.95834     -52.744667      715.21368    
    620000   302.60649      0.036539744    20.758047      750.77504     -58.922836      691.8522     
    621000   295.8045       0.036539744    14.016837      733.89912     -66.095279      667.80384    
    622000   310.55329      0.036539744    17.985471      770.49127     -62.320826      708.17044    
    623000   304.12171      0.036539744    18.029277      754.53435     -58.741752      695.79259    
    624000   297.78295      0.036539744    25.526482      738.80772     -62.029532      676.77818    
    625000   308.15366      0.036539744    26.295448      764.53772     -59.194868      705.34285    
    626000   298.46028      0.036539744    8.1478257      740.48817     -59.71749       680.77068    
    627000   306.2356       0.036539744    18.652922      759.77898     -55.464753      704.31422    
    628000   294.72264      0.036539744    25.611363      731.215       -62.466978      668.74802    
    629000   296.60819      0.036539744    20.203542      735.89311     -62.492079      673.40103    
    630000   305.6861       0.036539744    14.977693      758.41565     -66.675252      691.74039    
    631000   311.79105      0.036539744    22.306065      773.5622      -67.864407      705.69779    
    632000   294.5901       0.036539744    21.264591      730.88616     -67.792805      663.09335    
    633000   288.53752      0.036539744    17.93335       715.86955     -65.047151      650.8224     
    634000   305.86554      0.036539744    21.209026      758.86084     -61.415469      697.44537    
    635000   300.19262      0.036539744    20.724088      744.78616     -58.74865       686.03751    
    636000   309.66068      0.036539744    21.038082      768.27667     -55.489568      712.7871     
    637000   292.1982       0.036539744    15.444149      724.95179     -50.024329      674.92746    
    638000   284.07052      0.036539744    16.653825      704.78679     -52.048997      652.73779    
    639000   308.08653      0.036539744    19.475529      764.37118     -61.934246      702.43694    
    640000   317.35343      0.036539744    23.624276      787.3626      -56.406458      730.95614    
    641000   300.84665      0.036539744    19.975296      746.40882     -56.489192      689.91963    
    642000   294.74549      0.036539744    17.445579      731.27169     -55.588034      675.68366    
    643000   315.76225      0.036539744    20.12479       783.41484     -60.259909      723.15494    
    644000   328.90911      0.036539744    16.559963      816.03256     -64.807546      751.22501    
    645000   296.86522      0.036539744    22.492585      736.53079     -59.072918      677.45787    
    646000   280.63428      0.036539744    18.23933       696.26138     -64.636674      631.6247     
    647000   298.43412      0.036539744    18.926298      740.42328     -55.732353      684.69093    
    648000   297.69035      0.036539744    17.93691       738.57797     -62.818543      675.75942    
    649000   302.15441      0.036539744    19.432035      749.65342     -57.307405      692.34601    
    650000   295.37783      0.036539744    16.501442      732.84054     -63.731711      669.10883    
    651000   303.12896      0.036539744    17.846591      752.0713      -64.468333      687.60297    
    652000   301.6734       0.036539744    20.788153      748.46002     -63.971869      684.48816    
    653000   289.1623       0.036539744    20.674024      717.41964     -59.165301      658.25434    
    654000   300.2456       0.036539744    18.450099      744.91762     -61.288189      683.62943    
    655000   292.93449      0.036539744    14.86404       726.77854     -66.167477      660.61107    
    656000   302.41638      0.036539744    18.750727      750.30338     -60.756503      689.54687    
    657000   305.8535       0.036539744    23.241461      758.83095     -55.739587      703.09137    
    658000   303.80511      0.036539744    17.419095      753.74884     -67.745528      686.00332    
    659000   297.21237      0.036539744    15.027397      737.39208     -61.328961      676.06312    
    660000   300.62041      0.036539744    19.528284      745.84752     -57.68549       688.16203    
    661000   304.17099      0.036539744    26.733481      754.65662     -55.443108      699.21351    
    662000   303.83389      0.036539744    15.241439      753.82026     -56.559879      697.26038    
    663000   319.07594      0.036539744    18.807219      791.63619     -65.527076      726.10912    
    664000   291.6003       0.036539744    21.142259      723.46838     -66.763856      656.70452    
    665000   292.6664       0.036539744    17.367252      726.1134      -68.008931      658.10447    
    666000   306.94093      0.036539744    18.923705      761.52891     -63.043033      698.48588    
    667000   288.71429      0.036539744    17.586455      716.30812     -63.046559      653.26156    
    668000   297.41255      0.036539744    13.868669      737.88873     -65.0216        672.86713    
    669000   302.86985      0.036539744    18.676172      751.42844     -67.437744      683.9907     
    670000   290.23905      0.036539744    16.952287      720.09109     -58.733769      661.35732    
    671000   309.44284      0.036539744    19.126481      767.73622     -58.62806       709.10816    
    672000   302.28157      0.036539744    19.518664      749.96891     -63.041711      686.9272     
    673000   292.38333      0.036539744    17.964191      725.41111     -65.125312      660.2858     
    674000   294.38279      0.036539744    21.149085      730.37181     -65.82634       664.54547    
    675000   303.75174      0.036539744    22.229729      753.61645     -60.907573      692.70888    
    676000   300.73581      0.036539744    17.048264      746.13383     -67.22181       678.91202    
    677000   301.9629       0.036539744    17.093395      749.17828     -67.111825      682.06645    
    678000   301.37934      0.036539744    19.439179      747.73044     -66.007772      681.72267    
    679000   299.05929      0.036539744    16.286982      741.97435     -67.684664      674.28969    
    680000   297.60863      0.036539744    19.877184      738.37521     -68.419664      669.95555    
    681000   313.35683      0.036539744    26.471764      777.44693     -66.312878      711.13405    
    682000   298.64921      0.036539744    17.484814      740.95693     -72.141098      668.81583    
    683000   297.01286      0.036539744    18.001718      736.89709     -65.234215      671.66287    
    684000   290.14427      0.036539744    15.550254      719.85594     -59.871259      659.98468    
    685000   319.00963      0.036539744    17.140175      791.47168     -68.047001      723.42468    
    686000   305.01048      0.036539744    22.230792      756.73942     -59.729472      697.00995    
    687000   296.58149      0.036539744    17.329523      735.82686     -63.335751      672.49111    
    688000   294.19124      0.036539744    17.883238      729.89658     -58.521707      671.37488    
    689000   303.65774      0.036539744    22.72769       753.38321     -60.913332      692.46988    
    690000   294.25492      0.036539744    17.899886      730.05457     -56.447686      673.60688    
    691000   299.39759      0.036539744    17.16795       742.81367     -50.806622      692.00705    
    692000   293.57419      0.036539744    19.995866      728.36566     -58.654696      669.71096    
    693000   297.96495      0.036539744    23.925232      739.25926     -56.203293      683.05596    
    694000   302.29478      0.036539744    23.698814      750.00168     -54.589133      695.41254    
    695000   298.67547      0.036539744    16.575609      741.02207     -56.864632      684.15744    
    696000   292.9718       0.036539744    16.440331      726.87112     -51.064771      675.80635    
    697000   299.53223      0.036539744    19.647404      743.14771     -58.782108      684.3656     
    698000   301.72566      0.036539744    24.876062      748.58968     -65.313315      683.27636    
    699000   305.72677      0.036539744    19.36866       758.51653     -61.595532      696.921      
    700000   292.31775      0.036539744    19.473297      725.2484      -62.085372      663.16303    
    701000   295.75182      0.036539744    19.657014      733.76842     -71.09501       662.67341    
    702000   305.98251      0.036539744    19.32337       759.15103     -70.180701      688.97033    
    703000   297.93564      0.036539744    16.861053      739.18653     -65.050694      674.13584    
    704000   289.94076      0.036539744    20.241941      719.35102     -63.373194      655.97783    
    705000   300.24027      0.036539744    21.390582      744.90438     -54.264915      690.63947    
    706000   321.56168      0.036539744    19.529022      797.8034      -57.48601       740.31739    
    707000   306.08667      0.036539744    11.685595      759.40946     -55.877491      703.53196    
    708000   288.41712      0.036539744    22.069497      715.57082     -55.059932      660.51088    
    709000   302.11627      0.036539744    28.065977      749.55879     -59.356051      690.20274    
    710000   310.37432      0.036539744    18.872391      770.04724     -54.236803      715.81044    
    711000   294.43443      0.036539744    17.722023      730.49994     -55.922974      674.57697    
    712000   306.93502      0.036539744    24.842527      761.51424     -61.892322      699.62192    
    713000   310.19162      0.036539744    34.928656      769.59397     -66.203221      703.39075    
    714000   312.45776      0.036539744    18.993747      775.21632     -65.389305      709.82702    
    715000   294.68557      0.036539744    13.334633      731.12301     -62.151677      668.97133    
    716000   306.23431      0.036539744    16.362202      759.77577     -59.658522      700.11725    
    717000   296.76111      0.036539744    14.371512      736.27248     -61.965135      674.30735    
    718000   292.57881      0.036539744    17.692997      725.8961      -55.767614      670.12848    
    719000   301.46646      0.036539744    25.056068      747.9466      -66.846247      681.10035    
    720000   315.63551      0.036539744    11.149789      783.1004      -59.758601      723.3418     
    721000   303.68883      0.036539744    18.211627      753.46037     -55.15502       698.30535    
    722000   290.55865      0.036539744    36.765238      720.88402     -51.647836      669.23618    
    723000   302.56316      0.036539744    40.70892       750.66755     -60.435174      690.23238    
    724000   292.79325      0.036539744    15.165534      726.42813     -55.860104      670.56802    
    725000   296.76788      0.036539744    14.80023       736.2893      -64.000717      672.28858    
    726000   301.33682      0.036539744    43.193738      747.62496     -58.062167      689.56279    
    727000   316.99868      0.036539744    18.791876      786.48246     -59.408179      727.07428    
    728000   304.10606      0.036539744    18.167892      754.49552     -57.346856      697.14866    
    729000   286.35012      0.036539744    8.5722017      710.44254     -58.196693      652.24585    
    730000   290.04527      0.036539744    29.880628      719.6103      -60.083845      659.52646    
    731000   310.76934      0.036539744    4.2214522      771.0273      -61.542886      709.48441    
    732000   302.22025      0.036539744    15.641367      749.81676     -62.169882      687.64688    
    733000   297.16243      0.036539744    17.554575      737.26817     -65.595866      671.6723     
    734000   304.48641      0.036539744    21.578792      755.43919     -63.086132      692.35305    
    735000   305.16326      0.036539744    19.491471      757.11846     -64.781098      692.33736    
    736000   302.75         0.036539744    6.5120698      751.1311      -59.094009      692.03709    
    737000   290.36536      0.036539744    9.9076245      720.40447     -59.411874      660.99259    
    738000   293.61989      0.036539744    22.729535      728.47905     -67.855915      660.62314    
    739000   304.92218      0.036539744    19.251399      756.52033     -64.115679      692.40465    
    740000   298.65908      0.036539744    12.528476      740.98141     -66.217069      674.76434    
    741000   286.95731      0.036539744    9.8154512      711.94899     -65.936531      646.01246    
    742000   298.65623      0.036539744    23.508622      740.97433     -63.745606      677.22872    
    743000   305.82632      0.036539744    21.764907      758.76352     -60.322911      698.44061    
    744000   306.19507      0.036539744    17.114702      759.67841     -61.147746      698.53067    
    745000   291.16018      0.036539744    16.175504      722.37644     -67.521184      654.85526    
    746000   304.93903      0.036539744    17.124386      756.56213     -59.965926      696.59621    
    747000   315.72271      0.036539744    19.106653      783.31675     -55.96552       727.35122    
    748000   292.09849      0.036539744    17.390235      724.7044      -56.574784      668.12961    
    749000   295.67889      0.036539744    15.674815      733.58748     -55.975205      677.61228    
    750000   301.20149      0.036539744    21.90896       747.2892      -56.342132      690.94706    
    751000   296.34443      0.036539744    23.413857      735.23871     -61.229207      674.0095     
    752000   294.14809      0.036539744    13.584686      729.78951     -56.450732      673.33878    
    753000   304.3049       0.036539744    16.537577      754.98884     -64.100649      690.8882     
    754000   310.12618      0.036539744    16.645157      769.43161     -68.500383      700.93122    
    755000   301.9108       0.036539744    17.740755      749.04901     -65.278587      683.77042    
    756000   291.85302      0.036539744    17.341483      724.09538     -68.021662      656.07372    
    757000   301.9003       0.036539744    20.849211      749.02298     -66.991907      682.03107    
    758000   310.81848      0.036539744    19.855844      771.14921     -67.660523      703.48869    
    759000   296.75985      0.036539744    26.56022       736.26937     -68.921232      667.34813    
    760000   292.82738      0.036539744    6.2866958      726.51281     -63.882884      662.62993    
    761000   307.35733      0.036539744    18.071294      762.56202     -59.474118      703.0879     
    762000   309.89837      0.036539744    20.225679      768.86641     -63.791473      705.07493    
    763000   297.221        0.036539744    20.739052      737.4135      -68.566025      668.84747    
    764000   298.35681      0.036539744    19.595148      740.23146     -62.380262      677.8512     
    765000   308.6757       0.036539744    13.751677      765.83292     -64.793122      701.0398     
    766000   305.27624      0.036539744    20.860003      757.39877     -69.092057      688.30671    
    767000   282.97068      0.036539744    19.237453      702.05806     -64.695409      637.36265    
    768000   284.61026      0.036539744    16.070371      706.1259      -70.042763      636.08314    
    769000   308.27285      0.036539744    22.307232      764.83343     -63.092184      701.74124    
    770000   313.30261      0.036539744    26.706174      777.31242     -67.159253      710.15317    
    771000   281.50989      0.036539744    19.930395      698.43379     -59.461832      638.97196    
    772000   300.83489      0.036539744    18.101766      746.37965     -65.994611      680.38503    
    773000   317.65249      0.036539744    19.421449      788.10459     -67.476462      720.62812    
    774000   302.9419       0.036539744    23.230089      751.60719     -62.252787      689.35441    
    775000   289.70548      0.036539744    16.97585       718.76729     -62.259593      656.50769    
    776000   304.04914      0.036539744    10.396433      754.35431     -60.533699      693.82061    
    777000   304.24013      0.036539744    16.997243      754.82815     -62.616017      692.21213    
    778000   298.26442      0.036539744    21.927327      740.00225     -66.198592      673.80366    
    779000   286.0809       0.036539744    18.551881      709.77459     -63.514795      646.2598     
    780000   299.11506      0.036539744    16.541492      742.11271     -70.400771      671.71194    
    781000   314.13974      0.036539744    17.198938      779.38935     -62.942473      716.44687    
    782000   299.10108      0.036539744    7.0445385      742.07801     -66.564724      675.51329    
    783000   306.94731      0.036539744    19.385175      761.54474     -61.041269      700.50347    
    784000   305.46653      0.036539744    34.996851      757.87088     -64.608195      693.26268    
    785000   301.43739      0.036539744    19.891783      747.87447     -62.181052      685.69342    
    786000   306.86118      0.036539744    14.46771       761.33104     -64.807237      696.5238     
    787000   307.33596      0.036539744    18.924718      762.50898     -60.746637      701.76234    
    788000   296.98144      0.036539744    22.492972      736.81915     -53.82998       682.98917    
    789000   295.71556      0.036539744    16.281616      733.67846     -64.051112      669.62734    
    790000   308.54714      0.036539744    17.545223      765.51395     -61.794443      703.7195     
    791000   305.82834      0.036539744    19.578825      758.76853     -59.794758      698.97378    
    792000   291.33677      0.036539744    20.744656      722.81455     -56.878931      665.93562    
    793000   296.27779      0.036539744    9.021885       735.07336     -59.838194      675.23516    
    794000   307.26121      0.036539744    20.562034      762.32354     -61.960844      700.3627     
    795000   291.88407      0.036539744    16.721672      724.17244     -64.155829      660.01661    
    796000   296.99061      0.036539744    12.321712      736.84189     -65.050487      671.79141    
    797000   306.5031       0.036539744    19.370066      760.44263     -63.433107      697.00953    
    798000   302.95756      0.036539744    20.295743      751.64606     -70.331339      681.31472    
    799000   299.24891      0.036539744    19.012705      742.44479     -72.008128      670.43666    
    800000   293.91573      0.036539744    15.302956      729.21303     -70.156677      659.05635    
    801000   298.99551      0.036539744    17.737825      741.81609     -71.848502      669.96759    
    802000   303.62706      0.036539744    19.051141      753.3071      -66.659426      686.64768    
    803000   305.8337       0.036539744    22.796331      758.78183     -65.748445      693.03339    
    804000   295.68751      0.036539744    15.266968      733.60886     -65.062639      668.54622    
    805000   309.45354      0.036539744    18.719647      767.76276     -63.365929      704.39683    
    806000   306.86153      0.036539744    21.047455      761.33192     -57.823787      703.50813    
    807000   300.41275      0.036539744    17.857323      745.33232     -62.834743      682.49758    
    808000   292.04765      0.036539744    17.318188      724.57826     -62.7449        661.83336    
    809000   305.64017      0.036539744    12.670117      758.30168     -61.880728      696.42095    
    810000   307.58068      0.036539744    20.951744      763.11616     -58.143989      704.97217    
    811000   302.52975      0.036539744    22.884012      750.58465     -63.911217      686.67343    
    812000   298.49251      0.036539744    19.195975      740.56815     -60.158069      680.41008    
    813000   297.98272      0.036539744    17.624737      739.30335     -63.256774      676.04658    
    814000   295.80896      0.036539744    1.701342       733.91019     -68.760682      665.14951    
    815000   309.51486      0.036539744    15.722963      767.91491     -61.869436      706.04547    
    816000   303.10109      0.036539744    20.768434      752.00217     -58.109427      693.89274    
    817000   292.51583      0.036539744    21.812203      725.73984     -57.616182      668.12366    
    818000   297.82758      0.036539744    17.670988      738.91844     -60.848019      678.07042    
    819000   318.84671      0.036539744    20.453437      791.06747     -60.67349       730.39398    
    820000   307.15708      0.036539744    18.243188      762.06517     -61.777457      700.28772    
    821000   295.39701      0.036539744    20.099206      732.88812     -67.539557      665.34856    
    822000   300.44815      0.036539744    21.069112      745.42015     -68.888238      676.53191    
    823000   300.80714      0.036539744    6.2249938      746.3108      -76.211096      670.09971    
    824000   303.02428      0.036539744    19.716513      751.81159     -77.232716      674.57888    
    825000   288.04389      0.036539744    18.723698      714.64483     -71.610769      643.03407    
    826000   289.69729      0.036539744    14.985088      718.74695     -66.171099      652.57585    
    827000   299.5483       0.036539744    19.345628      743.18758     -74.653611      668.53397    
    828000   307.75035      0.036539744    19.177937      763.53711     -65.074067      698.46304    
    829000   309.58433      0.036539744    18.212161      768.08725     -66.560164      701.52708    
    830000   292.63387      0.036539744    15.184187      726.0327      -70.722971      655.30972    
    831000   292.1607       0.036539744    19.218801      724.85874     -73.425406      651.43334    
    832000   297.58019      0.036539744    21.808322      738.30466     -68.306144      669.99852    
    833000   307.55276      0.036539744    16.640239      763.04688     -69.834113      693.21277    
    834000   295.48287      0.036539744    10.49093       733.10113     -72.551393      660.54974    
    835000   300.38996      0.036539744    24.504426      745.27578     -64.617413      680.65837    
    836000   295.08056      0.036539744    23.646222      732.103       -67.013828      665.08917    
    837000   313.46839      0.036539744    21.613445      777.72373     -67.856155      709.86757    
    838000   308.03515      0.036539744    13.778657      764.2437      -66.344699      697.899      
    839000   290.38375      0.036539744    19.554961      720.4501      -59.637289      660.81281    
    840000   290.46433      0.036539744    12.948929      720.65001     -67.017007      653.633      
    841000   309.29233      0.036539744    13.406651      767.3628      -69.200698      698.1621     
    842000   310.93103      0.036539744    26.520101      771.42845     -60.24039       711.18806    
    843000   285.70081      0.036539744    21.712489      708.83158     -56.39246       652.43912    
    844000   299.26139      0.036539744    13.690612      742.47577     -59.279186      683.19658    
    845000   309.80902      0.036539744    20.295048      768.64472     -58.262659      710.38206    
    846000   294.05365      0.036539744    18.081009      729.5552      -62.15701       667.39819    
    847000   293.7354       0.036539744    20.486003      728.76563     -61.711387      667.05425    
    848000   315.28527      0.036539744    19.75348       782.23145     -65.647495      716.58395    
    849000   300.8348       0.036539744    14.482606      746.37942     -66.022091      680.35733    
    850000   293.03964      0.036539744    18.432472      727.03942     -59.82407       667.21535    
    851000   300.1079       0.036539744    10.660542      744.57598     -59.478032      685.09795    
    852000   307.18524      0.036539744    5.6536514      762.13504     -61.710927      700.42411    
    853000   300.88025      0.036539744    21.563662      746.4922      -58.852711      687.63949    
    854000   294.92365      0.036539744    13.612931      731.7137      -58.415088      673.29861    
    855000   291.4976       0.036539744    15.257019      723.21357     -64.950182      658.26339    
    856000   303.58679      0.036539744    18.207273      753.20719     -71.508968      681.69823    
    857000   318.69117      0.036539744    23.81779       790.68157     -69.908544      720.77303    
    858000   299.59039      0.036539744    19.057402      743.29202     -68.197187      675.09483    
    859000   293.94829      0.036539744    14.452916      729.29382     -62.964833      666.32899    
    860000   304.91601      0.036539744    21.732671      756.50503     -66.859393      689.64564    
    861000   295.05633      0.036539744    22.027788      732.04288     -62.220916      669.82197    
    862000   286.33008      0.036539744    16.9453        710.39282     -62.835173      647.55765    
    863000   305.35726      0.036539744    18.507326      757.59977     -60.2534        697.34637    
    864000   310.59075      0.036539744    19.031712      770.5842      -51.523427      719.06077    
    865000   284.25154      0.036539744    18.828769      705.23592     -55.404774      649.83114    
    866000   311.92479      0.036539744    26.970448      773.894       -57.982541      715.91146    
    867000   310.58921      0.036539744    17.505861      770.5804      -56.406821      714.17358    
    868000   285.7583       0.036539744    16.508291      708.97422     -58.613765      650.36045    
    869000   289.73786      0.036539744    21.088784      718.84762     -54.980586      663.86704    
    870000   299.44718      0.036539744    18.286733      742.93672     -55.035983      687.90074    
    871000   301.6812       0.036539744    7.5003141      748.47938     -49.45133       699.02804    
    872000   298.55269      0.036539744    22.758019      740.71745     -54.195019      686.52243    
    873000   303.48597      0.036539744    22.458709      752.95706     -54.204977      698.75208    
    874000   298.20916      0.036539744    12.312322      739.86514     -53.916918      685.94823    
    875000   302.2065       0.036539744    16.155825      749.78266     -58.933911      690.84875    
    876000   293.95098      0.036539744    19.999115      729.30048     -59.53211       669.76837    
    877000   300.15384      0.036539744    21.711358      744.68996     -61.932222      682.75774    
    878000   312.72139      0.036539744    11.552259      775.87039     -57.656938      718.21345    
    879000   312.03234      0.036539744    8.8431357      774.16084     -59.242449      714.91839    
    880000   297.50165      0.036539744    20.825351      738.10978     -51.231974      686.87781    
    881000   298.80748      0.036539744    16.682083      741.34959     -57.632975      683.71661    
    882000   298.84344      0.036539744    7.0158246      741.43881     -54.898604      686.54021    
    883000   295.47054      0.036539744    23.395272      733.07055     -57.589333      675.48121    
    884000   280.85967      0.036539744    11.750798      696.82057     -55.971326      640.84925    
    885000   303.29955      0.036539744    20.54786       752.49454     -57.402161      695.09238    
    886000   312.35426      0.036539744    23.262146      774.95952     -55.092732      719.86679    
    887000   297.26701      0.036539744    6.2749563      737.52763     -57.881648      679.64599    
    888000   295.17534      0.036539744    21.888952      732.33816     -60.953603      671.38455    
    889000   307.31966      0.036539744    30.587864      762.46856     -56.675705      705.79285    
    890000   314.45239      0.036539744    16.870499      780.16504     -52.990498      727.17455    
    891000   294.02965      0.036539744    13.888521      729.49566     -56.579324      672.91633    
    892000   288.20648      0.036539744    15.692603      715.04823     -61.153299      653.89493    
    893000   305.00843      0.036539744    45.057757      756.73433     -60.723392      696.01094    
    894000   298.01422      0.036539744    13.764991      739.38149     -61.588986      677.7925     
    895000   292.8175       0.036539744    11.439431      726.4883      -58.146566      668.34173    
    896000   297.90443      0.036539744    19.526092      739.1091      -57.576189      681.53291    
    897000   303.76045      0.036539744    22.793169      753.63805     -56.881936      696.75611    
    898000   298.47555      0.036539744    23.142987      740.52606     -46.079614      694.44644    
    899000   305.93316      0.036539744    10.033592      759.02859     -54.300537      704.72806    
    900000   286.90963      0.036539744    12.129279      711.83071     -47.884648      663.94606    
    901000   294.5239       0.036539744    26.560749      730.72191     -42.343261      688.37864    
    902000   310.89778      0.036539744    20.35021       771.34596     -50.883263      720.4627     
    903000   313.98335      0.036539744    15.149117      779.00134     -52.780102      726.22124    
    904000   289.20503      0.036539744   -8.6683755      717.52565     -61.542733      655.98292    
    905000   293.34328      0.036539744    19.56324       727.79277     -61.121343      666.67142    
    906000   303.34849      0.036539744    30.544621      752.61596     -56.441502      696.17446    
    907000   306.88342      0.036539744   -12.245057      761.38623     -53.196544      708.18969    
    908000   295.68888      0.036539744    11.147971      733.61226     -55.812146      677.80012    
    909000   294.94564      0.036539744    19.892018      731.76826     -51.831604      679.93666    
    910000   306.61087      0.036539744    13.148835      760.71002     -53.03479       707.67523    
    911000   300.45719      0.036539744    18.503812      745.44257     -46.598602      698.84397    
    912000   290.22984      0.036539744    18.447143      720.06824     -50.973421      669.09482    
    913000   301.46421      0.036539744    20.721547      747.941       -49.870849      698.07016    
    914000   303.3817       0.036539744    20.801956      752.69836     -55.823779      696.87458    
    915000   297.50621      0.036539744    16.164578      738.12112     -54.840701      683.28042    
    916000   297.8236       0.036539744    18.383048      738.90857     -57.097153      681.81141    
    917000   286.03943      0.036539744    19.011953      709.67172     -58.610346      651.06137    
    918000   297.9844       0.036539744    19.070873      739.3075      -57.105471      682.20203    
    919000   310.19384      0.036539744    18.924974      769.59946     -60.006199      709.59326    
    920000   295.79311      0.036539744    21.376091      733.87086     -61.58301       672.28785    
    921000   293.54402      0.036539744    19.440931      728.2908      -55.955032      672.33576    
    922000   306.477        0.036539744    25.778336      760.37789     -54.897315      705.48057    
    923000   306.71001      0.036539744    14.657791      760.95599     -56.093918      704.86207    
    924000   304.02018      0.036539744    14.708039      754.28245     -59.989669      694.29278    
    925000   297.5215       0.036539744    17.124448      738.15903     -59.250725      678.90831    
    926000   304.68447      0.036539744    17.553022      755.93056     -64.284146      691.64642    
    927000   305.93538      0.036539744    20.570638      759.03412     -65.538888      693.49523    
    928000   291.45925      0.036539744    15.13134       723.11843     -64.180324      658.9381     
    929000   300.99423      0.036539744    17.430468      746.77497     -62.623592      684.15138    
    930000   318.66103      0.036539744    26.472118      790.60681     -62.462041      728.14477    
    931000   294.31077      0.036539744    16.253723      730.19314     -60.953008      669.24013    
    932000   296.72499      0.036539744    16.196454      736.18287     -54.635527      681.54734    
    933000   297.91823      0.036539744    17.437658      739.14335     -54.390002      684.75335    
    934000   306.06477      0.036539744    24.721558      759.35512     -64.526661      694.82846    
    935000   295.90478      0.036539744    18.55558       734.14792     -62.816641      671.33128    
    936000   298.6073       0.036539744    17.266385      740.85295     -60.702299      680.15065    
    937000   311.02705      0.036539744    17.342532      771.66668     -62.444819      709.22186    
    938000   291.76245      0.036539744    17.563128      723.87068     -60.315167      663.55551    
    939000   302.78867      0.036539744    15.480151      751.22704     -71.74571       679.48133    
    940000   297.86811      0.036539744    20.61843       739.01899     -65.329267      673.68972    
    941000   287.65537      0.036539744    18.473904      713.68089     -67.930873      645.75002    
    942000   299.69155      0.036539744    15.188236      743.54301     -68.073581      675.46942    
    943000   304.20164      0.036539744    16.036603      754.73266     -55.204509      699.52815    
    944000   309.92966      0.036539744    18.298171      768.94404     -66.569394      702.37464    
    945000   298.41453      0.036539744    20.042059      740.37466     -62.176562      678.1981     
    946000   295.01269      0.036539744    18.764002      731.93461     -64.17211       667.7625     
    947000   302.6072       0.036539744    17.772792      750.77681     -68.031122      682.74568    
    948000   295.83113      0.036539744    14.420625      733.9652      -59.546484      674.41872    
    949000   300.94967      0.036539744    20.959497      746.66444     -59.797003      686.86743    
    950000   291.49286      0.036539744    18.363966      723.20181     -58.697135      664.50468    
    951000   293.2563       0.036539744    18.665253      727.57697     -59.674984      667.90198    
    952000   300.7059       0.036539744    15.522249      746.05962     -62.934062      683.12556    
    953000   302.74549      0.036539744    20.574952      751.11991     -56.52691       694.593      
    954000   297.53807      0.036539744    18.347979      738.20015     -56.956123      681.24403    
    955000   291.95392      0.036539744    18.106676      724.34572     -53.123277      671.22244    
    956000   302.4273       0.036539744    14.406709      750.33047     -59.576483      690.75399    
    957000   311.09929      0.036539744    29.42205       771.84592     -69.51118       702.33475    
    958000   297.0198       0.036539744    22.741143      736.91431     -66.114039      670.80027    
    959000   295.52826      0.036539744    15.087474      733.21375     -62.036177      671.17758    
    960000   309.98883      0.036539744   -1.715952       769.09084     -67.576421      701.51442    
    961000   307.18331      0.036539744    38.483465      762.13026     -59.250247      702.88002    
    962000   297.23766      0.036539744    31.598609      737.45483     -59.680941      677.77388    
    963000   291.42447      0.036539744    9.5221994      723.03214     -51.768512      671.26363    
    964000   316.15254      0.036539744    18.590557      784.38318     -54.853555      729.52962    
    965000   309.46179      0.036539744    18.77774       767.78324     -51.18234       716.6009     
    966000   307.45713      0.036539744    24.876132      762.80961     -53.206211      709.6034     
    967000   291.65355      0.036539744    22.435485      723.60048     -54.163902      669.43658    
    968000   301.17841      0.036539744    22.823912      747.23193     -55.071324      692.16061    
    969000   294.24937      0.036539744    20.980699      730.04079     -55.230994      674.80979    
    970000   303.55196      0.036539744    14.694983      753.12078     -49.108567      704.01222    
    971000   309.71589      0.036539744    19.855566      768.41367     -55.287033      713.12664    
    972000   310.09422      0.036539744    19.624571      769.3523      -57.367504      711.98479    
    973000   285.00664      0.036539744    16.935128      707.10934     -49.315014      657.79432    
    974000   298.53744      0.036539744    16.522255      740.67963     -53.309439      687.37019    
    975000   309.10362      0.036539744    29.363287      766.89461     -51.763045      715.13156    
    976000   298.67396      0.036539744    16.090032      741.01832     -49.701282      691.31704    
    977000   300.35431      0.036539744    4.4331582      745.18733     -50.45106       694.73627    
    978000   297.04232      0.036539744    24.133829      736.97017     -56.016729      680.95344    
    979000   294.18391      0.036539744    18.360446      729.8784      -52.174002      677.7044     
    980000   307.58612      0.036539744    9.3948044      763.12964     -56.423949      706.70569    
    981000   313.08055      0.036539744    17.93447       776.76147     -58.183556      718.57792    
    982000   295.61495      0.036539744    22.273205      733.42883     -52.235971      681.19286    
    983000   295.06036      0.036539744    21.538012      732.05289     -59.488199      672.56469    
    984000   300.68548      0.036539744    17.45629       746.00896     -58.573083      687.43587    
    985000   310.69676      0.036539744    19.766984      770.84724     -56.897749      713.94949    
    986000   297.145        0.036539744    23.27687       737.22493     -54.547176      682.67776    
    987000   295.01295      0.036539744    19.793097      731.93526     -50.886006      681.04925    
    988000   327.90137      0.036539744    20.356738      813.53233     -47.528994      766.00334    
    989000   295.14437      0.036539744    22.655253      732.26133     -49.756572      682.50475    
    990000   291.32801      0.036539744    14.9668        722.79282     -55.29395       667.49887    
    991000   308.68917      0.036539744    20.392061      765.86633     -54.069276      711.79705    
    992000   312.25732      0.036539744    19.275324      774.71903     -54.877014      719.84202    
    993000   279.61741      0.036539744    17.071368      693.7385      -59.699414      634.03909    
    994000   296.94571      0.036539744    17.319282      736.73048     -62.371504      674.35898    
    995000   311.60168      0.036539744    18.95576       773.09235     -63.742397      709.34995    
    996000   305.68091      0.036539744    20.408708      758.40277     -59.360721      699.04205    
    997000   284.0268       0.036539744    17.886344      704.67832     -55.691435      648.98688    
    998000   290.54654      0.036539744    16.844605      720.85397     -55.541223      665.31275    
    999000   308.02893      0.036539744    22.309115      764.22826     -60.091328      704.13693    
   1000000   299.86922      0.036539744    21.522291      743.9838      -58.236504      685.7473     
   1001000   306.79297      0.036539744    22.184129      761.16183     -59.018807      702.14302    
   1002000   295.00736      0.036539744    11.476987      731.92138     -56.57828       675.3431     
   1003000   290.23471      0.036539744    6.8713771      720.08031     -54.523385      665.55693    
   1004000   300.84785      0.036539744    22.028585      746.41181     -59.381441      687.03037    
   1005000   308.55317      0.036539744    23.757168      765.52893     -58.707942      706.82098    
   1006000   309.93473      0.036539744    15.948625      768.95661     -60.511344      708.44527    
   1007000   307.19301      0.036539744    4.95551        762.15434     -65.236377      696.91796    
   1008000   294.14068      0.036539744    20.459266      729.77113     -64.13442       665.63671    
   1009000   303.70079      0.036539744    19.08605       753.49003     -64.345737      689.1443     
   1010000   296.48712      0.036539744    17.652043      735.59272     -61.834532      673.75819    
   1011000   298.14694      0.036539744    16.732715      739.71077     -60.730218      678.98055    
   1012000   300.51421      0.036539744    18.794227      745.58404     -56.094939      689.4891     
   1013000   310.15161      0.036539744    17.927825      769.49469     -55.283387      714.21131    
   1014000   318.44687      0.036539744    20.852532      790.07547     -59.127252      730.94822    
   1015000   298.23676      0.036539744    17.101202      739.93363     -51.61479       688.31884    
   1016000   290.33709      0.036539744    16.440997      720.33432     -56.216112      664.1182     
   1017000   293.06335      0.036539744    20.417712      727.09824     -57.814681      669.28356    
   1018000   304.12433      0.036539744    17.836326      754.54084     -59.012487      695.52835    
   1019000   302.86848      0.036539744    17.723913      751.42504     -56.405319      695.01972    
   1020000   300.85918      0.036539744    17.504221      746.43992     -54.567115      691.8728     
   1021000   294.84162      0.036539744    12.363747      731.51018     -51.784215      679.72597    
   1022000   292.95743      0.036539744    36.189311      726.83546     -54.285977      672.54948    
   1023000   295.75259      0.036539744    18.308001      733.77034     -52.480542      681.2898     
   1024000   303.25493      0.036539744    23.501887      752.38383     -63.871292      688.51254    
   1025000   297.12148      0.036539744    23.93105       737.16658     -60.775413      676.39116    
   1026000   303.45957      0.036539744    13.373306      752.89157     -61.458646      691.43292    
   1027000   294.54008      0.036539744    15.766121      730.76207     -61.600726      669.16134    
   1028000   300.25074      0.036539744    21.87713       744.93036     -66.264649      678.66571    
   1029000   301.77385      0.036539744    20.175121      748.70925     -71.944881      676.76437    
   1030000   294.82482      0.036539744    12.570654      731.4685      -70.773252      660.69525    
   1031000   289.31115      0.036539744    5.3301336      717.78894     -66.708655      651.08028    
   1032000   313.7391       0.036539744    23.421655      778.39537     -62.484698      715.91067    
   1033000   300.78186      0.036539744    15.789766      746.24808     -55.702858      690.54523    
   1034000   291.14755      0.036539744    8.319073       722.34511     -53.239472      669.10563    
   1035000   298.31269      0.036539744    21.991271      740.122       -51.966089      688.15591    
   1036000   299.7624       0.036539744    19.295626      743.71878     -58.219089      685.49969    
   1037000   288.26649      0.036539744    20.316239      715.19712     -54.190922      661.0062     
   1038000   291.87762      0.036539744    17.474085      724.15641     -58.695444      665.46097    
   1039000   309.01803      0.036539744    13.516468      766.68226     -64.772679      701.90958    
   1040000   307.40576      0.036539744    25.84062       762.68216     -71.086586      691.59558    
   1041000   296.7257       0.036539744    28.992159      736.18464     -68.066506      668.11813    
   1042000   277.61173      0.036539744    16.600251      688.76234     -60.069756      628.69259    
   1043000   299.76906      0.036539744    15.073078      743.7353      -63.711204      680.0241     
   1044000   312.36768      0.036539744    12.773846      774.99282     -51.853668      723.13915    
   1045000   293.38807      0.036539744    23.983868      727.9039      -57.478308      670.42559    
   1046000   296.15069      0.036539744    30.925393      734.75803     -58.615474      676.14256    
   1047000   300.65469      0.036539744    20.197821      745.93258     -63.870963      682.06161    
   1048000   301.35825      0.036539744    17.746753      747.67812     -68.919749      678.75837    
   1049000   294.40896      0.036539744    18.41208       730.43676     -64.693398      665.74336    
   1050000   302.84367      0.036539744    20.863536      751.3635      -58.807865      692.55564    
   1051000   314.07335      0.036539744    19.801314      779.22464     -56.565571      722.65907    
   1052000   290.21355      0.036539744    12.790024      720.02781     -59.103546      660.92427    
   1053000   299.61875      0.036539744    38.30329       743.36237     -63.464225      679.89814    
   1054000   312.13753      0.036539744    25.017013      774.42181     -61.001358      713.42045    
   1055000   304.87948      0.036539744    11.147658      756.41439     -66.403764      690.01063    
   1056000   286.4201       0.036539744    17.25909       710.61615     -60.649656      649.9665     
   1057000   282.33177      0.036539744    22.490141      700.47291     -59.606735      640.86618    
   1058000   296.933        0.036539744    22.977882      736.69895     -56.524637      680.17431    
   1059000   299.68339      0.036539744    7.6730935      743.52275     -53.475724      690.04702    
   1060000   293.47581      0.036539744    25.112847      728.12158     -51.697779      676.4238     
   1061000   304.97364      0.036539744    11.845564      756.64802     -58.013194      698.63482    
   1062000   296.37893      0.036539744    6.7483369      735.3243      -55.00064       680.32366    
   1063000   291.18363      0.036539744    12.436525      722.43462     -59.582316      662.85231    
   1064000   307.37376      0.036539744    28.110447      762.60276     -57.030121      705.57264    
   1065000   291.31583      0.036539744    17.539402      722.76262     -52.571483      670.19113    
   1066000   288.70818      0.036539744   -4.2371847      716.29295     -53.983633      662.30932    
   1067000   287.8782       0.036539744    20.056726      714.23375     -55.182442      659.0513     
   1068000   275.2305       0.036539744    25.27264       682.85446     -58.644984      624.20948    
   1069000   306.97402      0.036539744    22.750078      761.611       -53.944577      707.66642    
   1070000   305.89415      0.036539744    19.334718      758.93182     -59.532076      699.39974    
   1071000   299.88058      0.036539744    11.458726      744.01198     -61.969454      682.04253    
   1072000   292.46409      0.036539744    22.154319      725.61146     -59.289905      666.32156    
   1073000   300.09901      0.036539744    26.542855      744.55392     -56.581008      687.97291    
   1074000   308.01687      0.036539744    21.56245       764.19835     -53.534817      710.66354    
   1075000   303.66816      0.036539744    23.095634      753.40907     -49.569075      703.84       
   1076000   295.55677      0.036539744    18.059991      733.2845      -53.745305      679.53919    
   1077000   298.38475      0.036539744    20.941526      740.30079     -49.660713      690.64008    
   1078000   308.63938      0.036539744    19.668349      765.74282     -47.312278      718.43054    
   1079000   300.764        0.036539744    17.861775      746.20378     -48.011421      698.19236    
   1080000   292.25729      0.036539744    15.473023      725.09838     -54.809015      670.28937    
   1081000   301.44231      0.036539744    21.8154        747.88668     -49.349501      698.53718    
   1082000   305.58631      0.036539744    23.997612      758.16805     -56.288901      701.87915    
   1083000   294.77242      0.036539744    19.183778      731.33849     -50.419331      680.91916    
   1084000   300.35723      0.036539744    19.699507      745.19456     -59.373482      685.82108    
   1085000   308.17819      0.036539744    16.582193      764.59857     -62.381368      702.2172     
   1086000   286.29044      0.036539744    15.163823      710.29447     -59.963694      650.33078    
   1087000   297.2262       0.036539744    25.860563      737.42641     -58.639677      678.78673    
   1088000   291.68023      0.036539744    14.827646      723.6667      -51.219145      672.44755    
   1089000   294.21272      0.036539744    18.768031      729.94987     -63.52073       666.42915    
   1090000   298.13921      0.036539744    26.077849      739.6916      -61.148838      678.54276    
   1091000   307.88043      0.036539744    21.671426      763.85984     -63.46099       700.39885    
   1092000   279.16435      0.036539744    7.9021564      692.61446     -61.585948      631.02851    
   1093000   292.92449      0.036539744    20.30233       726.75373     -63.236291      663.51744    
   1094000   293.58472      0.036539744    18.861258      728.39178     -61.160377      667.2314     
   1095000   301.5781       0.036539744    26.398319      748.22358     -62.156551      686.06703    
   1096000   301.02337      0.036539744    24.044137      746.84729     -67.004883      679.84241    
   1097000   306.57811      0.036539744    20.540901      760.62875     -65.088642      695.54011    
   1098000   306.61755      0.036539744    25.12051       760.72658     -65.12045       695.60613    
   1099000   276.82763      0.036539744    8.1755838      686.81699     -64.318892      622.4981     
   1100000   304.03332      0.036539744    16.441751      754.31505     -66.992275      687.32278    
   1101000   308.29128      0.036539744    17.541301      764.87917     -62.44023       702.43894    
   1102000   285.24152      0.036539744    14.365868      707.69209     -68.923342      638.76874    
   1103000   306.52175      0.036539744    19.161307      760.4889      -67.627521      692.86138    
   1104000   304.65347      0.036539744    17.081279      755.85366     -72.554385      683.29928    
   1105000   293.33568      0.036539744    19.132551      727.77392     -74.463416      653.3105     
   1106000   297.51854      0.036539744    19.000632      738.15171     -69.044518      669.10719    
   1107000   307.62146      0.036539744    20.245108      763.21732     -66.52438       696.69294    
   1108000   306.19462      0.036539744    9.2534572      759.6773      -71.575367      688.10193    
   1109000   315.62584      0.036539744    17.823811      783.07642     -66.402718      716.6737     
   1110000   302.00656      0.036539744    19.790921      749.2866      -69.698094      679.58851    
   1111000   288.31832      0.036539744    17.698181      715.3257      -75.370435      639.95527    
   1112000   304.3881       0.036539744    13.800606      755.19527     -69.371139      685.82413    
   1113000   292.54986      0.036539744   -11.919337      725.82426     -71.482131      654.34213    
   1114000   306.47752      0.036539744    28.390856      760.37917     -63.18861       697.19056    
   1115000   298.1782       0.036539744    32.719983      739.78832     -67.590756      672.19757    
   1116000   293.37407      0.036539744    25.997811      727.86915     -65.694914      662.17424    
   1117000   288.51896      0.036539744    5.697362       715.82349     -75.404999      640.41849    
   1118000   307.37946      0.036539744    7.5525692      762.61691     -70.151565      692.46534    
   1119000   310.75285      0.036539744    40.624501      770.98638     -69.636127      701.35026    
   1120000   289.02799      0.036539744    17.024997      717.08641     -66.986295      650.10012    
   1121000   298.15619      0.036539744    1.9260013      739.73372     -66.373151      673.36057    
   1122000   303.43817      0.036539744    5.8853893      752.83846     -72.911135      679.92732    
   1123000   324.32444      0.036539744    21.578479      804.65787     -69.534391      735.12348    
   1124000   302.12805      0.036539744    22.143078      749.58803     -59.493304      690.09472    
   1125000   286.1282       0.036539744    14.06662       709.89195     -65.453522      644.43843    
   1126000   294.371        0.036539744    10.642656      730.34257     -58.946356      671.39621    
   1127000   306.49402      0.036539744    12.311967      760.4201      -60.569337      699.85077    
   1128000   303.10281      0.036539744    25.47153       752.00642     -64.317343      687.68908    
   1129000   295.82971      0.036539744    25.025673      733.96166     -57.417021      676.54464    
   1130000   304.51944      0.036539744   -1.1333486      755.52113     -62.345624      693.17551    
   1131000   311.01472      0.036539744    28.11358       771.6361      -66.559546      705.07655    
   1132000   297.04919      0.036539744    28.912127      736.98722     -57.617644      679.36958    
   1133000   292.32592      0.036539744    21.884188      725.26866     -54.969707      670.29895    
   1134000   290.26358      0.036539744    17.40802       720.15195     -54.880945      665.27101    
   1135000   301.99732      0.036539744    7.3892968      749.26366     -55.443628      693.82004    
   1136000   311.46936      0.036539744    12.520315      772.76407     -63.98479       708.77928    
   1137000   298.82352      0.036539744    21.899366      741.38939     -63.071365      678.31803    
   1138000   283.85953      0.036539744    14.71827       704.26331     -66.633132      637.63018    
   1139000   308.64598      0.036539744    14.84946       765.75919     -59.99826       705.76093    
   1140000   312.99684      0.036539744    17.313132      776.55378     -57.141709      719.41207    
   1141000   293.70021      0.036539744    23.907085      728.67831     -60.866988      667.81132    
   1142000   290.46265      0.036539744    16.501987      720.64583     -57.594426      663.05141    
   1143000   312.54022      0.036539744    19.764924      775.42089     -59.700972      715.71992    
   1144000   298.51811      0.036539744    17.201372      740.63166     -60.230218      680.40144    
   1145000   281.04265      0.036539744    16.351197      697.27457     -57.86204       639.41253    
   1146000   300.12294      0.036539744    14.498843      744.61329     -53.408475      691.20482    
   1147000   310.88449      0.036539744    16.875172      771.31298     -60.812442      710.50054    
   1148000   298.63664      0.036539744    15.249312      740.92573     -57.123255      683.80247    
   1149000   288.68402      0.036539744    20.562717      716.233       -59.524154      656.70885    
   1150000   310.21735      0.036539744    19.998198      769.65779     -57.708315      711.94948    
   1151000   300.33522      0.036539744    6.4516015      745.13995     -59.4204        685.71955    
   1152000   288.47462      0.036539744    20.754708      715.71348     -59.654148      656.05934    
   1153000   306.29011      0.036539744    23.735516      759.9142      -55.366249      704.54795    
   1154000   306.10572      0.036539744    18.17567       759.45673     -58.35298       701.10375    
   1155000   307.74423      0.036539744    19.284791      763.52191     -59.374482      704.14743    
   1156000   288.21058      0.036539744    12.906294      715.0584      -56.27103       658.78737    
   1157000   294.02019      0.036539744    16.453069      729.47221     -64.671705      664.8005     
   1158000   306.4926       0.036539744    21.230563      760.41658     -64.470316      695.94626    
   1159000   306.67293      0.036539744    19.109633      760.86399     -67.879982      692.98401    
   1160000   300.79635      0.036539744    13.480699      746.28404     -63.834162      682.44988    
   1161000   311.42811      0.036539744    21.628609      772.66172     -62.772148      709.88957    
   1162000   303.46555      0.036539744    18.661142      752.90639     -61.685197      691.2212     
   1163000   296.06729      0.036539744    19.623791      734.55112     -57.777293      676.77383    
   1164000   303.87885      0.036539744    22.083823      753.9318      -60.288384      693.64341    
   1165000   311.57672      0.036539744    18.594205      773.03043     -58.623244      714.40719    
   1166000   300.32961      0.036539744    16.806955      745.12604     -66.464506      678.66153    
   1167000   289.1515       0.036539744    21.043484      717.39283     -60.377934      657.0149     
   1168000   299.66342      0.036539744    15.628644      743.47322     -65.381505      678.09171    
   1169000   286.70252      0.036539744    22.165064      711.31686     -75.028988      636.28787    
   1170000   303.569        0.036539744    23.83409       753.16305     -63.128059      690.03499    
   1171000   300.253        0.036539744    19.127833      744.93596     -65.292855      679.6431     
   1172000   290.6057       0.036539744    16.435885      721.00074     -58.260375      662.74037    
   1173000   308.13145      0.036539744    20.974602      764.48262     -53.372464      711.11016    
   1174000   314.5483       0.036539744    19.209668      780.403       -52.244668      728.15833    
   1175000   292.17678      0.036539744    18.170309      724.89864     -54.17459       670.72405    
   1176000   306.2595       0.036539744    14.296588      759.83826     -54.647635      705.19063    
   1177000   318.34491      0.036539744    19.1682        789.82249     -58.905392      730.91709    
   1178000   294.8901       0.036539744    19.105483      731.63047     -53.348048      678.28242    
   1179000   289.6519       0.036539744    15.891182      718.63435     -56.235293      662.39906    
   1180000   317.4528       0.036539744    19.376598      787.60915     -55.669389      731.93976    
   1181000   295.28832      0.036539744    18.435045      732.61847     -58.335562      674.28291    
   1182000   295.93405      0.036539744    17.832565      734.22052     -59.339645      674.88088    
   1183000   311.2514       0.036539744    19.511782      772.22331     -64.171256      708.05205    
   1184000   308.52064      0.036539744    26.406087      765.44822     -57.086808      708.36141    
   1185000   298.6016       0.036539744    20.830044      740.83879     -47.423005      693.41579    
   1186000   312.97086      0.036539744    6.6077311      776.48934     -50.451378      726.03796    
   1187000   302.57081      0.036539744    19.250049      750.68652     -50.516032      700.17049    
   1188000   296.79941      0.036539744    22.421615      736.36753     -52.077176      684.29035    
   1189000   285.06403      0.036539744    27.779507      707.25172     -56.739524      650.51219    
   1190000   299.39317      0.036539744    12.219338      742.8027      -51.588103      691.2146     
   1191000   301.9954       0.036539744    4.5376946      749.2589      -50.348669      698.91023    
   1192000   302.02121      0.036539744    27.677131      749.32295     -57.909708      691.41324    
   1193000   299.22295      0.036539744    29.163468      742.38039     -50.958657      691.42173    
   1194000   295.97441      0.036539744   -6.4475529      734.32068     -53.932752      680.38793    
   1195000   309.46925      0.036539744    2.9752624      767.80173     -54.287903      713.51383    
   1196000   297.80073      0.036539744    27.081809      738.85183     -53.47115       685.38068    
   1197000   282.66339      0.036539744    19.062537      701.29566     -50.506268      650.7894     
   1198000   307.42879      0.036539744    16.304768      762.7393      -50.48525       712.25405    
   1199000   308.31599      0.036539744   -5.1365276      764.94047     -46.854463      718.086      
   1200000   301.98231      0.036539744    22.583919      749.22643     -49.128402      700.09803    
   1201000   289.83529      0.036539744    30.40986       719.08933     -52.478067      666.61127    
   1202000   302.63413      0.036539744    8.8697431      750.84361     -54.285778      696.55783    
   1203000   302.55774      0.036539744    21.90425       750.65409     -63.294859      687.35923    
   1204000   284.14871      0.036539744    15.634552      704.98078     -55.626628      649.35415    
   1205000   303.78981      0.036539744    18.152701      753.7109      -52.138218      701.57268    
   1206000   306.76356      0.036539744    18.463261      761.08885     -51.083386      710.00547    
   1207000   304.15321      0.036539744    18.774526      754.6125      -56.277504      698.33499    
   1208000   299.41094      0.036539744    22.491409      742.84679     -55.4756        687.37119    
   1209000   302.8938       0.036539744    18.913625      751.48785     -56.197529      695.29033    
   1210000   293.75838      0.036539744    21.278208      728.82264     -52.318085      676.50456    
   1211000   295.10354      0.036539744    18.497117      732.16002     -56.513737      675.64628    
   1212000   283.17084      0.036539744    18.268653      702.55466     -58.370293      644.18437    
   1213000   300.4894       0.036539744    18.221569      745.52247     -60.596553      684.92592    
   1214000   312.65511      0.036539744    15.970395      775.70596     -56.545354      719.1606     
   1215000   297.92841      0.036539744    16.908134      739.16861     -53.835537      685.33307    
   1216000   293.6014       0.036539744    19.545863      728.43317     -58.654085      669.77908    
   1217000   292.80691      0.036539744    23.459769      726.46201     -60.885832      665.57618    
   1218000   306.8746       0.036539744    12.531278      761.36435     -54.46977       706.89458    
   1219000   290.43504      0.036539744    23.624849      720.57734     -55.955586      664.62175    
   1220000   307.16917      0.036539744    17.857334      762.09517     -58.61067       703.4845     
   1221000   279.55957      0.036539744    4.3023885      693.595       -57.676984      635.91801    
   1222000   291.67074      0.036539744    27.495251      723.64316     -56.811501      666.83165    
   1223000   310.77673      0.036539744    20.191787      771.04563     -57.981934      713.0637     
   1224000   310.61862      0.036539744    9.010549       770.65335     -59.164171      711.48918    
   1225000   295.42123      0.036539744    18.457237      732.9482      -57.981511      674.96669    
   1226000   286.68913      0.036539744    29.855777      711.28364     -67.19001       644.09363    
   1227000   307.50248      0.036539744    18.032664      762.92212     -62.283795      700.63832    
   1228000   303.01739      0.036539744    9.3629517      751.79449     -62.23339       689.5611     
   1229000   292.34583      0.036539744    21.005176      725.31805     -65.826958      659.49109    
   1230000   299.32544      0.036539744    17.281034      742.63467     -65.263903      677.37077    
   1231000   297.65296      0.036539744    13.706055      738.4852      -65.294728      673.19047    
   1232000   292.91202      0.036539744    19.810509      726.7228      -64.590722      662.13208    
   1233000   303.15876      0.036539744    21.732008      752.14524     -58.913949      693.23129    
   1234000   302.85648      0.036539744    18.3251        751.39528     -60.130354      691.26493    
   1235000   295.54818      0.036539744    14.238517      733.26318     -56.126846      677.13634    
   1236000   292.24729      0.036539744    19.406393      725.07358     -51.724984      673.3486     
   1237000   295.94554      0.036539744    18.156486      734.24904     -57.89498       676.35406    
   1238000   304.44441      0.036539744    19.667855      755.33496     -61.351891      693.98307    
   1239000   302.96651      0.036539744    18.777766      751.66826     -61.173638      690.49462    
   1240000   297.89096      0.036539744    19.101258      739.07569     -56.272612      682.80308    
   1241000   303.39705      0.036539744    16.651637      752.73644     -57.518098      695.21834    
   1242000   280.77375      0.036539744    20.52913       696.60741     -58.942021      637.66538    
   1243000   317.44862      0.036539744    18.693803      787.59879     -66.472663      721.12612    
   1244000   308.98641      0.036539744    18.819923      766.6038      -60.053545      706.55026    
   1245000   297.96994      0.036539744    19.088031      739.27163     -61.033517      678.23812    
   1246000   303.61464      0.036539744    24.789834      753.27629     -69.550398      683.72589    
   1247000   297.50831      0.036539744    10.994543      738.12631     -67.374694      670.75162    
   1248000   304.96549      0.036539744    16.722978      756.62779     -66.182921      690.44487    
   1249000   301.01016      0.036539744    21.567648      746.81451     -64.857969      681.95654    
   1250000   303.64264      0.036539744    21.572978      753.34575     -64.796443      688.54931    
   1251000   317.83326      0.036539744    18.876233      788.55308     -70.3688        718.18428    
   1252000   291.65844      0.036539744   -2.2753712      723.61264     -70.954804      652.65783    
   1253000   299.39469      0.036539744    23.247053      742.80648     -70.277354      672.52912    
   1254000   311.06059      0.036539744    32.659274      771.74989     -66.814348      704.93554    
   1255000   305.80642      0.036539744    8.6916667      758.71415     -66.085498      692.62866    
   1256000   291.22008      0.036539744   -10.709203      722.52504     -58.460283      664.06475    
   1257000   296.72596      0.036539744    35.726996      736.1853      -60.18796       675.99734    
   1258000   309.72564      0.036539744    23.287717      768.43784     -57.923905      710.51394    
   1259000   315.0406       0.036539744    21.148172      781.62442     -60.615531      721.00889    
   1260000   288.27382      0.036539744    17.461265      715.21529     -60.84488       654.37041    
   1261000   295.72397      0.036539744    19.340577      733.69931     -65.897834      667.80148    
   1262000   306.771        0.036539744    19.750811      761.1073      -65.688967      695.41833    
   1263000   299.25023      0.036539744    17.847444      742.44806     -65.984794      676.46327    
   1264000   301.69778      0.036539744    17.579465      748.5205      -64.249422      684.27108    
   1265000   294.94603      0.036539744    18.378492      731.76922     -67.914967      663.85426    
   1266000   303.15484      0.036539744    18.871709      752.1355      -69.381526      682.75398    
   1267000   295.62323      0.036539744    19.084534      733.44939     -67.116263      666.33312    
   1268000   291.04668      0.036539744    18.799257      722.09482     -68.769661      653.32516    
   1269000   313.14631      0.036539744    16.620917      776.92462     -69.148329      707.7763     
   1270000   307.28298      0.036539744    18.366235      762.37754     -71.092001      691.28554    
   1271000   300.47658      0.036539744    26.934049      745.49069     -66.951247      678.53944    
   1272000   280.75059      0.036539744    20.752845      696.54995     -61.112817      635.43713    
   1273000   293.96284      0.036539744    12.172086      729.32991     -61.473489      667.85642    
   1274000   310.43034      0.036539744    15.378189      770.18624     -65.220746      704.96549    
   1275000   302.05632      0.036539744    18.018971      749.41005     -64.179492      685.23056    
   1276000   299.81202      0.036539744    20.8361        743.84189     -56.362386      687.47951    
   1277000   301.86185      0.036539744    18.461917      748.92756     -59.573558      689.354      
   1278000   291.93351      0.036539744    22.116252      724.29509     -58.194904      666.10019    
   1279000   305.23501      0.036539744    16.921279      757.29647     -56.880235      700.41624    
   1280000   292.45932      0.036539744    20.108308      725.59962     -52.739121      672.8605     
   1281000   296.8369       0.036539744    18.47117       736.46053     -54.646921      681.81361    
   1282000   299.90827      0.036539744    20.742301      744.08067     -56.798736      687.28194    
   1283000   311.17022      0.036539744    20.616129      772.0219      -56.907579      715.11432    
   1284000   309.0846       0.036539744    20.10065       766.8474      -58.722059      708.12534    
   1285000   280.78654      0.036539744    14.201125      696.63914     -64.057923      632.58121    
   1286000   290.17132      0.036539744    16.587119      719.92303     -64.046255      655.87678    
   1287000   311.20214      0.036539744    15.126397      772.10108     -61.31956       710.78152    
   1288000   307.46499      0.036539744    28.963257      762.82911     -61.356265      701.47284    
   1289000   297.59418      0.036539744    21.796588      738.33937     -57.600722      680.73865    
   1290000   284.97928      0.036539744    8.7961377      707.04144     -57.93776       649.10368    
   1291000   303.69973      0.036539744    14.705342      753.4874      -60.52071       692.96669    
   1292000   308.9338       0.036539744    37.692194      766.47327     -59.146896      707.32637    
   1293000   297.30277      0.036539744    12.802226      737.61636     -59.296552      678.31981    
   1294000   293.10685      0.036539744    15.659562      727.20617     -62.937878      664.26829    
   1295000   292.50721      0.036539744    21.942241      725.71846     -61.78983       663.92863    
   1296000   302.77389      0.036539744    17.269191      751.19037     -66.486192      684.70417    
   1297000   298.02456      0.036539744    20.896869      739.40716     -61.839736      677.56742    
   1298000   303.39609      0.036539744    16.991264      752.73406     -68.618249      684.11581    
   1299000   297.92864      0.036539744    19.478731      739.16916     -66.961148      672.20801    
   1300000   303.34869      0.036539744    16.261089      752.61647     -73.632875      678.98359    
   1301000   299.32761      0.036539744    21.826283      742.64006     -72.034903      670.60516    
   1302000   300.55972      0.036539744    17.737733      745.69694     -66.512892      679.18405    
   1303000   292.59527      0.036539744    19.938289      725.93694     -63.333802      662.60314    
   1304000   289.88144      0.036539744    15.195815      719.20383     -73.478952      645.72488    
   1305000   306.31273      0.036539744    18.250703      759.97033     -68.965164      691.00517    
   1306000   294.30701      0.036539744    22.046053      730.18381     -62.800089      667.38372    
   1307000   298.16123      0.036539744    15.669956      739.74622     -68.647124      671.0991     
   1308000   305.14382      0.036539744    16.31829       757.07022     -68.879528      688.1907     
   1309000   295.50229      0.036539744    14.991179      733.14933     -69.987483      663.16185    
   1310000   305.84013      0.036539744    21.515179      758.79779     -69.729709      689.06808    
   1311000   291.44756      0.036539744    16.459649      723.08942     -76.903186      646.18624    
   1312000   292.59772      0.036539744    18.925389      725.943       -66.669107      659.27389    
   1313000   315.09454      0.036539744    17.5627        781.75824     -73.822196      707.93604    
   1314000   301.58818      0.036539744    18.090479      748.2486      -62.657624      685.59097    
   1315000   288.47547      0.036539744    16.914569      715.71559     -64.934927      650.78067    
   1316000   304.82145      0.036539744    21.738992      756.27043     -64.483048      691.78738    
   1317000   319.97063      0.036539744    35.102078      793.85596     -61.816024      732.03994    
   1318000   294.21114      0.036539744    10.30135       729.94594     -70.691912      659.25403    
   1319000   287.71677      0.036539744    20.147945      713.83324     -63.588132      650.2451     
   1320000   304.33971      0.036539744    18.476297      755.07521     -65.590787      689.48442    
   1321000   308.27042      0.036539744    6.920633       764.8274      -66.867335      697.96007    
   1322000   281.46727      0.036539744    18.730001      698.32807     -63.368579      634.95949    
   1323000   295.15248      0.036539744    23.515952      732.28145     -62.828191      669.45326    
   1324000   298.70885      0.036539744    31.067114      741.10488     -62.162827      678.94205    
   1325000   292.79972      0.036539744    19.063411      726.44417     -61.891954      664.55222    
   1326000   307.23724      0.036539744    19.551449      762.26407     -62.158129      700.10594    
   1327000   298.26385      0.036539744    8.1815819      740.00084     -60.709776      679.29106    
   1328000   290.32704      0.036539744    29.028278      720.30938     -56.632053      663.67733    
   1329000   316.63174      0.036539744    21.964365      785.57207     -56.938403      728.63366    
   1330000   304.74271      0.036539744   -3.5253709      756.07505     -59.514618      696.56044    
   1331000   292.05387      0.036539744    4.165541       724.5937      -60.730773      663.86293    
   1332000   291.3346       0.036539744    25.448416      722.80918     -61.810317      660.99886    
   1333000   316.90378      0.036539744    15.041118      786.247       -62.443006      723.804      
   1334000   292.94548      0.036539744    10.067547      726.8058      -61.234192      665.57161    
   1335000   298.79011      0.036539744    34.165142      741.3065      -61.655872      679.65063    
   1336000   298.09138      0.036539744    5.4137142      739.57294     -55.01418       684.55876    
   1337000   299.74577      0.036539744    13.129451      743.67751     -57.722865      685.95465    
   1338000   300.03919      0.036539744    43.043364      744.4055      -59.253478      685.15202    
   1339000   320.50044      0.036539744    25.971115      795.17042     -56.632787      738.53763    
   1340000   303.24797      0.036539744    11.609312      752.36657     -50.019788      702.34678    
   1341000   303.59843      0.036539744   -2.6694406      753.23608     -56.02313       697.21295    
   1342000   286.05012      0.036539744    21.585309      709.69823     -59.786785      649.91145    
   1343000   297.28908      0.036539744    33.769508      737.58241     -67.554187      670.02822    
   1344000   301.89466      0.036539744    7.5703496      749.00898     -63.84788       685.1611     
   1345000   302.93422      0.036539744   -7.1518933      751.58814     -66.011992      685.57615    
   1346000   299.37495      0.036539744    24.962029      742.7575      -70.572669      672.18483    
   1347000   301.55402      0.036539744    23.304898      748.16383     -64.572586      683.59124    
   1348000   292.06791      0.036539744   -22.067105      724.62854     -69.522734      655.1058     
   1349000   297.27057      0.036539744    1.627247       737.53648     -68.190837      669.34564    
   1350000   292.59782      0.036539744    9.1059995      725.94326     -67.608164      658.33509    
   1351000   293.37081      0.036539744    28.90779       727.86107     -65.450725      662.41034    
   1352000   305.32081      0.036539744    48.994116      757.50935     -63.545549      693.96381    
   1353000   302.80572      0.036539744    20.05076       751.26933     -66.438206      684.83112    
   1354000   294.13869      0.036539744    11.896573      729.76619     -64.164138      665.60206    
   1355000   289.94998      0.036539744    6.7722798      719.3739      -63.787339      655.58656    
   1356000   296.8886       0.036539744    21.081574      736.5888      -57.920459      678.66834    
   1357000   304.43123      0.036539744    21.566571      755.30227     -61.533962      693.76831    
   1358000   294.66615      0.036539744    14.369092      731.07483     -57.895734      673.1791     
   1359000   310.00115      0.036539744    18.984784      769.12139     -64.573017      704.54837    
   1360000   302.80137      0.036539744    19.880587      751.25854     -67.299364      683.95918    
   1361000   301.00184      0.036539744    22.413515      746.79386     -62.282521      684.51134    
   1362000   287.80979      0.036539744    19.02916       714.06402     -59.430712      654.63331    
   1363000   290.37884      0.036539744    15.578076      720.4379      -53.364709      667.07319    
   1364000   303.92316      0.036539744    14.907787      754.04173     -57.826759      696.21497    
   1365000   314.61452      0.036539744    17.006183      780.56729     -59.102248      721.46505    
   1366000   299.16586      0.036539744    21.140513      742.23875     -54.414201      687.82455    
   1367000   288.65583      0.036539744    17.850234      716.16308     -59.572261      656.59082    
   1368000   275.19928      0.036539744    19.130447      682.777       -55.289269      627.48773    
   1369000   301.53522      0.036539744    20.063723      748.11719     -60.486795      687.6304     
   1370000   312.86056      0.036539744    18.541509      776.21568     -64.378278      711.8374     
   1371000   293.08794      0.036539744    17.611314      727.15925     -65.706309      661.45294    
   1372000   302.68617      0.036539744    13.803346      750.97272     -59.343515      691.62921    
   1373000   307.14543      0.036539744    20.385191      762.03629     -60.089927      701.94636    
   1374000   302.54931      0.036539744    30.996637      750.63318     -64.58806       686.04512    
   1375000   295.39015      0.036539744    22.353025      732.87111     -62.175967      670.69514    
   1376000   307.90808      0.036539744    5.6217897      763.92843     -63.140587      700.78784    
   1377000   299.67016      0.036539744    16.553959      743.48993     -65.488163      678.00176    
   1378000   303.80428      0.036539744    28.891766      753.7468      -66.79249       686.95431    
   1379000   303.16898      0.036539744    30.701072      752.17059     -65.887135      686.28346    
   1380000   297.12078      0.036539744    8.4291956      737.16484     -63.785124      673.37972    
   1381000   295.94556      0.036539744    30.820454      734.24909     -62.108199      672.14089    
   1382000   295.92419      0.036539744    21.259822      734.19607     -59.452972      674.7431     
   1383000   296.31734      0.036539744    21.374501      735.17149     -66.369287      668.80221    
   1384000   298.94061      0.036539744    17.894508      741.67989     -67.178627      674.50126    
   1385000   292.15133      0.036539744    13.267282      724.8355      -63.190104      661.64539    
   1386000   309.61477      0.036539744    13.907112      768.16278     -66.455082      701.7077     
   1387000   308.15493      0.036539744    25.448996      764.54088     -65.81875       698.72213    
   1388000   296.95409      0.036539744    23.596081      736.75128     -65.154098      671.59718    
   1389000   299.33546      0.036539744    15.223192      742.65952     -66.886288      675.77324    
   1390000   310.69552      0.036539744    29.217246      770.84414     -63.415701      707.42844    
   1391000   302.68121      0.036539744    20.160897      750.96041     -59.676839      691.28357    
   1392000   289.8209       0.036539744    18.286568      719.05363     -59.368463      659.68517    
   1393000   302.49682      0.036539744    17.851979      750.50296     -61.861912      688.64105    
   1394000   308.52704      0.036539744    23.654229      765.46409     -58.450816      707.01327    
   1395000   282.46532      0.036539744    15.942902      700.80426     -61.33948       639.46478    
   1396000   310.36492      0.036539744    17.880058      770.02391     -59.439901      710.58401    
   1397000   307.66745      0.036539744    17.579253      763.33143     -60.387198      702.94423    
   1398000   274.0648       0.036539744    17.844103      679.96232     -58.384727      621.57759    
   1399000   298.94896      0.036539744    20.080659      741.70062     -61.147418      680.5532     
   1400000   309.06984      0.036539744    19.648343      766.8108      -62.982234      703.82856    
   1401000   291.37621      0.036539744    12.84323       722.9124      -62.72809       660.18431    
   1402000   288.55101      0.036539744    25.385268      715.903       -61.783951      654.11905    
   1403000   300.46819      0.036539744    24.445559      745.46986     -57.223432      688.24643    
   1404000   304.65137      0.036539744    24.632925      755.84846     -53.811132      702.03732    
   1405000   310.84144      0.036539744    18.455992      771.20617     -56.891188      714.31499    
   1406000   301.27125      0.036539744    15.797791      747.46228     -52.18749       695.27479    
   1407000   290.00118      0.036539744    18.462592      719.50092     -56.70631       662.79461    
   1408000   301.4414       0.036539744    25.649932      747.88443     -59.06199       688.82244    
   1409000   305.5857       0.036539744    17.86573       758.16655     -55.82867       702.33788    
   1410000   286.72043      0.036539744    18.882703      711.36128     -57.596367      653.76491    
   1411000   287.72652      0.036539744    19.502477      713.85743     -56.739849      657.11758    
   1412000   308.70058      0.036539744    25.162325      765.89465     -54.125672      711.76898    
   1413000   300.6394       0.036539744    17.473574      745.89464     -56.074046      689.8206     
   1414000   300.78655      0.036539744    11.945687      746.25973     -61.817156      684.44257    
   1415000   286.35901      0.036539744    4.0997264      710.4646      -60.004692      650.4599     
   1416000   284.01428      0.036539744    22.027051      704.64726     -56.87496       647.7723     
   1417000   299.33453      0.036539744    46.508748      742.65723     -55.721911      686.93532    
   1418000   314.51917      0.036539744    31.570404      780.33074     -55.037139      725.2936     
   1419000   305.64395      0.036539744    20.595387      758.31107     -52.313937      705.99713    
   1420000   297.4362       0.036539744    14.699951      737.94741     -56.392734      681.55468    
   1421000   312.99317      0.036539744    18.08826       776.54468     -57.922698      718.62198    
   1422000   288.69782      0.036539744    26.343995      716.26726     -58.627384      657.63987    
   1423000   302.11518      0.036539744    29.293905      749.5561      -60.080481      689.47561    
   1424000   306.31122      0.036539744    15.284804      759.96659     -60.339449      699.62714    
   1425000   298.30741      0.036539744    25.02138       740.10892     -69.228478      670.88044    
   1426000   282.02097      0.036539744    18.642049      699.70179     -66.931484      632.77031    
   1427000   304.65491      0.036539744    18.516514      755.85724     -65.260314      690.59692    
   1428000   313.107        0.036539744    20.220105      776.82711     -69.121503      707.7056     
   1429000   307.23199      0.036539744    12.43167       762.25103     -63.809278      698.44175    
   1430000   286.06398      0.036539744    17.884227      709.73262     -66.179326      643.55329    
   1431000   307.83069      0.036539744    18.965349      763.73642     -65.631876      698.10455    
   1432000   317.01677      0.036539744    21.05393       786.52735     -69.536242      716.99111    
   1433000   306.42251      0.036539744    20.529684      760.24268     -68.683454      691.55923    
   1434000   300.98074      0.036539744    16.760274      746.74151     -72.004168      674.73734    
   1435000   298.99101      0.036539744    16.329022      741.80495     -69.811387      671.99356    
   1436000   320.34036      0.036539744    18.75773       794.77325     -70.230216      724.54304    
   1437000   313.32564      0.036539744    20.317765      777.36954     -62.73796       714.63158    
   1438000   286.83369      0.036539744    18.069063      711.64228     -64.304224      647.33806    
   1439000   289.96513      0.036539744    19.145015      719.41148     -62.386815      657.02466    
   1440000   312.71466      0.036539744    21.112446      775.85368     -64.694297      711.15938    
   1441000   303.8086       0.036539744    27.033281      753.7575      -59.448434      694.30907    
   1442000   285.00318      0.036539744    9.9820366      707.10073     -58.412686      648.68805    
   1443000   297.92686      0.036539744    4.3735514      739.16475     -61.876514      677.28823    
   1444000   308.32198      0.036539744    23.784215      764.95534     -57.99575       706.95959    
   1445000   299.04484      0.036539744    26.028551      741.93849     -60.490669      681.44783    
   1446000   294.56794      0.036539744    5.0633836      730.83118     -58.231314      672.59986    
   1447000   318.38726      0.036539744    20.394288      789.92757     -61.408114      728.51946    
   1448000   295.49374      0.036539744    15.726566      733.12812     -64.663975      668.46415    
   1449000   295.05231      0.036539744    19.959671      732.03292     -58.004045      674.02887    
   1450000   302.86078      0.036539744    18.987846      751.40595     -70.8054        680.60055    
   1451000   303.48066      0.036539744    18.619128      752.94389     -64.335059      688.60883    
   1452000   297.4928       0.036539744    21.442219      738.08785     -71.113889      666.97396    
   1453000   310.3347       0.036539744    21.980603      769.94895     -68.53653       701.41242    
   1454000   302.60285      0.036539744    16.080274      750.76602     -73.928669      676.83735    
   1455000   285.51823      0.036539744    2.136035       708.3786      -68.183173      640.19543    
   1456000   287.73074      0.036539744    20.730618      713.86789     -63.524816      650.34307    
   1457000   308.28435      0.036539744    26.582955      764.86196     -59.013916      705.84805    
   1458000   304.83751      0.036539744    13.31884       756.31026     -65.129946      691.18032    
   1459000   285.88813      0.036539744    16.595484      709.29632     -67.439576      641.85674    
   1460000   302.58107      0.036539744    22.055182      750.71198     -66.41305       684.29893    
   1461000   319.48137      0.036539744    18.333809      792.64208     -67.08874       725.55334    
   1462000   289.29952      0.036539744    14.220509      717.76007     -65.532767      652.22731    
   1463000   295.16741      0.036539744    28.454252      732.31848     -64.580391      667.73809    
   1464000   304.54767      0.036539744    24.290937      755.59116     -62.895528      692.69563    
   1465000   312.91257      0.036539744    17.422509      776.34471     -62.943127      713.40158    
   1466000   305.29299      0.036539744    5.7805163      757.44034     -65.707172      691.73316    
   1467000   294.30357      0.036539744    33.154025      730.17527     -63.106066      667.0692     
   1468000   305.19041      0.036539744    27.888417      757.18581     -66.284633      690.90118    
   1469000   306.98266      0.036539744    15.186989      761.63245     -70.423984      691.20847    
   1470000   297.8935       0.036539744    16.808897      739.08198     -68.959973      670.12201    
   1471000   287.58379      0.036539744    7.4745715      713.50331     -67.481547      646.02176    
   1472000   312.80159      0.036539744    21.21839       776.06937     -67.274227      708.79515    
   1473000   314.72065      0.036539744    26.120515      780.8306      -57.130562      723.70004    
   1474000   297.09711      0.036539744    13.560406      737.10612     -55.236562      681.86956    
   1475000   290.48373      0.036539744    17.505286      720.69815     -52.996179      667.70197    
   1476000   300.97997      0.036539744    21.564962      746.73961     -50.248066      696.49154    
   1477000   303.04872      0.036539744    19.474244      751.87222     -58.901671      692.97055    
   1478000   302.4741       0.036539744    13.611415      750.44657     -52.615837      697.83074    
   1479000   289.45725      0.036539744    18.962135      718.15141     -51.961158      666.19025    
   1480000   298.21214      0.036539744    12.92109       739.87255     -56.24345       683.6291     
   1481000   306.10658      0.036539744    18.72881       759.45885     -53.89402       705.56483    
   1482000   295.16899      0.036539744    18.174076      732.3224      -66.523132      665.79927    
   1483000   299.98044      0.036539744    20.493853      744.25974     -61.979737      682.28       
   1484000   287.42502      0.036539744    14.005884      713.10939     -61.028775      652.08062    
   1485000   300.66419      0.036539744    15.695184      745.95615     -66.37527       679.58088    
   1486000   310.7631       0.036539744    19.398674      771.01181     -68.984027      702.02778    
   1487000   290.57109      0.036539744    19.665208      720.91489     -60.701803      660.21309    
   1488000   302.15171      0.036539744    12.224251      749.64671     -72.030242      677.61647    
   1489000   308.93328      0.036539744    5.8054604      766.47199     -71.074547      695.39745    
   1490000   302.32858      0.036539744    29.968026      750.08553     -67.027894      683.05764    
   1491000   295.55576      0.036539744    29.967014      733.28199     -62.138967      671.14302    
   1492000   298.92268      0.036539744    17.939403      741.63541     -61.900008      679.7354     
   1493000   304.95728      0.036539744    16.301694      756.60742     -64.401885      692.20554    
   1494000   301.01678      0.036539744    16.965642      746.83093     -61.212954      685.61797    
   1495000   308.09579      0.036539744    21.548885      764.39414     -57.794628      706.59951    
   1496000   316.30635      0.036539744    22.930584      784.76477     -58.70138       726.06339    
   1497000   290.13908      0.036539744    14.748033      719.84305     -62.407024      657.43603    
   1498000   304.64408      0.036539744    14.721329      755.83037     -58.086027      697.74434    
   1499000   295.71497      0.036539744    15.640709      733.67699     -55.036161      678.64083    
   1500000   303.19578      0.036539744    36.263676      752.2371      -57.769758      694.46734    
   1501000   296.78558      0.036539744    24.976846      736.33321     -68.77101       667.5622     
   1502000   294.56131      0.036539744    7.4073919      730.81474     -64.225617      666.58912    
   1503000   311.30235      0.036539744    12.203077      772.34972     -62.885689      709.46403    
   1504000   306.28294      0.036539744    12.31793       759.89642     -68.824478      691.07194    
   1505000   300.18842      0.036539744    27.059494      744.77574     -65.387705      679.38803    
   1506000   295.53864      0.036539744    23.856531      733.23952     -63.799088      669.44043    
   1507000   287.37694      0.036539744    18.671262      712.99011     -54.502365      658.48774    
   1508000   299.47342      0.036539744    10.299599      743.00182     -56.12618       686.87564    
   1509000   303.05376      0.036539744    19.90937       751.88474     -56.795734      695.08901    
   1510000   292.82342      0.036539744    26.802885      726.50299     -55.061876      671.44111    
   1511000   302.44304      0.036539744    20.318849      750.36953     -55.271259      695.09827    
   1512000   306.0948       0.036539744    17.447783      759.42964     -51.040624      708.38902    
   1513000   312.2449       0.036539744    19.715054      774.68821     -55.3382        719.35001    
   1514000   291.13549      0.036539744    19.901739      722.31517     -54.602797      667.71238    
   1515000   290.86823      0.036539744    14.960771      721.6521      -49.723972      671.92812    
   1516000   310.09238      0.036539744    20.031149      769.34775     -52.81842       716.52933    
   1517000   301.07225      0.036539744    20.382311      746.96856     -57.436989      689.53157    
   1518000   296.58961      0.036539744    17.682454      735.84699     -53.913501      681.93349    
   1519000   299.3812       0.036539744    16.793842      742.77301     -56.810876      685.96213    
   1520000   314.23811      0.036539744    18.632867      779.6334      -62.451987      717.18142    
   1521000   303.84671      0.036539744    22.993601      753.85207     -59.324728      694.52735    
   1522000   291.3676       0.036539744    17.932092      722.89105     -65.216333      657.67471    
   1523000   307.10133      0.036539744    11.257596      761.92687     -62.78179       699.14508    
   1524000   299.66385      0.036539744    24.091053      743.47428     -61.398148      682.07613    
   1525000   290.97451      0.036539744    18.274693      721.91578     -57.347896      664.56788    
   1526000   284.35665      0.036539744    11.883675      705.49668     -55.643253      649.85343    
   1527000   309.39035      0.036539744    20.317908      767.60598     -61.059809      706.54618    
   1528000   319.44428      0.036539744    21.432703      792.55006     -62.069964      730.48009    
   1529000   310.7417       0.036539744    20.02638       770.95873     -53.634053      717.32467    
   1530000   296.74533      0.036539744    15.222325      736.23335     -51.738416      684.49494    
   1531000   295.45409      0.036539744    21.376433      733.02975     -50.019167      683.01058    
   1532000   295.2941       0.036539744    24.226997      732.63281     -49.774016      682.85879    
   1533000   300.51111      0.036539744    15.024598      745.57635     -54.422317      691.15403    
   1534000   299.94322      0.036539744    25.351032      744.16741     -56.926903      687.2405     
   1535000   300.78364      0.036539744    20.272404      746.2525      -57.043817      689.20868    
   1536000   298.93103      0.036539744    17.940103      741.65611     -57.838792      683.81732    
   1537000   297.62491      0.036539744    16.15629       738.41561     -57.380653      681.03496    
   1538000   296.71005      0.036539744    22.28308       736.14582     -50.587541      685.55828    
   1539000   321.40751      0.036539744    24.03889       797.4209      -50.167306      747.25359    
   1540000   300.17347      0.036539744    11.884971      744.73866     -57.255104      687.48355    
   1541000   294.45012      0.036539744    44.679444      730.53887     -58.223502      672.31537    
   1542000   306.18635      0.036539744    30.553057      759.65677     -60.015031      699.64174    
   1543000   305.5392       0.036539744   -1.1485417      758.05117     -55.130335      702.92084    
   1544000   290.92376      0.036539744    23.205789      721.78988     -48.473389      673.31649    
   1545000   289.92833      0.036539744    26.506798      719.32019     -48.010963      671.30923    
   1546000   312.25705      0.036539744    21.856617      774.71834     -49.879201      724.83914    
   1547000   301.48402      0.036539744   -4.3510627      747.99017     -44.403283      703.58689    
   1548000   291.66051      0.036539744    31.547015      723.61777     -44.870762      678.747      
   1549000   301.46226      0.036539744    27.305153      747.93618     -39.772601      708.16358    
   1550000   307.31352      0.036539744    1.424205       762.4533      -46.418321      716.03498    
   1551000   272.09846      0.036539744    13.537764      675.08379     -46.072823      629.01097    
   1552000   309.50549      0.036539744    24.41832       767.89165     -55.086809      712.80484    
   1553000   302.63973      0.036539744    21.31139       750.8575      -54.116531      696.74097    
   1554000   304.75446      0.036539744    18.929192      756.10421     -59.660247      696.44396    
   1555000   297.63099      0.036539744    16.598388      738.4307      -54.443391      683.98731    
   1556000   306.46204      0.036539744    16.215579      760.34078     -55.895922      704.44486    
   1557000   309.40097      0.036539744    22.860183      767.63234     -52.785886      714.84645    
   1558000   298.71736      0.036539744    17.071931      741.12601     -58.268955      682.85705    
   1559000   292.42488      0.036539744    18.268999      725.51418     -59.455962      666.05822    
   1560000   297.55453      0.036539744    19.221721      738.24099     -53.91199       684.329      
   1561000   307.2863       0.036539744    18.566996      762.38578     -61.424449      700.96133    
   1562000   296.44065      0.036539744    20.663005      735.47742     -60.933001      674.54442    
   1563000   289.77056      0.036539744    25.104223      718.92874     -57.053435      661.8753     
   1564000   296.54457      0.036539744    3.977479       735.73526     -62.325367      673.40989    
   1565000   306.56819      0.036539744    7.6712492      760.60413     -58.84978       701.75435    
   1566000   301.52783      0.036539744    22.765517      748.09885     -54.355618      693.74323    
   1567000   297.87663      0.036539744    19.188894      739.04013     -54.008999      685.03113    
   1568000   295.86671      0.036539744    12.955033      734.05346     -55.27176       678.7817     
   1569000   320.81549      0.036539744    18.348639      795.95209     -59.46097       736.49111    
   1570000   296.65001      0.036539744    23.970596      735.99686     -57.512305      678.48455    
   1571000   280.03678      0.036539744    10.704421      694.77897     -64.719548      630.05942    
   1572000   298.99742      0.036539744    18.943068      741.82085     -61.323819      680.49703    
   1573000   311.0559       0.036539744    19.009348      771.73826     -66.163062      705.57519    
   1574000   296.46247      0.036539744    17.18608       735.53156     -66.636185      668.89538    
   1575000   297.7242       0.036539744    16.019808      738.66196     -62.752246      675.90971    
   1576000   322.38785      0.036539744    22.515648      799.85315     -60.256194      739.59696    
   1577000   295.58265      0.036539744    17.623668      733.34869     -67.533122      665.81557    
   1578000   289.40455      0.036539744    19.631995      718.02067     -57.903172      660.1175     
   1579000   300.86635      0.036539744    17.932627      746.4577      -59.884638      686.57307    
   1580000   306.8675       0.036539744    20.245456      761.34672     -60.677574      700.66915    
   1581000   288.38854      0.036539744    18.925985      715.49991     -59.123659      656.37625    
   1582000   293.86181      0.036539744    17.545313      729.07925     -65.475464      663.60379    
   1583000   306.95419      0.036539744    22.526537      761.5618      -56.793375      704.76843    
   1584000   298.57313      0.036539744    24.029833      740.76816     -63.452417      677.31574    
   1585000   287.48921      0.036539744    19.139917      713.26866     -56.938832      656.32983    
   1586000   296.51233      0.036539744    18.643386      735.65525     -59.225872      676.42938    
   1587000   303.51792      0.036539744    18.710958      753.03632     -57.873076      695.16324    
   1588000   309.26637      0.036539744    18.331067      767.29838     -58.843009      708.45538    
   1589000   286.82467      0.036539744    17.361818      711.61991     -58.307307      653.31261    
   1590000   300.22311      0.036539744    20.925121      744.86181     -47.397713      697.4641     
   1591000   292.3176       0.036539744    20.775755      725.24801     -51.759976      673.48804    
   1592000   296.47396      0.036539744    22.155615      735.56006     -58.255745      677.30431    
   1593000   302.69468      0.036539744    18.458429      750.99384     -62.741158      688.25268    
   1594000   303.23341      0.036539744    9.986685       752.33046     -63.944723      688.38573    
   1595000   304.33187      0.036539744    21.087997      755.05577     -58.599524      696.45625    
   1596000   312.89074      0.036539744    19.689124      776.29056     -68.13799       708.15257    
   1597000   296.70064      0.036539744    26.673505      736.12246     -65.467642      670.65482    
   1598000   292.71072      0.036539744    22.039539      726.22336     -58.206923      668.01644    
   1599000   295.79682      0.036539744    13.017311      733.88007     -61.335096      672.54497    
   1600000   304.95608      0.036539744    2.7101084      756.60443     -65.920671      690.68376    
   1601000   305.64537      0.036539744    21.711256      758.31459     -62.21204       696.10255    
   1602000   302.3506       0.036539744    25.330646      750.14018     -64.146648      685.99354    
   1603000   297.35666      0.036539744    21.759721      737.75008     -64.801931      672.94814    
   1604000   279.91828      0.036539744    15.357274      694.48497     -63.095213      631.38976    
   1605000   307.94484      0.036539744    13.423145      764.01965     -65.452851      698.5668     
   1606000   313.09528      0.036539744    20.721838      776.79803     -67.589287      709.20874    
   1607000   280.56126      0.036539744    26.336007      696.08022     -66.142701      629.93752    
   1608000   287.83289      0.036539744    17.34071       714.12133     -56.992956      657.12837    
   1609000   309.65997      0.036539744    8.7574643      768.27491     -60.140991      708.13392    
   1610000   309.84007      0.036539744    17.81398       768.72174     -57.601623      711.12012    
   1611000   300.31254      0.036539744    32.393355      745.08368     -59.494925      685.58876    
   1612000   304.7328       0.036539744    21.933834      756.05048     -52.554947      703.49553    
   1613000   299.57033      0.036539744    21.183287      743.24225     -55.220626      688.02162    
   1614000   301.01221      0.036539744    10.270866      746.8196      -55.958048      690.86155    
   1615000   302.18209      0.036539744    20.781344      749.7221      -52.058441      697.66366    
   1616000   300.04257      0.036539744    20.010924      744.41389     -52.03193       692.38196    
   1617000   297.09115      0.036539744    17.289656      737.09133     -51.262035      685.8293     
   1618000   315.2506       0.036539744    20.556667      782.14543     -60.885572      721.25985    
   1619000   309.36051      0.036539744    22.139987      767.53196     -61.658106      705.87385    
   1620000   293.59769      0.036539744    19.193344      728.42396     -56.733258      671.69071    
   1621000   302.16124      0.036539744    19.855534      749.67037     -57.361944      692.30843    
   1622000   307.97719      0.036539744    17.946574      764.0999      -60.843512      703.25638    
   1623000   300.29255      0.036539744    20.235045      745.03409     -63.606735      681.42735    
   1624000   304.35201      0.036539744    13.920995      755.10572     -66.378305      688.72742    
   1625000   303.11453      0.036539744    15.835564      752.03549     -63.319172      688.71632    
   1626000   297.85867      0.036539744    16.594979      738.99556     -65.498096      673.49747    
   1627000   302.48091      0.036539744    23.907482      750.46348     -65.882952      684.58053    
   1628000   302.12595      0.036539744    20.148029      749.5828      -61.253038      688.32976    
   1629000   305.15439      0.036539744    17.880402      757.09644     -69.748338      687.34811    
   1630000   298.29863      0.036539744    26.590199      740.08712     -63.070032      677.01708    
   1631000   303.38196      0.036539744    28.265963      752.699       -59.305053      693.39395    
   1632000   304.28284      0.036539744    19.706134      754.93412     -57.974635      696.95948    
   1633000   309.35777      0.036539744    15.98987       767.52516     -59.456037      708.06912    
   1634000   291.16165      0.036539744    17.381235      722.38008     -61.245826      661.13426    
   1635000   296.63698      0.036539744    22.557963      735.96452     -62.986829      672.97769    
   1636000   304.42519      0.036539744    23.915585      755.28728     -61.282459      694.00482    
   1637000   320.0493       0.036539744    8.1052233      794.05114     -64.123425      729.92771    
   1638000   305.69792      0.036539744    14.049348      758.44498     -67.133739      691.31124    
   1639000   286.5012       0.036539744    21.23724       710.81738     -61.496671      649.32071    
   1640000   299.88034      0.036539744    14.838994      744.01138     -62.847323      681.16405    
   1641000   289.70501      0.036539744    26.098687      718.76611     -65.605856      653.16026    
   1642000   294.2787       0.036539744    23.950213      730.11356     -65.308482      664.80508    
   1643000   301.77571      0.036539744    15.246091      748.71385     -65.579356      683.13449    
   1644000   301.19814      0.036539744    17.640724      747.28088     -66.598778      680.6821     
   1645000   299.76678      0.036539744    27.872976      743.72964     -68.622704      675.10694    
   1646000   305.50395      0.036539744    20.955324      757.96372     -65.602023      692.3617     
   1647000   299.41511      0.036539744    19.371643      742.85714     -66.943689      675.91345    
   1648000   298.38401      0.036539744    7.5791532      740.29895     -66.998286      673.30066    
   1649000   292.85277      0.036539744    7.4612374      726.57579     -59.099533      667.47625    
   1650000   296.14323      0.036539744    25.192826      734.73951     -58.667329      676.07218    
   1651000   297.42053      0.036539744    26.779134      737.90853     -64.306108      673.60242    
   1652000   295.54339      0.036539744    18.986826      733.25131     -65.868803      667.3825     
   1653000   302.97894      0.036539744    13.664635      751.69909     -66.218385      685.48071    
   1654000   300.76451      0.036539744    21.589425      746.20503     -66.104524      680.10051    
   1655000   302.05656      0.036539744    24.282824      749.41066     -62.198006      687.21266    
   1656000   309.56285      0.036539744    11.643964      768.03397     -55.827456      712.20651    
   1657000   298.4685       0.036539744    20.14437       740.50858     -58.12175       682.38683    
   1658000   299.54181      0.036539744    16.382194      743.17148     -58.274189      684.89729    
   1659000   317.06622      0.036539744    20.412429      786.65003     -62.891296      723.75874    
   1660000   300.63244      0.036539744    22.678907      745.87737     -61.34197       684.5354     
   1661000   287.63604      0.036539744    16.169025      713.63294     -57.580327      656.05262    
   1662000   326.38494      0.036539744    23.684524      809.77002     -54.133921      755.6361     
   1663000   299.6771       0.036539744    18.316708      743.50716     -54.479221      689.02794    
   1664000   287.97614      0.036539744    17.389923      714.47675     -53.45051       661.02624    
   1665000   306.67269      0.036539744    21.602025      760.86341     -60.140567      700.72284    
   1666000   300.345        0.036539744    20.826764      745.16422     -60.358427      684.80579    
   1667000   285.04929      0.036539744    12.260648      707.21516     -64.238432      642.97673    
   1668000   294.00551      0.036539744    17.655159      729.43578     -59.614544      669.82123    
   1669000   307.34042      0.036539744    18.467655      762.52005     -60.544185      701.97586    
   1670000   308.14841      0.036539744    18.135368      764.52469     -62.678561      701.84613    
   1671000   304.93407      0.036539744    21.527836      756.54984     -65.993659      690.55618    
   1672000   297.0541       0.036539744    16.964652      736.99942     -66.827657      670.17176    
   1673000   296.61402      0.036539744    13.534965      735.90756     -62.817087      673.09048    
   1674000   309.91536      0.036539744    17.455645      768.90855     -60.368858      708.53969    
   1675000   306.69259      0.036539744    18.90453       760.91278     -58.198022      702.71476    
   1676000   288.98725      0.036539744    22.551082      716.98533     -52.453605      664.53172    
   1677000   293.71963      0.036539744    17.391672      728.7265      -57.675773      671.05072    
   1678000   303.8327       0.036539744    18.423616      753.81729     -58.892565      694.92473    
   1679000   312.21497      0.036539744    25.410747      774.61395     -59.39423       715.21972    
   1680000   286.20197      0.036539744    16.942065      710.07497     -58.463249      651.61172    
   1681000   295.18649      0.036539744    18.827933      732.36581     -55.996614      676.3692     
   1682000   309.04056      0.036539744    20.400921      766.73815     -54.619532      712.11862    
   1683000   306.43467      0.036539744    7.244824       760.27286     -59.769751      700.50311    
   1684000   289.4687       0.036539744    9.7940482      718.17982     -60.234122      657.94569    
   1685000   308.08428      0.036539744    26.004671      764.36558     -57.739931      706.62565    
   1686000   311.62245      0.036539744    4.35935        773.1439      -59.582743      713.56115    
   1687000   297.0977       0.036539744    14.064329      737.10759     -67.133768      669.97382    
   1688000   287.27592      0.036539744    26.299925      712.73949     -60.345569      652.39392    
   1689000   316.61504      0.036539744    29.385192      785.53064     -60.795768      724.73487    
   1690000   309.66543      0.036539744    20.001549      768.28848     -60.025526      708.26295    
   1691000   302.55164      0.036539744    20.61469       750.63895     -57.064372      693.57458    
   1692000   286.29308      0.036539744    25.893152      710.30103     -58.665283      651.63574    
   1693000   295.08728      0.036539744    17.493726      732.11967     -57.748848      674.37082    
   1694000   308.67703      0.036539744    2.8284912      765.83622     -54.561342      711.27488    
   1695000   299.77144      0.036539744    24.578234      743.74121     -54.577479      689.16373    
   1696000   299.96914      0.036539744    21.726785      744.23171     -60.447895      683.78382    
   1697000   296.86441      0.036539744    11.209099      736.52879     -60.644816      675.88397    
   1698000   301.83075      0.036539744    9.5600555      748.8504      -60.472645      688.37776    
   1699000   301.86986      0.036539744    31.445243      748.94745     -66.4616        682.48585    
   1700000   293.67799      0.036539744    30.929562      728.62318     -67.685738      660.93744    
   1701000   286.33501      0.036539744    9.5461966      710.40506     -63.79381       646.61125    
   1702000   313.25806      0.036539744    11.330369      777.20189     -63.37524       713.82665    
   1703000   305.88353      0.036539744    30.980971      758.90546     -68.92292       689.98254    
   1704000   286.73497      0.036539744    18.79286       711.39737     -54.656173      656.7412     
   1705000   296.46526      0.036539744    0.43175761     735.53849     -62.905398      672.63309    
   1706000   306.30729      0.036539744    24.529879      759.95682     -66.228531      693.72829    
   1707000   298.12445      0.036539744    22.63787       739.65499     -60.162113      679.49287    
   1708000   298.10619      0.036539744    17.399966      739.60967     -58.078597      681.53108    
   1709000   301.11633      0.036539744    13.332587      747.07791     -54.336373      692.74154    
   1710000   302.37071      0.036539744    19.533471      750.19006     -51.692831      698.49723    
   1711000   303.91799      0.036539744    21.886011      754.02891     -51.113522      702.91539    
   1712000   300.56822      0.036539744    22.981686      745.71804     -60.714651      685.00339    
   1713000   290.35655      0.036539744    19.63738       720.3826      -52.108368      668.27423    
   1714000   300.13069      0.036539744    13.736231      744.63253     -51.637054      692.99547    
   1715000   304.1045       0.036539744    20.603943      754.49165     -56.786391      697.70526    
   1716000   302.53536      0.036539744    20.004738      750.59857     -60.41199       690.18658    
   1717000   293.04201      0.036539744    20.303154      727.04531     -58.654388      668.39093    
   1718000   291.95203      0.036539744    17.072842      724.34104     -57.732195      666.60885    
   1719000   315.78934      0.036539744    9.6249373      783.48206     -57.274218      726.20784    
   1720000   305.65261      0.036539744    17.037705      758.33255     -56.651088      701.68147    
   1721000   296.79219      0.036539744    22.098806      736.3496      -59.874885      676.47472    
   1722000   301.75149      0.036539744    17.184597      748.65376     -61.525644      687.12811    
   1723000   305.27424      0.036539744    18.98942       757.39379     -63.888542      693.50525    
   1724000   309.57395      0.036539744    31.927447      768.06151     -56.97253       711.08898    
   1725000   303.09374      0.036539744    24.874566      751.98392     -64.708421      687.2755     
   1726000   296.78034      0.036539744    18.533227      736.3202      -58.914147      677.40605    
   1727000   319.10829      0.036539744    19.142354      791.71647     -56.413818      735.30265    
   1728000   295.88873      0.036539744    18.168398      734.10809     -58.148074      675.96002    
   1729000   288.80535      0.036539744    18.121287      716.53404     -56.375747      660.1583     
   1730000   302.33261      0.036539744    20.519822      750.09553     -56.502831      693.5927     
   1731000   300.95323      0.036539744    20.984074      746.67327     -55.357736      691.31553    
   1732000   306.55033      0.036539744    14.270126      760.55983     -63.186864      697.37296    
   1733000   299.79334      0.036539744    17.629733      743.79555     -62.220954      681.57459    
   1734000   298.121        0.036539744    20.637294      739.64642     -60.071113      679.5753     
   1735000   298.16031      0.036539744    19.881917      739.74395     -60.380703      679.36324    
   1736000   313.87721      0.036539744    21.088049      778.73802     -59.724581      719.01344    
   1737000   296.82748      0.036539744    17.549361      736.43717     -53.020688      683.41648    
   1738000   297.80378      0.036539744    20.236279      738.85939     -51.414046      687.44534    
   1739000   306.74101      0.036539744    22.68767       761.03291     -53.432734      707.60018    
   1740000   293.4344       0.036539744    15.28998       728.01883     -61.363855      666.65498    
   1741000   295.6038       0.036539744    22.287501      733.40117     -63.082385      670.31879    
   1742000   308.65599      0.036539744    18.030147      765.78402     -60.838283      704.94574    
   1743000   297.09206      0.036539744    13.461106      737.09359     -57.80822       679.28537    
   1744000   294.55483      0.036539744    19.549498      730.79865     -58.91764       671.88101    
   1745000   305.38928      0.036539744    22.615918      757.67923     -66.247872      691.43136    
   1746000   306.87643      0.036539744    15.601216      761.36888     -66.85832       694.51056    
   1747000   291.90515      0.036539744    19.025295      724.22473     -64.170674      660.05406    
   1748000   301.85643      0.036539744    18.679312      748.91413     -58.37847       690.53566    
   1749000   303.65699      0.036539744    22.068318      753.38136     -59.036685      694.34468    
   1750000   304.59128      0.036539744    21.993998      755.69936     -54.406048      701.29331    
   1751000   310.54509      0.036539744    19.660442      770.47093     -52.372676      718.09825    
   1752000   292.51425      0.036539744    21.201719      725.73591     -50.164445      675.57146    
   1753000   302.53976      0.036539744    27.335965      750.60949     -51.627587      698.98191    
   1754000   304.29414      0.036539744    10.498809      754.96215     -49.105333      705.85682    
   1755000   295.40572      0.036539744    21.737539      732.90973     -50.124122      682.78561    
   1756000   305.44113      0.036539744    21.787806      757.80785     -50.32105       707.4868     
   1757000   285.56412      0.036539744    8.0436108      708.49246     -56.093205      652.39925    
   1758000   298.48736      0.036539744    20.636503      740.55536     -52.156746      688.39862    
   1759000   310.23192      0.036539744    25.381983      769.69395     -53.137138      716.55681    
   1760000   307.96516      0.036539744    12.779939      764.07006     -58.825963      705.2441     
   1761000   291.36575      0.036539744    19.51616       722.88647     -61.328976      661.55749    
   1762000   310.4231       0.036539744    23.869455      770.16826     -65.355208      704.81306    
   1763000   310.72385      0.036539744    10.89759       770.91445     -63.610041      707.3044     
   1764000   298.00333      0.036539744   -3.7835281      739.35448     -56.546194      682.80829    
   1765000   310.9765       0.036539744    21.497398      771.54126     -55.480495      716.06076    
   1766000   303.22876      0.036539744    19.005355      752.31891     -62.430244      689.88867    
   1767000   299.03325      0.036539744    17.432997      741.90973     -63.406759      678.50297    
   1768000   303.26416      0.036539744    5.8267967      752.40673     -60.630382      691.77635    
   1769000   296.46912      0.036539744    32.332519      735.54807     -54.535865      681.01221    
   1770000   302.72017      0.036539744    15.701519      751.05709     -51.203842      699.85325    
   1771000   306.27014      0.036539744    20.854422      759.86467     -47.452502      712.41217    
   1772000   297.05396      0.036539744    20.498051      736.99907     -53.45991       683.53916    
   1773000   308.66144      0.036539744    24.643128      765.79755     -54.939351      710.8582     
   1774000   303.83139      0.036539744    7.9527306      753.81405     -58.807976      695.00607    
   1775000   296.2          0.036539744    19.950518      734.88038     -55.950732      678.92964    
   1776000   314.57665      0.036539744    25.608972      780.47334     -58.116665      722.35668    
   1777000   298.11817      0.036539744    12.747236      739.6394      -61.81007       677.82933    
   1778000   296.80782      0.036539744    19.503854      736.38837     -56.48308       679.90529    
   1779000   305.66642      0.036539744    19.470156      758.36681     -57.776357      700.59046    
   1780000   301.14741      0.036539744    20.746863      747.15503     -59.207682      687.94735    
   1781000   297.3728       0.036539744    14.567521      737.79012     -60.451434      677.33869    
   1782000   298.58339      0.036539744    17.685326      740.79361     -57.276373      683.51724    
   1783000   285.88692      0.036539744    14.24293       709.29333     -55.77113       653.5222     
   1784000   314.69277      0.036539744    20.356874      780.76145     -52.632284      728.12916    
   1785000   306.82908      0.036539744    19.767033      761.25139     -50.069512      711.18188    
   1786000   293.21571      0.036539744    19.116363      727.47625     -51.904808      675.57145    
   1787000   288.70608      0.036539744    19.242738      716.28775     -51.488798      664.79896    
   1788000   303.07418      0.036539744    15.60797       751.9354      -49.43061       702.50479    
   1789000   309.70078      0.036539744    23.457295      768.37618     -59.367063      709.00912    
   1790000   290.66491      0.036539744    19.235205      721.14766     -54.920931      666.22673    
   1791000   307.67284      0.036539744    15.504759      763.34479     -54.668799      708.67599    
   1792000   309.51494      0.036539744    22.808637      767.91511     -52.992532      714.92258    
   1793000   292.81607      0.036539744    18.604084      726.48475     -59.389804      667.09494    
   1794000   300.95573      0.036539744    17.960393      746.67946     -61.194386      685.48507    
   1795000   300.83061      0.036539744    19.652712      746.36904     -65.270334      681.0987     
   1796000   301.01707      0.036539744    21.119979      746.83164     -63.894409      682.93723    
   1797000   301.1187       0.036539744    24.474068      747.08381     -68.911351      678.17245    
   1798000   313.28339      0.036539744    27.430928      777.26472     -61.649153      715.61557    
   1799000   277.13154      0.036539744    15.76298       687.57099     -65.467984      622.10301    
   1800000   304.83918      0.036539744    14.52741       756.3144      -61.606823      694.70758    
   1801000   313.19849      0.036539744    13.245939      777.0541      -58.131173      718.92293    
   1802000   302.56185      0.036539744    40.691359      750.66429     -59.241812      691.42247    
   1803000   292.07531      0.036539744    25.645826      724.6469      -65.718176      658.92872    
   1804000   291.87919      0.036539744    6.4451535      724.16032     -59.582948      664.57738    
   1805000   308.98766      0.036539744    17.194334      766.60691     -60.870196      705.73671    
   1806000   303.4651       0.036539744    30.882117      752.90528     -57.61076       695.29452    
   1807000   279.49517      0.036539744    19.127034      693.43521     -62.300928      631.13428    
   1808000   309.84895      0.036539744    10.582834      768.74379     -60.305128      708.43866    
   1809000   309.80322      0.036539744    36.999279      768.63033     -58.693733      709.9366     
   1810000   286.15325      0.036539744    22.239318      709.95411     -62.860337      647.09378    
   1811000   285.48276      0.036539744    13.796024      708.2906      -60.329394      647.96121    
   1812000   294.6569       0.036539744    16.705745      731.05188     -50.904464      680.14742    
   1813000   302.94068      0.036539744    15.654464      751.60418     -55.230988      696.37319    
   1814000   302.95778      0.036539744    22.1899        751.6466      -53.210966      698.43564    
   1815000   291.97494      0.036539744    28.621149      724.39786     -54.581832      669.81603    
   1816000   288.02749      0.036539744    17.10447       714.60414     -51.536576      663.06756    
   1817000   305.26116      0.036539744    14.079718      757.36134     -52.153851      705.20749    
   1818000   306.48592      0.036539744    16.822523      760.40002     -51.195177      709.20484    
   1819000   296.22041      0.036539744   -2.7902178      734.931       -57.768135      677.16287    
   1820000   296.48365      0.036539744    5.8753951      735.58411     -57.403513      678.1806     
   1821000   304.87988      0.036539744    27.816366      756.41539     -59.362065      697.05333    
   1822000   310.97675      0.036539744    7.9906111      771.54189     -60.267806      711.27408    
   1823000   282.00085      0.036539744    11.357677      699.65188     -55.632438      644.01944    
   1824000   301.65391      0.036539744    18.953199      748.41166     -55.538354      692.8733     
   1825000   311.45531      0.036539744    16.783573      772.72921     -53.75144       718.97777    
   1826000   290.62473      0.036539744    11.563053      721.04797     -50.714505      670.33346    
   1827000   292.28572      0.036539744    29.699841      725.16894     -56.38482       668.78412    
   1828000   310.48273      0.036539744    24.798952      770.31621     -53.260445      717.05576    
   1829000   305.85095      0.036539744   -1.2574542      758.82463     -52.558963      706.26567    
   1830000   290.86205      0.036539744    16.271578      721.63677     -54.503586      667.13318    
   1831000   280.79431      0.036539744    25.161017      696.65842     -46.783365      649.87505    
   1832000   302.45328      0.036539744    24.454563      750.39494     -46.058217      704.33672    
   1833000   302.36248      0.036539744    34.734263      750.16965     -47.800838      702.36881    
   1834000   311.86693      0.036539744    1.9691942      773.75045     -46.720533      727.02992    
   1835000   296.88841      0.036539744    6.384258       736.58833     -45.372442      691.21588    
   1836000   291.09172      0.036539744    17.683357      722.20657     -47.118962      675.08761    
   1837000   296.19065      0.036539744    39.668548      734.85718     -53.51393       681.34325    
   1838000   307.87488      0.036539744    3.1213579      763.84607     -56.757442      707.08862    
   1839000   300.19284      0.036539744    7.5249819      744.7867      -56.920263      687.86644    
   1840000   291.03442      0.036539744    18.866912      722.06442     -50.798726      671.26569    
   1841000   296.25212      0.036539744    14.639335      735.00966     -49.937855      685.07181    
   1842000   295.435        0.036539744    19.283614      732.98238     -57.403312      675.57907    
   1843000   300.25667      0.036539744    24.78495       744.94507     -54.386204      690.55886    
   1844000   295.45476      0.036539744    19.00587       733.03141     -62.504885      670.52653    
   1845000   289.32225      0.036539744    14.79854       717.81649     -54.994943      662.82155    
   1846000   322.39507      0.036539744    27.783107      799.87106     -55.49706       744.374      
   1847000   302.17524      0.036539744    20.880524      749.7051      -56.318046      693.38705    
   1848000   288.28352      0.036539744    18.591008      715.23935     -62.381469      652.85788    
   1849000   297.50068      0.036539744    22.848714      738.10738     -54.262161      683.84522    
   1850000   295.01475      0.036539744    12.005022      731.93972     -59.591115      672.3486     
   1851000   294.60564      0.036539744    15.158218      730.92472     -64.131441      666.79328    
   1852000   315.94769      0.036539744    20.447487      783.87492     -62.541326      721.33359    
   1853000   307.86955      0.036539744    20.871195      763.83283     -64.014158      699.81867    
   1854000   289.67024      0.036539744    14.663155      718.67984     -61.614047      657.0658     
   1855000   298.29274      0.036539744    17.117707      740.07251     -52.946551      687.12596    
   1856000   314.85028      0.036539744    19.378011      781.15223     -56.741315      724.41091    
   1857000   301.22907      0.036539744    21.889463      747.35763     -62.38052       684.97711    
   1858000   302.90995      0.036539744    17.10559       751.52794     -62.023032      689.50491    
   1859000   289.14442      0.036539744    5.264097       717.37528     -62.370689      655.00459    
   1860000   304.11843      0.036539744    19.249134      754.52621     -63.281407      691.2448     
   1861000   296.46325      0.036539744    23.681098      735.53349     -56.265523      679.26797    
   1862000   306.71746      0.036539744    17.312861      760.97446     -55.673665      705.3008     
   1863000   294.43464      0.036539744    13.183345      730.50046     -61.57588       668.92458    
   1864000   307.59014      0.036539744    17.83937       763.13963     -54.169299      708.97033    
   1865000   299.01789      0.036539744    28.182662      741.87164     -53.295819      688.57582    
   1866000   295.12394      0.036539744    18.881158      732.21062     -52.818971      679.39165    
   1867000   298.17051      0.036539744    5.3223226      739.76927     -52.323393      687.44587    
   1868000   297.45776      0.036539744    23.633201      738.0009      -50.881986      687.11891    
   1869000   302.79548      0.036539744    19.596815      751.24394     -48.847124      702.39682    
   1870000   306.70258      0.036539744    10.928212      760.93757     -54.554381      706.38318    
   1871000   303.53842      0.036539744    21.371792      753.08718     -57.006199      696.08098    
   1872000   285.1703       0.036539744    21.109144      707.51537     -57.054599      650.46077    
   1873000   304.33708      0.036539744    18.264811      755.06868     -56.398498      698.67018    
   1874000   306.36507      0.036539744    18.696364      760.10018     -54.795245      705.30493    
   1875000   287.74659      0.036539744    21.344917      713.90722     -52.210454      661.69676    
   1876000   299.9273       0.036539744    28.408297      744.12789     -58.196143      685.93174    
   1877000   310.96549      0.036539744    23.55742       771.51394     -56.373666      715.14028    
   1878000   312.03475      0.036539744    21.117878      774.16681     -50.452662      723.71414    
   1879000   284.51922      0.036539744    18.985432      705.90002     -53.090188      652.80983    
   1880000   304.90156      0.036539744    21.118232      756.46917     -53.483011      702.98616    
   1881000   303.73265      0.036539744    18.426728      753.56908     -61.512268      692.05681    
   1882000   311.04823      0.036539744    20.069458      771.71924     -60.663046      711.0562     
   1883000   300.05046      0.036539744    20.381346      744.43346     -61.086848      683.34661    
   1884000   286.27859      0.036539744    18.692976      710.26508     -56.077522      654.18755    
   1885000   296.7749       0.036539744    14.894349      736.30671     -59.483216      676.82349    
   1886000   308.47841      0.036539744    17.756571      765.34344     -62.852821      702.49062    
   1887000   291.05315      0.036539744    23.775535      722.1109      -61.737554      660.37334    
   1888000   295.2068       0.036539744    17.464239      732.4162      -58.806148      673.61005    
   1889000   316.88951      0.036539744    19.110585      786.21162     -59.209677      727.00194    
   1890000   305.70706      0.036539744    17.808882      758.46765     -68.042795      690.42486    
   1891000   286.29763      0.036539744    18.528481      710.3123      -59.421093      650.89121    
   1892000   287.43995      0.036539744    24.53753       713.14644     -55.07121       658.07523    
   1893000   310.69131      0.036539744    19.273854      770.83371     -51.29115       719.54256    
   1894000   306.78711      0.036539744    17.748467      761.14728     -59.3014        701.84588    
   1895000   299.55071      0.036539744    17.25194       743.19358     -58.401374      684.79221    
   1896000   294.20505      0.036539744    18.801152      729.93084     -57.062447      672.86839    
   1897000   311.49736      0.036539744    18.112361      772.83353     -62.098826      710.73471    
   1898000   305.51406      0.036539744    18.062626      757.9888      -62.010516      695.97829    
   1899000   296.45065      0.036539744    24.333139      735.50222     -66.094983      669.40724    
   1900000   291.96984      0.036539744    24.644457      724.38522     -62.220591      662.16463    
   1901000   313.7079       0.036539744    14.554709      778.31794     -60.579355      717.73858    
   1902000   310.57448      0.036539744    18.214293      770.54385     -60.011163      710.53268    
   1903000   299.99613      0.036539744    22.012918      744.29868     -58.10948       686.1892     
   1904000   295.87737      0.036539744    26.23501       734.0799      -63.290211      670.78969    
   1905000   298.86869      0.036539744    18.701041      741.50146     -58.50203       682.99943    
   1906000   302.35106      0.036539744    8.1589107      750.14131     -57.559457      692.58185    
   1907000   300.7438       0.036539744    21.514377      746.15366     -59.955026      686.19863    
   1908000   298.17071      0.036539744    24.378634      739.76976     -60.994656      678.7751     
   1909000   299.31951      0.036539744    14.800739      742.61996     -62.164765      680.45519    
   1910000   292.43735      0.036539744    21.304928      725.54513     -62.098094      663.44704    
   1911000   276.99875      0.036539744    15.365639      687.24153     -61.996847      625.24468    
   1912000   310.30261      0.036539744    15.553968      769.86932     -64.981139      704.88818    
   1913000   310.09417      0.036539744    21.137557      769.35218     -64.443267      704.90891    
   1914000   308.05582      0.036539744    16.129819      764.29499     -60.006469      704.28852    
   1915000   286.91405      0.036539744    32.058359      711.84167     -58.760507      653.08116    
   1916000   290.48648      0.036539744    12.456625      720.70497     -51.309228      669.39574    
   1917000   306.82652      0.036539744    5.2094266      761.24505     -55.911292      705.33376    
   1918000   315.83085      0.036539744    17.256689      783.58505     -58.936866      724.64818    
   1919000   301.06548      0.036539744    26.56985       746.95176     -58.538143      688.41362    
   1920000   309.80978      0.036539744    22.494093      768.64661     -55.806772      712.83984    
   1921000   283.72374      0.036539744    13.090984      703.92642     -50.353293      653.57312    
   1922000   299.49621      0.036539744    13.435266      743.05836     -52.507439      690.55092    
   1923000   299.32056      0.036539744    18.033718      742.62256     -51.302957      691.3196     
   1924000   301.98708      0.036539744    22.681646      749.23827     -53.667154      695.57112    
   1925000   295.66879      0.036539744    4.1204988      733.56242     -50.716831      682.84559    
   1926000   299.59462      0.036539744    15.915824      743.30251     -52.386602      690.91591    
   1927000   307.69421      0.036539744    29.07634       763.39783     -54.5768        708.82103    
   1928000   294.66822      0.036539744    8.65931        731.07998     -58.132976      672.94701    
   1929000   300.62804      0.036539744   -14.429879      745.86644     -61.407078      684.45937    
   1930000   298.88961      0.036539744    18.523248      741.55335     -57.840088      683.71327    
   1931000   306.09505      0.036539744    27.177444      759.43025     -56.34914       703.08111    
   1932000   295.65953      0.036539744    25.222525      733.53945     -51.694701      681.84475    
   1933000   297.72336      0.036539744    18.787959      738.65987     -53.843675      684.8162     
   1934000   302.98712      0.036539744    21.702148      751.71939     -54.190964      697.52843    
   1935000   304.49148      0.036539744    19.173929      755.45176     -53.991654      701.4601     
   1936000   293.33071      0.036539744    19.010324      727.76157     -65.984016      661.77756    
   1937000   300.49857      0.036539744    17.011338      745.54523     -61.704139      683.8411     
   1938000   319.88176      0.036539744    22.643924      793.63546     -56.388525      737.24693    
   1939000   307.02773      0.036539744    10.793705      761.74427     -63.279579      698.46469    
   1940000   296.58302      0.036539744    13.967237      735.83065     -66.044257      669.78639    
   1941000   282.92366      0.036539744    27.986615      701.94139     -70.845115      631.09628    
   1942000   297.98437      0.036539744    20.080048      739.30743     -71.316716      667.99071    
   1943000   317.85107      0.036539744    15.285092      788.59727     -68.163745      720.43352    
   1944000   293.54782      0.036539744    18.189619      728.30023     -62.024366      666.27586    
   1945000   294.5312       0.036539744    21.125961      730.74003     -54.697659      676.04237    
   1946000   305.17448      0.036539744    16.462869      757.1463      -56.252342      700.89396    
   1947000   305.49667      0.036539744    16.592995      757.94565     -49.92519       708.02046    
   1948000   305.76123      0.036539744    33.463896      758.60204     -53.568089      705.03395    
   1949000   304.83377      0.036539744    24.865504      756.30098     -57.296471      699.00451    
   1950000   297.77749      0.036539744    16.855823      738.79416     -53.608158      685.186      
   1951000   284.626        0.036539744    13.714151      706.16494     -57.111673      649.05327    
   1952000   305.85245      0.036539744    35.256343      758.82836     -56.244061      702.5843     
   1953000   307.06258      0.036539744    16.627889      761.83071     -52.780629      709.05008    
   1954000   298.82183      0.036539744    4.9924593      741.3852      -51.118897      690.2663     
   1955000   297.53993      0.036539744    16.649768      738.20477     -55.527054      682.67771    
   1956000   296.17374      0.036539744    33.635927      734.81522     -57.795153      677.02007    
   1957000   305.98127      0.036539744    26.425968      759.14795     -52.119304      707.02865    
   1958000   294.7549       0.036539744    11.094947      731.29504     -48.152749      683.14229    
   1959000   299.8223       0.036539744    15.022092      743.86738     -54.207393      689.65999    
   1960000   308.07925      0.036539744    31.220885      764.35311     -57.422376      706.93074    
   1961000   306.84065      0.036539744    32.231747      761.28012     -55.492253      705.78787    
   1962000   296.23288      0.036539744    8.4273914      734.96194     -61.147038      673.8149     
   1963000   299.97946      0.036539744    2.5882162      744.2573      -54.947796      689.3095     
   1964000   288.16602      0.036539744    13.685082      714.94783     -64.117978      650.82985    
   1965000   302.56897      0.036539744    45.333982      750.68195     -64.610705      686.07125    
   1966000   312.36194      0.036539744    13.120437      774.97859     -62.92765       712.05094    
   1967000   293.1977       0.036539744    14.370238      727.43158     -61.339759      666.09182    
   1968000   296.70731      0.036539744    34.385323      736.13901     -64.18278       671.95623    
   1969000   315.65263      0.036539744    18.968421      783.14289     -61.495767      721.64712    
   1970000   305.42005      0.036539744    5.7090743      757.75556     -64.495529      693.26003    
   1971000   285.14219      0.036539744    12.795452      707.44564     -63.288058      644.15758    
   1972000   291.75268      0.036539744    31.754648      723.84645     -54.307913      669.53854    
   1973000   307.70418      0.036539744    17.828602      763.42254     -58.245053      705.17749    
   1974000   310.64433      0.036539744    18.299642      770.71714     -62.413964      708.30317    
   1975000   297.06557      0.036539744    18.186638      737.02786     -63.906881      673.12098    
   1976000   303.22687      0.036539744    20.773627      752.31423     -60.556165      691.75806    
   1977000   297.24106      0.036539744    12.87486       737.46326     -60.835771      676.62749    
   1978000   295.22185      0.036539744    16.65242       732.45355     -63.069093      669.38446    
   1979000   294.62313      0.036539744    24.184433      730.96811     -68.2341        662.73401    
   1980000   305.58219      0.036539744    26.218995      758.15783     -68.196438      689.96139    
   1981000   300.68371      0.036539744    16.50507       746.00458     -69.130867      676.87371    
   1982000   295.65117      0.036539744    14.30368       733.5187      -66.666377      666.85233    
   1983000   299.8582       0.036539744    19.50826       743.95646     -60.588658      683.36781    
   1984000   302.75915      0.036539744    21.27721       751.1538      -63.302601      687.8512     
   1985000   304.42354      0.036539744    13.077147      755.28319     -62.393449      692.88974    
   1986000   289.60281      0.036539744    17.518586      718.51255     -73.346983      645.16557    
   1987000   298.73878      0.036539744    27.697746      741.17914     -68.161345      673.01779    
   1988000   306.59796      0.036539744    20.027143      760.67799     -65.374502      695.30349    
   1989000   292.85346      0.036539744    12.026063      726.57752     -70.009846      656.56767    
   1990000   307.11784      0.036539744    25.602739      761.96784     -67.611512      694.35632    
   1991000   298.80772      0.036539744    29.34202       741.35018     -74.240502      667.10968    
   1992000   298.42699      0.036539744    26.337916      740.40559     -69.236475      671.16911    
   1993000   305.03774      0.036539744    17.44748       756.80705     -60.841307      695.96574    
   1994000   304.22891      0.036539744    11.813483      754.80031     -67.369097      687.43121    
   1995000   297.00207      0.036539744    15.199801      736.87032     -66.380639      670.48968    
   1996000   299.68087      0.036539744    21.409988      743.51651     -55.285127      688.23138    
   1997000   304.65272      0.036539744    28.427536      755.85181     -62.511899      693.33991    
   1998000   303.07712      0.036539744    13.841089      751.94269     -60.186785      691.7559     
   1999000   302.7912       0.036539744    16.500853      751.23331     -62.659643      688.57367    
   2000000   305.18492      0.036539744    21.016018      757.1722      -70.765747      686.40645    
   2001000   305.92709      0.036539744    21.014058      759.01355     -66.623338      692.39021    
   2002000   300.74635      0.036539744    19.389902      746.15998     -67.571525      678.58845    
   2003000   300.41699      0.036539744    16.370243      745.34283     -70.950508      674.39232    
   2004000   295.09553      0.036539744    16.301454      732.14014     -65.463693      666.67645    
   2005000   308.91112      0.036539744    23.61337       766.41701     -62.892192      703.52482    
   2006000   294.77327      0.036539744    20.619151      731.34061     -56.710625      674.62999    
   2007000   317.27721      0.036539744    4.6913242      787.17349     -60.665217      726.50827    
   2008000   309.05929      0.036539744    18.730839      766.78462     -58.742397      708.04222    
   2009000   295.3277       0.036539744    19.506901      732.71616     -62.281027      670.43514    
   2010000   310.62769      0.036539744    19.287463      770.67586     -61.260071      709.41579    
   2011000   309.2849       0.036539744    18.075536      767.34436     -59.949938      707.39442    
   2012000   303.67429      0.036539744    17.11315       753.42429     -55.724786      697.6995     
   2013000   289.76617      0.036539744    19.655997      718.91786     -56.19841       662.71945    
   2014000   304.42997      0.036539744    18.262837      755.29914     -60.423527      694.87561    
   2015000   316.67851      0.036539744    18.880468      785.68811     -60.923927      724.76418    
   2016000   291.07027      0.036539744    16.077908      722.15336     -58.11023       664.04313    
   2017000   295.09047      0.036539744    19.836305      732.1276      -59.104769      673.02283    
   2018000   294.18485      0.036539744    18.5187        729.88071     -59.937801      669.94291    
   2019000   304.29631      0.036539744    19.023354      754.96752     -61.503408      693.46412    
   2020000   312.86722      0.036539744    24.16869       776.2322      -66.908414      709.32379    
   2021000   293.51961      0.036539744    18.826653      728.23023     -56.546462      671.68377    
   2022000   295.20172      0.036539744    16.173752      732.4036      -60.204395      672.1992     
   2023000   304.24661      0.036539744    19.404406      754.84423     -55.742708      699.10152    
   2024000   298.66262      0.036539744    17.834348      740.99019     -56.244248      684.74594    
   2025000   288.32928      0.036539744    19.440209      715.35289     -55.061241      660.29165    
   2026000   296.96444      0.036539744    19.323517      736.77696     -57.379509      679.39745    
   2027000   303.30339      0.036539744    18.446464      752.50406     -54.243062      698.261      
   2028000   293.98382      0.036539744    15.602122      729.38196     -58.328286      671.05368    
   2029000   308.91289      0.036539744    22.709877      766.42139     -55.719205      710.70219    
   2030000   291.37902      0.036539744    18.399276      722.91939     -52.871566      670.04782    
   2031000   295.34313      0.036539744    20.362663      732.75446     -55.359087      677.39537    
   2032000   300.50266      0.036539744    18.750901      745.55537     -48.682858      696.87251    
   2033000   301.8335       0.036539744    17.438802      748.85724     -53.979569      694.87767    
   2034000   291.35921      0.036539744    19.227357      722.87023     -56.27206       666.59817    
   2035000   303.51789      0.036539744    19.549519      753.03626     -58.740526      694.29574    
   2036000   302.78746      0.036539744    12.690995      751.22404     -63.273781      687.95025    
   2037000   299.62244      0.036539744    23.331136      743.37153     -56.634769      686.73676    
   2038000   316.72646      0.036539744    19.421942      785.80708     -58.734812      727.07227    
   2039000   297.09613      0.036539744    16.749878      737.10369     -60.182934      676.92076    
   2040000   292.58331      0.036539744    16.188704      725.90727     -63.273634      662.63363    
   2041000   294.66196      0.036539744    32.164583      731.06445     -57.969123      673.09533    
   2042000   314.93876      0.036539744    25.412774      781.37175     -57.723909      723.64784    
   2043000   304.28435      0.036539744    20.723375      754.93787     -57.696071      697.2418     
   2044000   303.0478       0.036539744    18.664056      751.86995     -56.740983      695.12897    
   2045000   285.90047      0.036539744    0.15690527     709.32696     -56.517923      652.80904    
   2046000   313.54717      0.036539744    28.930676      777.91917     -55.68999       722.22918    
   2047000   315.90693      0.036539744    7.3855474      783.7738      -59.869388      723.90442    
   2048000   292.27268      0.036539744    17.827065      725.13658     -64.072925      661.06366    
   2049000   300.03482      0.036539744    24.174102      744.39465     -60.27775       684.1169     
   2050000   311.11244      0.036539744    23.168906      771.87854     -57.693862      714.18468    
   2051000   310.72882      0.036539744    16.538741      770.92676     -57.111042      713.81572    
   2052000   304.12017      0.036539744    14.718797      754.53054     -55.275825      699.25471    
   2053000   295.54131      0.036539744    12.470531      733.24615     -56.135163      677.11098    
   2054000   304.66487      0.036539744    18.263405      755.88195     -65.36322       690.51873    
   2055000   294.37341      0.036539744    13.577088      730.34853     -59.275769      671.07276    
   2056000   287.91351      0.036539744    33.422645      714.32135     -57.250665      657.07068    
   2057000   303.83292      0.036539744    21.437384      753.81785     -66.114304      687.70354    
   2058000   308.75223      0.036539744    17.349634      766.0228      -62.924288      703.09851    
   2059000   294.00178      0.036539744    11.86105       729.42653     -63.306883      666.11965    
   2060000   299.78673      0.036539744    16.208783      743.77913     -65.624915      678.15422    
   2061000   294.87047      0.036539744    18.899002      731.58175     -68.266359      663.31539    
   2062000   297.82797      0.036539744    24.392262      738.91939     -75.609853      663.30954    
   2063000   308.04012      0.036539744    14.192723      764.25603     -72.653328      691.6027     
   2064000   298.52504      0.036539744   -0.29706925     740.64885     -64.819628      675.82922    
   2065000   304.88097      0.036539744    3.7075928      756.41809     -68.730057      687.68803    
   2066000   287.45905      0.036539744    22.675129      713.19382     -67.335088      645.85873    
   2067000   299.63         0.036539744    33.103473      743.39029     -62.783833      680.60645    
   2068000   319.71878      0.036539744    18.365402      793.23111     -75.626074      717.60503    
   2069000   299.7818       0.036539744    12.420826      743.76691     -79.659253      664.10766    
   2070000   307.76256      0.036539744    26.258253      763.5674      -75.468746      688.09865    
   2071000   303.84911      0.036539744    17.157498      753.85801     -67.773393      686.08461    
   2072000   309.70053      0.036539744    9.7882397      768.37555     -69.751985      698.62357    
   2073000   300.46562      0.036539744    11.262264      745.46349     -72.296929      673.16656    
   2074000   294.77345      0.036539744    37.115624      731.34107     -72.882298      658.45877    
   2075000   294.2843       0.036539744    24.660808      730.12745     -72.563874      657.56358    
   2076000   306.24708      0.036539744    26.314935      759.80745     -76.218384      683.58907    
   2077000   304.79599      0.036539744    16.274123      756.20725     -73.619063      682.58819    
   2078000   293.26859      0.036539744    15.265598      727.60746     -79.820607      647.78685    
   2079000   300.33166      0.036539744    31.855319      745.13114     -78.968438      666.1627     
   2080000   311.40192      0.036539744    28.183322      772.59675     -70.621413      701.97533    
   2081000   305.93279      0.036539744    19.598191      759.02768     -64.4422        694.58548    
   2082000   292.52896      0.036539744    15.826833      725.7724      -68.035912      657.73649    
   2083000   298.402        0.036539744    21.438431      740.34359     -66.549932      673.79366    
   2084000   310.05819      0.036539744    22.386564      769.26291     -65.254238      704.00867    
   2085000   302.03346      0.036539744    18.981847      749.35335     -67.170501      682.18285    
   2086000   293.12548      0.036539744    19.22221       727.25241     -60.769084      666.48332    
   2087000   297.1882       0.036539744    12.776515      737.33211     -59.925589      677.40652    
   2088000   309.74275      0.036539744    21.258264      768.4803      -57.600658      710.87965    
   2089000   302.42096      0.036539744    14.976814      750.31474     -57.201411      693.11332    
   2090000   288.24184      0.036539744    22.080218      715.13595     -58.681118      656.45483    
   2091000   311.68558      0.036539744    22.788978      773.30053     -61.761436      711.53909    
   2092000   303.61866      0.036539744    16.656333      753.28627     -66.444672      686.8416     
   2093000   280.93793      0.036539744    16.258139      697.01476     -59.270632      637.74412    
   2094000   283.87399      0.036539744    20.404707      704.29919     -59.682475      644.61671    
   2095000   304.11034      0.036539744    18.372136      754.50614     -58.714138      695.79201    
   2096000   291.74827      0.036539744    16.565506      723.8355      -57.440074      666.39543    
   2097000   308.44742      0.036539744    19.385959      765.26655     -60.173162      705.09339    
   2098000   299.25536      0.036539744    18.906931      742.4608      -62.854074      679.60672    
   2099000   296.61903      0.036539744    15.570381      735.91998     -64.761123      671.15886    
   2100000   299.6868       0.036539744    20.165989      743.53122     -64.569943      678.96127    
   2101000   304.35073      0.036539744    25.860712      755.10256     -66.6672        688.43536    
   2102000   294.44976      0.036539744    10.533452      730.53797     -65.016346      665.52162    
   2103000   290.32991      0.036539744    22.316217      720.31652     -60.67044       659.64608    
   2104000   289.55746      0.036539744    17.260249      718.40004     -63.08922       655.31082    
   2105000   307.63527      0.036539744    19.84488       763.25159     -63.138759      700.11283    
   2106000   303.01138      0.036539744    19.953539      751.77958     -60.462155      691.31743    
   2107000   297.61364      0.036539744    21.949634      738.38764     -61.775938      676.61171    
   2108000   285.85452      0.036539744    16.898839      709.21293     -57.888544      651.32439    
   2109000   306.96802      0.036539744    12.893779      761.59612     -62.059947      699.53618    
   2110000   312.64183      0.036539744    16.133006      775.673       -58.274099      717.3989     
   2111000   297.94819      0.036539744    22.570367      739.21767     -69.778702      669.43897    
   2112000   290.76171      0.036539744    18.791393      721.38782     -60.759403      660.62842    
   2113000   317.06289      0.036539744    20.320147      786.64178     -67.385931      719.25585    
   2114000   309.13322      0.036539744    15.845666      766.96803     -64.998996      701.96903    
   2115000   283.59811      0.036539744    20.461715      703.61472     -66.260275      637.35444    
   2116000   293.98889      0.036539744    18.339867      729.39454     -57.985391      671.40915    
   2117000   315.04832      0.036539744    19.598586      781.64358     -61.321444      720.32213    
   2118000   307.8596       0.036539744    16.121792      763.80815     -51.082974      712.72517    
   2119000   291.37726      0.036539744    21.465882      722.91501     -56.375057      666.53995    
   2120000   313.91822      0.036539744    24.886429      778.83975     -60.865844      717.97391    
   2121000   305.5633       0.036539744    13.97053       758.11098     -64.696073      693.41491    
   2122000   292.24439      0.036539744    16.386816      725.06639     -53.378465      671.68792    
   2123000   287.71745      0.036539744    16.43424       713.83493     -60.690496      653.14443    
   2124000   301.60933      0.036539744    20.623055      748.30106     -56.576493      691.72457    
   2125000   307.57669      0.036539744    18.60212       763.10625     -59.698531      703.40772    
   2126000   290.13247      0.036539744    17.005204      719.82664     -57.199897      662.62675    
   2127000   292.07234      0.036539744    19.017696      724.63952     -63.8875        660.75202    
   2128000   313.99408      0.036539744    18.351851      779.02797     -62.953029      716.07494    
   2129000   305.49714      0.036539744    24.201219      757.94682     -60.21122       697.7356     
   2130000   283.38169      0.036539744    23.490118      703.07779     -56.43675       646.64104    
   2131000   289.36969      0.036539744    16.800562      717.93418     -62.769279      655.16491    
   2132000   310.28456      0.036539744    29.133112      769.82454     -62.880757      706.94378    
   2133000   297.09597      0.036539744    21.700951      737.10328     -63.402232      673.70105    
   2134000   292.50037      0.036539744    17.018571      725.70148     -58.277932      667.42355    
   2135000   298.01232      0.036539744    0.71104821     739.37679     -62.780426      676.59636    
   2136000   313.27677      0.036539744    37.873674      777.2483      -52.147755      725.10054    
   2137000   312.7868       0.036539744    24.738835      776.03267     -57.398031      718.63464    
   2138000   292.75317      0.036539744    8.9410998      726.32869     -59.732453      666.59623    
   2139000   303.12229      0.036539744    16.232831      752.05476     -60.146015      691.90874    
   2140000   298.16851      0.036539744    33.870434      739.76429     -61.078296      678.68599    
   2141000   302.10899      0.036539744    1.9066569      749.54073     -65.493551      684.04718    
   2142000   309.24927      0.036539744    13.811136      767.25597     -65.568968      701.687      
   2143000   313.42597      0.036539744    21.947089      777.61847     -62.705426      714.91304    
   2144000   286.76055      0.036539744    21.909999      711.46084     -60.626598      650.83424    
   2145000   296.6147       0.036539744    5.8561738      735.90924     -59.735213      676.17403    
   2146000   309.53771      0.036539744    21.34928       767.9716      -63.989199      703.9824     
   2147000   302.64579      0.036539744    19.469526      750.87254     -58.700631      692.17191    
   2148000   304.43454      0.036539744    21.35107       755.31049     -52.910823      702.39966    
   2149000   292.57991      0.036539744    15.653687      725.89883     -58.016359      667.88247    
   2150000   295.57057      0.036539744    15.860054      733.31872     -49.508135      683.81059    
   2151000   297.92037      0.036539744    19.249263      739.14866     -53.935077      685.21358    
   2152000   306.40635      0.036539744    21.621857      760.20259     -50.796575      709.40602    
   2153000   306.80869      0.036539744    19.170724      761.20081     -49.219765      711.98104    
   2154000   304.73993      0.036539744    6.9682542      756.06817     -48.645974      707.4222     
   2155000   307.44229      0.036539744    28.122649      762.77279     -46.028378      716.74442    
   2156000   295.09244      0.036539744    21.597788      732.13247     -46.901887      685.23058    
   2157000   303.08227      0.036539744    0.26003141     751.95547     -51.500496      700.45498    
   2158000   305.95304      0.036539744    20.180437      759.07792     -47.690586      711.38733    
   2159000   292.2914       0.036539744    26.240223      725.18303     -49.655408      675.52762    
   2160000   295.09495      0.036539744    19.024744      732.13871     -50.09003       682.04868    
   2161000   294.59857      0.036539744    9.5731135      730.90717     -56.032034      674.87513    
   2162000   296.70014      0.036539744    19.166267      736.12122     -55.810264      680.31096    
   2163000   296.25026      0.036539744    34.40021       735.00506     -52.136867      682.86819    
   2164000   304.55411      0.036539744    12.896152      755.60715     -56.517964      699.08918    
   2165000   307.43185      0.036539744    24.140027      762.74689     -56.837257      705.90964    
   2166000   298.37784      0.036539744    23.892673      740.28366     -58.482626      681.80103    
   2167000   304.6362       0.036539744    18.293853      755.8108      -62.137428      693.67338    
   2168000   298.17914      0.036539744    11.061703      739.79067     -62.607714      677.18296    
   2169000   306.32129      0.036539744    28.813591      759.99157     -55.500377      704.4912     
   2170000   291.37125      0.036539744    26.930681      722.9001      -54.615604      668.2845     
   2171000   294.36889      0.036539744    12.098771      730.33733     -53.063301      677.27403    
   2172000   309.40433      0.036539744    16.773357      767.64068     -62.096165      705.54452    
   2173000   318.18012      0.036539744    53.05693       789.41365     -59.577554      729.8361     
   2174000   302.96588      0.036539744    27.946608      751.66669     -68.876025      682.79067    
   2175000   291.91204      0.036539744    18.202321      724.24181     -65.761889      658.47992    
   2176000   300.56057      0.036539744    13.762183      745.69906     -60.60584       685.09322    
   2177000   309.35756      0.036539744    21.256213      767.52464     -69.180901      698.34374    
   2178000   297.79689      0.036539744    30.994018      738.84229     -64.869622      673.97267    
   2179000   305.94842      0.036539744    12.886828      759.06646     -65.581083      693.48537    
   2180000   300.60739      0.036539744    21.679814      745.81521     -63.49291       682.3223     
   2181000   292.27589      0.036539744    20.082674      725.14455     -66.24511       658.89944    
   2182000   301.68881      0.036539744    11.468334      748.49826     -63.426632      685.07163    
   2183000   308.52723      0.036539744    18.709685      765.46455     -66.308516      699.15603    
   2184000   299.32785      0.036539744    23.212844      742.64066     -64.515223      678.12544    
   2185000   293.8392       0.036539744    21.793346      729.02316     -64.423029      664.60014    
   2186000   290.39643      0.036539744    11.018695      720.48155     -65.349409      655.13214    
   2187000   315.08497      0.036539744    18.361646      781.7345      -64.245254      717.48924    
   2188000   304.79736      0.036539744    21.411938      756.21066     -70.670235      685.54042    
   2189000   293.27783      0.036539744    17.882849      727.63039     -69.061758      658.56863    
   2190000   293.95467      0.036539744    16.006632      729.30964     -64.935785      664.37386    
   2191000   304.76315      0.036539744    18.742489      756.12577     -67.024223      689.10155    
   2192000   306.80152      0.036539744    19.514554      761.18302     -64.023918      697.1591     
   2193000   296.90555      0.036539744    13.630614      736.63086     -69.965066      666.6658     
   2194000   287.53375      0.036539744    25.28236       713.37916     -66.523005      646.85616    
   2195000   303.04643      0.036539744    21.605569      751.86654     -65.580793      686.28574    
   2196000   308.60555      0.036539744    19.782315      765.65888     -57.937322      707.72156    
   2197000   312.63341      0.036539744    31.312805      775.6521      -59.922333      715.72977    
   2198000   297.91653      0.036539744   -5.575914       739.13913     -54.362382      684.77675    
   2199000   297.00088      0.036539744    18.987241      736.86738     -56.325542      680.54184    
   2200000   308.05171      0.036539744    19.124131      764.28477     -60.808187      703.47659    
   2201000   305.18115      0.036539744    19.529581      757.16285     -59.977093      697.18576    
   2202000   293.64019      0.036539744    18.360606      728.5294      -56.58296       671.94644    
   2203000   296.07808      0.036539744    21.436399      734.57787     -60.17159       674.40628    
   2204000   278.2228       0.036539744    15.567699      690.27843     -59.55124       630.72719    
   2205000   295.58661      0.036539744    18.239792      733.35853     -54.809081      678.54945    
   2206000   308.51892      0.036539744    22.348077      765.44394     -62.768351      702.67559    
   2207000   309.69898      0.036539744    13.864485      768.3717      -62.47526       705.89644    
   2208000   300.95992      0.036539744    17.77896       746.68986     -62.231669      684.45819    
   2209000   292.20119      0.036539744    18.285908      724.9592      -62.831811      662.12739    
   2210000   289.67519      0.036539744    25.364066      718.69214     -64.526882      654.16526    
   2211000   305.35911      0.036539744    17.783921      757.60437     -68.163655      689.44072    
   2212000   298.65864      0.036539744    0.47556709     740.98033     -67.363626      673.6167     
   2213000   286.57248      0.036539744    15.097565      710.99422     -62.454683      648.53953    
   2214000   300.18632      0.036539744    30.819858      744.77053     -65.00959       679.76094    
   2215000   303.00103      0.036539744    18.37478       751.75392     -70.544096      681.20982    
   2216000   281.75269      0.036539744    2.7922917      699.03619     -64.84376       634.19243    
   2217000   298.1087       0.036539744    16.561314      739.61589     -66.023659      673.59223    
   2218000   306.63664      0.036539744    30.832182      760.77394     -56.638776      704.13517    
   2219000   308.92623      0.036539744    13.700131      766.45449     -59.979602      706.47489    
   2220000   299.00085      0.036539744    15.819387      741.82936     -63.592734      678.23663    
   2221000   305.57515      0.036539744    18.509167      758.14037     -63.744112      694.39625    
   2222000   302.43373      0.036539744    30.07137       750.34642     -69.726246      680.62018    
   2223000   297.80702      0.036539744    18.082198      738.86743     -74.275749      664.59168    
   2224000   280.15525      0.036539744    7.6463947      695.0729      -75.773776      619.29912    
   2225000   279.37992      0.036539744    17.908778      693.14927     -71.606539      621.54273    
   2226000   306.61208      0.036539744    34.883171      760.71302     -71.018732      689.69429    
   2227000   309.35724      0.036539744    13.807084      767.52384     -73.862656      693.66119    
   2228000   303.81337      0.036539744    1.3350372      753.76934     -71.614025      682.15531    
   2229000   295.80401      0.036539744    30.489702      733.89791     -69.966832      663.93108    
   2230000   287.91627      0.036539744    51.181758      714.32821     -65.322378      649.00583    
   2231000   299.57619      0.036539744    10.118038      743.25677     -63.197374      680.0594     
   2232000   305.9815       0.036539744    7.6473659      759.14854     -64.72524       694.4233     
   2233000   297.09328      0.036539744    7.3025061      737.09661     -60.955989      676.14062    
   2234000   286.48965      0.036539744    49.08055       710.78871     -62.160667      648.62805    
   2235000   309.11478      0.036539744    18.683081      766.92229     -61.718678      705.20362    
   2236000   292.10273      0.036539744    13.083575      724.71493     -70.413848      654.30108    
   2237000   304.4939       0.036539744    27.581109      755.45776     -74.844546      680.61321    
   2238000   305.67548      0.036539744    27.669002      758.3893      -61.141444      697.24786    
   2239000   293.99705      0.036539744   -1.8697327      729.41479     -66.062508      663.35228    
   2240000   288.64392      0.036539744    17.930171      716.13352     -67.025832      649.10769    
   2241000   302.46829      0.036539744    20.852731      750.43217     -60.484207      689.94796    
   2242000   301.90225      0.036539744    12.779984      749.02781     -69.506826      679.52098    
   2243000   300.09625      0.036539744    18.824291      744.54707     -69.645033      674.90204    
   2244000   288.40446      0.036539744    17.842152      715.53941     -73.703061      641.83635    
   2245000   298.84538      0.036539744    16.335319      741.44361     -82.050077      659.39354    
   2246000   302.72294      0.036539744    20.767148      751.06396     -70.520493      680.54347    
   2247000   302.1942       0.036539744    17.18689       749.75215     -72.134167      677.61798    
   2248000   277.68795      0.036539744    14.729868      688.95145     -73.814082      615.13737    
   2249000   305.06763      0.036539744    17.771944      756.8812      -73.017748      683.86345    
   2250000   302.49897      0.036539744    15.616591      750.50827     -72.746011      677.76226    
   2251000   305.08782      0.036539744    18.227232      756.9313      -65.255477      691.67582    
   2252000   302.73246      0.036539744    18.977138      751.08758     -65.208315      685.87927    
   2253000   302.96368      0.036539744    22.232689      751.66125     -60.11839       691.54286    
   2254000   295.45969      0.036539744    14.555791      733.04364     -66.869707      666.17393    
   2255000   298.00039      0.036539744    15.859556      739.34717     -62.937525      676.40965    
   2256000   315.06368      0.036539744    17.524322      781.68168     -70.16186       711.51982    
   2257000   293.7983       0.036539744    20.168516      728.92167     -69.818606      659.10307    
   2258000   296.28794      0.036539744    18.015534      735.09854     -74.916754      660.18178    
   2259000   297.32595      0.036539744    18.483324      737.67387     -74.384059      663.28981    
   2260000   303.05179      0.036539744    16.496223      751.87985     -61.273921      690.60593    
   2261000   296.48251      0.036539744    18.196         735.58129     -60.340793      675.2405     
   2262000   294.87987      0.036539744    21.764986      731.60509     -64.707835      666.89726    
   2263000   297.71664      0.036539744    15.264091      738.64318     -60.129418      678.51376    
   2264000   297.22464      0.036539744    6.8017893      737.42252     -65.931047      671.49147    
   2265000   305.89665      0.036539744    20.1304        758.93803     -56.902365      702.03567    
   2266000   293.92304      0.036539744    21.747362      729.23116     -54.960996      674.27016    
   2267000   289.09856      0.036539744    18.360275      717.26149     -53.964426      663.29706    
   2268000   305.45704      0.036539744    11.420825      757.84734     -59.058144      698.7892     
   2269000   315.0275       0.036539744    23.441854      781.59192     -65.590953      716.00096    
   2270000   276.78085      0.036539744    25.450266      686.70092     -63.012426      623.68849    
   2271000   295.55288      0.036539744    9.4686946      733.27484     -64.397194      668.87765    
   2272000   313.76658      0.036539744    23.760154      778.46354     -64.676322      713.78721    
   2273000   287.93806      0.036539744    22.767134      714.38225     -64.254148      650.1281     
   2274000   289.99495      0.036539744    3.8878941      719.48546     -73.947689      645.53777    
   2275000   309.26845      0.036539744    12.987392      767.30356     -70.340641      696.96292    
   2276000   302.6444       0.036539744    29.290718      750.86911     -66.276551      684.59256    
   2277000   291.0378       0.036539744    20.439512      722.0728      -63.419648      658.65315    
   2278000   287.59383      0.036539744    14.911798      713.52823     -68.949498      644.57873    
   2279000   307.25345      0.036539744    18.419532      762.30428     -63.394621      698.90966    
   2280000   305.29608      0.036539744    22.344705      757.448       -59.481631      697.96637    
   2281000   296.15699      0.036539744    20.085421      734.77366     -63.972464      670.8012     
   2282000   295.45743      0.036539744    15.75021       733.03803     -65.170003      667.86803    
   2283000   312.40573      0.036539744    14.724708      775.08722     -62.952695      712.13453    
   2284000   290.28019      0.036539744    21.190541      720.19315     -67.677126      652.51602    
   2285000   286.85464      0.036539744    17.966078      711.69426     -63.662828      648.03143    
   2286000   309.48995      0.036539744    19.901469      767.85309     -61.896202      705.95689    
   2287000   293.31501      0.036539744    19.43581       727.72262     -63.549165      664.17345    
   2288000   279.15987      0.036539744    17.028829      692.60332     -63.816804      628.78652    
   2289000   302.8425       0.036539744    19.952418      751.36059     -62.492802      688.86779    
   2290000   300.75803      0.036539744    19.121858      746.18897     -59.611639      686.57733    
   2291000   304.59597      0.036539744    21.295154      755.71099     -52.771068      702.93992    
   2292000   295.54793      0.036539744    18.410333      733.26255     -58.165489      675.09706    
   2293000   297.03563      0.036539744    19.044741      736.95358     -57.923429      679.03015    
   2294000   293.91061      0.036539744    18.759215      729.20032     -59.818418      669.3819     
   2295000   288.07686      0.036539744    19.414869      714.72663     -63.120737      651.60589    
   2296000   306.67234      0.036539744    19.543017      760.86252     -67.916352      692.94617    
   2297000   308.47193      0.036539744    29.39382       765.32737     -69.366865      695.96051    
   2298000   295.82953      0.036539744    18.376338      733.96122     -72.247801      661.71342    
   2299000   310.50937      0.036539744    16.070824      770.38232     -71.985615      698.3967     
   2300000   311.43339      0.036539744    23.539268      772.67482     -68.001876      704.67295    
   2301000   304.37599      0.036539744    18.595759      755.16523     -65.07461       690.09062    
   2302000   297.38011      0.036539744    16.542164      737.80825     -69.728688      668.07956    
   2303000   296.88792      0.036539744    19.201559      736.58711     -59.121521      677.46559    
   2304000   300.85026      0.036539744    22.71504       746.4178      -65.741294      680.6765     
   2305000   305.58966      0.036539744    19.75789       758.17636     -65.765077      692.41128    
   2306000   289.96245      0.036539744    16.381444      719.40482     -65.172531      654.23229    
   2307000   287.71004      0.036539744    19.174382      713.81654     -57.785988      656.03055    
   2308000   320.72837      0.036539744    22.792072      795.73593     -56.946963      738.78897    
   2309000   304.21827      0.036539744    19.856863      754.77391     -62.709064      692.06484    
   2310000   291.44987      0.036539744    18.180188      723.09517     -64.939753      658.15542    
   2311000   293.89916      0.036539744    22.595152      729.17193     -70.065246      659.10668    
   2312000   312.69501      0.036539744    21.918673      775.80495     -63.121665      712.68328    
   2313000   301.2501       0.036539744    11.320849      747.4098      -64.243286      683.16652    
   2314000   291.90141      0.036539744    24.467984      724.21544     -60.613626      663.60181    
   2315000   300.78194      0.036539744    21.439224      746.24829     -57.930371      688.31791    
   2316000   324.99632      0.036539744    13.968967      806.32483     -57.108313      749.21651    
   2317000   287.42879      0.036539744    10.196718      713.11876     -57.532739      655.58602    
   2318000   298.93983      0.036539744    19.35209       741.67795     -55.425055      686.2529     
   2319000   321.6574       0.036539744    18.191848      798.04088     -57.655354      740.38552    
   2320000   304.37978      0.036539744    19.203257      755.17462     -57.633129      697.54149    
   2321000   287.26271      0.036539744    6.7257811      712.7067      -56.354492      656.35221    
   2322000   289.89635      0.036539744    27.379425      719.24083     -58.010656      661.23018    
   2323000   303.44519      0.036539744    32.661993      752.85587     -54.627997      698.22787    
   2324000   311.45409      0.036539744    20.244771      772.72618     -61.824024      710.90215    
   2325000   302.06401      0.036539744    20.339377      749.42914     -60.136239      689.2929     
   2326000   294.40949      0.036539744    25.543604      730.43807     -61.72723       668.71084    
   2327000   297.05588      0.036539744    22.230065      737.00383     -65.263322      671.74051    
   2328000   308.611        0.036539744    17.845204      765.67239     -63.742461      701.92993    
   2329000   284.57473      0.036539744    2.8007674      706.03775     -65.04122       640.99653    
   2330000   289.36555      0.036539744    18.239637      717.92391     -64.053147      653.87076    
   2331000   301.94483      0.036539744    33.843006      749.13345     -70.129096      679.00435    
   2332000   316.00456      0.036539744    10.240482      784.01604     -67.947608      716.06843    
   2333000   298.72746      0.036539744    11.624508      741.15106     -66.713361      674.4377     
   2334000   283.38729      0.036539744    14.511432      703.09167     -68.73217       634.3595     
   2335000   311.48612      0.036539744    25.590086      772.80565     -65.485314      707.32033    
   2336000   310.75613      0.036539744    19.151383      770.99451     -70.754043      700.24047    
   2337000   303.96974      0.036539744    19.421244      754.1573      -69.484477      684.67282    
   2338000   303.40048      0.036539744    23.80738       752.74496     -74.540845      678.20411    
   2339000   306.14196      0.036539744    24.244652      759.54664     -68.440074      691.10656    
   2340000   304.65361      0.036539744    17.388369      755.85401     -69.238651      686.61536    
   2341000   306.41776      0.036539744    15.082022      760.23091     -67.317442      692.91347    
   2342000   290.11767      0.036539744    34.315813      719.78995     -66.79645       652.9935     
   2343000   303.27123      0.036539744    15.571184      752.42428     -68.59375       683.83053    
   2344000   308.75751      0.036539744   -3.9440862      766.03589     -64.105271      701.93062    
   2345000   296.56802      0.036539744    6.8731474      735.79344     -72.048079      663.74536    
   2346000   301.42205      0.036539744    24.758419      747.83643     -70.546572      677.28985    
   2347000   303.11047      0.036539744    7.5712673      752.02542     -73.119945      678.90547    
   2348000   304.95231      0.036539744    18.700342      756.59508     -71.455395      685.13969    
   2349000   296.15276      0.036539744    21.366724      734.76315     -75.459543      659.30361    
   2350000   309.58706      0.036539744    20.54641       768.09403     -67.671878      700.42215    
   2351000   294.63782      0.036539744    11.968331      731.00455     -70.939191      660.06536    
   2352000   293.52825      0.036539744    17.555849      728.25167     -68.57854       659.67313    
   2353000   304.86918      0.036539744    18.678498      756.38884     -67.483128      688.90571    
   2354000   305.16303      0.036539744    18.630124      757.1179      -66.017161      691.10074    
   2355000   296.43949      0.036539744    13.918722      735.47454     -68.302271      667.17227    
   2356000   301.79567      0.036539744    19.348504      748.76337     -64.296073      684.4673     
   2357000   292.5251       0.036539744    25.342668      725.76283     -66.350687      659.41214    
   2358000   306.40115      0.036539744    5.9000145      760.1897      -65.180929      695.00877    
   2359000   301.18614      0.036539744    14.248447      747.25112     -66.293021      680.9581     
   2360000   301.73723      0.036539744    17.385405      748.6184      -68.744888      679.87351    
   2361000   292.38797      0.036539744    29.098704      725.42262     -62.245839      663.17678    
   2362000   299.55186      0.036539744    25.9424        743.19642     -66.087783      677.10864    
   2363000   291.19706      0.036539744    2.8498416      722.46794     -58.712491      663.75545    
   2364000   296.72203      0.036539744    21.782455      736.17553     -59.903632      676.2719     
   2365000   319.04943      0.036539744    20.771929      791.57044     -61.463701      730.10674    
   2366000   297.45035      0.036539744    16.833336      737.98251     -57.721156      680.26135    
   2367000   290.78965      0.036539744    17.890228      721.45714     -65.399792      656.05735    
   2368000   306.0341       0.036539744    17.862646      759.27903     -63.992192      695.28684    
   2369000   303.54602      0.036539744    14.154739      753.10605     -60.513456      692.59259    
   2370000   295.09719      0.036539744    19.931272      732.14427     -64.850633      667.29364    
   2371000   310.77556      0.036539744    23.749765      771.04273     -61.617288      709.42544    
   2372000   299.37255      0.036539744    13.037523      742.75154     -68.420639      674.33091    
   2373000   292.48579      0.036539744    19.727967      725.66531     -66.295518      659.36979    
   2374000   285.1514       0.036539744    23.298791      707.46849     -72.24021       635.22828    
   2375000   316.28234      0.036539744    16.54703       784.7052      -65.376659      719.32854    
   2376000   297.44366      0.036539744   -2.6410398      737.96591     -67.435628      670.53028    
   2377000   291.55641      0.036539744    13.134166      723.3595      -59.940324      663.41917    
   2378000   298.78207      0.036539744    19.669003      741.28654     -53.410217      687.87632    
   2379000   302.38083      0.036539744    22.017896      750.21518     -54.127162      696.08802    
   2380000   302.04551      0.036539744    45.352194      749.38323     -58.224493      691.15873    
   2381000   294.00859      0.036539744    13.50318       729.44343     -64.742839      664.70059    
   2382000   290.34602      0.036539744    7.5164349      720.35648     -55.729975      664.62651    
   2383000   289.55097      0.036539744    19.039168      718.38393     -58.009033      660.3749     
   2384000   310.25825      0.036539744    22.320625      769.75928     -63.925155      705.83413    
   2385000   300.8269       0.036539744    18.552836      746.35982     -56.343176      690.01664    
   2386000   287.81248      0.036539744    16.259632      714.0707      -51.717445      662.35325    
   2387000   307.88073      0.036539744    26.989315      763.86058     -57.927426      705.93316    
   2388000   308.30147      0.036539744    6.5391458      764.90444     -59.387155      705.51728    
   2389000   291.98716      0.036539744    21.572922      724.42819     -54.172758      670.25543    
   2390000   302.4655       0.036539744    19.918006      750.42524     -57.048892      693.37634    
   2391000   307.13272      0.036539744    15.407685      762.00475     -54.927111      707.07764    
   2392000   280.94657      0.036539744    13.255985      697.03619     -57.890719      639.14547    
   2393000   301.63691      0.036539744    22.540538      748.36948     -63.244598      685.12488    
   2394000   304.18376      0.036539744    19.540627      754.68831     -66.395239      688.29307    
   2395000   294.87597      0.036539744    18.900605      731.59541     -64.618218      666.97719    
   2396000   299.19207      0.036539744    17.433285      742.30377     -60.984786      681.31898    
   2397000   305.41983      0.036539744    18.573452      757.75501     -59.799015      697.95599    
   2398000   298.40344      0.036539744    17.748688      740.34716     -59.610994      680.73616    
   2399000   287.29356      0.036539744    17.404352      712.78324     -57.605559      655.17768    
   2400000   305.2039       0.036539744    9.560543       757.21929     -51.520806      705.69849    
   2401000   312.66985      0.036539744    33.736895      775.74251     -55.983915      719.7586     
   2402000   299.41273      0.036539744    22.986641      742.85123     -54.747127      688.1041     
   2403000   287.82452      0.036539744    6.8134407      714.10057     -58.599391      655.50118    
   2404000   298.0345       0.036539744   -15.955941      739.4318      -59.941384      679.49042    
   2405000   315.43294      0.036539744    12.334619      782.59781     -64.748119      717.8497     
   2406000   300.10965      0.036539744    29.374041      744.58031     -67.286393      677.29392    
   2407000   283.99495      0.036539744    15.482434      704.59929     -70.640939      633.95835    
   2408000   303.01872      0.036539744    21.979988      751.7978      -62.044728      689.75307    
   2409000   301.77798      0.036539744    9.2815913      748.71949     -60.30856       688.41093    
   2410000   297.94162      0.036539744   -0.72908233     739.20137     -63.229841      675.97153    
   2411000   306.58206      0.036539744    19.632838      760.63854     -56.092083      704.54646    
   2412000   300.55909      0.036539744    28.703711      745.69539     -55.040772      690.65462    
   2413000   286.74405      0.036539744    22.940312      711.4199      -59.229008      652.19089    
   2414000   307.67823      0.036539744    7.4588788      763.35816     -58.892425      704.46574    
   2415000   314.29296      0.036539744    21.987012      779.76949     -57.961659      721.80784    
   2416000   286.02912      0.036539744    33.97378       709.64614     -57.456548      652.18959    
   2417000   294.51214      0.036539744    8.5826213      730.69275     -68.81845       661.8743     
   2418000   306.85473      0.036539744    17.228063      761.31505     -66.45036       694.86469    
   2419000   299.02434      0.036539744    30.53123       741.88762     -64.283667      677.60396    
   2420000   297.37733      0.036539744    10.958014      737.80136     -64.234036      673.56732    
   2421000   298.77561      0.036539744    9.0748911      741.27053     -68.528955      672.74158    
   2422000   304.19918      0.036539744    28.262073      754.72654     -67.867258      686.85929    
   2423000   297.36148      0.036539744    19.511029      737.76203     -56.909772      680.85226    
   2424000   299.72328      0.036539744   -0.91242612     743.62172     -60.296539      683.32518    
   2425000   300.66593      0.036539744    16.702148      745.96047     -57.569479      688.39099    
   2426000   296.1386       0.036539744    20.838519      734.72803     -61.026957      673.70107    
   2427000   303.98626      0.036539744    26.597694      754.19829     -50.040985      704.15731    
   2428000   291.73656      0.036539744    20.364963      723.80645     -54.806031      669.00042    
   2429000   294.81032      0.036539744    10.519714      731.43252     -51.513786      679.91873    
   2430000   316.24285      0.036539744    18.737135      784.60722     -57.652904      726.95431    
   2431000   297.9237       0.036539744    19.708304      739.1569      -63.095563      676.06134    
   2432000   288.34656      0.036539744    19.985974      715.39577     -62.625473      652.77029    
   2433000   305.89918      0.036539744    18.38207       758.9443      -68.636527      690.30777    
   2434000   303.11457      0.036539744    19.605009      752.0356      -60.442646      691.59295    
   2435000   293.4521       0.036539744    20.024053      728.06276     -56.097459      671.9653     
   2436000   301.753        0.036539744    21.205518      748.65752     -67.310973      681.34654    
   2437000   318.02597      0.036539744    24.618956      789.03119     -71.447174      717.58401    
   2438000   303.49113      0.036539744    17.666406      752.96987     -65.379252      687.59061    
   2439000   295.69161      0.036539744    15.72484       733.61903     -63.074269      670.54476    
   2440000   291.19877      0.036539744    19.596385      722.47218     -60.256211      662.21597    
   2441000   311.5153       0.036539744    24.93521       772.87806     -67.367607      705.51045    
   2442000   318.19403      0.036539744    20.848413      789.44815     -61.77677       727.67138    
   2443000   298.69324      0.036539744    0.57271445     741.06617     -64.644168      676.422      
   2444000   297.71302      0.036539744    23.90318       738.6342      -65.544527      673.08967    
   2445000   300.59199      0.036539744    25.653211      745.77701     -59.383858      686.39315    
   2446000   308.69705      0.036539744    13.325203      765.88588     -54.31227       711.57361    
   2447000   315.45567      0.036539744    9.0459736      782.65421     -55.711972      726.94224    
   2448000   286.60531      0.036539744    24.401456      711.07567     -56.566095      654.50957    
   2449000   296.27639      0.036539744    33.710624      735.06989     -63.438742      671.63115    
   2450000   313.0802       0.036539744    15.072723      776.76062     -64.132469      712.62815    
   2451000   296.22276      0.036539744    18.37365       734.93683     -61.709752      673.22708    
   2452000   297.77049      0.036539744    15.526775      738.7768      -58.099864      680.67694    
   2453000   283.96473      0.036539744   -6.8264335      704.52432     -50.918515      653.6058     
   2454000   298.37846      0.036539744    9.7271058      740.28519     -52.615797      687.66939    
   2455000   313.86776      0.036539744    17.3898        778.71457     -51.473161      727.24141    
   2456000   295.84367      0.036539744    22.682828      733.99631     -51.683251      682.31306    
   2457000   302.47302      0.036539744    23.455345      750.4439      -57.763304      692.68059    
   2458000   314.94605      0.036539744    16.951112      781.38982     -54.209849      727.17997    
   2459000   300.58886      0.036539744    12.036111      745.76924     -57.965754      687.80349    
   2460000   293.96776      0.036539744    22.166358      729.34212     -55.321327      674.02079    
   2461000   297.97128      0.036539744    19.466182      739.27495     -59.631563      679.64338    
   2462000   303.92415      0.036539744    18.141847      754.04419     -61.488683      692.55551    
   2463000   299.49267      0.036539744    18.186873      743.04958     -61.745844      681.30373    
   2464000   303.647        0.036539744    19.131947      753.35658     -61.710932      691.64565    
   2465000   299.398        0.036539744    17.847448      742.81469     -60.902422      681.91227    
   2466000   304.1432       0.036539744    19.079597      754.58766     -66.507217      688.08044    
   2467000   302.21967      0.036539744    19.686481      749.81533     -66.919414      682.89592    
   2468000   301.57398      0.036539744    17.920768      748.21335     -65.661906      682.55145    
   2469000   298.37052      0.036539744    21.68713       740.26549     -63.115462      677.15002    
   2470000   299.17911      0.036539744    12.712569      742.27163     -68.544591      673.72704    
   2471000   301.55792      0.036539744    13.926225      748.1735      -73.138312      675.03519    
   2472000   287.31732      0.036539744    18.58544       712.84218     -67.446303      645.39588    
   2473000   301.41611      0.036539744    21.236354      747.82168     -64.624652      683.19703    
   2474000   315.16333      0.036539744    21.570913      781.92891     -65.984502      715.94441    
   2475000   302.50591      0.036539744    20.156967      750.52551     -73.470604      677.05491    
   2476000   285.54945      0.036539744    25.433686      708.45606     -69.668731      638.78733    
   2477000   296.76654      0.036539744    16.314581      736.28596     -75.672962      660.61299    
   2478000   302.83928      0.036539744    17.029853      751.35261     -74.231096      677.12152    
   2479000   299.69315      0.036539744    20.117786      743.54697     -68.550425      674.99654    
   2480000   303.1214       0.036539744    24.205797      752.05254     -66.112912      685.93963    
   2481000   294.15367      0.036539744    16.68201       729.80338     -63.015848      666.78753    
   2482000   297.96744      0.036539744    19.840778      739.26543     -63.499313      675.76612    
   2483000   300.31066      0.036539744    28.576944      745.07901     -60.555083      684.52393    
   2484000   298.14708      0.036539744    18.41838       739.71113     -64.607804      675.10333    
   2485000   301.84681      0.036539744    18.31824       748.89026     -63.804835      685.08542    
   2486000   306.60913      0.036539744    20.952698      760.70569     -66.8397        693.86599    
   2487000   300.81183      0.036539744    29.285402      746.32245     -68.17581       678.14664    
   2488000   294.99852      0.036539744    18.363722      731.89945     -64.868606      667.03084    
   2489000   298.55057      0.036539744    18.377594      740.7122      -70.322735      670.38946    
   2490000   303.24484      0.036539744    23.322314      752.3588      -65.434931      686.92387    
   2491000   301.05012      0.036539744    18.168182      746.91365     -65.055525      681.85813    
   2492000   299.63798      0.036539744    16.952087      743.41008     -66.03271       677.37737    
   2493000   308.49251      0.036539744    15.375579      765.37842     -63.678194      701.70023    
   2494000   304.86496      0.036539744    20.215953      756.37836     -59.749322      696.62904    
   2495000   296.85796      0.036539744    22.112661      736.51277     -59.415102      677.09767    
   2496000   299.68178      0.036539744    13.298473      743.51875     -68.249269      675.26948    
   2497000   307.56106      0.036539744    14.245077      763.06748     -68.806059      694.26142    
   2498000   301.4315       0.036539744    28.866834      747.85985     -66.315318      681.54453    
   2499000   298.18146      0.036539744    17.500452      739.79642     -69.829737      669.96669    
   2500000   302.57339      0.036539744    16.522874      750.69291     -71.064267      679.62865    
   2501000   297.90904      0.036539744    29.572512      739.12054     -64.191054      674.92948    
   2502000   280.69501      0.036539744    7.621856       696.41205     -66.994074      629.41798    
   2503000   297.46099      0.036539744    14.779276      738.00892     -65.368837      672.64008    
   2504000   309.46501      0.036539744    16.249065      767.79122     -64.005609      703.78561    
   2505000   315.71434      0.036539744    10.705912      783.29598     -61.406932      721.88905    
   2506000   303.0517       0.036539744    23.296085      751.87963     -56.597783      695.28185    
   2507000   292.00413      0.036539744    16.67093       724.47029     -66.566619      657.90367    
   2508000   297.18217      0.036539744    1.7719595      737.31715     -60.338794      676.97836    
   2509000   302.98882      0.036539744    1.8687299      751.72361     -60.321519      691.40209    
   2510000   300.52734      0.036539744    20.792102      745.61662     -59.725107      685.89151    
   2511000   297.80581      0.036539744    27.016393      738.86441     -59.830526      679.03389    
   2512000   285.19627      0.036539744    20.339564      707.5798      -59.915201      647.6646     
   2513000   286.02015      0.036539744    16.377921      709.62388     -62.92771       646.69617    
   2514000   304.69696      0.036539744    17.290497      755.96157     -60.34119       695.62038    
   2515000   322.74227      0.036539744    20.710893      800.73246     -67.721392      733.01107    
   2516000   294.1246       0.036539744    18.733842      729.73125     -66.127715      663.60353    
   2517000   298.77427      0.036539744    20.845825      741.26721     -66.687716      674.57949    
   2518000   307.76881      0.036539744    19.319715      763.5829      -60.75449       702.82841    
   2519000   309.50571      0.036539744    18.807193      767.89219     -66.906634      700.98556    
   2520000   285.16124      0.036539744    12.142242      707.49289     -61.797633      645.69526    
   2521000   297.67812      0.036539744    13.561212      738.54762     -65.991702      672.55592    
   2522000   292.86992      0.036539744    19.48461       726.61834     -66.907265      659.71108    
   2523000   303.7553       0.036539744    21.640329      753.62528     -63.035016      690.59027    
   2524000   302.77755      0.036539744    18.652353      751.19946     -60.842405      690.35705    
   2525000   304.90801      0.036539744    18.051974      756.48519     -63.202083      693.2831     
   2526000   290.70023      0.036539744    21.603336      721.2353      -60.861791      660.3735     
   2527000   290.43293      0.036539744    21.938449      720.5721      -65.625736      654.94636    
   2528000   305.90266      0.036539744    14.944149      758.95294     -69.021992      689.93094    
   2529000   303.16261      0.036539744    19.691912      752.1548      -64.102125      688.05267    
   2530000   282.86158      0.036539744    10.274606      701.78737     -70.248131      631.53924    
   2531000   292.326        0.036539744    22.132955      725.26886     -68.37218       656.89668    
   2532000   316.8816       0.036539744    17.035969      786.19199     -65.191075      721.00091    
   2533000   296.1572       0.036539744    22.347451      734.77417     -68.405229      666.36894    
   2534000   287.53852      0.036539744    18.390284      713.39099     -70.311316      643.07967    
   2535000   305.41643      0.036539744    2.0763471      757.74657     -70.020156      687.72642    
   2536000   309.30798      0.036539744    33.539778      767.40162     -59.981593      707.42002    
   2537000   286.82038      0.036539744    30.228437      711.60928     -62.854109      648.75517    
   2538000   285.37013      0.036539744    24.804911      708.01116     -66.525068      641.48609    
   2539000   302.97111      0.036539744    11.586475      751.67967     -68.091393      683.58828    
   2540000   304.38588      0.036539744    17.263949      755.18975     -69.968875      685.22088    
   2541000   296.36903      0.036539744    42.537412      735.29974     -61.877814      673.42193    
   2542000   290.89144      0.036539744    23.678112      721.70967     -64.681109      657.02856    
   2543000   286.26582      0.036539744    8.8622816      710.23339     -61.382003      648.85139    
   2544000   311.03522      0.036539744    12.091465      771.68696     -58.953479      712.73348    
   2545000   307.69861      0.036539744    25.136949      763.40873     -52.633991      710.77474    
   2546000   299.2924       0.036539744    22.432156      742.55269     -50.68845       691.86424    
   2547000   290.55554      0.036539744    21.494818      720.87631     -47.983713      672.8926     
   2548000   291.22771      0.036539744    15.273401      722.54397     -58.209122      664.33484    
   2549000   320.97438      0.036539744    36.386842      796.34628     -58.059833      738.28645    
   2550000   296.81955      0.036539744    28.958575      736.41748     -54.941638      681.47584    
   2551000   292.16483      0.036539744    9.0055785      724.86899     -55.279615      669.58938    
   2552000   326.76429      0.036539744    18.888079      810.71122     -61.07258       749.63864    
   2553000   297.90907      0.036539744    25.744829      739.12061     -64.165054      674.95555    
   2554000   293.03914      0.036539744    20.539319      727.03817     -61.673602      665.36457    
   2555000   308.35414      0.036539744    12.471472      765.03513     -57.44895       707.58618    
   2556000   304.17981      0.036539744    25.209169      754.67849     -60.237893      694.4406     
   2557000   291.37015      0.036539744    21.962784      722.89738     -54.762837      668.13454    
   2558000   285.6812       0.036539744    13.10493       708.78293     -58.01566       650.76727    
   2559000   293.99255      0.036539744    14.701352      729.40362     -62.7758        666.62782    
   2560000   303.30679      0.036539744    19.931153      752.5125      -60.360262      692.15224    
   2561000   298.37754      0.036539744    19.661234      740.2829      -58.405783      681.87712    
   2562000   296.7688       0.036539744    18.793835      736.29157     -54.189581      682.10198    
   2563000   309.54096      0.036539744    19.173968      767.97966     -64.675846      703.30382    
   2564000   285.18549      0.036539744    16.763962      707.55306     -65.523655      642.02941    
   2565000   301.25028      0.036539744    20.122842      747.41024     -68.61304       678.7972     
   2566000   315.10606      0.036539744    19.395174      781.78682     -66.223942      715.56288    
   2567000   300.45092      0.036539744    17.388983      745.42703     -57.218008      688.20902    
   2568000   290.7331       0.036539744    19.036441      721.31685     -58.432516      662.88433    
   2569000   308.00068      0.036539744    29.098071      764.15817     -62.986174      701.172      
   2570000   296.22584      0.036539744    13.417887      734.94448     -64.264206      670.68027    
   2571000   298.29142      0.036539744    19.402685      740.06924     -58.248373      681.82087    
   2572000   302.39514      0.036539744    17.487388      750.25067     -60.406384      689.84429    
   2573000   317.11785      0.036539744    18.405674      786.77813     -62.270933      724.50719    
   2574000   301.62275      0.036539744    21.946512      748.33435     -61.587116      686.74724    
   2575000   276.47674      0.036539744    15.759454      685.94642     -62.956846      622.98957    
   2576000   302.5066       0.036539744    19.818864      750.52722     -62.127106      688.40011    
   2577000   310.00397      0.036539744    19.009457      769.1284      -61.725774      707.40263    
   2578000   286.06332      0.036539744    19.102851      709.73098     -56.52709       653.20389    
   2579000   291.32556      0.036539744    18.768322      722.78675     -54.500448      668.2863     
   2580000   300.87172      0.036539744    15.403334      746.47103     -56.239638      690.2314     
   2581000   303.75726      0.036539744    18.904995      753.63014     -56.011291      697.61885    
   2582000   299.86297      0.036539744    18.66781       743.9683      -63.108874      680.85942    
   2583000   304.52387      0.036539744    18.355149      755.53212     -55.772936      699.75918    
   2584000   298.84331      0.036539744    20.852016      741.43849     -63.117213      678.32128    
   2585000   302.71912      0.036539744    20.582776      751.05447     -62.732129      688.32234    
   2586000   303.63012      0.036539744    14.692723      753.31469     -62.671631      690.64306    
   2587000   303.29066      0.036539744    11.000256      752.4725      -56.787932      695.68457    
   2588000   285.7111       0.036539744    12.409613      708.85711     -60.760608      648.0965     
   2589000   291.46525      0.036539744    21.969421      723.13332     -60.978648      662.15467    
   2590000   313.19357      0.036539744    28.404559      777.04188     -63.019179      714.0227     
   2591000   312.9536       0.036539744    12.91324       776.4465      -67.924326      708.52218    
   2592000   298.97945      0.036539744    20.394597      741.77626     -63.22699       678.54927    
   2593000   297.85932      0.036539744    10.685723      738.99719     -63.105364      675.89183    
   2594000   302.71171      0.036539744    18.209273      751.0361      -62.329265      688.70683    
   2595000   296.56287      0.036539744    34.293344      735.78066     -63.60491       672.17575    
   2596000   300.72168      0.036539744    27.043635      746.09878     -58.187586      687.91119    
   2597000   312.25479      0.036539744    19.014513      774.71275     -57.575938      717.13681    
   2598000   296.2361       0.036539744    1.752744       734.96993     -61.904483      673.06545    
   2599000   291.79872      0.036539744    20.557097      723.96068     -57.787691      666.17299    
   2600000   300.87714      0.036539744    42.451662      746.48448     -58.872676      687.6118     
   2601000   305.42315      0.036539744    22.153618      757.76326     -60.56605       697.19721    
   2602000   295.03505      0.036539744   -3.8544207      731.9901      -58.013418      673.97668    
   2603000   305.7224       0.036539744    33.171159      758.50571     -55.026347      703.47936    
   2604000   301.17104      0.036539744    31.606501      747.21365     -61.20459       686.00906    
   2605000   297.29587      0.036539744    5.5911207      737.59924     -57.076468      680.52278    
   2606000   295.48186      0.036539744    14.300714      733.09864     -58.704838      674.3938     
   2607000   288.65862      0.036539744    21.162116      716.17        -65.676031      650.49397    
   2608000   309.20032      0.036539744    25.319866      767.13453     -64.243626      702.8909     
   2609000   297.81626      0.036539744   -16.983166      738.89035     -69.874912      669.01544    
   2610000   285.8653       0.036539744    28.623873      709.23969     -70.827828      638.41186    
   2611000   302.8893       0.036539744    24.668659      751.47671     -70.857977      680.61873    
   2612000   305.80122      0.036539744    18.104509      758.70126     -63.64553       695.05573    
   2613000   294.89121      0.036539744    14.088625      731.63321     -60.454566      671.17864    
   2614000   288.94332      0.036539744    25.852953      716.87635     -60.737805      656.13855    
   2615000   308.62349      0.036539744    25.51613       765.70337     -68.685279      697.0181     
   2616000   310.26355      0.036539744    18.066263      769.77241     -65.273714      704.4987     
   2617000   288.07521      0.036539744    8.4938249      714.72253     -63.315033      651.4075     
   2618000   292.0994       0.036539744    27.902036      724.70667     -57.087012      667.61965    
   2619000   304.45408      0.036539744    21.77819       755.35898     -51.816816      703.54216    
   2620000   311.34695      0.036539744    11.338581      772.46036     -55.285506      717.17485    
   2621000   308.5274       0.036539744    5.9796575      765.46499     -59.814592      705.65039    
   2622000   271.5809       0.036539744    27.642423      673.7997      -58.357714      615.44199    
   2623000   306.19493      0.036539744    26.24043       759.67805     -59.233356      700.4447     
   2624000   309.70464      0.036539744    3.8726677      768.38574     -56.442222      711.94352    
   2625000   298.85368      0.036539744   -0.39956367     741.46421     -58.960522      682.50368    
   2626000   287.6108       0.036539744    22.364592      713.57033     -55.557496      658.01283    
   2627000   284.4291       0.036539744    35.601578      705.67643     -62.251896      643.42453    
   2628000   304.72576      0.036539744    25.420248      756.033       -62.294172      693.73883    
   2629000   301.69656      0.036539744    3.7831319      748.51747     -64.42499       684.09248    
   2630000   301.25342      0.036539744    20.490494      747.41804     -65.830678      681.58736    
   2631000   302.04832      0.036539744    22.711054      749.39021     -65.969346      683.42086    
   2632000   303.8527       0.036539744    18.319641      753.86693     -62.879278      690.98765    
   2633000   297.70941      0.036539744    8.4189891      738.62524     -66.286414      672.33883    
   2634000   311.35049      0.036539744    23.636911      772.46915     -67.166059      705.30309    
   2635000   297.38751      0.036539744    19.891981      737.82661     -61.233083      676.59353    
   2636000   312.79722      0.036539744    20.928315      776.05852     -60.592059      715.46646    
   2637000   297.00363      0.036539744    17.577098      736.8742      -64.971584      671.90261    
   2638000   302.10369      0.036539744    18.193831      749.52758     -70.241926      679.28565    
   2639000   309.00905      0.036539744    20.722522      766.65998     -58.98273       707.67725    
   2640000   290.69369      0.036539744    17.837952      721.21905     -64.688769      656.53028    
   2641000   294.49467      0.036539744    15.229439      730.64938     -61.845107      668.80427    
   2642000   311.43554      0.036539744    15.902194      772.68016     -68.374613      704.30555    
   2643000   305.31779      0.036539744    31.308031      757.50186     -68.485029      689.01683    
   2644000   293.65795      0.036539744    24.554236      728.57347     -62.054485      666.51899    
   2645000   290.03923      0.036539744    8.9932294      719.59532     -62.661589      656.93373    
   2646000   306.23895      0.036539744    25.976031      759.78728     -61.573414      698.21387    
   2647000   301.00047      0.036539744    18.569509      746.79045     -61.778027      685.01243    
   2648000   312.04642      0.036539744    12.841492      774.19577     -65.360967      708.8348     
   2649000   298.06721      0.036539744    21.250199      739.51297     -58.519152      680.99382    
   2650000   303.07826      0.036539744    19.663673      751.94552     -59.227338      692.71818    
   2651000   297.2661       0.036539744    18.499463      737.52539     -57.179656      680.34574    
   2652000   295.97048      0.036539744    15.690578      734.31092     -60.252901      674.05802    
   2653000   314.4559       0.036539744    12.808809      780.17376     -62.970362      717.2034     
   2654000   301.62684      0.036539744    27.654767      748.34451     -64.754997      683.58951    
   2655000   295.57029      0.036539744    12.184231      733.31803     -62.369513      670.94852    
   2656000   303.12348      0.036539744    18.24235       752.0577      -61.76676       690.29094    
   2657000   318.7656       0.036539744    31.682864      790.86625     -56.880243      733.98601    
   2658000   299.6833       0.036539744    35.540625      743.52253     -62.270856      681.25168    
   2659000   297.04684      0.036539744    11.894732      736.9814      -65.646977      671.33442    
   2660000   307.98637      0.036539744    18.704346      764.12267     -67.194231      696.92844    
   2661000   302.15922      0.036539744    21.952588      749.66535     -69.543684      680.12167    
   2662000   306.20705      0.036539744    19.860012      759.70813     -65.037943      694.67019    
   2663000   305.03796      0.036539744    4.0354782      756.80759     -63.02346       693.78413    
   2664000   295.7423       0.036539744    19.104757      733.74481     -61.112105      672.6327     
   2665000   303.25747      0.036539744    28.44196       752.39015     -60.505597      691.88455    
   2666000   293.43944      0.036539744    16.372574      728.03134     -56.713373      671.31797    
   2667000   320.10159      0.036539744    12.07698       794.18087     -57.24694       736.93393    
   2668000   310.11024      0.036539744    22.022922      769.39205     -54.962943      714.42911    
   2669000   295.36545      0.036539744    22.966243      732.80982     -55.43583       677.37399    
   2670000   294.79719      0.036539744    16.603117      731.39994     -55.838105      675.56184    
   2671000   306.21522      0.036539744    14.612518      759.72841     -62.889248      696.83916    
   2672000   307.4828       0.036539744    24.207398      762.8733      -59.019855      703.85345    
   2673000   296.56162      0.036539744    21.528724      735.77756     -58.407057      677.3705     
   2674000   298.31961      0.036539744    18.725939      740.13916     -56.101234      684.03793    
   2675000   297.61179      0.036539744    12.880949      738.38307     -57.480147      680.90292    
   2676000   302.18121      0.036539744    19.259654      749.71992     -60.528422      689.1915     
   2677000   297.95249      0.036539744    22.607181      739.22834     -62.334998      676.89335    
   2678000   295.6304       0.036539744    18.345653      733.46716     -59.283388      674.18377    
   2679000   293.8942       0.036539744    16.793307      729.15962     -66.077942      663.08168    
   2680000   303.80382      0.036539744    25.80685       753.74566     -69.316445      684.42922    
   2681000   306.45763      0.036539744    32.453791      760.32982     -64.745622      695.5842     
   2682000   299.41462      0.036539744    25.268771      742.85591     -67.477038      675.37888    
   2683000   284.21685      0.036539744    10.608042      705.14985     -70.861903      634.28795    
   2684000   300.70978      0.036539744    20.352323      746.06925     -64.820249      681.249      
   2685000   304.8432       0.036539744    17.815831      756.32439     -64.89561       691.42878    
   2686000   298.21373      0.036539744    17.610535      739.8765      -62.462436      677.41406    
   2687000   291.97243      0.036539744    21.804411      724.39164     -59.391432      665.00021    
   2688000   300.26974      0.036539744    19.819366      744.9775      -58.716004      686.26149    
   2689000   303.25825      0.036539744    32.439069      752.39209     -61.681278      690.71081    
   2690000   301.5586       0.036539744    28.411347      748.17519     -59.589114      688.58608    
   2691000   298.58555      0.036539744    19.617609      740.79897     -53.642378      687.1566     
   2692000   294.66042      0.036539744    18.092184      731.06062     -58.679875      672.38074    
   2693000   304.99269      0.036539744    16.061758      756.69526     -63.250968      693.44429    
   2694000   314.73305      0.036539744    21.402488      780.86138     -63.699823      717.16156    
   2695000   304.60751      0.036539744    21.44614       755.73962     -62.515532      693.22409    
   2696000   292.12863      0.036539744    16.902701      724.77919     -64.0108        660.76839    
   2697000   295.94793      0.036539744    24.104655      734.25496     -67.50907       666.74589    
   2698000   309.80101      0.036539744    20.5406        768.62485     -65.982826      702.64203    
   2699000   287.70443      0.036539744    14.21631       713.80263     -63.638407      650.16422    
   2700000   286.03328      0.036539744    16.561399      709.65645     -60.501541      649.1549     
   2701000   308.14464      0.036539744    21.696704      764.51535     -62.372743      702.14261    
   2702000   320.43847      0.036539744    25.786695      795.01668     -57.420831      737.59585    
   2703000   291.79706      0.036539744    6.639096       723.95656     -63.554898      660.40166    
   2704000   294.64569      0.036539744    34.114739      731.02408     -58.878275      672.14581    
   2705000   317.20215      0.036539744    22.210791      786.98727     -71.623073      715.3642     
   2706000   288.64693      0.036539744    13.155334      716.141       -59.443484      656.69751    
   2707000   291.24515      0.036539744    31.070976      722.58724     -66.216313      656.37093    
   2708000   299.98698      0.036539744    42.106394      744.27596     -65.226963      679.049      
   2709000   316.278        0.036539744    7.4431108      784.69443     -61.385809      723.30862    
   2710000   287.8354       0.036539744    6.6803221      714.12756     -68.638018      645.48954    
   2711000   303.57477      0.036539744    30.221545      753.17737     -71.858658      681.31871    
   2712000   299.26351      0.036539744    21.36875       742.48101     -64.959912      677.52109    
   2713000   296.60365      0.036539744    10.034316      735.88182     -66.484268      669.39756    
   2714000   302.78391      0.036539744    33.623876      751.21523     -64.269228      686.94601    
   2715000   301.76974      0.036539744    27.57923       748.69904     -62.931662      685.76737    
   2716000   302.22207      0.036539744    6.5917692      749.8213      -69.772463      680.04884    
   2717000   291.82233      0.036539744    21.000012      724.01924     -63.821162      660.19807    
   2718000   304.71954      0.036539744    29.872018      756.01758     -71.186935      684.83065    
   2719000   298.27622      0.036539744    17.565569      740.03152     -68.113953      671.91756    
   2720000   304.87907      0.036539744    5.9839856      756.41338     -66.652205      689.76117    
   2721000   297.02889      0.036539744    17.467364      736.93687     -62.40885       674.52802    
   2722000   306.78311      0.036539744    22.39035       761.13736     -61.403142      699.73422    
   2723000   302.38977      0.036539744    19.38728       750.23736     -63.907475      686.32988    
   2724000   302.93323      0.036539744    6.3976188      751.58569     -58.586298      692.99939    
   2725000   296.42623      0.036539744    22.133783      735.44165     -54.198142      681.24351    
   2726000   312.73391      0.036539744    24.889759      775.90146     -49.595565      726.30589    
   2727000   295.84492      0.036539744    15.568699      733.99939     -57.168935      676.83046    
   2728000   292.95689      0.036539744    15.224418      726.83413     -51.601054      675.23308    
   2729000   280.41166      0.036539744    16.884408      695.70905     -56.729682      638.97937    
   2730000   298.0693       0.036539744    17.779699      739.51816     -61.234294      678.28387    
   2731000   302.84452      0.036539744    23.92332       751.3656      -58.017532      693.34807    
   2732000   318.22771      0.036539744    19.021108      789.53172     -59.570431      729.96129    
   2733000   288.3794       0.036539744    16.935502      715.47724     -52.159465      663.31777    
   2734000   293.42235      0.036539744    18.416549      727.98895     -54.898656      673.09029    
   2735000   313.06428      0.036539744    18.87142       776.7211      -55.604172      721.11693    
   2736000   304.21588      0.036539744    19.96086       754.76798     -53.896881      700.8711     
   2737000   290.44814      0.036539744    18.703913      720.60984     -50.790966      669.81888    
   2738000   295.31489      0.036539744    16.962016      732.68438     -60.605986      672.07839    
   2739000   306.31302      0.036539744    16.948264      759.97105     -58.7771        701.19395    
   2740000   304.51261      0.036539744    18.908009      755.50418     -56.112647      699.39154    
   2741000   288.05347      0.036539744    15.514267      714.66859     -61.361039      653.30755    
   2742000   300.92877      0.036539744    17.21019       746.61256     -55.830012      690.78255    
   2743000   314.49387      0.036539744    19.090167      780.26797     -58.485125      721.78285    
   2744000   291.9449       0.036539744    20.331348      724.32335     -65.16105       659.1623     
   2745000   297.94045      0.036539744    18.332363      739.19846     -62.685505      676.51296    
   2746000   319.07175      0.036539744    20.274487      791.6258      -58.783003      732.8428     
   2747000   290.63562      0.036539744    18.344915      721.07498     -62.621391      658.45359    
   2748000   297.65969      0.036539744    13.126079      738.5019      -60.216267      678.28563    
   2749000   305.7818       0.036539744    11.099509      758.65308     -55.392519      703.26056    
   2750000   304.7948       0.036539744    16.048036      756.20431     -62.369464      693.83485    
   2751000   292.93514      0.036539744    35.157842      726.78016     -59.593892      667.18627    
   2752000   298.62675      0.036539744    27.336817      740.90121     -58.244885      682.65632    
   2753000   300.01805      0.036539744    21.039105      744.35305     -59.17249       685.18057    
   2754000   297.03213      0.036539744    11.945123      736.94491     -59.023932      677.92098    
   2755000   301.28835      0.036539744    13.218857      747.50471     -64.62677       682.87794    
   2756000   315.10044      0.036539744    30.60476       781.77288     -63.013931      718.75895    
   2757000   301.39779      0.036539744    15.945593      747.77623     -61.046221      686.73       
   2758000   297.82039      0.036539744    0.95941888     738.9006      -57.248783      681.65182    
   2759000   310.19663      0.036539744    19.566228      769.6064      -58.114165      711.49223    
   2760000   302.96845      0.036539744    27.835226      751.67307     -61.037405      690.63566    
   2761000   303.84241      0.036539744   -18.910177      753.84139     -60.586222      693.25517    
   2762000   299.19186      0.036539744    19.146964      742.30325     -61.042191      681.26106    
   2763000   292.85886      0.036539744    26.459666      726.5909      -62.640138      663.95076    
   2764000   299.21651      0.036539744    5.0125529      742.36442     -59.420101      682.94432    
   2765000   301.66962      0.036539744    19.574424      748.45065     -60.459571      687.99107    
   2766000   298.1641       0.036539744    21.875997      739.75335     -58.719345      681.034      
   2767000   304.23583      0.036539744    17.377354      754.81747     -60.572643      694.24483    
   2768000   299.12336      0.036539744    16.480925      742.13329     -58.261216      683.87208    
   2769000   303.79358      0.036539744    16.776473      753.72025     -57.356274      696.36398    
   2770000   297.85194      0.036539744    18.177132      738.97886     -56.25365       682.72521    
   2771000   296.78153      0.036539744    16.139529      736.32314     -66.798209      669.52494    
   2772000   302.15701      0.036539744    18.060761      749.65987     -65.198164      684.4617     
   2773000   300.68657      0.036539744    19.61051       746.01167     -66.765029      679.24665    
   2774000   285.41592      0.036539744    16.90136       708.12477     -60.932702      647.19207    
   2775000   301.7959       0.036539744    20.588704      748.76395     -65.634414      683.12954    
   2776000   309.53748      0.036539744    20.621926      767.97102     -61.827421      706.1436     
   2777000   288.70256      0.036539744    18.596551      716.27901     -58.629255      657.64975    
   2778000   301.49088      0.036539744    18.936869      748.0072      -65.71841       682.28879    
   2779000   307.17056      0.036539744    17.534305      762.09863     -66.327207      695.77143    
   2780000   293.42044      0.036539744    18.744224      727.98419     -56.919159      671.06503    
   2781000   285.85665      0.036539744    16.822125      709.21823     -63.405926      645.8123     
   2782000   300.95248      0.036539744    20.281673      746.67141     -69.442468      677.22894    
   2783000   311.16034      0.036539744    16.115554      771.99738     -63.80459       708.19279    
   2784000   293.54376      0.036539744    20.3104        728.29017     -57.590984      670.69918    
   2785000   303.82295      0.036539744    21.273125      753.79312     -64.888634      688.90449    
   2786000   311.43207      0.036539744    17.417077      772.67154     -60.636431      712.03511    
   2787000   290.11305      0.036539744    19.278349      719.77847     -60.977974      658.8005     
   2788000   290.79409      0.036539744    21.537797      721.46815     -59.112646      662.35551    
   2789000   309.47581      0.036539744    23.038929      767.81802     -59.725386      708.09264    
   2790000   315.38148      0.036539744    19.511064      782.47014     -59.28944       723.1807     
   2791000   301.73149      0.036539744    20.305407      748.60413     -57.059174      691.54496    
   2792000   295.43658      0.036539744    15.378425      732.9863      -60.176399      672.8099     
   2793000   288.40219      0.036539744    20.160781      715.53379     -55.499127      660.03466    
   2794000   302.0902       0.036539744    20.009399      749.49411     -55.59567       693.89844    
   2795000   301.30669      0.036539744    7.368024       747.55021     -58.526926      689.02329    
   2796000   297.18258      0.036539744    25.553131      737.31818     -55.551574      681.76661    
   2797000   298.41433      0.036539744    21.459294      740.37417     -54.979127      685.39504    
   2798000   314.60775      0.036539744    21.567108      780.5505      -59.217441      721.33305    
   2799000   315.97625      0.036539744    18.105878      783.9458      -56.707223      727.23857    
   2800000   293.50809      0.036539744    16.912637      728.20166     -61.278178      666.92348    
   2801000   286.40959      0.036539744    20.850262      710.5901      -62.017478      648.57262    
   2802000   304.76605      0.036539744    21.165624      756.13296     -56.85248       699.28048    
   2803000   298.91074      0.036539744    8.4015774      741.60577     -52.820812      688.78496    
   2804000   281.06746      0.036539744    28.244543      697.33612     -51.649221      645.6869     
   2805000   304.09741      0.036539744    29.598318      754.47406     -50.273874      704.20018    
   2806000   306.20262      0.036539744    22.505926      759.69715     -46.555233      713.14192    
   2807000   303.68565      0.036539744    2.6035015      753.45246     -43.915462      709.537      
   2808000   297.83002      0.036539744    18.418795      738.9245      -44.687377      694.23712    
   2809000   307.19659      0.036539744    20.364115      762.16322     -47.906434      714.25678    
   2810000   299.25218      0.036539744    19.093443      742.45291     -48.576818      693.87609    
   2811000   296.18483      0.036539744    18.773942      734.84274     -50.21268       684.63006    
   2812000   294.2503       0.036539744    4.3216298      730.04311     -50.318228      679.72489    
   2813000   305.89955      0.036539744    26.043425      758.94523     -46.234065      712.71116    
   2814000   306.70346      0.036539744    14.219153      760.93973     -45.729518      715.21021    
   2815000   289.14452      0.036539744    10.903371      717.37553     -47.340251      670.03528    
   2816000   294.46135      0.036539744    19.915944      730.56673     -45.00342       685.56331    
   2817000   307.15231      0.036539744    23.528468      762.05335     -45.68675       716.3666     
   2818000   306.90052      0.036539744    20.973447      761.42864     -48.305288      713.12336    
   2819000   298.23046      0.036539744    20.002053      739.91799     -46.730107      693.18788    
   2820000   290.2489       0.036539744    21.9959        720.11551     -49.111766      671.00374    
   2821000   315.49264      0.036539744    26.359343      782.74594     -47.711069      735.03487    
   2822000   307.05635      0.036539744    14.1881        761.81527     -47.326009      714.48926    
   2823000   302.99116      0.036539744    20.948613      751.72943     -51.079825      700.6496     
   2824000   301.93758      0.036539744    20.170992      749.11545     -50.994062      698.12139    
   2825000   293.48981      0.036539744    20.964028      728.1563      -56.580584      671.57572    
   2826000   297.05234      0.036539744    19.956643      736.99504     -59.52079       677.47425    
   2827000   306.60369      0.036539744    16.354375      760.69221     -50.918141      709.77407    
   2828000   306.8803       0.036539744    22.109966      761.37849     -52.610838      708.76765    
   2829000   285.38186      0.036539744    19.309508      708.04025     -52.203196      655.83706    
   2830000   295.34912      0.036539744    1.5944174      732.7693      -54.457807      678.31149    
   2831000   320.09939      0.036539744    22.969491      794.17541     -61.690931      732.48448    
   2832000   288.3437       0.036539744    14.320532      715.38868     -62.324343      653.06434    
   2833000   294.81167      0.036539744    16.669248      731.43587     -52.877426      678.55844    
   2834000   302.22057      0.036539744    30.129386      749.81757     -52.629349      697.18822    
   2835000   307.87591      0.036539744    12.847797      763.84861     -58.303722      705.54489    
   2836000   313.11404      0.036539744    23.530506      776.84457     -57.989123      718.85545    
   2837000   290.48967      0.036539744    24.58079       720.71288     -50.522149      670.19073    
   2838000   294.67473      0.036539744    17.414292      731.09614     -55.868543      675.22759    
   2839000   305.04506      0.036539744    9.7428256      756.8252      -51.296695      705.52851    
   2840000   305.76743      0.036539744    29.854262      758.61742     -52.099657      706.51776    
   2841000   285.32686      0.036539744    32.746151      707.90381     -51.674697      656.22911    
   2842000   301.52259      0.036539744    13.519966      748.08586     -53.051938      695.03393    
   2843000   305.80037      0.036539744    17.998816      758.69915     -57.019738      701.67941    
   2844000   290.99542      0.036539744    36.638421      721.96765     -52.735479      669.23217    
   2845000   296.06311      0.036539744    7.3734461      734.54074     -54.431862      680.10888    
   2846000   321.56107      0.036539744    17.350698      797.80187     -56.98146       740.82041    
   2847000   303.19357      0.036539744    30.151705      752.2316      -57.887776      694.34383    
   2848000   290.00731      0.036539744    21.443994      719.51612     -57.83932       661.6768     
   2849000   291.43518      0.036539744    16.618162      723.05872     -56.099838      666.95888    
   2850000   303.04436      0.036539744    8.3294721      751.86141     -58.463437      693.39797    
   2851000   312.05919      0.036539744    29.396103      774.22745     -55.432204      718.79524    
   2852000   289.20589      0.036539744    13.702159      717.52777     -57.339458      660.18832    
   2853000   309.63032      0.036539744   -5.6468607      768.20135     -57.877853      710.3235     
   2854000   302.08232      0.036539744    1.5596888      749.47455     -57.46318       692.01137    
   2855000   311.06899      0.036539744    43.821653      771.77075     -61.818915      709.95183    
   2856000   287.09926      0.036539744    38.094744      712.30117     -65.209803      647.09137    
   2857000   290.47863      0.036539744    16.54122       720.68548     -67.444434      653.24105    
   2858000   304.78481      0.036539744    8.6055332      756.17951     -65.233861      690.94565    
   2859000   307.8561       0.036539744    28.775003      763.79946     -56.399588      707.39988    
   2860000   293.90031      0.036539744    18.640897      729.17477     -58.417793      670.75698    
   2861000   310.49027      0.036539744    10.785529      770.33491     -54.829849      715.50506    
   2862000   309.66186      0.036539744    18.165245      768.2796      -58.812885      709.46672    
   2863000   308.59333      0.036539744    28.203359      765.62857     -59.218751      706.40982    
   2864000   293.63665      0.036539744    19.509562      728.52062     -66.432067      662.08856    
   2865000   302.55489      0.036539744    18.072369      750.64703     -62.737816      687.90922    
   2866000   310.52258      0.036539744    20.790513      770.41507     -60.425497      709.98958    
   2867000   292.66865      0.036539744    15.458863      726.11899     -58.789746      667.32925    
   2868000   290.39866      0.036539744    31.051392      720.48708     -59.985785      660.50129    
   2869000   320.0451       0.036539744    18.640104      794.04071     -60.878923      733.16178    
   2870000   300.12212      0.036539744    19.396406      744.61126     -64.069791      680.54146    
   2871000   283.81405      0.036539744    8.3156611      704.15048     -62.874531      641.27595    
   2872000   312.38421      0.036539744    17.740086      775.03385     -64.976233      710.05761    
   2873000   298.67806      0.036539744    16.489499      741.02849     -62.193707      678.83478    
   2874000   295.96765      0.036539744    20.195631      734.3039      -66.240824      668.06307    
   2875000   295.91786      0.036539744    19.311839      734.18036     -62.158654      672.0217     
   2876000   298.67011      0.036539744    16.715773      741.00877     -60.284962      680.72381    
   2877000   305.1548       0.036539744    19.742304      757.09748     -58.520572      698.57691    
   2878000   298.5428       0.036539744    17.886791      740.69291     -57.087923      683.60498    
   2879000   288.12631      0.036539744    19.788855      714.84931     -55.231056      659.61826    
   2880000   300.91056      0.036539744    34.296285      746.56739     -66.102429      680.46497    
   2881000   306.14584      0.036539744    20.048104      759.55628     -67.69972       691.85656    
   2882000   292.96034      0.036539744    12.449421      726.84267     -62.836635      664.00604    
   2883000   291.26322      0.036539744    15.119037      722.63207     -58.890928      663.74115    
   2884000   301.96065      0.036539744    21.564345      749.17268     -60.127966      689.04472    
   2885000   301.0708       0.036539744    23.079489      746.96496     -67.964708      679.00026    
   2886000   305.63077      0.036539744    18.235646      758.27835     -65.640857      692.6375     
   2887000   297.01633      0.036539744    23.418333      736.90571     -57.083806      679.8219     
   2888000   289.74958      0.036539744    17.643508      718.8767      -58.07215       660.80455    
   2889000   298.77899      0.036539744    18.47558       741.27891     -54.178495      687.10041    
   2890000   304.79585      0.036539744    19.516978      756.2069      -57.361961      698.84493    
   2891000   311.89797      0.036539744    18.310054      773.82745     -56.36173       717.46572    
   2892000   298.11322      0.036539744    18.552451      739.62711     -53.023302      686.60381    
   2893000   294.4989       0.036539744    19.09722       730.65988     -55.90989       674.74999    
   2894000   313.50118      0.036539744    18.103485      777.80508     -59.438188      718.36689    
   2895000   305.86581      0.036539744    19.799772      758.8615      -55.166315      703.69519    
   2896000   300.20944      0.036539744    20.159125      744.8279      -51.896779      692.93112    
   2897000   294.21403      0.036539744    12.47383       729.95311     -62.240505      667.71261    
   2898000   301.06023      0.036539744    21.886381      746.93873     -65.149506      681.78922    
   2899000   310.98656      0.036539744    23.881663      771.56623     -61.831167      709.73506    
   2900000   291.92296      0.036539744    18.995134      724.26892     -59.643874      664.62505    
   2901000   288.33897      0.036539744    18.031829      715.37692     -67.100793      648.27613    
   2902000   309.25279      0.036539744    19.604562      767.26471     -64.415604      702.8491     
   2903000   304.78678      0.036539744    23.098089      756.18441     -62.863167      693.32124    
   2904000   293.88576      0.036539744    15.827014      729.13866     -63.052892      666.08577    
   2905000   295.59411      0.036539744    16.430827      733.37715     -56.190249      677.1869     
   2906000   298.99723      0.036539744    18.488554      741.82037     -55.342268      686.4781     
   2907000   289.82512      0.036539744    10.848812      719.06412     -56.149168      662.91495    
   2908000   301.66675      0.036539744    18.729583      748.44352     -57.097886      691.34563    
   2909000   308.32815      0.036539744    20.933084      764.97065     -59.397897      705.57275    
   2910000   318.74204      0.036539744    16.646493      790.8078      -66.872948      723.93485    
   2911000   293.43595      0.036539744    11.831179      728.02269     -60.863027      667.15967    
   2912000   290.71199      0.036539744    25.433462      721.26445     -66.449696      654.81476    
   2913000   319.9479       0.036539744    62.554657      793.79955     -60.068465      733.73108    
   2914000   305.32662      0.036539744    14.12373       757.52377     -61.440061      696.08371    
   2915000   292.16502      0.036539744    5.4279124      724.86948     -52.052914      672.81656    
   2916000   302.61173      0.036539744    13.414594      750.78804     -58.204046      692.58399    
   2917000   296.40878      0.036539744    24.276257      735.39836     -60.191083      675.20728    
   2918000   288.40828      0.036539744    20.350156      715.54889     -55.167155      660.38173    
   2919000   312.18065      0.036539744    17.531603      774.5288      -53.445011      721.08379    
   2920000   302.17297      0.036539744    8.7588157      749.69947     -54.503447      695.19602    
   2921000   290.14533      0.036539744    24.22909       719.85856     -52.552638      667.30592    
   2922000   295.08087      0.036539744    12.166922      732.10378     -53.573863      678.52991    
   2923000   291.59843      0.036539744    11.174634      723.46375     -52.216542      671.24721    
   2924000   289.69672      0.036539744    26.176555      718.74554     -50.914853      667.83069    
   2925000   295.88269      0.036539744    36.600213      734.09311     -58.241525      675.85158    
   2926000   302.5333       0.036539744    48.37606       750.59346     -64.084353      686.50911    
   2927000   303.70067      0.036539744   -12.856517      753.48972     -69.017402      684.47232    
   2928000   293.01733      0.036539744    8.5195322      726.98407     -72.370697      654.61337    
   2929000   284.48814      0.036539744    26.741418      705.82291     -63.644666      642.17825    
   2930000   307.86914      0.036539744    15.942872      763.83181     -61.215344      702.61647    
   2931000   302.24936      0.036539744    15.169379      749.88899     -64.815296      685.0737     
   2932000   301.99405      0.036539744    49.343978      749.25556     -63.57641       685.67915    
   2933000   301.68579      0.036539744    11.186835      748.49076     -64.118251      684.37251    
   2934000   309.04692      0.036539744    13.162886      766.75392     -64.645223      702.10869    
   2935000   297.09196      0.036539744    28.432458      737.09335     -64.37429       672.71906    
   2936000   297.25731      0.036539744    2.1633685      737.50358     -58.071878      679.4317     
   2937000   293.12183      0.036539744    13.314342      727.24335     -62.980365      664.26298    
   2938000   311.19927      0.036539744    49.687547      772.09396     -63.127637      708.96632    
   2939000   305.29785      0.036539744    17.213563      757.45238     -63.627444      693.82494    
   2940000   287.64285      0.036539744    18.43982       713.64985     -68.250934      645.39892    
   2941000   311.61267      0.036539744    41.684623      773.11963     -68.632796      704.48683    
   2942000   306.88076      0.036539744    14.159473      761.37962     -66.555518      694.8241     
   2943000   283.62676      0.036539744    28.8952        703.68582     -67.901024      635.7848     
   2944000   298.49948      0.036539744    22.521702      740.58544     -66.216492      674.36895    
   2945000   301.77913      0.036539744    23.52663       748.72235     -64.922117      683.80023    
   2946000   321.18723      0.036539744    16.540665      796.87436     -73.730114      723.14425    
   2947000   298.34263      0.036539744    17.124901      740.19628     -64.236837      675.95944    
   2948000   297.58164      0.036539744    21.380201      738.30826     -69.037544      669.27072    
   2949000   307.02295      0.036539744    23.770974      761.7324      -68.941156      692.79124    
   2950000   310.06652      0.036539744    13.617771      769.28357     -70.623088      698.66049    
   2951000   299.79398      0.036539744    15.747206      743.79714     -73.018914      670.77822    
   2952000   296.04006      0.036539744    15.27788       734.48354     -74.666557      659.81698    
   2953000   305.87054      0.036539744    18.841402      758.87324     -70.388244      688.485      
   2954000   297.37859      0.036539744    19.546799      737.80448     -69.905893      667.89859    
   2955000   316.61414      0.036539744    4.6006392      785.52841     -75.735366      709.79305    
   2956000   307.11309      0.036539744    28.555482      761.95603     -76.035939      685.92009    
   2957000   296.71732      0.036539744    15.68949       736.16385     -62.393307      673.77054    
   2958000   289.3572       0.036539744    10.451422      717.90318     -66.607115      651.29607    
   2959000   324.27121      0.036539744    27.283924      804.52581     -67.361241      737.16457    
   2960000   307.52188      0.036539744    26.585702      762.97025     -67.202909      695.76735    
   2961000   287.78056      0.036539744    18.268551      713.99151     -65.317186      648.67432    
   2962000   302.10784      0.036539744    19.127724      749.53789     -61.919113      687.61878    
   2963000   307.82439      0.036539744    17.973105      763.72079     -58.015254      705.70553    
   2964000   289.15633      0.036539744    18.538887      717.40481     -62.238398      655.16642    
   2965000   294.03789      0.036539744    21.156968      729.51611     -65.738004      663.7781     
   2966000   309.23835      0.036539744    20.083923      767.22887     -64.465889      702.76298    
   2967000   302.01046      0.036539744    12.19463       749.29628     -57.058034      692.23825    
   2968000   291.06309      0.036539744    20.928715      722.13555     -55.788694      666.34686    
   2969000   301.39091      0.036539744    17.751984      747.75916     -60.466067      687.2931     
   2970000   308.68227      0.036539744    18.219483      765.84922     -62.067858      703.78136    
   2971000   311.35805      0.036539744    20.531533      772.4879      -56.738362      715.74953    
   2972000   308.90845      0.036539744    20.774412      766.41037     -59.715771      706.6946     
   2973000   301.70275      0.036539744    18.654139      748.53283     -52.561747      695.97108    
   2974000   288.34961      0.036539744    19.689093      715.40334     -56.080533      659.32281    
   2975000   314.40588      0.036539744    19.326151      780.04966     -56.126139      723.92352    
   2976000   310.7331       0.036539744    23.333271      770.9374      -48.923297      722.0141     
   2977000   287.26804      0.036539744    17.431464      712.71994     -52.545284      660.17465    
   2978000   284.1723       0.036539744    16.471301      705.03932     -58.552851      646.48647    
   2979000   310.49048      0.036539744    21.130171      770.33544     -56.931109      713.40433    
   2980000   306.19335      0.036539744    20.146848      759.67413     -57.76252       701.91161    
   2981000   312.7739       0.036539744    18.083412      776.00068     -60.577921      715.42276    
   2982000   300.50154      0.036539744    23.334426      745.5526      -54.146742      691.40586    
   2983000   293.12728      0.036539744    17.441539      727.25685     -56.394005      670.86285    
   2984000   317.20719      0.036539744    18.546499      786.99979     -60.648397      726.35139    
   2985000   310.21559      0.036539744    20.446853      769.65343     -57.459073      712.19435    
   2986000   300.04937      0.036539744    18.849067      744.43075     -62.442857      681.9879     
   2987000   295.89445      0.036539744    19.819968      734.1223      -58.161489      675.96081    
   2988000   312.81828      0.036539744    20.887087      776.11077     -58.250865      717.85991    
   2989000   295.38088      0.036539744    18.536015      732.84811     -56.92323       675.92488    
   2990000   297.46917      0.036539744    19.331138      738.0292      -59.243097      678.78611    
   2991000   316.34442      0.036539744    19.460023      784.85923     -59.272707      725.58653    
   2992000   302.73973      0.036539744    19.404733      751.10561     -59.284454      691.82116    
   2993000   304.50134      0.036539744    23.676313      755.47621     -62.146804      693.32941    
   2994000   306.5277       0.036539744    17.65625       760.50367     -67.179339      693.32433    
   2995000   307.2337       0.036539744    16.394829      762.25528     -67.810645      694.44463    
   2996000   297.54371      0.036539744    21.093752      738.21415     -65.180937      673.03321    
   2997000   300.14996      0.036539744    8.8876943      744.68031     -63.185235      681.49508    
   2998000   296.56553      0.036539744    13.495459      735.78724     -62.684889      673.10236    
   2999000   291.94131      0.036539744    17.512158      724.31443     -62.672165      661.64227    
   3000000   293.76722      0.036539744    21.103042      728.84458     -58.413974      670.43061    
   3001000   315.93588      0.036539744    14.248763      783.84563     -60.832806      723.01283    
   3002000   320.60162      0.036539744    21.26594       795.42145     -65.226749      730.1947     
   3003000   300.77722      0.036539744    18.347923      746.23657     -58.996412      687.24016    
   3004000   275.8534       0.036539744    17.090708      684.3999      -53.590503      630.8094     
   3005000   294.13832      0.036539744    13.666599      729.76527     -53.535028      676.23025    
   3006000   311.20476      0.036539744    22.422729      772.10758     -53.623812      718.48377    
   3007000   292.71027      0.036539744    16.599551      726.22224     -52.494398      673.72785    
   3008000   297.30499      0.036539744    16.125572      737.62187     -59.269562      678.3523     
   3009000   301.60858      0.036539744    18.907627      748.29921     -56.763318      691.53589    
   3010000   303.01423      0.036539744    20.550251      751.78666     -60.478235      691.30842    
   3011000   300.60774      0.036539744    18.529708      745.8161      -59.521732      686.29436    
   3012000   291.44557      0.036539744    18.757634      723.0845      -62.917723      660.16678    
   3013000   305.61724      0.036539744    20.507141      758.24479     -68.499816      689.74498    
   3014000   314.7092       0.036539744    16.191633      780.8022      -64.302229      716.49998    
   3015000   288.87832      0.036539744    21.945338      716.71508     -63.581612      653.13347    
   3016000   297.7915       0.036539744    21.351663      738.82893     -67.166758      671.66217    
   3017000   316.48194      0.036539744    26.133825      785.20043     -56.917946      728.28248    
   3018000   304.44388      0.036539744    18.250621      755.33367     -60.805354      694.52831    
   3019000   292.92608      0.036539744    14.919717      726.75768     -59.765454      666.99223    
   3020000   298.44797      0.036539744    21.347005      740.45764     -59.610329      680.84731    
   3021000   298.48274      0.036539744    8.680015       740.54389     -59.5871        680.95679    
   3022000   290.35011      0.036539744    16.643434      720.36662     -59.719483      660.64714    
   3023000   310.68923      0.036539744    31.009794      770.82853     -65.26465       705.56388    
   3024000   307.20604      0.036539744    16.342867      762.18665     -68.508279      693.67837    
   3025000   293.10068      0.036539744    17.703342      727.19087     -62.981458      664.20941    
   3026000   304.07111      0.036539744    25.607994      754.40881     -56.564093      697.84472    
   3027000   310.11511      0.036539744    19.027931      769.40414     -56.556091      712.84805    
   3028000   306.66638      0.036539744    17.600933      760.84773     -59.701983      701.14575    
   3029000   294.3011       0.036539744    15.563427      730.16913     -61.493322      668.67581    
   3030000   272.52697      0.036539744    14.631838      676.14693     -64.365241      611.78169    
   3031000   300.41536      0.036539744    20.369691      745.3388      -67.895015      677.44378    
   3032000   305.51836      0.036539744    15.591531      757.99946     -67.151444      690.84802    
   3033000   300.31812      0.036539744    10.795873      745.09754     -66.90407       678.19347    
   3034000   294.78437      0.036539744    27.191489      731.36816     -63.080021      668.28814    
   3035000   307.30797      0.036539744    13.763605      762.43953     -62.390513      700.04902    
   3036000   297.46941      0.036539744    12.087123      738.02981     -67.343032      670.68677    
   3037000   301.32053      0.036539744    20.468423      747.58455     -67.111331      680.47322    
   3038000   295.0448       0.036539744    17.308776      732.01429     -62.511737      669.50255    
   3039000   288.01299      0.036539744    14.113784      714.56816     -63.28136       651.2868     
   3040000   305.41344      0.036539744    35.646524      757.73916     -55.98243       701.75674    
   3041000   312.89097      0.036539744    27.603128      776.29113     -59.3434        716.94773    
   3042000   296.31743      0.036539744    11.927854      735.17172     -58.947731      676.22399    
   3043000   296.14269      0.036539744    31.456094      734.73817     -54.080145      680.65803    
   3044000   310.67199      0.036539744    13.740392      770.78578     -59.050003      711.73578    
   3045000   292.9879       0.036539744    5.0186595      726.91104     -64.182573      662.72847    
   3046000   279.06591      0.036539744    19.519788      692.37021     -66.671844      625.69837    
   3047000   302.99487      0.036539744    20.420451      751.73863     -73.592042      678.14658    
   3048000   302.16086      0.036539744    16.614509      749.66943     -71.189623      678.47981    
   3049000   302.33102      0.036539744    20.824565      750.0916      -69.960948      680.13065    
   3050000   303.38101      0.036539744    20.424402      752.69666     -67.488572      685.20809    
   3051000   307.33701      0.036539744    7.9408033      762.51159     -68.611021      693.90057    
   3052000   295.68342      0.036539744    25.238335      733.59872     -63.952064      669.64665    
   3053000   290.61144      0.036539744    15.514278      721.01499     -62.928086      658.0869     
   3054000   314.67047      0.036539744    14.623123      780.70611     -68.899958      711.80615    
   3055000   303.36409      0.036539744    24.859097      752.65467     -70.035394      682.61927    
   3056000   296.05823      0.036539744    21.468441      734.52863     -66.471692      668.05693    
   3057000   286.45144      0.036539744    8.1607276      710.69391     -62.505273      648.18864    
   3058000   302.25173      0.036539744    19.205199      749.89488     -65.476403      684.41848    
   3059000   307.84196      0.036539744    22.931093      763.76439     -62.424608      701.33978    
   3060000   296.21023      0.036539744    15.525406      734.90575     -68.858284      666.04747    
   3061000   300.72799      0.036539744    20.189196      746.11444     -64.459658      681.65478    
   3062000   295.35591      0.036539744    21.568499      732.78614     -69.140271      663.64587    
   3063000   305.40632      0.036539744    22.348007      757.7215      -68.656024      689.06547    
   3064000   298.00402      0.036539744    10.3884        739.35618     -70.901558      668.45462    
   3065000   292.35172      0.036539744    24.010621      725.33268     -68.015481      657.3172     
   3066000   316.20033      0.036539744    21.172534      784.50174     -70.229133      714.2726     
   3067000   295.1553       0.036539744    18.538685      732.28844     -62.460369      669.82807    
   3068000   306.7624       0.036539744    18.331067      761.08598     -57.113372      703.97261    
   3069000   300.75944      0.036539744    17.316968      746.19245     -65.991478      680.20097    
   3070000   292.57756      0.036539744    19.26441       725.89299     -61.94889       663.9441     
   3071000   307.03595      0.036539744    17.921391      761.76467     -61.134522      700.63014    
   3072000   303.07617      0.036539744    19.464897      751.94033     -62.422175      689.51816    
   3073000   304.17815      0.036539744    19.306655      754.67438     -60.99896       693.67542    
   3074000   295.92528      0.036539744    21.01367       734.19877     -62.970444      671.22832    
   3075000   295.06552      0.036539744    13.033233      732.06569     -57.048557      675.01714    
   3076000   306.10402      0.036539744    10.12326       759.45252     -58.371302      701.08122    
   3077000   315.12259      0.036539744    38.115424      781.82784     -58.770859      723.05698    
   3078000   297.29507      0.036539744    30.671841      737.59728     -59.903061      677.69421    
   3079000   292.90609      0.036539744    14.907476      726.70807     -62.511395      664.19668    
   3080000   303.08257      0.036539744    13.973216      751.95622     -67.536388      684.41983    
   3081000   318.44232      0.036539744    18.148901      790.06417     -64.902508      725.16167    
   3082000   297.12119      0.036539744    29.221069      737.16587     -61.240368      675.9255     
   3083000   281.25778      0.036539744    13.001055      697.8083      -66.450928      631.35737    
   3084000   310.31259      0.036539744    18.714466      769.89408     -72.767817      697.12627    
   3085000   290.07044      0.036539744    20.331763      719.67275     -71.478038      648.19471    
   3086000   291.53602      0.036539744    18.702458      723.3089      -62.783303      660.5256     
   3087000   298.93371      0.036539744    18.299997      741.66278     -67.104405      674.55838    
   3088000   308.56854      0.036539744    20.138456      765.56705     -61.259088      704.30797    
   3089000   304.7405       0.036539744    17.261698      756.06957     -59.429038      696.64053    
   3090000   298.41064      0.036539744    15.182373      740.36502     -59.737391      680.62763    
   3091000   303.26172      0.036539744    15.469109      752.40069     -63.185463      689.21522    
   3092000   307.229        0.036539744    27.206563      762.24362     -60.794315      701.4493     
   3093000   291.98291      0.036539744    13.723987      724.41765     -58.415693      666.00196    
   3094000   295.08944      0.036539744    16.220089      732.12505     -61.498477      670.62657    
   3095000   307.95686      0.036539744    19.425749      764.04947     -64.102843      699.94662    
   3096000   300.71844      0.036539744    25.07853       746.09074     -61.620462      684.47028    
   3097000   291.09557      0.036539744    14.335169      722.21614     -60.306405      661.90973    
   3098000   293.24852      0.036539744    11.104039      727.55767     -60.173567      667.3841     
   3099000   321.96537      0.036539744    18.507055      798.80496     -60.144373      738.66059    
   3100000   296.58187      0.036539744    20.57301       735.82779     -68.788184      667.03961    
   3101000   300.15135      0.036539744    17.963046      744.68377     -65.972399      678.71137    
   3102000   311.09965      0.036539744    20.144249      771.8468      -64.021555      707.82524    
   3103000   309.9364       0.036539744    18.341207      768.96076     -65.83791       703.12285    
   3104000   304.86968      0.036539744    17.916537      756.39008     -72.227422      684.16266    
   3105000   310.94463      0.036539744    8.7451422      771.46219     -61.296418      710.16577    
   3106000   299.13153      0.036539744    18.591693      742.15358     -61.962533      680.19105    
   3107000   291.26392      0.036539744    17.680445      722.63381     -58.997145      663.63667    
   3108000   310.5583       0.036539744    18.012593      770.5037      -54.74682       715.75688    
   3109000   304.80494      0.036539744    17.255241      756.22947     -50.64285       705.58662    
   3110000   304.57056      0.036539744    20.706702      755.64795     -54.621837      701.02611    
   3111000   298.89669      0.036539744    20.007498      741.57092     -58.308454      683.26246    
   3112000   297.05126      0.036539744    18.065875      736.99237     -57.446773      679.5456     
   3113000   290.18158      0.036539744    18.419143      719.9485      -63.003467      656.94503    
   3114000   311.01141      0.036539744    22.369275      771.62787     -59.759622      711.86825    
   3115000   311.89112      0.036539744    14.567759      773.81046     -58.606194      715.20427    
   3116000   294.94284      0.036539744    16.93318       731.76131     -54.282541      677.47876    
   3117000   298.12426      0.036539744    18.829244      739.65452     -67.074302      672.58021    
   3118000   302.89395      0.036539744    14.659418      751.48824     -64.844103      686.64413    
   3119000   307.5668       0.036539744    17.717011      763.08171     -61.186302      701.89541    
   3120000   298.81103      0.036539744    16.215262      741.3584      -56.530137      684.82826    
   3121000   296.7243       0.036539744    27.961452      736.18117     -60.880701      675.30047    
   3122000   300.17575      0.036539744    20.357662      744.74432     -58.551079      686.19324    
   3123000   286.37232      0.036539744    11.644938      710.49761     -65.12922       645.36839    
   3124000   294.56588      0.036539744    18.34015       730.82607     -67.875929      662.95015    
   3125000   302.6504       0.036539744    19.968874      750.88398     -65.18606       685.69792    
   3126000   302.92494      0.036539744    24.176272      751.56512     -68.771263      682.79386    
   3127000   294.97826      0.036539744   -2.4889794      731.84919     -61.175926      670.67326    
   3128000   298.36632      0.036539744    20.854282      740.25507     -68.622795      671.63227    
   3129000   305.80388      0.036539744    17.179356      758.70786     -69.507429      689.20043    
   3130000   291.35022      0.036539744    4.8695612      722.84792     -71.24095       651.60697    
   3131000   293.07229      0.036539744    24.572318      727.12043     -74.535218      652.58521    
   3132000   294.54538      0.036539744    20.544252      730.77521     -70.115922      660.65929    
   3133000   287.78982      0.036539744    15.191912      714.01448     -69.949745      644.06473    
   3134000   289.67444      0.036539744    16.039486      718.69028     -63.03373       655.65655    
   3135000   301.75027      0.036539744    21.15858       748.65075     -63.317298      685.33345    
   3136000   312.55214      0.036539744    20.015717      775.45048     -65.402505      710.04798    
   3137000   297.98194      0.036539744    15.319744      739.3014      -65.598806      673.7026     
   3138000   295.30643      0.036539744    12.232759      732.6634      -60.083101      672.5803     
   3139000   306.06147      0.036539744    18.652814      759.34695     -56.010049      703.3369     
   3140000   318.55648      0.036539744    23.917035      790.3474      -60.108732      730.23867    
   3141000   303.14325      0.036539744    18.754831      752.10677     -65.151697      686.95507    
   3142000   286.75886      0.036539744    18.189875      711.45663     -64.964339      646.49229    
   3143000   299.05304      0.036539744    18.182095      741.95884     -68.607676      673.35116    
   3144000   311.3496       0.036539744    20.627121      772.46694     -71.514085      700.95286    
   3145000   296.03355      0.036539744    12.742887      734.46741     -70.701382      663.76603    
   3146000   290.3475       0.036539744    25.875164      720.36014     -65.642931      654.71721    
   3147000   307.50303      0.036539744    17.436664      762.92349     -62.671415      700.25207    
   3148000   297.59983      0.036539744    16.353652      738.35337     -66.548157      671.80521    
   3149000   297.1664       0.036539744    24.567457      737.27803     -69.96512       667.31291    
   3150000   297.71239      0.036539744    16.940041      738.63264     -65.991648      672.64099    
   3151000   303.04596      0.036539744    11.100497      751.86538     -77.629372      674.236      
   3152000   290.85592      0.036539744    22.401255      721.62156     -74.409951      647.21161    
   3153000   296.48067      0.036539744    21.46969       735.57672     -73.45252       662.1242     
   3154000   293.58177      0.036539744    16.761853      728.38446     -73.582322      654.80214    
   3155000   289.77252      0.036539744    18.535867      718.9336      -69.648615      649.28499    
   3156000   315.04079      0.036539744    18.73765       781.62488     -74.699928      706.92495    
   3157000   302.16415      0.036539744    20.916543      749.67759     -73.033698      676.64389    
   3158000   282.78832      0.036539744    16.0696        701.60562     -72.467672      629.13795    
   3159000   306.13987      0.036539744    16.233101      759.54147     -75.742506      683.79896    
   3160000   311.2698       0.036539744    26.096389      772.26896     -74.022424      698.24653    
   3161000   285.36644      0.036539744    18.460322      708.002       -69.275399      638.7266     
   3162000   298.53653      0.036539744    15.81899       740.67735     -69.401312      671.27604    
   3163000   316.67203      0.036539744    19.166161      785.67203     -73.972528      711.6995     
   3164000   303.06615      0.036539744    20.178104      751.91546     -68.676839      683.23862    
   3165000   291.96566      0.036539744    17.139444      724.37486     -66.092175      658.28269    
   3166000   292.6842       0.036539744    15.449795      726.15757     -62.170065      663.9875     
   3167000   311.94947      0.036539744    19.808864      773.95524     -63.65487       710.30037    
   3168000   301.77419      0.036539744    15.036333      748.71007     -59.690404      689.01967    
   3169000   292.94146      0.036539744    12.120058      726.79585     -61.119907      665.67594    
   3170000   298.61297      0.036539744    18.258376      740.86701     -60.531836      680.33517    
   3171000   309.50482      0.036539744    26.43383       767.88999     -56.711475      711.17852    
   3172000   296.79714      0.036539744    17.278328      736.36189     -54.504171      681.85772    
   3173000   305.73434      0.036539744    18.620779      758.53532     -58.392184      700.14313    
   3174000   293.96128      0.036539744    24.288923      729.32603     -57.389415      671.93662    
   3175000   307.22013      0.036539744    26.860091      762.2216      -54.054585      708.16702    
   3176000   308.30309      0.036539744    18.032371      764.90848     -55.928696      708.97978    
   3177000   298.76232      0.036539744    17.388062      741.23754     -58.323519      682.91402    
   3178000   310.76782      0.036539744    22.846271      771.02353     -61.407279      709.61626    
   3179000   284.42674      0.036539744    20.89444       705.67057     -53.47642       652.19415    
   3180000   306.51559      0.036539744    18.363977      760.47364     -59.959985      700.51365    
   3181000   322.85548      0.036539744    20.854335      801.01334     -61.186265      739.82708    
   3182000   296.52398      0.036539744    17.120817      735.68418     -64.080315      671.60386    
   3183000   288.95477      0.036539744    17.741818      716.90475     -64.568715      652.33603    
   3184000   312.6774       0.036539744    18.643032      775.76125     -62.744489      713.01676    
   3185000   301.06113      0.036539744    17.224262      746.94097     -61.85191       685.08906    
   3186000   289.4604       0.036539744    20.641728      718.15923     -58.909325      659.24991    
   3187000   322.85791      0.036539744    19.135341      801.01938     -60.582881      740.4365     
   3188000   303.96287      0.036539744    15.651687      754.14026     -60.114541      694.02571    
   3189000   294.87828      0.036539744    19.258196      731.60113     -62.5115        669.08963    
   3190000   295.06737      0.036539744    16.788914      732.07027     -58.16869       673.90158    
   3191000   307.08606      0.036539744    19.245448      761.88897     -56.029715      705.85926    
   3192000   307.23908      0.036539744    20.44782       762.26863     -52.820786      709.44784    
   3193000   302.03501      0.036539744    17.672436      749.35718     -61.470718      687.88647    
   3194000   290.8191       0.036539744    18.109243      721.53021     -57.872499      663.65771    
   3195000   308.83626      0.036539744    23.073073      766.23128     -59.981049      706.25023    
   3196000   297.75456      0.036539744    17.402213      738.73728     -58.565806      680.17147    
   3197000   306.14999      0.036539744    15.332671      759.56657     -63.095792      696.47078    
   3198000   312.70856      0.036539744    17.6236        775.83855     -60.760168      715.07838    
   3199000   297.43626      0.036539744    20.424818      737.94757     -63.23931       674.70826    
   3200000   286.0701       0.036539744    16.732931      709.74781     -57.553498      652.19431    
   3201000   304.34114      0.036539744    19.056065      755.07877     -59.416198      695.66257    
   3202000   300.9832       0.036539744    20.744394      746.74762     -63.972848      682.77477    
   3203000   301.63042      0.036539744    15.113301      748.3534      -64.922211      683.43119    
   3204000   296.12946      0.036539744    13.674468      734.70535     -67.580105      667.12525    
   3205000   300.17062      0.036539744    23.494717      744.73159     -64.450668      680.28092    
   3206000   306.93605      0.036539744    26.852215      761.51679     -58.875028      702.64176    
   3207000   305.35119      0.036539744    8.1725455      757.58472     -57.563623      700.02109    
   3208000   298.24855      0.036539744    17.936649      739.96288     -49.898045      690.06483    
   3209000   299.58625      0.036539744    21.514143      743.28174     -46.070828      697.21091    
   3210000   295.97865      0.036539744    25.973297      734.33119     -51.794784      682.5364     
   3211000   309.02014      0.036539744    21.667238      766.68748     -49.398318      717.28916    
   3212000   297.4832       0.036539744    4.6691262      738.06401     -57.484654      680.57936    
   3213000   298.15861      0.036539744    18.998173      739.73972     -52.88505       686.85467    
   3214000   293.63048      0.036539744    22.061353      728.50531     -64.32844       664.17687    
   3215000   299.57117      0.036539744    20.480244      743.24434     -54.046926      689.19741    
   3216000   311.11629      0.036539744    16.904508      771.88808     -48.044231      723.84385    
   3217000   293.88647      0.036539744    15.775827      729.14043     -51.339264      677.80117    
   3218000   286.82199      0.036539744    16.760034      711.61327     -49.81607       661.7972     
   3219000   302.34456      0.036539744    19.307739      750.12518     -51.40746       698.71772    
   3220000   311.24085      0.036539744    21.461222      772.19713     -54.371142      717.82599    
   3221000   308.80404      0.036539744    6.6723883      766.15132     -57.075387      709.07594    
   3222000   287.4383       0.036539744    19.994262      713.14234     -59.824037      653.3183     
   3223000   300.33388      0.036539744    20.38933       745.13662     -58.424689      686.71194    
   3224000   313.24109      0.036539744    20.345043      777.15979     -60.692867      716.46692    
   3225000   301.0391       0.036539744    12.345728      746.8863      -61.628067      685.25824    
   3226000   284.69163      0.036539744    17.672036      706.32778     -64.975565      641.35221    
   3227000   285.78168      0.036539744    15.229145      709.03222     -60.041229      648.99099    
   3228000   304.78101      0.036539744    21.79649       756.17008     -64.334862      691.83521    
   3229000   325.75589      0.036539744    22.47317       808.20935     -66.903818      741.30554    
   3230000   299.9319       0.036539744    17.718073      744.13932     -58.294935      685.84439    
   3231000   293.39168      0.036539744    17.385186      727.91285     -64.619742      663.2931     
   3232000   316.65424      0.036539744    20.845261      785.62789     -66.304078      719.32382    
   3233000   297.31259      0.036539744    15.823504      737.64074     -63.706697      673.93404    
   3234000   307.68696      0.036539744    20.321205      763.37983     -66.355194      697.02463    
   3235000   306.9521       0.036539744    20.625004      761.55663     -59.668082      701.88854    
   3236000   286.46273      0.036539744    11.98447       710.72192     -56.28036       654.44156    
   3237000   297.4786       0.036539744    14.884462      738.05259     -54.642361      683.41023    
   3238000   296.65837      0.036539744    26.148175      736.0176      -59.861184      676.15641    
   3239000   299.60286      0.036539744    15.036531      743.32295     -57.465518      685.85743    
   3240000   295.49497      0.036539744    15.73683       733.13116     -55.607388      677.52377    
   3241000   308.50993      0.036539744    35.270397      765.42163     -53.285836      712.13579    
   3242000   305.4708       0.036539744    24.809226      757.88148     -52.743378      705.1381     
   3243000   304.72343      0.036539744    17.967012      756.02722     -56.527166      699.50005    
   3244000   294.395        0.036539744    11.206689      730.40212     -53.432632      676.96948    
   3245000   305.00523      0.036539744    19.213903      756.72638     -53.787507      702.93887    
   3246000   303.71584      0.036539744    14.409074      753.52736     -61.388904      692.13846    
   3247000   303.82458      0.036539744    22.573301      753.79716     -60.879606      692.91755    
   3248000   304.31395      0.036539744    20.705903      755.01129     -59.47352       695.53777    
   3249000   304.69181      0.036539744    17.392937      755.94878     -56.361198      699.58758    
   3250000   291.71816      0.036539744    19.120061      723.7608      -59.340435      664.42036    
   3251000   288.75758      0.036539744    28.510633      716.41551     -59.958938      656.45657    
   3252000   301.73077      0.036539744    15.003476      748.60237     -57.434148      691.16822    
   3253000   292.65362      0.036539744    11.773043      726.08169     -52.671502      673.41019    
   3254000   293.23486      0.036539744    16.958974      727.52378     -49.280352      678.24343    
   3255000   304.17202      0.036539744    24.353654      754.65916     -51.095269      703.56389    
   3256000   294.33628      0.036539744    18.042838      730.25642     -54.05768       676.19874    
   3257000   301.89757      0.036539744    18.639127      749.0162      -50.190283      698.82592    
   3258000   309.7218       0.036539744    18.140242      768.42832     -52.519207      715.90911    
   3259000   298.89261      0.036539744    13.747841      741.56081     -52.64487       688.91594    
   3260000   283.27058      0.036539744    18.22417       702.80212     -55.381916      647.42021    
   3261000   300.61903      0.036539744    29.680572      745.84409     -60.817221      685.02687    
   3262000   313.19554      0.036539744    31.98355       777.04676     -66.40615       710.64061    
   3263000   298.84991      0.036539744    11.709439      741.45486     -66.418463      675.0364     
   3264000   284.34884      0.036539744    39.76481       705.4773      -57.413548      648.06375    
   3265000   308.98573      0.036539744    27.724342      766.60211     -59.849963      706.75215    
   3266000   305.13685      0.036539744    15.247732      757.05293     -58.403324      698.64961    
   3267000   302.85274      0.036539744    12.669061      751.38599     -57.917429      693.46856    
   3268000   296.0208       0.036539744    7.9304224      734.43578     -59.802594      674.63318    
   3269000   309.08624      0.036539744    22.734891      766.85148     -60.056214      706.79526    
   3270000   303.38116      0.036539744    17.053894      752.69703     -59.054833      693.6422     
   3271000   289.23406      0.036539744    20.071052      717.59767     -57.535762      660.06191    
   3272000   292.22112      0.036539744    17.284934      725.00866     -61.235822      663.77283    
   3273000   303.45159      0.036539744    24.999557      752.87176     -66.854522      686.01724    
   3274000   306.42195      0.036539744    24.054151      760.24132     -57.521438      702.71988    
   3275000   300.56701      0.036539744    2.4415393      745.71504     -57.360444      688.35459    
   3276000   297.65339      0.036539744    17.883091      738.48625     -53.1208        685.36546    
   3277000   290.45274      0.036539744    28.637015      720.62125     -54.576699      666.04455    
   3278000   307.08445      0.036539744    17.555877      761.88499     -56.569185      705.3158     
   3279000   310.16469      0.036539744    7.337876       769.52714     -55.79558       713.73156    
   3280000   301.89197      0.036539744    10.618947      749.00231     -63.742671      685.25964    
   3281000   305.89926      0.036539744    24.874652      758.94451     -62.415016      696.52949    
   3282000   313.65143      0.036539744    16.639986      778.17785     -63.462983      714.71487    
   3283000   295.94584      0.036539744    15.572289      734.24979     -66.980772      667.26902    
   3284000   296.13291      0.036539744    17.346204      734.71392     -69.297919      665.416      
   3285000   296.52745      0.036539744    22.766572      735.69278     -59.369716      676.32306    
   3286000   315.7874       0.036539744    17.676291      783.47724     -58.205746      725.27149    
   3287000   293.64713      0.036539744    9.2082827      728.54663     -65.90688       662.63975    
   3288000   295.33475      0.036539744    20.740208      732.73365     -59.692545      673.0411     
   3289000   296.3105       0.036539744    13.945652      735.15451     -57.788976      677.36553    
   3290000   313.37993      0.036539744    20.194637      777.50425     -54.577718      722.92653    
   3291000   290.04866      0.036539744    15.773673      719.61872     -55.71388       663.90484    
   3292000   304.41623      0.036539744    19.036696      755.26506     -56.687416      698.57765    
   3293000   309.46099      0.036539744    18.999383      767.78123     -57.773335      710.0079     
   3294000   306.15597      0.036539744    18.306043      759.58139     -60.899577      698.68181    
   3295000   280.92225      0.036539744    16.057101      696.97584     -54.659311      642.31653    
   3296000   303.2257       0.036539744    23.911267      752.31133     -55.836143      696.47519    
   3297000   308.24896      0.036539744    22.495665      764.77417     -53.942881      710.83129    
   3298000   293.44513      0.036539744    17.023759      728.04546     -55.42747       672.61798    
   3299000   293.65809      0.036539744    19.239401      728.5738      -58.445732      670.12807    
   3300000   293.22588      0.036539744    17.043403      727.5015      -63.047809      664.45369    
   3301000   299.59005      0.036539744    18.524788      743.29116     -60.324245      682.96692    
   3302000   297.65591      0.036539744    19.944264      738.49252     -61.842514      676.65001    
   3303000   307.42534      0.036539744    19.969082      762.73073     -66.775856      695.95488    
   3304000   304.34621      0.036539744    16.762638      755.09134     -62.612641      692.4787     
   3305000   298.21544      0.036539744    20.465079      739.88072     -67.750086      672.13063    
   3306000   297.3284       0.036539744    17.012396      737.67995     -72.197979      665.48197    
   3307000   304.73782      0.036539744    21.337496      756.06293     -77.723299      678.33963    
   3308000   303.38677      0.036539744    11.397301      752.71093     -76.66939       676.04154    
   3309000   291.87         0.036539744    18.946306      724.13751     -73.779406      650.35811    
   3310000   309.14322      0.036539744    19.078004      766.99284     -74.108846      692.88399    
   3311000   314.03585      0.036539744    17.936097      779.1316      -71.824996      707.30661    
   3312000   294.04424      0.036539744    27.06789       729.53186     -72.958629      656.57324    
   3313000   292.65584      0.036539744    24.268207      726.08722     -64.768757      661.31846    
   3314000   297.17897      0.036539744    6.1838213      737.30922     -67.288193      670.02102    
   3315000   313.73158      0.036539744    21.801304      778.3767      -67.714912      710.66179    
   3316000   303.97561      0.036539744    37.285866      754.17187     -64.26617       689.9057     
   3317000   290.1423       0.036539744    25.454217      719.85104     -60.419266      659.43177    
   3318000   297.39948      0.036539744    17.824945      737.8563      -60.112602      677.7437     
   3319000   298.45988      0.036539744    1.6894571      740.4872      -62.007953      678.47924    
   3320000   305.85734      0.036539744    34.713863      758.84049     -61.181808      697.65868    
   3321000   289.91513      0.036539744   -7.268933       719.28743     -60.69106       658.59637    
   3322000   300.3403       0.036539744    10.561474      745.15255     -57.317217      687.83533    
   3323000   308.62676      0.036539744    34.888525      765.7115      -59.875019      705.83648    
   3324000   289.22971      0.036539744    26.851868      717.58689     -64.644697      652.9422     
   3325000   291.23903      0.036539744    11.222994      722.57206     -69.778768      652.7933     
   3326000   302.43555      0.036539744    15.51707       750.35093     -70.443215      679.90772    
   3327000   302.70711      0.036539744    27.770918      751.02469     -64.706937      686.31776    
   3328000   287.86564      0.036539744    29.91858       714.20258     -70.070457      644.13212    
   3329000   297.54143      0.036539744    10.094249      738.2085      -66.722838      671.48566    
   3330000   310.3302       0.036539744    12.334758      769.93779     -66.619733      703.31805    
   3331000   307.13635      0.036539744    34.366277      762.01376     -64.358614      697.65514    
   3332000   296.13963      0.036539744    38.312381      734.73058     -62.945255      671.78532    
   3333000   288.87907      0.036539744    16.183695      716.71692     -64.832797      651.88413    
   3334000   298.08104      0.036539744    12.369502      739.54728     -58.276952      681.27033    
   3335000   315.1791       0.036539744    17.561908      781.96805     -61.379465      720.58858    
   3336000   301.75359      0.036539744    20.924796      748.65897     -61.402192      687.25678    
   3337000   283.78939      0.036539744    19.655984      704.0893      -66.504308      637.58499    
   3338000   309.15087      0.036539744    15.891042      767.01182     -67.00104       700.01078    
   3339000   302.86564      0.036539744    27.572459      751.41799     -70.711979      680.70601    
   3340000   300.34894      0.036539744    14.017961      745.174       -61.620461      683.55354    
   3341000   296.67494      0.036539744    12.242566      736.05869     -54.670556      681.38814    
   3342000   303.07335      0.036539744    13.69276       751.93335     -63.107878      688.82547    
   3343000   296.53387      0.036539744    25.7095        735.70869     -68.368995      667.3397     
   3344000   293.87507      0.036539744    13.939002      729.11216     -74.664249      654.44791    
   3345000   315.42559      0.036539744    6.5709789      782.57958     -68.258324      714.32125    
   3346000   300.85584      0.036539744    17.03453       746.43163     -64.274088      682.15754    
   3347000   294.04759      0.036539744    34.005999      729.54017     -66.320525      663.21965    
   3348000   300.39007      0.036539744    13.896963      745.27603     -71.812404      673.46363    
   3349000   309.60807      0.036539744    12.958009      768.14615     -72.094031      696.05212    
   3350000   290.37884      0.036539744    45.559371      720.43792     -69.676681      650.76123    
   3351000   282.79714      0.036539744    1.3449302      701.6275      -71.294391      630.33311    
   3352000   307.28869      0.036539744    10.422356      762.3917      -68.857614      693.53409    
   3353000   311.25016      0.036539744    32.76773       772.22021     -67.465074      704.75514    
   3354000   291.48656      0.036539744    19.891275      723.18618     -65.84909       657.33709    
   3355000   315.77787      0.036539744    16.923735      783.4536      -69.357667      714.09593    
   3356000   310.78709      0.036539744    19.018367      771.07133     -68.39773       702.6736     
   3357000   295.11102      0.036539744    21.498929      732.17858     -66.030225      666.14836    
   3358000   293.33724      0.036539744    19.787372      727.77777     -67.949568      659.8282     
   3359000   301.18665      0.036539744    14.262841      747.25237     -67.207282      680.04509    
   3360000   305.00137      0.036539744    20.792356      756.71681     -60.3273        696.38951    
   3361000   312.35915      0.036539744    22.620063      774.97166     -69.585243      705.38641    
   3362000   297.68105      0.036539744    24.086756      738.55488     -56.590063      681.96482    
   3363000   298.8539       0.036539744    18.573674      741.46477     -61.113953      680.35082    
   3364000   301.85933      0.036539744    7.8210519      748.92131     -61.256586      687.66473    
   3365000   307.40381      0.036539744    19.177526      762.67733     -56.215007      706.46232    
   3366000   298.31459      0.036539744    22.92163       740.12672     -57.346157      682.78056    
   3367000   290.73595      0.036539744    15.021839      721.3239      -48.49748       672.82642    
   3368000   289.45184      0.036539744    6.7002568      718.13799     -48.85666       669.28133    
   3369000   308.40054      0.036539744    17.85164       765.15024     -53.723481      711.42676    
   3370000   302.67763      0.036539744    32.237071      750.95154     -66.870542      684.081      
   3371000   291.81547      0.036539744    18.091884      724.00223     -66.239816      657.76241    
   3372000   305.27479      0.036539744    19.250036      757.39517     -66.978024      690.41714    
   3373000   303.70029      0.036539744    24.169328      753.4888      -61.228463      692.26034    
   3374000   303.57865      0.036539744    17.67239       753.18699     -54.838578      698.34842    
   3375000   289.14564      0.036539744    20.639494      717.3783      -51.357328      666.02097    
   3376000   299.19125      0.036539744    13.747274      742.30175     -53.740781      688.56097    
   3377000   304.84728      0.036539744    19.403747      756.33451     -55.331541      701.00297    
   3378000   292.63402      0.036539744    14.457192      726.03307     -51.568857      674.46422    
   3379000   301.42939      0.036539744    19.470484      747.85463     -58.325526      689.5291     
   3380000   315.85452      0.036539744    24.907899      783.64377     -63.630417      720.01335    
   3381000   295.51957      0.036539744    18.754933      733.19219     -65.915445      667.27674    
   3382000   295.56096      0.036539744    17.611969      733.29488     -59.445401      673.84948    
   3383000   309.30483      0.036539744    18.548319      767.39382     -61.111796      706.28202    
   3384000   304.10259      0.036539744    20.744         754.48692     -59.097749      695.38917    
   3385000   284.88469      0.036539744    13.881103      706.80677     -61.35105       645.45572    
   3386000   297.3118       0.036539744    19.038562      737.63877     -59.859564      677.7792     
   3387000   309.59174      0.036539744    21.653676      768.10563     -66.835066      701.27056    
   3388000   291.95904      0.036539744    17.630235      724.35843     -59.932567      664.42586    
   3389000   293.30986      0.036539744    19.198688      727.70985     -54.561993      673.14786    
   3390000   300.88407      0.036539744    20.844105      746.50168     -60.705509      685.79617    
   3391000   313.32893      0.036539744    19.852896      777.37772     -58.654423      718.7233     
   3392000   314.91598      0.036539744    21.082634      781.31522     -58.571349      722.74387    
   3393000   287.14463      0.036539744    18.49554       712.41373     -59.707078      652.70666    
   3394000   299.15591      0.036539744    18.128729      742.21406     -63.280597      678.93347    
   3395000   310.10303      0.036539744    24.135524      769.37416     -59.524859      709.8493     
   3396000   306.27448      0.036539744    22.507727      759.87543     -57.390604      702.48483    
   3397000   301.97318      0.036539744    18.208402      749.20377     -59.279031      689.92474    
   3398000   283.79804      0.036539744    17.19356       704.11076     -57.083827      647.02694    
   3399000   298.18996      0.036539744    18.271467      739.81752     -59.992261      679.82525    
   3400000   303.56656      0.036539744    18.470946      753.157       -55.697641      697.45935    
   3401000   297.48109      0.036539744    18.311234      738.05877     -64.492911      673.56586    
   3402000   294.21711      0.036539744    16.201189      729.96076     -61.771239      668.18952    
   3403000   303.35769      0.036539744    16.855271      752.6388      -64.007416      688.63138    
   3404000   304.48234      0.036539744    15.608726      755.42907     -64.09105       691.33802    
   3405000   286.21656      0.036539744    16.05287       710.11117     -63.700662      646.41051    
   3406000   303.20755      0.036539744    30.559347      752.26629     -61.050535      691.21576    
   3407000   304.73207      0.036539744    26.741772      756.04866     -59.096098      696.95257    
   3408000   309.14787      0.036539744   -13.753146      767.00438     -59.71555       707.28883    
   3409000   289.4338       0.036539744    16.986348      718.09323     -63.966178      654.12705    
   3410000   306.34116      0.036539744    42.006365      760.04086     -61.393415      698.64744    
   3411000   317.27191      0.036539744    14.637496      787.16035     -55.456659      731.70369    
   3412000   291.87134      0.036539744    19.458076      724.14084     -57.876721      666.26412    
   3413000   303.6624       0.036539744    31.071075      753.39479     -59.706617      693.68817    
   3414000   300.00195      0.036539744    13.616238      744.31312     -65.04378       679.26934    
   3415000   296.22487      0.036539744    10.149634      734.94208     -57.212176      677.7299     
   3416000   300.69747      0.036539744    32.094575      746.03872     -55.689975      690.34874    
   3417000   299.84414      0.036539744    19.161243      743.92158     -61.339241      682.58234    
   3418000   306.25305      0.036539744    14.82834       759.82225     -56.363936      703.45832    
   3419000   299.53485      0.036539744    20.929124      743.15422     -54.003524      689.15069    
   3420000   279.31477      0.036539744    25.83625       692.98764     -55.870868      637.11678    
   3421000   301.11818      0.036539744    24.233478      747.0825      -57.660204      689.4223     
   3422000   297.26748      0.036539744    15.130092      737.52882     -45.908186      691.62064    
   3423000   290.91785      0.036539744    25.89581       721.77521     -43.113244      678.66197    
   3424000   296.85207      0.036539744    22.373062      736.49817     -48.966812      687.53136    
   3425000   307.08508      0.036539744    22.49249       761.88656     -56.391506      705.49505    
   3426000   298.98363      0.036539744    12.057433      741.78662     -57.244782      684.54184    
   3427000   299.81301      0.036539744    26.721049      743.84435     -62.231256      681.61309    
   3428000   305.77808      0.036539744    23.357679      758.64385     -56.418377      702.22548    
   3429000   302.50263      0.036539744    19.15065       750.51735     -58.855279      691.66208    
   3430000   307.44477      0.036539744    13.486202      762.77895     -57.267775      705.51118    
   3431000   286.32373      0.036539744    19.849926      710.37706     -62.119523      648.25754    
   3432000   307.73091      0.036539744    23.744414      763.48887     -65.937004      697.55186    
   3433000   307.13564      0.036539744    20.115397      762.01199     -65.389905      696.62209    
   3434000   295.48229      0.036539744    17.163321      733.09971     -61.381866      671.71784    
   3435000   289.09115      0.036539744    22.184765      717.24312     -57.624292      659.61882    
   3436000   312.37431      0.036539744    23.360515      775.00928     -51.790118      723.21916    
   3437000   306.88797      0.036539744    16.50986       761.39751     -55.033277      706.36424    
   3438000   289.79693      0.036539744    22.060873      718.99417     -60.249166      658.74501    
   3439000   302.84205      0.036539744    22.29494       751.35947     -62.714655      688.64482    
   3440000   298.99675      0.036539744    14.895341      741.81917     -63.688043      678.13113    
   3441000   297.59289      0.036539744    15.016875      738.33617     -67.257312      671.07886    
   3442000   307.46987      0.036539744    31.347399      762.84123     -64.645058      698.19617    
   3443000   302.12401      0.036539744    23.662031      749.57799     -65.041578      684.53641    
   3444000   299.44492      0.036539744   -8.2967365      742.9311      -68.427695      674.5034     
   3445000   292.56899      0.036539744    21.579921      725.87174     -63.856064      662.01567    
   3446000   302.19147      0.036539744    58.741149      749.74536     -64.77506       684.9703     
   3447000   321.85073      0.036539744    27.173246      798.52052     -58.897642      739.62288    
   3448000   303.01499      0.036539744    20.941849      751.78855     -59.510229      692.27832    
   3449000   287.59895      0.036539744    11.096413      713.54093     -65.321474      648.21946    
   3450000   295.38053      0.036539744    18.4844        732.84724     -65.175092      667.67215    
   3451000   316.3144       0.036539744    19.897512      784.78474     -58.694307      726.09043    
   3452000   291.21633      0.036539744    16.136085      722.51573     -57.640836      664.87489    
   3453000   293.84246      0.036539744    16.383757      729.03124     -61.064532      667.9667     
   3454000   307.1472       0.036539744    24.30121       762.04066     -58.624135      703.41652    
   3455000   310.01586      0.036539744    23.16713       769.15789     -60.239753      708.91814    
   3456000   299.81776      0.036539744    18.308255      743.85614     -58.789143      685.06699    
   3457000   291.70028      0.036539744    17.757224      723.71644     -58.247999      665.46844    
   3458000   304.9074       0.036539744    14.062878      756.48368     -60.35487       696.1288     
   3459000   307.78527      0.036539744    22.282968      763.62375     -54.138295      709.48545    
   3460000   294.85354      0.036539744    23.055694      731.53976     -54.292841      677.24692    
   3461000   288.47158      0.036539744    18.936166      715.70595     -60.051444      655.65451    
   3462000   306.3061       0.036539744    19.477104      759.95388     -56.416643      703.53723    
   3463000   301.38082      0.036539744    18.603883      747.73411     -57.311173      690.42294    
   3464000   292.43189      0.036539744    17.167838      725.53158     -62.738934      662.79265    
   3465000   306.09182      0.036539744    21.17617       759.42224     -57.625794      701.79644    
   3466000   330.89505      0.036539744    20.278595      820.95975     -62.557514      758.40223    
   3467000   303.17081      0.036539744    18.716571      752.17514     -63.743264      688.43188    
   3468000   289.98514      0.036539744    19.214829      719.46113     -62.242572      657.21856    
   3469000   304.94567      0.036539744    17.475417      756.57861     -53.18755       703.39106    
   3470000   304.04615      0.036539744    19.686025      754.34689     -50.257425      704.08947    
   3471000   291.91532      0.036539744    19.143576      724.24997     -51.39889       672.85108    
   3472000   309.81865      0.036539744    14.753157      768.66862     -53.249327      715.41929    
   3473000   303.9893       0.036539744    20.741936      754.20584     -53.071319      701.13452    
   3474000   304.66838      0.036539744    27.852956      755.89064     -44.678937      711.2117     
   3475000   297.54766      0.036539744    31.216869      738.22394     -50.712581      687.51136    
   3476000   303.89166      0.036539744    16.210772      753.96358     -52.777485      701.1861     
   3477000   317.59525      0.036539744    11.962657      787.96258     -53.097921      734.86466    
   3478000   319.09839      0.036539744    22.329713      791.69191     -56.093707      735.59821    
   3479000   294.34142      0.036539744    24.76096       730.26916     -54.395024      675.87414    
   3480000   288.64609      0.036539744    14.039689      716.13891     -50.933185      665.20572    
   3481000   299.46064      0.036539744    14.930087      742.97009     -49.068135      693.90196    
   3482000   318.73926      0.036539744    31.520491      790.80089     -52.841322      737.95956    
   3483000   297.34285      0.036539744    22.94766       737.71581     -49.68545       688.03036    
   3484000   287.89215      0.036539744    38.768414      714.26835     -49.388912      664.87944    
   3485000   298.88403      0.036539744    8.470565       741.53952     -50.956127      690.58339    
   3486000   306.79856      0.036539744    17.836927      761.17569     -60.458725      700.71696    
   3487000   303.42303      0.036539744    16.633768      752.80091     -53.142001      699.6589     
   3488000   302.72093      0.036539744    22.6981        751.05898     -53.56498       697.494      
   3489000   297.27019      0.036539744    21.385298      737.53553     -49.29662       688.23891    
   3490000   287.2577       0.036539744    15.366916      712.69426     -52.888677      659.80558    
   3491000   305.51805      0.036539744    18.62732       757.99869     -53.496458      704.50224    
   3492000   309.31418      0.036539744    27.555586      767.417       -55.84838       711.56862    
   3493000   287.03911      0.036539744    10.122019      712.15196     -56.444292      655.70766    
   3494000   281.64066      0.036539744    20.507195      698.75825     -52.760122      645.99812    
   3495000   310.41396      0.036539744    11.33591       770.14559     -53.834612      716.31098    
   3496000   307.02609      0.036539744    26.98938       761.74019     -55.856817      705.88337    
   3497000   285.68031      0.036539744    28.712638      708.78072     -60.086068      648.69466    
   3498000   287.77769      0.036539744    14.604175      713.98439     -51.398205      662.58618    
   3499000   306.41078      0.036539744    12.776443      760.2136      -48.972053      711.24155    
   3500000   304.66751      0.036539744    21.990618      755.8885      -55.767054      700.12144    
   3501000   306.62744      0.036539744    24.411224      760.75112     -53.390175      707.36095    
   3502000   284.16782      0.036539744    14.135675      705.0282      -55.664993      649.3632     
   3503000   306.76253      0.036539744    17.828475      761.0863      -56.083463      705.00283    
   3504000   300.63219      0.036539744    22.123789      745.87675     -63.484801      682.39195    
   3505000   296.00563      0.036539744    4.944926       734.39813     -59.614834      674.7833     
   3506000   322.68291      0.036539744    12.224638      800.58519     -58.326782      742.25841    
   3507000   305.01063      0.036539744    20.762119      756.73979     -63.508501      693.23129    
   3508000   292.49148      0.036539744    23.445934      725.67942     -55.321101      670.35832    
   3509000   300.89949      0.036539744    17.127764      746.53992     -51.070445      695.46947    
   3510000   315.59344      0.036539744    19.251425      782.99601     -50.120391      732.87562    
   3511000   291.26015      0.036539744    18.028673      722.62445     -59.698687      662.92577    
   3512000   292.74161      0.036539744    12.260725      726.3         -53.835199      672.4648     
   3513000   297.99975      0.036539744    17.498715      739.3456      -59.47763       679.86797    
   3514000   295.46181      0.036539744    17.423197      733.04889     -59.929981      673.11891    
   3515000   293.54479      0.036539744    18.424481      728.29271     -61.142537      667.15018    
   3516000   309.89259      0.036539744    24.943245      768.85205     -66.002383      702.84967    
   3517000   295.62924      0.036539744    18.958959      733.4643      -68.541364      664.92293    
   3518000   291.86974      0.036539744    18.234691      724.13686     -71.373738      652.76312    
   3519000   294.60389      0.036539744    12.590023      730.92037     -64.945229      665.97514    
   3520000   306.19046      0.036539744    18.363865      759.66697     -65.750596      693.91637    
   3521000   299.59684      0.036539744    24.12489       743.30803     -63.637855      679.67017    
   3522000   283.74386      0.036539744    17.348196      703.97635     -66.361119      637.61523    
   3523000   288.32855      0.036539744    18.774718      715.35108     -67.812471      647.53861    
   3524000   294.05421      0.036539744    13.374227      729.55661     -65.693705      663.8629     
   3525000   296.89285      0.036539744    15.767068      736.59933     -63.632313      672.96702    
   3526000   301.9856       0.036539744    21.409052      749.23461     -65.652178      683.58243    
   3527000   290.30448      0.036539744    20.504294      720.25341     -65.559394      654.69402    
   3528000   295.48612      0.036539744    14.615151      733.10921     -68.553421      664.55579    
   3529000   304.83444      0.036539744    17.25357       756.30265     -66.040657      690.26199    
   3530000   308.39895      0.036539744    17.016674      765.14629     -61.834379      703.31192    
   3531000   293.30873      0.036539744    21.048315      727.70705     -55.95482       671.75223    
   3532000   305.90366      0.036539744    18.077419      758.9554      -59.278798      699.67661    
   3533000   299.45005      0.036539744    18.717549      742.94384     -56.4556        686.48824    
   3534000   315.25842      0.036539744    14.025035      782.16482     -58.879722      723.2851     
   3535000   299.97042      0.036539744    17.635883      744.23487     -60.301769      683.93311    
   3536000   305.92309      0.036539744    20.429592      759.00361     -58.844026      700.15958    
   3537000   312.95342      0.036539744    20.360824      776.44606     -56.680464      719.7656     
   3538000   296.20208      0.036539744    5.5762685      734.88553     -64.039046      670.84648    
   3539000   284.41994      0.036539744    24.765647      705.6537      -63.10537       642.54833    
   3540000   305.28362      0.036539744    29.696884      757.41708     -63.763343      693.65374    
   3541000   316.57606      0.036539744    22.366988      785.43392     -66.704526      718.7294     
   3542000   295.0317       0.036539744    9.8454908      731.98179     -65.208652      666.77314    
   3543000   295.17629      0.036539744    30.47288       732.34052     -66.781303      665.55922    
   3544000   299.11688      0.036539744    25.168509      742.11723     -58.345833      683.7714     
   3545000   316.88787      0.036539744    6.0112136      786.20754     -58.094375      728.11317    
   3546000   295.7204       0.036539744    13.790713      733.69047     -56.29025       677.40022    
   3547000   295.01867      0.036539744    27.121056      731.94946     -51.78146       680.168      
   3548000   301.62201      0.036539744    9.2884447      748.33253     -61.482657      686.84987    
   3549000   303.07222      0.036539744    19.132224      751.93054     -56.772631      695.15791    
   3550000   296.1873       0.036539744    18.68832       734.84884     -58.488078      676.36077    
   3551000   299.88729      0.036539744    17.498552      744.02863     -65.697292      678.33134    
   3552000   299.8422       0.036539744    8.0678676      743.91675     -56.291249      687.6255     
   3553000   290.48101      0.036539744    10.582217      720.69139     -53.150868      667.54053    
   3554000   296.34401      0.036539744    19.406448      735.23765     -49.023446      686.21421    
   3555000   301.11756      0.036539744    20.211227      747.08096     -49.992178      697.08878    
   3556000   310.15956      0.036539744    24.805084      769.51441     -50.763425      718.75099    
   3557000   296.19236      0.036539744    7.3972491      734.86142     -52.445453      682.41596    
   3558000   306.40997      0.036539744    34.501164      760.21159     -53.149051      707.06254    
   3559000   309.61039      0.036539744    19.211247      768.15191     -54.428115      713.7238     
   3560000   299.50923      0.036539744    13.901167      743.09066     -61.543503      681.54716    
   3561000   292.60397      0.036539744    13.22005       725.95852     -59.17197       666.78655    
   3562000   303.5866       0.036539744    23.630906      753.20672     -64.344603      688.86212    
   3563000   305.82178      0.036539744    13.747018      758.75226     -59.621944      699.13032    
   3564000   294.64109      0.036539744    20.594374      731.01266     -61.688601      669.32406    
   3565000   302.96471      0.036539744    18.847         751.66379     -61.890405      689.77339    
   3566000   312.64289      0.036539744    19.212706      775.67564     -58.524343      717.1513     
   3567000   310.59896      0.036539744    9.9165077      770.60457     -60.606861      709.99771    
   3568000   305.85459      0.036539744    14.261494      758.83367     -61.48585       697.34782    
   3569000   281.94709      0.036539744    34.42324       699.5185      -61.199297      638.31921    
   3570000   297.81699      0.036539744    41.604028      738.89216     -64.133507      674.75865    
   3571000   308.76509      0.036539744    16.020482      766.05469     -66.432786      699.62191    
   3572000   302.78428      0.036539744   -0.22398341     751.21614     -65.640204      685.57593    
   3573000   294.7502       0.036539744    24.298182      731.28336     -62.881541      668.40182    
   3574000   311.55824      0.036539744    14.054235      772.98457     -61.784933      711.19964    
   3575000   301.43892      0.036539744    11.230948      747.87827     -57.717118      690.16116    
   3576000   297.34819      0.036539744    16.568469      737.72907     -58.172662      679.55641    
   3577000   299.69391      0.036539744    36.435661      743.54886     -57.844145      685.70471    
   3578000   300.85451      0.036539744    11.964982      746.42832     -58.393336      688.03499    
   3579000   294.29159      0.036539744    13.035361      730.14555     -59.097687      671.04787    
   3580000   304.00539      0.036539744    22.157289      754.24575     -56.344714      697.90104    
   3581000   309.16557      0.036539744    22.397437      767.04831     -57.303073      709.74524    
   3582000   307.24325      0.036539744    22.57206       762.27897     -62.970961      699.30801    
   3583000   299.11414      0.036539744    5.4333099      742.11043     -54.000178      688.11025    
   3584000   304.04304      0.036539744    31.932429      754.33916     -55.341316      698.99784    
   3585000   286.31419      0.036539744    23.864631      710.35339     -57.707339      652.64605    
   3586000   306.54662      0.036539744    17.068699      760.55063     -56.559087      703.99154    
   3587000   299.05813      0.036539744    3.4840567      741.97145     -51.604281      690.36717    
   3588000   300.43211      0.036539744    23.688737      745.38035     -49.995167      695.38518    
   3589000   297.17127      0.036539744    20.758112      737.29011     -52.181114      685.109      
   3590000   307.15835      0.036539744    18.3033        762.06832     -54.20103       707.86729    
   3591000   301.66563      0.036539744   -11.549679      748.44075     -53.915746      694.525      
   3592000   293.97286      0.036539744    25.49073       729.35478     -54.385235      674.96954    
   3593000   311.13067      0.036539744    27.796875      771.92378     -53.987678      717.9361     
   3594000   310.86057      0.036539744    1.8590258      771.25365     -57.789511      713.46414    
   3595000   295.67123      0.036539744    25.09691       733.56847     -57.761721      675.80675    
   3596000   310.20683      0.036539744    34.011695      769.6317      -63.878072      705.75362    
   3597000   301.53314      0.036539744    15.171786      748.11204     -61.773457      686.33858    
   3598000   296.13702      0.036539744    0.51942387     734.72412     -57.723349      677.00077    
   3599000   296.26027      0.036539744    25.33655       735.02989     -62.047228      672.98266    
   3600000   296.73207      0.036539744    19.149611      736.20045     -59.424414      676.77604    
   3601000   315.08387      0.036539744    19.87768       781.73177     -56.336854      725.39492    
   3602000   302.84508      0.036539744    19.39981       751.367       -54.060988      697.30601    
   3603000   293.26548      0.036539744    14.645962      727.59974     -51.868806      675.73093    
   3604000   299.81355      0.036539744    19.312166      743.84568     -57.946009      685.89967    
   3605000   303.76586      0.036539744    16.437732      753.65146     -58.064115      695.58735    
   3606000   301.45485      0.036539744    20.337977      747.9178      -54.744551      693.17325    
   3607000   294.54225      0.036539744    19.817461      730.76744     -53.04334       677.7241     
   3608000   291.30507      0.036539744    17.207647      722.73591     -54.029941      668.70597    
   3609000   321.33783      0.036539744    17.776459      797.24802     -58.898883      738.34914    
   3610000   303.90807      0.036539744    15.990023      754.0043      -59.632188      694.37211    
   3611000   289.7029       0.036539744    19.443706      718.76087     -53.561312      665.19956    
   3612000   293.34294      0.036539744    17.719365      727.79193     -60.950087      666.84184    
   3613000   315.23372      0.036539744    17.650575      782.10354     -54.705816      727.39772    
   3614000   302.72281      0.036539744    25.084085      751.06365     -54.397191      696.66645    
   3615000   294.21595      0.036539744    17.064604      729.95788     -52.442351      677.51553    
   3616000   302.59397      0.036539744    19.354983      750.74398     -56.348158      694.39582    
   3617000   304.10926      0.036539744    20.847113      754.50346     -55.12754       699.37592    
   3618000   293.51401      0.036539744    19.030722      728.21635     -57.40184       670.81451    
   3619000   297.30824      0.036539744    17.852437      737.62994     -61.416977      676.21297    
   3620000   306.08004      0.036539744    16.428102      759.39302     -56.671927      702.72109    
   3621000   300.38475      0.036539744    21.680091      745.26284     -57.044401      688.21844    
   3622000   298.31263      0.036539744    19.305661      740.12187     -63.817584      676.30429    
   3623000   309.52263      0.036539744    23.200273      767.93416     -71.838512      696.09565    
   3624000   292.90206      0.036539744    19.627133      726.69808     -69.153957      657.54412    
   3625000   290.46881      0.036539744   -19.962606      720.66114     -66.202372      654.45876    
   3626000   312.89261      0.036539744    19.899792      776.29519     -62.337216      713.95798    
   3627000   312.34605      0.036539744    36.105529      774.93916     -52.711085      722.22807    
   3628000   295.88415      0.036539744    37.202996      734.09673     -52.278686      681.81805    
   3629000   290.79882      0.036539744    31.912392      721.4799      -58.3647        663.1152     
   3630000   290.72599      0.036539744   -7.6805062      721.29919     -54.182891      667.1163     
   3631000   300.65454      0.036539744    0.51632577     745.9322      -58.308765      687.62343    
   3632000   309.47564      0.036539744    12.85202       767.81759     -58.491792      709.3258     
   3633000   302.50925      0.036539744    13.276477      750.53379     -56.237387      694.2964     
   3634000   308.46916      0.036539744    52.480239      765.32048     -53.281818      712.03867    
   3635000   305.67842      0.036539744    25.799288      758.3966      -56.112374      702.28422    
   3636000   297.54951      0.036539744   -12.367168      738.22853     -57.327066      680.90146    
   3637000   304.26215      0.036539744    14.734679      754.88277     -55.876614      699.00616    
   3638000   306.94166      0.036539744    36.766824      761.53073     -50.380122      711.15061    
   3639000   298.64503      0.036539744    46.793116      740.94656     -51.919945      689.02662    
   3640000   290.35894      0.036539744    26.135133      720.38854     -55.126342      665.2622     
   3641000   300.32852      0.036539744   -5.9190366      745.12333     -51.48067       693.64266    
   3642000   304.01343      0.036539744    8.3667197      754.26569     -55.780858      698.48483    
   3643000   308.10291      0.036539744    28.439518      764.41182     -54.185323      710.2265     
   3644000   289.88798      0.036539744    4.8189154      719.22007     -53.708301      665.51177    
   3645000   305.16737      0.036539744    19.818577      757.12866     -53.564011      703.56465    
   3646000   304.40029      0.036539744    36.662843      755.22552     -52.553647      702.67187    
   3647000   294.50437      0.036539744    15.651448      730.67347     -64.78226       665.89121    
   3648000   299.67734      0.036539744    9.802658       743.50775     -67.972069      675.53568    
   3649000   298.96181      0.036539744    23.527859      741.73249     -62.951289      678.7812     
   3650000   314.87373      0.036539744    20.87717       781.2104      -65.665784      715.54461    
   3651000   311.25898      0.036539744    38.078665      772.24211     -59.769598      712.47251    
   3652000   292.57333      0.036539744   -9.1437282      725.8825      -56.513701      669.3688     
   3653000   300.57544      0.036539744    17.716057      745.73595     -53.441766      692.29419    
   3654000   299.72965      0.036539744    20.863401      743.63752     -58.631327      685.00619    
   3655000   301.11942      0.036539744    18.910747      747.08558     -54.764042      692.32154    
   3656000   315.61933      0.036539744    16.882643      783.06025     -58.715509      724.34474    
   3657000   300.57326      0.036539744    20.738933      745.73054     -58.233438      687.4971     
   3658000   303.648        0.036539744    20.423671      753.35906     -67.035444      686.32362    
   3659000   302.01371      0.036539744    22.081333      749.30433     -56.38358       692.92075    
   3660000   302.93272      0.036539744    19.716117      751.58442     -60.671089      690.91333    
   3661000   293.66659      0.036539744    17.777274      728.5949      -53.478362      675.11653    
   3662000   290.84139      0.036539744    19.402088      721.5855      -57.165996      664.4195     
   3663000   291.61017      0.036539744    22.490256      723.49287     -59.573833      663.91903    
   3664000   309.53102      0.036539744    12.532416      767.95499     -57.788272      710.16672    
   3665000   299.10086      0.036539744    11.100386      742.07748     -52.164211      689.91327    
   3666000   300.73951      0.036539744    26.101486      746.14302     -59.534408      686.60862    
   3667000   298.83517      0.036539744    33.822916      741.41829     -57.771095      683.6472     
   3668000   307.49831      0.036539744    5.7905242      762.91179     -57.956004      704.95579    
   3669000   285.48196      0.036539744    27.140685      708.28862     -58.441975      649.84665    
   3670000   302.5151       0.036539744    29.577489      750.54829     -58.346378      692.20191    
   3671000   302.02581      0.036539744    5.4867729      749.33435     -59.266135      690.06822    
   3672000   287.54303      0.036539744    15.976139      713.40217     -57.053107      656.34907    
   3673000   304.5489       0.036539744    27.520259      755.59421     -61.447326      694.14689    
   3674000   305.45473      0.036539744    11.562332      757.84161     -66.536323      691.30529    
   3675000   288.58378      0.036539744    17.959235      715.98432     -62.841979      653.14234    
   3676000   297.95514      0.036539744    20.747468      739.23493     -68.35145       670.88348    
   3677000   320.27319      0.036539744    12.847541      794.6066      -66.466999      728.13961    
   3678000   305.21967      0.036539744   -0.78305118     757.25841     -69.038252      688.22016    
   3679000   288.24025      0.036539744    5.1511597      715.132       -72.472874      642.65913    
   3680000   283.17283      0.036539744    13.324361      702.55959     -69.728192      632.8314     
   3681000   305.33212      0.036539744    21.63545       757.53742     -69.060222      688.47719    
   3682000   307.01504      0.036539744    2.7409388      761.71277     -62.086101      699.62667    
   3683000   290.59337      0.036539744    11.090422      720.97016     -60.280211      660.68995    
   3684000   289.6656       0.036539744    30.079592      718.66833     -57.81229       660.85604    
   3685000   299.77532      0.036539744    13.476573      743.75083     -55.806939      687.94389    
   3686000   307.49442      0.036539744    4.6032736      762.90212     -61.47697       701.42515    
   3687000   305.47182      0.036539744    16.693235      757.88401     -59.706614      698.1774     
   3688000   305.58544      0.036539744    32.977116      758.1659      -63.466399      694.6995     
   3689000   301.93946      0.036539744    16.027394      749.12012     -57.340407      691.77972    
   3690000   299.18047      0.036539744    3.457251       742.27499     -60.761992      681.513      
   3691000   298.43923      0.036539744    27.290305      740.43596     -59.191213      681.24475    
   3692000   306.0082       0.036539744    11.986767      759.21478     -60.553         698.66178    
   3693000   305.05055      0.036539744    15.936553      756.83883     -59.454496      697.38433    
   3694000   289.81689      0.036539744    18.958847      719.0437      -58.829405      660.21429    
   3695000   301.73765      0.036539744    19.653023      748.61943     -70.397918      678.22151    
   3696000   308.60817      0.036539744    19.307477      765.66537     -64.880098      700.78528    
   3697000   310.95305      0.036539744    12.360167      771.4831      -64.977202      706.5059     
   3698000   281.9671       0.036539744    18.87564       699.56815     -65.558208      634.00994    
   3699000   307.01837      0.036539744    18.508524      761.72103     -64.620047      697.10098    
   3700000   313.85207      0.036539744    20.147713      778.67565     -64.68811       713.98754    
   3701000   301.20762      0.036539744    24.185954      747.30441     -60.09972       687.20469    
   3702000   290.49524      0.036539744    17.128008      720.72669     -64.933804      655.79289    
   3703000   306.8642       0.036539744    20.68949       761.33853     -60.133101      701.20543    
   3704000   311.25655      0.036539744    21.762958      772.23608     -58.38583       713.85025    
   3705000   294.20323      0.036539744    15.513788      729.92632     -59.083963      670.84236    
   3706000   293.35829      0.036539744    23.007368      727.83        -57.317563      670.51244    
   3707000   301.74618      0.036539744    25.363837      748.64059     -63.152112      685.48848    
   3708000   320.16609      0.036539744    16.238307      794.34088     -61.466129      732.87475    
   3709000   295.42315      0.036539744    17.106988      732.95299     -65.010324      667.94266    
   3710000   294.95296      0.036539744    22.247048      731.78643     -59.160718      672.62571    
   3711000   306.89588      0.036539744    19.772961      761.41713     -59.103545      702.31359    
   3712000   303.23167      0.036539744    21.22756       752.32612     -53.310781      699.01534    
   3713000   295.52944      0.036539744    15.791992      733.21669     -59.600739      673.61595    
   3714000   305.78596      0.036539744    18.565975      758.66339     -58.533374      700.13001    
   3715000   300.98835      0.036539744    11.902963      746.76039     -53.534187      693.2262     
   3716000   318.70411      0.036539744    23.306444      790.71367     -53.266593      737.44708    
   3717000   300.18808      0.036539744    19.038633      744.77491     -55.73311       689.0418     
   3718000   283.20654      0.036539744    18.595215      702.64324     -58.09076       644.55248    
   3719000   310.01447      0.036539744    28.134829      769.15446     -53.403594      715.75086    
   3720000   310.50039      0.036539744    13.713475      770.36003     -52.651372      717.70866    
   3721000   293.7616       0.036539744    11.80333       728.83062     -58.506368      670.32425    
   3722000   294.86164      0.036539744    29.691119      731.55985     -54.282909      677.27694    
   3723000   312.8483       0.036539744    20.011332      776.18525     -54.586866      721.59838    
   3724000   291.33965      0.036539744    14.203229      722.8217      -55.451301      667.37039    
   3725000   288.95849      0.036539744    22.689135      716.91397     -57.245383      659.66859    
   3726000   311.94821      0.036539744    26.536432      773.95211     -55.91811       718.034      
   3727000   287.76167      0.036539744    14.519827      713.94463     -54.44209       659.50254    
   3728000   297.64543      0.036539744    19.662789      738.46653     -53.706799      684.75973    
   3729000   308.41467      0.036539744    26.495826      765.18531     -57.560295      707.62501    
   3730000   311.68389      0.036539744    13.819125      773.29632     -52.054306      721.24201    
   3731000   291.33595      0.036539744    2.3108631      722.81251     -55.076194      667.73632    
   3732000   305.67204      0.036539744    20.95851       758.38077     -54.502118      703.87865    
   3733000   315.95765      0.036539744    37.023449      783.89965     -50.62707       733.27258    
   3734000   290.33675      0.036539744    11.789324      720.33347     -58.343382      661.99009    
   3735000   290.30385      0.036539744    13.261102      720.25186     -55.11582       665.13604    
   3736000   296.73044      0.036539744    28.917905      736.19639     -51.394758      684.80163    
   3737000   309.4647       0.036539744    16.857611      767.79044     -52.134108      715.65633    
   3738000   290.65901      0.036539744    14.785865      721.13301     -55.414907      665.7181     
   3739000   298.7067       0.036539744    21.493425      741.09955     -53.45239       687.64717    
   3740000   300.71211      0.036539744    28.092521      746.07503     -51.249154      694.82588    
   3741000   309.9331       0.036539744    14.874636      768.95256     -60.795901      708.15666    
   3742000   295.29073      0.036539744    18.094656      732.62445     -61.162565      671.46188    
   3743000   288.12886      0.036539744    17.495166      714.85565     -59.32266       655.53299    
   3744000   295.43832      0.036539744    16.85151       732.99062     -58.445579      674.54504    
   3745000   292.62758      0.036539744    20.273207      726.0171      -57.734948      668.28215    
   3746000   304.21643      0.036539744    17.52373       754.76934     -59.389488      695.37985    
   3747000   306.00961      0.036539744    19.311927      759.21827     -60.615134      698.60313    
   3748000   295.77576      0.036539744    18.274362      733.8278      -59.325009      674.50279    
   3749000   305.69191      0.036539744    19.211159      758.43007     -53.779145      704.65092    
   3750000   312.42693      0.036539744    21.153696      775.13983     -57.448329      717.6915     
   3751000   305.97479      0.036539744    21.076788      759.1319      -67.888585      691.24331    
   3752000   291.83405      0.036539744    21.212226      724.04831     -70.452653      653.59566    
   3753000   292.97262      0.036539744    17.302803      726.87314     -72.429428      654.44371    
   3754000   312.64327      0.036539744    14.603808      775.67657     -67.880333      707.79624    
   3755000   294.68855      0.036539744    19.498687      731.13043     -70.877514      660.25291    
   3756000   292.09511      0.036539744    18.556838      724.69603     -75.469633      649.2264     
   3757000   292.59125      0.036539744    16.627115      725.92695     -71.723908      654.20305    
   3758000   314.81673      0.036539744    19.678905      781.06899     -72.670634      708.39835    
   3759000   304.7076       0.036539744    19.073944      755.98796     -65.461356      690.52661    
   3760000   317.6367       0.036539744    16.360071      788.06542     -66.752649      721.31277    
   3761000   295.48722      0.036539744    25.111251      733.11194     -60.231545      672.88039    
   3762000   288.63542      0.036539744    3.1099697      716.11243     -62.432438      653.67999    
   3763000   319.78441      0.036539744   -4.1616042      793.39393     -62.308653      731.08528    
   3764000   312.4829       0.036539744    7.2596242      775.27868     -59.110463      716.16822    
   3765000   291.59512      0.036539744    30.892496      723.45553     -65.381809      658.07372    
   3766000   290.62241      0.036539744    13.280353      721.0422      -64.084825      656.95738    
   3767000   297.02668      0.036539744    13.138564      736.93138     -65.968873      670.96251    
   3768000   332.15098      0.036539744    13.110846      824.07573     -66.719807      757.35592    
   3769000   299.45944      0.036539744    21.210614      742.96713     -63.361049      679.60608    
   3770000   287.29642      0.036539744    19.254515      712.79034     -60.197191      652.59315    
   3771000   304.80422      0.036539744    15.169878      756.22766     -59.286222      696.94144    
   3772000   304.07237      0.036539744    19.046009      754.41193     -59.893848      694.51808    
   3773000   292.67854      0.036539744    21.570047      726.14353     -58.673981      667.46955    
   3774000   293.82963      0.036539744    14.684347      728.9994      -54.868806      674.1306     
   3775000   318.92422      0.036539744    16.466929      791.25979     -55.404069      735.85572    
   3776000   307.18566      0.036539744    21.349792      762.13609     -49.808796      712.3273     
   3777000   293.13007      0.036539744    29.135115      727.26378     -52.395509      674.86827    
   3778000   297.37903      0.036539744    23.152686      737.80556     -53.128533      684.67703    
   3779000   289.88159      0.036539744    9.8025695      719.20422     -58.351944      660.85228    
   3780000   303.40537      0.036539744    19.36251       752.75709     -59.875476      692.88162    
   3781000   291.92245      0.036539744    21.364957      724.26763     -62.029941      662.23769    
   3782000   299.61291      0.036539744    17.561192      743.34789     -64.942423      678.40546    
   3783000   304.68954      0.036539744    21.768524      755.94316     -65.710902      690.23225    
   3784000   290.13947      0.036539744    18.439937      719.84402     -60.941554      658.90247    
   3785000   302.68827      0.036539744    15.453727      750.97794     -57.954135      693.02381    
   3786000   307.34007      0.036539744    17.100339      762.51917     -63.385633      699.13354    
   3787000   299.05942      0.036539744    19.748967      741.97467     -60.775406      681.19926    
   3788000   275.96913      0.036539744    21.102072      684.68702     -62.222528      622.46449    
   3789000   310.36455      0.036539744    15.766548      770.02301     -58.989418      711.03359    
   3790000   295.91207      0.036539744    20.045624      734.16601     -59.036166      675.12985    
   3791000   288.17469      0.036539744    18.3382        714.96935     -61.541609      653.42774    
   3792000   300.3554       0.036539744    18.642908      745.19003     -58.554253      686.63578    
   3793000   310.00744      0.036539744    18.830372      769.13701     -59.43037       709.70664    
   3794000   308.60468      0.036539744    17.288478      765.65672     -67.727654      697.92907    
   3795000   294.70121      0.036539744    22.362136      731.16183     -57.645661      673.51617    
   3796000   301.83551      0.036539744    18.274224      748.86221     -62.295389      686.56682    
   3797000   289.26405      0.036539744    14.532918      717.67208     -56.367914      661.30416    
   3798000   298.7465       0.036539744    16.539059      741.19831     -54.852803      686.34551    
   3799000   306.72455      0.036539744    21.152252      760.99206     -63.466751      697.52531    
   3800000   304.32582      0.036539744    13.46959       755.04076     -68.946793      686.09396    
   3801000   291.42579      0.036539744    10.82801       723.03543     -62.022948      661.01248    
   3802000   308.41325      0.036539744    19.058466      765.18177     -61.227921      703.95385    
   3803000   308.29345      0.036539744    14.576609      764.88455     -59.971686      704.91286    
   3804000   298.9566       0.036539744    20.564883      741.71957     -59.882433      681.83713    
   3805000   303.24504      0.036539744    18.552193      752.35931     -55.652524      696.70679    
   3806000   295.13386      0.036539744    19.450325      732.23523     -58.673414      673.56182    
   3807000   303.86215      0.036539744    23.572267      753.89038     -66.599688      687.29069    
   3808000   302.72707      0.036539744    20.159201      751.0742      -63.742085      687.33212    
   3809000   297.384        0.036539744    15.886564      737.8179      -70.739089      667.07881    
   3810000   304.46131      0.036539744    18.442198      755.37689     -68.69921       686.67768    
   3811000   304.08231      0.036539744    18.674548      754.43658     -67.383173      687.05341    
   3812000   299.747        0.036539744    14.784154      743.68057     -60.702282      682.97829    
   3813000   281.55926      0.036539744    16.940904      698.55629     -67.178794      631.37749    
   3814000   299.37628      0.036539744    19.307223      742.7608      -67.370319      675.39048    
   3815000   310.59971      0.036539744    13.077065      770.60643     -73.183421      697.42301    
   3816000   294.79413      0.036539744    14.861864      731.39236     -67.663076      663.72929    
   3817000   290.96854      0.036539744    19.40953       721.90098     -57.365582      664.5354     
   3818000   312.05613      0.036539744    25.297189      774.21986     -65.249725      708.97014    
   3819000   299.84662      0.036539744    10.854801      743.92774     -55.615872      688.31187    
   3820000   289.70177      0.036539744    25.373034      718.75807     -55.232681      663.52539    
   3821000   304.40674      0.036539744    18.557778      755.24152     -53.8895        701.35202    
   3822000   307.91878      0.036539744    10.673637      763.95497     -48.753463      715.20151    
   3823000   304.78905      0.036539744    22.632151      756.19004     -47.099617      709.09043    
   3824000   311.04676      0.036539744    20.120311      771.7156      -58.057423      713.65817    
   3825000   295.94391      0.036539744    19.504836      734.245       -58.955495      675.28951    
   3826000   307.07609      0.036539744    17.933487      761.86424     -58.061549      703.80269    
   3827000   317.34291      0.036539744    20.370839      787.3365      -60.635589      726.70091    
   3828000   295.16119      0.036539744    17.324604      732.30304     -59.189921      673.11312    
   3829000   287.24509      0.036539744    17.963634      712.66299     -58.873938      653.78905    
   3830000   311.34108      0.036539744    17.995491      772.4458      -68.899193      703.54661    
   3831000   294.00394      0.036539744    20.551709      729.43187     -60.608084      668.82379    
   3832000   292.56158      0.036539744    16.623451      725.85333     -62.058321      663.79501    
   3833000   296.7052       0.036539744    19.367636      736.13379     -61.059907      675.07388    
   3834000   321.45836      0.036539744    18.199849      797.54706     -60.906087      736.64097    
   3835000   300.42562      0.036539744    14.607765      745.36424     -55.180087      690.18416    
   3836000   302.14087      0.036539744    25.725344      749.61983     -58.013772      691.60605    
   3837000   313.90158      0.036539744    18.656561      778.79846     -59.845438      718.95303    
   3838000   289.42584      0.036539744    15.746458      718.07349     -58.38367       659.68982    
   3839000   305.46422      0.036539744    21.250093      757.86514     -60.394363      697.47078    
   3840000   313.92702      0.036539744    17.999729      778.8616      -58.168024      720.69357    
   3841000   290.99037      0.036539744    11.775087      721.95512     -54.243452      667.71167    
   3842000   292.98127      0.036539744    20.4999        726.8946      -57.374209      669.52039    
   3843000   306.77002      0.036539744    15.257519      761.10487     -61.517135      699.58774    
   3844000   305.57104      0.036539744    15.383147      758.13017     -56.874235      701.25593    
   3845000   300.87067      0.036539744    18.518998      746.46842     -64.75926       681.70916    
   3846000   306.16003      0.036539744    18.319794      759.59148     -59.96346       699.62802    
   3847000   292.3784       0.036539744    20.393685      725.39886     -58.311702      667.08716    
   3848000   299.19615      0.036539744    28.55663       742.3139      -58.799907      683.51399    
   3849000   298.65806      0.036539744    18.780319      740.97888     -60.802234      680.17665    
   3850000   310.8631       0.036539744    16.502944      771.25993     -61.967788      709.29214    
   3851000   294.42389      0.036539744    20.032782      730.47378     -57.29888       673.1749     
   3852000   294.10149      0.036539744    16.006316      729.6739      -59.910044      669.76386    
   3853000   305.81424      0.036539744    15.008295      758.73356     -61.104759      697.6288     
   3854000   309.10546      0.036539744    18.734216      766.89916     -58.020858      708.8783     
   3855000   304.99071      0.036539744    24.778831      756.69037     -58.330667      698.3597     
   3856000   291.29869      0.036539744    13.717272      722.72008     -60.907988      661.81209    
   3857000   302.79448      0.036539744    19.976077      751.24144     -63.380618      687.86082    
   3858000   301.4016       0.036539744    20.762263      747.78567     -67.806832      679.97884    
   3859000   293.73163      0.036539744    18.708084      728.75627     -61.345703      667.41057    
   3860000   304.47595      0.036539744    22.276006      755.41322     -57.748268      697.66495    
   3861000   301.1131       0.036539744    18.067781      747.06991     -62.617581      684.45233    
   3862000   282.59116      0.036539744    24.873467      701.11645     -56.974745      644.1417     
   3863000   289.54206      0.036539744    8.4186036      718.36183     -59.961432      658.40039    
   3864000   321.27642      0.036539744    12.017784      797.09566     -59.394693      737.70097    
   3865000   299.02919      0.036539744    26.690306      741.89967     -59.902909      681.99676    
   3866000   291.07231      0.036539744    23.126109      722.15843     -61.250482      660.90794    
   3867000   293.64075      0.036539744    7.8162594      728.5308      -55.288939      673.24186    
   3868000   314.51938      0.036539744    21.785098      780.33125     -54.784218      725.54703    
   3869000   293.15709      0.036539744    20.208833      727.33083     -56.044243      671.28659    
   3870000   296.13603      0.036539744    11.747902      734.72165     -47.313385      687.40826    
   3871000   302.63684      0.036539744    20.114476      750.85035     -52.570453      698.27989    
   3872000   291.3808       0.036539744    13.091641      722.9238      -51.107563      671.81623    
   3873000   317.11013      0.036539744    19.67654       786.75898     -56.752911      730.00607    
   3874000   293.63121      0.036539744    20.089573      728.50712     -53.99115       674.51597    
   3875000   305.28496      0.036539744    19.351275      757.42041     -52.07898       705.34143    
   3876000   295.18562      0.036539744    17.240242      732.36367     -56.955959      675.40771    
   3877000   301.58122      0.036539744    16.812574      748.23133     -53.153779      695.07755    
   3878000   290.45302      0.036539744    15.763718      720.62196     -59.879394      660.74256    
   3879000   307.77206      0.036539744    19.322518      763.59097     -67.653319      695.93766    
   3880000   297.96036      0.036539744    15.995015      739.24786     -63.556132      675.69172    
   3881000   305.09854      0.036539744    28.669053      756.9579      -58.876783      698.08111    
   3882000   299.20512      0.036539744    17.455945      742.33615     -61.1829        681.15325    
   3883000   291.0454       0.036539744    19.309875      722.09165     -59.832271      662.25938    
   3884000   296.26249      0.036539744    18.805493      735.03541     -61.206641      673.82877    
   3885000   304.88959      0.036539744    20.344121      756.43949     -59.723419      696.71607    
   3886000   304.81178      0.036539744    19.040226      756.24643     -52.553205      703.69322    
   3887000   303.28552      0.036539744    23.081737      752.45974     -55.404032      697.0557     
   3888000   304.78104      0.036539744    18.540741      756.17016     -62.688407      693.48175    
   3889000   281.47968      0.036539744    15.298777      698.35885     -66.249474      632.10938    
   3890000   289.59015      0.036539744    17.648714      718.48115     -69.405191      649.07596    
   3891000   297.49536      0.036539744    22.62548       738.09418     -64.553246      673.54094    
   3892000   297.95158      0.036539744    15.036933      739.22608     -64.17544       675.05064    
   3893000   291.59574      0.036539744    7.9916524      723.45706     -63.281785      660.17527    
   3894000   304.25514      0.036539744    23.116552      754.86538     -56.760347      698.10503    
   3895000   299.78754      0.036539744    31.508834      743.78115     -57.954924      685.82622    
   3896000   307.77003      0.036539744    13.713824      763.58592     -62.245574      701.34035    
   3897000   292.00495      0.036539744    15.049965      724.47233     -61.793816      662.67851    
   3898000   299.72179      0.036539744    34.097099      743.61802     -57.578692      686.03933    
   3899000   309.62369      0.036539744    14.804073      768.18492     -62.060728      706.12419    
   3900000   289.98804      0.036539744    5.7143477      719.46832     -64.484086      654.98423    
   3901000   292.53349      0.036539744    25.999159      725.78364     -55.267042      670.5166     
   3902000   304.22362      0.036539744    31.747709      754.78718     -58.497623      696.28956    
   3903000   302.07966      0.036539744    10.423314      749.46796     -56.144158      693.3238     
   3904000   298.23278      0.036539744    15.94095       739.92375     -59.543802      680.37995    
   3905000   291.91542      0.036539744    30.571903      724.2502      -59.996062      664.25414    
   3906000   315.40826      0.036539744    19.483686      782.5366      -64.089541      718.44706    
   3907000   312.31369      0.036539744    22.634232      774.85888     -58.523581      716.3353     
   3908000   288.78185      0.036539744    17.9148        716.47574     -59.983743      656.49199    
   3909000   304.16664      0.036539744    14.269461      754.64582     -65.881275      688.76455    
   3910000   322.50423      0.036539744    30.136342      800.14188     -62.380249      737.76163    
   3911000   292.51693      0.036539744    25.595779      725.74256     -55.846688      669.89587    
   3912000   297.15631      0.036539744    16.14856       737.253       -62.631705      674.6213     
   3913000   301.2391       0.036539744    19.660855      747.3825      -65.240225      682.14227    
   3914000   293.27153      0.036539744    22.371069      727.61474     -61.100234      666.51451    
   3915000   307.78701      0.036539744    15.704348      763.62804     -60.254706      703.37334    
   3916000   306.2586       0.036539744    23.231885      759.83603     -59.067957      700.76808    
   3917000   296.39964      0.036539744    19.792238      735.37567     -62.321284      673.05438    
   3918000   303.423        0.036539744    12.317433      752.80082     -61.932105      690.86871    
   3919000   302.51218      0.036539744    22.03354       750.54107     -65.631312      684.90975    
   3920000   291.16372      0.036539744    22.259868      722.38523     -76.246545      646.13868    
   3921000   306.40106      0.036539744    15.344144      760.18947     -70.203047      689.98642    
   3922000   320.29457      0.036539744    17.450613      794.65965     -62.295115      732.36454    
   3923000   307.64477      0.036539744    16.786051      763.27516     -64.523738      698.75142    
   3924000   295.23632      0.036539744    17.945785      732.48946     -55.508647      676.98081    
   3925000   304.40429      0.036539744    17.143981      755.23543     -64.050217      691.18521    
   3926000   295.61285      0.036539744    20.464836      733.42363     -64.384041      669.03958    
   3927000   296.85117      0.036539744    18.700501      736.49593     -59.539564      676.95637    
   3928000   310.56856      0.036539744    19.653664      770.52916     -63.815021      706.71414    
   3929000   292.76751      0.036539744    16.875076      726.36427     -69.023672      657.34059    
   3930000   298.40546      0.036539744    15.143357      740.35218     -63.584506      676.76767    
   3931000   301.55749      0.036539744    18.912041      748.17244     -62.302431      685.87001    
   3932000   301.91446      0.036539744    21.20241       749.05811     -64.625698      684.43241    
   3933000   298.73041      0.036539744    17.934416      741.15839     -66.680247      674.47814    
   3934000   300.83287      0.036539744    12.041227      746.37464     -67.203151      679.17149    
   3935000   298.30379      0.036539744    17.251412      740.09992     -66.725443      673.37448    
   3936000   296.13322      0.036539744    18.019592      734.71468     -68.334722      666.37996    
   3937000   286.81996      0.036539744    17.1309        711.60822     -65.124201      646.48402    
   3938000   296.24928      0.036539744    27.129666      735.00263     -62.402875      672.59975    
   3939000   304.56549      0.036539744    21.166056      755.63539     -62.930509      692.70488    
   3940000   304.84005      0.036539744    17.813166      756.31656     -65.178787      691.13777    
   3941000   297.85965      0.036539744    16.118016      738.998       -60.697252      678.30074    
   3942000   304.84053      0.036539744    24.671025      756.31776     -59.228205      697.08956    
   3943000   306.70195      0.036539744    21.841777      760.93599     -58.107474      702.82851    
   3944000   285.16887      0.036539744    15.12075       707.51183     -53.066799      654.44503    
   3945000   292.24549      0.036539744    25.615763      725.06913     -53.809881      671.25925    
   3946000   297.13217      0.036539744    20.851695      737.1931      -48.50143       688.69167    
   3947000   305.53492      0.036539744    18.379586      758.04057     -56.5819        701.45867    
   3948000   294.76764      0.036539744    19.352645      731.32664     -52.304044      679.02259    
   3949000   291.39347      0.036539744    17.575549      722.95522     -56.77725       666.17797    
   3950000   308.32611      0.036539744    19.024738      764.96557     -58.789535      706.17604    
   3951000   316.52902      0.036539744    29.851908      785.31721     -63.560377      721.75684    
   3952000   281.70305      0.036539744    25.691636      698.91304     -68.254464      630.65858    
   3953000   299.50992      0.036539744    13.980235      743.09237     -67.501141      675.59122    
   3954000   309.86924      0.036539744    29.916054      768.79413     -59.450589      709.34354    
   3955000   295.11458      0.036539744    15.430889      732.18742     -60.475927      671.71149    
   3956000   296.31921      0.036539744    14.139356      735.17612     -53.38787       681.78825    
   3957000   307.26193      0.036539744    20.6548        762.32531     -52.158091      710.16722    
   3958000   294.2196       0.036539744    25.766373      729.96694     -53.024112      676.94283    
   3959000   288.82644      0.036539744    13.063687      716.58637     -45.64352       670.94285    
   3960000   304.86752      0.036539744    6.4999871      756.38473     -49.19595       707.18878    
   3961000   302.08785      0.036539744    20.284088      749.48827     -55.440072      694.0482     
   3962000   278.92776      0.036539744    21.533723      692.02747     -60.043854      631.98361    
   3963000   304.39912      0.036539744    16.194557      755.22261     -65.055817      690.16679    
   3964000   307.07558      0.036539744    18.558511      761.86297     -68.956643      692.90633    
   3965000   300.69942      0.036539744    14.731627      746.04355     -66.822663      679.22088    
   3966000   277.47316      0.036539744    14.281578      688.41856     -67.588627      620.82993    
   3967000   301.17391      0.036539744    24.459938      747.22076     -69.953316      677.26745    
   3968000   311.9721       0.036539744    19.619392      774.01139     -65.87894       708.13245    
   3969000   304.1759       0.036539744    14.133921      754.66878     -73.112854      681.55593    
   3970000   292.95629      0.036539744    23.019808      726.83262     -71.928573      654.90405    
   3971000   309.25872      0.036539744    21.213968      767.2794      -68.694529      698.58487    
   3972000   305.04931      0.036539744    19.160315      756.83573     -62.831372      694.00436    
   3973000   293.10647      0.036539744    18.713466      727.20522     -63.301239      663.90398    
   3974000   294.41917      0.036539744    18.964729      730.46207     -61.128209      669.33386    
   3975000   299.32092      0.036539744    23.316216      742.62345     -58.665106      683.95835    
   3976000   316.15157      0.036539744    19.390401      784.38075     -56.553572      727.82718    
   3977000   295.61613      0.036539744    14.118704      733.43177     -62.364363      671.0674     
   3978000   289.74325      0.036539744    18.055336      718.86099     -57.296249      661.56474    
   3979000   313.78359      0.036539744    20.734439      778.50573     -59.850465      718.65526    
   3980000   299.55825      0.036539744    18.686008      743.21228     -58.28482       684.92746    
   3981000   294.2049       0.036539744    20.574995      729.93047     -60.890149      669.04032    
   3982000   296.51868      0.036539744    20.863714      735.67102     -58.600425      677.07059    
   3983000   303.60348      0.036539744    17.957371      753.24861     -59.515125      693.73348    
   3984000   297.16012      0.036539744    21.746637      737.26245     -57.09348       680.16897    
   3985000   311.3253       0.036539744    19.985964      772.40665     -65.509386      706.89727    
   3986000   302.43897      0.036539744    16.775257      750.35942     -63.981381      686.37804    
   3987000   291.64482      0.036539744    17.733635      723.57883     -61.488917      662.08992    
   3988000   291.9462       0.036539744    17.776173      724.32658     -64.926591      659.39999    
   3989000   320.8328       0.036539744    19.504727      795.99501     -61.856761      734.13825    
   3990000   311.87367      0.036539744    15.871703      773.76718     -61.734953      712.03223    
   3991000   294.60426      0.036539744    17.698109      730.92129     -57.125797      673.7955     
   3992000   297.62907      0.036539744    20.314166      738.42592     -52.91562       685.5103     
   3993000   310.38299      0.036539744    21.835185      770.06876     -50.927705      719.14106    
   3994000   296.49129      0.036539744    17.428298      735.60306     -52.079483      683.52358    
   3995000   299.98983      0.036539744    23.588021      744.28303     -54.859358      689.42367    
   3996000   299.79211      0.036539744    16.174962      743.79249     -54.945525      688.84697    
   3997000   292.81348      0.036539744    16.832082      726.47833     -53.644432      672.83389    
   3998000   315.10339      0.036539744    20.338886      781.78019     -51.828845      729.95135    
   3999000   307.11276      0.036539744    22.944786      761.95522     -52.449875      709.50535    
   4000000   303.23885      0.036539744    28.940012      752.34393     -52.537602      699.80633    
Loop time of 5355.53 on 1 procs for 4000000 steps with 1500 atoms

Performance: 16.133 ns/day, 1.488 hours/ns, 746.892 timesteps/s, 1.120 Matom-step/s
100.0% CPU use with 1 MPI tasks x 1 OpenMP threads

MPI task timing breakdown:
Section |  min time  |  avg time  |  max time  |%varavg| %total
---------------------------------------------------------------
Pair    | 497.63     | 497.63     | 497.63     |   0.0 |  9.29
Bond    | 103.48     | 103.48     | 103.48     |   0.0 |  1.93
Kspace  | 4173.4     | 4173.4     | 4173.4     |   0.0 | 77.93
Neigh   | 0.030573   | 0.030573   | 0.030573   |   0.0 |  0.00
Comm    | 27.541     | 27.541     | 27.541     |   0.0 |  0.51
Output  | 0.1045     | 0.1045     | 0.1045     |   0.0 |  0.00
Modify  | 538.86     | 538.86     | 538.86     |   0.0 | 10.06
Other   |            | 14.45      |            |       |  0.27

Nlocal:           1500 ave        1500 max        1500 min
Histogram: 1 0 0 0 0 0 0 0 0 0
Nghost:           1631 ave        1631 max        1631 min
Histogram: 1 0 0 0 0 0 0 0 0 0
Neighs:              0 ave           0 max           0 min
Histogram: 1 0 0 0 0 0 0 0 0 0

Total # of neighbors = 0
Ave neighs/atom = 0
Ave special neighs/atom = 2
Neighbor list builds = 15843
Dangerous builds = 0
write_data	last_conf.data pair ij
System init for write_data ...
PPPM initialization ...
  using 12-bit tables for long-range coulomb (src/kspace.cpp:342)
  G vector (1/distance) = 0.17553521
  grid = 24 24 24
  stencil order = 5
  estimated absolute RMS force accuracy = 0.030437558
  estimated relative force accuracy = 9.1661803e-05
  using double precision FFTW3
  3d grid and FFT values/proc = 24389 13824
Generated 1 of 1 mixed pair_coeff terms from arithmetic mixing rule
Total wall time: 1:29:15
