LAMMPS (29 Aug 2024 - Update 1)
  using 1 OpenMP thread(s) per MPI task
package gpu 1 gpuID 0
# GCMC for CO2 molecular fluid, rigid/small/nvt dynamics
# Rigid CO2 TraPPE model
# [Potoff and J.I. Siepmann, Vapor-liquid equilibria of
# mixtures containing alkanes, carbon dioxide and
# nitrogen AIChE J., 47,1676-1682 (2001)].

# global model settings

units           real
atom_style      full
boundary        p p p
pair_style      lj/cut/coul/long  12
pair_modify     mix arithmetic shift yes
kspace_style    pppm 1.0e-4
bond_style      harmonic
angle_style     harmonic
neigh_modify    one 4000

# box, start molecules on simple cubic lattice
region          mbox block 0 ${lbox} 0 ${lbox} 0 ${lbox} units box
region          mbox block 0 149 0 ${lbox} 0 ${lbox} units box
region          mbox block 0 149 0 149 0 ${lbox} units box
region          mbox block 0 149 0 149 0 149 units box
create_box      2 mbox                                       bond/types 1                                angle/types 1                               extra/bond/per/atom 2                       extra/angle/per/atom 1                      extra/special/per/atom 2
Created orthogonal box = (0 0 0) to (149 149 149)
  1 by 1 by 1 MPI processor grid
molecule        co2mol ../CO2.txt
Read molecule template co2mol:
# CO2 molecule file. TraPPE model.
  1 molecules
  0 fragments
  3 atoms with max type 2
  2 bonds with max type 1
  1 angles with max type 1
  0 dihedrals with max type 0
  0 impropers with max type 0
create_atoms   	0 random ${nmols} 34578 mbox mol co2mol 464563 overlap 1.2
create_atoms   	0 random 500 34578 mbox mol co2mol 464563 overlap 1.2
Created 1500 atoms
  using lattice units in orthogonal box = (0 0 0) to (149 149 149)
  create_atoms CPU = 0.007 seconds

# rigid CO2 TraPPE model

pair_coeff      1   1  0.053649   2.800
pair_coeff      2   2  0.156973   3.050
bond_coeff      1       0       1.16
angle_coeff     1       0       180

# masses

mass 1 12.0107
mass 2 15.9994

write_data init_conf.data  pair ij
System init for write_data ...
PPPM initialization ...
  using 12-bit tables for long-range coulomb (src/kspace.cpp:342)
  G vector (1/distance) = 0.16146867
  grid = 30 30 30
  stencil order = 5
  estimated absolute RMS force accuracy = 0.033120649
  estimated relative force accuracy = 9.9741851e-05
  using double precision FFTW3
  3d grid and FFT values/proc = 42875 27000
Generated 1 of 1 mixed pair_coeff terms from arithmetic mixing rule

# MD settings

group           co2 type 1 2
1500 atoms in group co2
velocity       	all create 300 54654
timestep        0.25

# rigid constraints with thermostat
fix             myrigidnvt co2 rigid/nvt molecule temp 300 300 $(100*dt)
fix             myrigidnvt co2 rigid/nvt molecule temp 300 300 25
  500 rigid bodies with 1500 atoms

thermo 1000
thermo_style custom step temp density press ke pe etotal


variable    mvol equal vol
variable    mden equal density
variable	mtmp equal temp
variable    mpre equal press

fix mydat all ave/time 1 4000 4000 v_mtmp v_mden v_mpre file statistics.dat ## every 1ps

run 4000000 ## 1ns

CITE-CITE-CITE-CITE-CITE-CITE-CITE-CITE-CITE-CITE-CITE-CITE-CITE

Your simulation uses code contributions which should be cited:

- GPU package (short-range, long-range and three-body potentials): doi:10.1016/j.cpc.2010.12.021, doi:10.1016/j.cpc.2011.10.012, doi:10.1016/j.cpc.2013.08.002, doi:10.1016/j.commatsci.2014.10.068, doi:10.1016/j.cpc.2016.10.020, doi:10.3233/APC200086

@Article{Brown11,
 author = {W. M. Brown and P. Wang and S. J. Plimpton and A. N. Tharrington},
 title = {Implementing Molecular Dynamics on Hybrid High Performance Computers---Short Range Forces},
 journal = {Comput.\ Phys.\ Commun.},
 year =    2011,
 volume =  182,
 pages =   {898--911},
 doi =     {10.1016/j.cpc.2010.12.021}
}

@Article{Brown12,
 author = {W. M. Brown and A. Kohlmeyer and S. J. Plimpton and A. N. Tharrington},
 title = {Implementing Molecular Dynamics on Hybrid High Performance Computers - Particle-Particle Particle-Mesh},
 journal = {Comput.\ Phys.\ Commun.},
 year =    2012,
 volume =  183,
 doi =     {10.1016/j.cpc.2011.10.012},
 pages =   {449--459}
}

@Article{Brown13,
 author = {W. M. Brown and Y. Masako},
 title = {Implementing Molecular Dynamics on Hybrid High Performance Computers---Three-Body Potentials},
 journal = {Comput.\ Phys.\ Commun.},
 year =    2013,
 volume =  184,
 pages =   {2785--2793},
 doi =     {10.1016/j.cpc.2013.08.002},
}

@Article{Trung15,
 author = {T. D. Nguyen and S. J. Plimpton},
 title = {Accelerating Dissipative Particle Dynamics Simulations for Soft Matter Systems},
 journal = {Comput.\ Mater.\ Sci.},
 year =    2015,
 doi =     {10.1016/j.commatsci.2014.10.068},
 volume =  100,
 pages =   {173--180}
}

@Article{Trung17,
 author = {T. D. Nguyen},
 title = {{GPU}-Accelerated {T}ersoff Potentials for Massively Parallel
    Molecular Dynamics Simulations},
 journal = {Comput.\ Phys.\ Commun.},
 year =    2017,
 doi =     {10.1016/j.cpc.2016.10.020},
 volume =  212,
 pages =   {113--122}
}

@inproceedings{Nikolskiy19,
 author = {V. Nikolskiy and V. Stegailov},
 title = {{GPU} Acceleration of Four-Site Water Models in {LAMMPS}},
 booktitle = {Proceedings of the International Conference on Parallel
    Computing (ParCo 2019), Prague, Czech Republic},
 doi =     {10.3233/APC200086},
 year =    2019
}

CITE-CITE-CITE-CITE-CITE-CITE-CITE-CITE-CITE-CITE-CITE-CITE-CITE

PPPM initialization ...
  using 12-bit tables for long-range coulomb (src/kspace.cpp:342)
  G vector (1/distance) = 0.16146867
  grid = 30 30 30
  stencil order = 5
  estimated absolute RMS force accuracy = 0.033120649
  estimated relative force accuracy = 9.9741851e-05
  using double precision FFTW3
  3d grid and FFT values/proc = 42875 27000
Generated 1 of 1 mixed pair_coeff terms from arithmetic mixing rule
Per MPI rank memory allocation (min/avg/max) = 11.38 | 11.38 | 11.38 Mbytes
   Step          Temp         Density         Press          KinEng         PotEng         TotEng    
         0   307.41471      0.011046042   -128.70081      762.70438      1933.3482      2696.0526    
      1000   309.3814       0.011046042   -4.8658588      767.58377     -13.218883      754.36489    
      2000   308.60489      0.011046042    6.3343383      765.65723     -14.850199      750.80703    
      3000   302.87577      0.011046042    5.6798485      751.44313     -17.792851      733.65028    
      4000   287.26061      0.011046042    1.5234134      712.70149     -19.18857       693.51292    
      5000   295.9092       0.011046042    15.268686      734.15888      13.243528      747.40241    
      6000   310.53067      0.011046042    5.6301687      770.43516     -23.546405      746.88875    
      7000   294.92838      0.011046042    10.812017      731.72545     -25.670474      706.05497    
      8000   296.22559      0.011046042    9.6895285      734.94384     -26.129156      708.81469    
      9000   304.75603      0.011046042    4.9463413      756.10812     -24.069691      732.03843    
     10000   296.59697      0.011046042    5.6466173      735.86527     -20.81158       715.05369    
     11000   290.9342       0.011046042    6.4135414      721.81576     -23.470122      698.34564    
     12000   299.29378      0.011046042    6.0878253      742.55611     -26.472678      716.08343    
     13000   301.77165      0.011046042    3.7371671      748.70379     -29.55385       719.14994    
     14000   294.50807      0.011046042    5.8299761      730.68265     -25.704731      704.97792    
     15000   288.36786      0.011046042    6.5465046      715.4486      -27.311347      688.13725    
     16000   300.60494      0.011046042    6.0269281      745.80915     -26.682636      719.12652    
     17000   280.83211      0.011046042    3.242138       696.75222     -26.459133      670.29308    
     18000   293.34388      0.011046042    10.143908      727.79426     -35.271191      692.52307    
     19000   314.37374      0.011046042    6.5244069      779.96991     -32.108628      747.86128    
     20000   307.69999      0.011046042    5.8692882      763.41217     -34.500006      728.91216    
     21000   297.02962      0.011046042    2.5644265      736.93866     -36.60402       700.33464    
     22000   293.3246       0.011046042    6.2421465      727.74641     -38.616187      689.13022    
     23000   301.76714      0.011046042    9.8894856      748.69259     -39.43472       709.25787    
     24000   302.47751      0.011046042    5.7802198      750.45505     -38.313573      712.14148    
     25000   316.21272      0.011046042    5.697594       784.53248     -40.346518      744.18596    
     26000   297.90553      0.011046042    4.982021       739.11184     -40.54589       698.56595    
     27000   295.87546      0.011046042    3.2878885      734.07517     -36.863215      697.21195    
     28000   310.92537      0.011046042    11.380367      771.41442     -41.152471      730.26195    
     29000   296.00795      0.011046042    6.2500256      734.40388     -37.697645      696.70623    
     30000   304.3509       0.011046042    0.42543429     755.10297     -37.306498      717.79647    
     31000   300.00556      0.011046042    6.3600174      744.32206     -35.99641       708.32564    
     32000   302.72585      0.011046042    6.5880699      751.07119     -37.445715      713.62548    
     33000   297.09938      0.011046042    5.9193713      737.11176     -38.921972      698.18979    
     34000   292.2896       0.011046042    5.8193952      725.17855     -37.704022      687.47452    
     35000   319.91233      0.011046042    4.9340366      793.71132     -42.386835      751.32448    
     36000   322.54223      0.011046042    6.7967771      800.23617     -41.018706      759.21746    
     37000   292.53467      0.011046042    6.282949       725.78659     -41.697832      684.08875    
     38000   293.01261      0.011046042    5.3336306      726.97236     -43.176686      683.79567    
     39000   308.38926      0.011046042    5.5736739      765.12226     -47.727747      717.39451    
     40000   312.60142      0.011046042    6.1868535      775.57273     -50.422678      725.15005    
     41000   295.93646      0.011046042    4.9252932      734.22652     -46.50552       687.721      
     42000   307.0286       0.011046042    8.8960903      761.74643     -45.529141      716.21729    
     43000   306.13075      0.011046042    7.2492234      759.51883     -47.241407      712.27742    
     44000   300.15092      0.011046042    1.1038785      744.68272     -49.845493      694.83722    
     45000   283.83095      0.011046042    5.4206484      704.19241     -49.62434       654.56807    
     46000   307.7754       0.011046042    4.2048817      763.59925     -48.666194      714.93306    
     47000   295.93187      0.011046042    7.0029129      734.21512     -45.854144      688.36097    
     48000   302.94321      0.011046042    3.1320539      751.61046     -47.190643      704.41982    
     49000   299.2875       0.011046042   -0.097598435    742.54053     -47.610643      694.92989    
     50000   298.14334      0.011046042    6.6872989      739.70185     -47.996545      691.7053     
     51000   300.06764      0.011046042    5.8787917      744.47609     -42.870045      701.60605    
     52000   296.32224      0.011046042    1.8053368      735.18364     -46.361889      688.82175    
     53000   306.32677      0.011046042    9.2689461      760.00515     -44.381945      715.62321    
     54000   307.92464      0.011046042    6.3990218      763.96953     -47.988061      715.98147    
     55000   301.95324      0.011046042    5.4026094      749.15432     -48.503666      700.65066    
     56000   309.86696      0.011046042    6.3885827      768.78846     -44.948272      723.84019    
     57000   285.65649      0.011046042    5.5260982      708.72164     -41.852761      666.86888    
     58000   294.33732      0.011046042    5.9368082      730.259       -40.150527      690.10848    
     59000   302.39616      0.011046042    6.9801035      750.2532      -38.633366      711.61983    
     60000   298.52628      0.011046042    3.0551504      740.65194     -45.874029      694.77791    
     61000   309.05847      0.011046042    6.391644       766.78258     -43.588432      723.19415    
     62000   277.80725      0.011046042    3.4236625      689.24745     -42.810408      646.43704    
     63000   293.33372      0.011046042   -8.0689408      727.76904     -45.149229      682.61981    
     64000   315.65276      0.011046042    7.6839362      783.14319     -44.651643      738.49154    
     65000   308.05286      0.011046042    14.154027      764.28764     -42.343144      721.9445     
     66000   294.01751      0.011046042    10.041469      729.46555     -41.901317      687.56424    
     67000   280.02224      0.011046042    4.9950497      694.74291     -41.594236      653.14867    
     68000   303.25681      0.011046042    7.3277745      752.3885      -40.108451      712.28005    
     69000   306.26024      0.011046042    7.6655914      759.84009     -39.548127      720.29196    
     70000   295.10718      0.011046042    6.9703859      732.16906     -38.161623      694.00744    
     71000   298.6477       0.011046042    4.4242416      740.95318     -39.574541      701.37863    
     72000   312.00125      0.011046042    2.5884604      774.08369     -41.560497      732.5232     
     73000   306.35201      0.011046042    7.0639623      760.06778     -40.848986      719.2188     
     74000   301.31062      0.011046042    5.6087095      747.55996     -42.195559      705.3644     
     75000   294.64518      0.011046042    5.5317418      731.02282     -44.430834      686.59198    
     76000   308.39711      0.011046042    3.4532882      765.14174     -45.797264      719.34447    
     77000   315.26079      0.011046042    7.9997933      782.1707      -44.813862      737.35684    
     78000   302.70335      0.011046042    7.6415056      751.01536     -39.586367      711.429      
     79000   298.14859      0.011046042    2.3895325      739.71488     -37.308325      702.40655    
     80000   298.39021      0.011046042    4.6503999      740.31435     -37.7211        702.59325    
     81000   301.95279      0.011046042    11.705452      749.15321     -36.82966       712.32355    
     82000   302.18814      0.011046042    13.620531      749.73709     -39.141845      710.59525    
     83000   299.5115       0.011046042    9.7029873      743.09629     -33.980175      709.11611    
     84000   301.86053      0.011046042   -9.2522582      748.9243      -35.991155      712.93315    
     85000   308.90126      0.011046042    24.410109      766.39255     -40.194997      726.19755    
     86000   293.24508      0.011046042    13.041577      727.54914     -40.215659      687.33348    
     87000   297.07997      0.011046042    2.7417753      737.06359     -38.117389      698.9462     
     88000   296.47119      0.011046042    1.4532077      735.55319     -40.057449      695.49575    
     89000   308.747        0.011046042    7.6733216      766.00982     -43.033219      722.9766     
     90000   296.56597      0.011046042    6.0334126      735.78835     -47.245178      688.54317    
     91000   302.75503      0.011046042    4.6395938      751.14357     -43.738047      707.40552    
     92000   299.70217      0.011046042    6.6286631      743.56935     -44.211516      699.35784    
     93000   293.81899      0.011046042    5.0051226      728.97302     -45.645642      683.32738    
     94000   311.3035       0.011046042    5.4772935      772.35256     -45.100535      727.25202    
     95000   306.03819      0.011046042    4.9917552      759.28919     -43.440969      715.84822    
     96000   285.79122      0.011046042    4.877733       709.0559      -43.608348      665.44755    
     97000   305.93002      0.011046042    4.7431485      759.02082     -42.19866       716.82216    
     98000   308.99823      0.011046042    5.7721692      766.63313     -44.927861      721.70527    
     99000   304.4514       0.011046042    5.5431972      755.35231     -46.938318      708.41399    
    100000   290.50918      0.011046042    6.1223489      720.76128     -43.057704      677.70358    
    101000   298.12785      0.011046042    5.7762266      739.66343     -39.390499      700.27293    
    102000   293.93132      0.011046042    5.3172342      729.25171     -38.378978      690.87273    
    103000   293.37654      0.011046042    6.1091898      727.87528     -41.194429      686.68085    
    104000   310.98925      0.011046042    6.4569209      771.57291     -44.975342      726.59756    
    105000   314.85737      0.011046042    5.7140043      781.16982     -44.70054       736.46928    
    106000   281.53105      0.011046042    5.745198       698.4863      -44.740043      653.74626    
    107000   296.00025      0.011046042    11.75978       734.38479     -41.510719      692.87407    
    108000   311.67691      0.011046042    9.3086949      773.27901     -44.62568       728.65333    
    109000   310.09802      0.011046042    3.814111       769.36173     -41.059877      728.30185    
    110000   279.74206      0.011046042    3.60086        694.04776     -44.050359      649.9974     
    111000   299.58657      0.011046042    8.9486545      743.28253     -31.975893      711.30664    
    112000   309.13145      0.011046042    7.1299519      766.96366     -40.195594      726.76806    
    113000   296.05388      0.011046042   -2.5550203      734.51784     -36.395943      698.12189    
    114000   291.66552      0.011046042    7.464004       723.63019     -38.3273        685.30289    
    115000   313.14433      0.011046042    6.2782544      776.91971     -37.088372      739.83133    
    116000   312.60867      0.011046042    6.1038395      775.59072     -41.224509      734.36621    
    117000   300.76329      0.011046042    6.4551945      746.20202     -44.194953      702.00707    
    118000   292.98485      0.011046042    5.4710991      726.90348     -42.76093       684.14255    
    119000   307.24779      0.011046042    5.0743671      762.29023     -41.104161      721.18607    
    120000   305.76194      0.011046042    5.7389652      758.6038      -40.126229      718.47757    
    121000   305.18635      0.011046042    6.0571589      757.17575     -37.65171       719.52404    
    122000   295.92973      0.011046042    7.5286938      734.20982     -38.57075       695.63907    
    123000   306.55937      0.011046042    5.7595677      760.58226     -37.27535       723.30691    
    124000   308.93158      0.011046042   -0.070297716    766.46776     -40.899662      725.5681     
    125000   310.05936      0.011046042    11.504183      769.26582     -42.2316        727.03422    
    126000   293.73492      0.011046042    11.88648       728.76444     -46.774373      681.99007    
    127000   294.12402      0.011046042    8.4843444      729.72981     -42.48618       687.24363    
    128000   297.50329      0.011046042    3.6881547      738.11387     -41.29633       696.81754    
    129000   301.30139      0.011046042   -3.2671074      747.53705     -43.99912       703.53793    
    130000   300.59367      0.011046042    15.721471      745.78118     -42.233691      703.54749    
    131000   295.10547      0.011046042    12.109976      732.16481     -43.472288      688.69252    
    132000   306.46363      0.011046042   -5.4274428      760.34472     -39.733705      720.61101    
    133000   307.66852      0.011046042    8.1707424      763.33408     -41.673448      721.66063    
    134000   302.2668       0.011046042    10.831334      749.93227     -39.994129      709.93814    
    135000   298.49398      0.011046042    19.460344      740.5718      -42.896653      697.67515    
    136000   306.66376      0.011046042    0.30458048     760.84125     -42.773236      718.06801    
    137000   321.15347      0.011046042    0.95507214     796.79061     -39.089106      757.7015     
    138000   292.47194      0.011046042    9.3083614      725.63095     -41.164882      684.46607    
    139000   289.85854      0.011046042    6.1139707      719.14703     -35.003531      684.1435     
    140000   309.15196      0.011046042   -1.0625038      767.01454     -41.978434      725.0361     
    141000   301.77091      0.011046042    12.099928      748.70195     -39.060552      709.6414     
    142000   297.59082      0.011046042    7.2652134      738.33102     -40.467348      697.86367    
    143000   293.52505      0.011046042    1.1107703      728.24374     -42.354618      685.88912    
    144000   306.44039      0.011046042    3.3650033      760.28704     -41.667572      718.61947    
    145000   301.00041      0.011046042    9.0912219      746.79032     -38.439936      708.35038    
    146000   300.35802      0.011046042    5.5602127      745.19652     -40.936169      704.26035    
    147000   306.82921      0.011046042    4.8724026      761.25172     -42.67108       718.58064    
    148000   311.60228      0.011046042    7.0715996      773.09385     -40.458102      732.63575    
    149000   293.15537      0.011046042    5.7983487      727.32657     -37.113107      690.21346    
    150000   295.88327      0.011046042    6.6953764      734.09455     -33.413046      700.68151    
    151000   313.17334      0.011046042    7.7354513      776.9917      -38.08808       738.90362    
    152000   300.52276      0.011046042    8.579379       745.60524     -36.506544      709.0987     
    153000   301.05034      0.011046042    6.33946        746.91418     -35.633747      711.28044    
    154000   310.4063       0.011046042    6.1503937      770.12658     -35.592595      734.53398    
    155000   309.07964      0.011046042    9.0129069      766.8351      -38.162841      728.67226    
    156000   290.24951      0.011046042    6.625529       720.11705     -41.078104      679.03894    
    157000   288.03656      0.011046042    5.2145044      714.62664     -40.291968      674.33468    
    158000   307.07747      0.011046042    6.9025513      761.86767     -43.718584      718.14909    
    159000   314.33264      0.011046042    5.5002452      779.86795     -42.810848      737.0571     
    160000   291.52937      0.011046042    6.0965325      723.29241     -44.115564      679.17684    
    161000   302.95187      0.011046042    6.3730006      751.63195     -43.569749      708.0622     
    162000   301.233        0.011046042    3.972996       747.36737     -43.675472      703.6919     
    163000   303.75121      0.011046042    1.0481434      753.61511     -38.618564      714.99655    
    164000   299.94343      0.011046042    10.897508      744.16793     -37.513142      706.65479    
    165000   299.69378      0.011046042    6.2121018      743.54852     -44.039617      699.5089     
    166000   297.23887      0.011046042   -0.34076456     737.45783     -40.389132      697.06869    
    167000   292.33573      0.011046042    1.1503862      725.293       -39.013581      686.27942    
    168000   298.19581      0.011046042    5.9101899      739.83203     -39.421215      700.41082    
    169000   307.43323      0.011046042    6.593695       762.75031     -36.307328      726.44298    
    170000   304.34327      0.011046042    6.3527782      755.08404     -34.662028      720.42201    
    171000   289.5886       0.011046042    3.9308038      718.4773      -35.669739      682.80756    
    172000   298.78217      0.011046042    7.6161937      741.2868      -41.457466      699.82933    
    173000   318.70229      0.011046042    8.38344        790.70916     -41.36544       749.34372    
    174000   309.22174      0.011046042    7.790133       767.18765     -38.027668      729.15998    
    175000   295.48152      0.011046042    7.6552965      733.09781     -41.124413      691.97339    
    176000   280.63048      0.011046042    5.4893876      696.25196     -42.314165      653.9378     
    177000   285.21856      0.011046042    2.1542584      707.63511     -41.496994      666.13812    
    178000   312.57662      0.011046042    4.1140032      775.5112      -43.841876      731.66932    
    179000   315.69516      0.011046042    6.8052663      783.2484      -43.888495      739.35991    
    180000   283.91061      0.011046042    5.2121836      704.39005     -45.253741      659.13631    
    181000   301.27403      0.011046042    6.9804163      747.46917     -41.779953      705.68922    
    182000   288.49         0.011046042    5.7402887      715.75165     -39.200754      676.5509     
    183000   307.16347      0.011046042    4.9470857      762.08104     -39.17456       722.90648    
    184000   293.13589      0.011046042    5.0020365      727.27821     -44.394533      682.88368    
    185000   292.53808      0.011046042    5.3709508      725.79503     -37.360681      688.43435    
    186000   298.5168       0.011046042    5.398812       740.6284      -39.612536      701.01587    
    187000   301.5564       0.011046042    7.379763       748.16974     -39.537629      708.63211    
    188000   296.13689      0.011046042    5.7760792      734.72379     -44.304268      690.41952    
    189000   291.00608      0.011046042    2.381739       721.9941      -47.805184      674.18892    
    190000   308.44885      0.011046042    4.6926826      765.27011     -46.858106      718.412      
    191000   309.7817       0.011046042    6.937374       768.57694     -44.00958       724.56736    
    192000   286.30454      0.011046042    5.8261422      710.32946     -49.108375      661.22108    
    193000   293.36652      0.011046042    4.0679984      727.85041     -45.129158      682.72126    
    194000   316.12405      0.011046042    8.2113357      784.31247     -48.049174      736.2633     
    195000   293.58594      0.011046042    5.7922147      728.3948      -45.573373      682.82143    
    196000   290.81462      0.011046042    7.0604795      721.51908     -44.88455       676.63453    
    197000   308.45346      0.011046042    3.2142973      765.28155     -43.154544      722.127      
    198000   303.28843      0.011046042    5.47791        752.46696     -42.210358      710.2566     
    199000   290.55654      0.011046042    5.4135644      720.87878     -45.451337      675.42744    
    200000   314.32511      0.011046042    6.3035718      779.84927     -47.204538      732.64473    
    201000   312.43002      0.011046042    6.3109143      775.1475      -43.895857      731.25164    
    202000   298.74451      0.011046042    5.8758421      741.19335     -40.815129      700.37822    
    203000   290.10117      0.011046042    5.8351681      719.74901     -45.66883       674.08018    
    204000   306.16476      0.011046042    5.6738598      759.60321     -43.340195      716.26301    
    205000   303.59201      0.011046042    8.5430045      753.22014     -43.559323      709.66082    
    206000   301.9574       0.011046042    8.2234862      749.16464     -43.99488       705.16976    
    207000   294.00038      0.011046042    3.6801176      729.42304     -44.473311      684.94973    
    208000   312.06724      0.011046042    9.1938813      774.24743     -45.08452       729.16291    
    209000   300.45738      0.011046042    7.6942245      745.44305     -50.067658      695.37539    
    210000   301.98073      0.011046042    5.9846227      749.22252     -46.307144      702.91537    
    211000   296.82346      0.011046042    3.6378829      736.42719     -44.9874        691.43979    
    212000   304.27824      0.011046042    6.6160384      754.92271     -41.289554      713.63316    
    213000   296.2947       0.011046042    9.2535308      735.11533     -41.53226       693.58307    
    214000   287.40318      0.011046042    3.9599694      713.05522     -43.960363      669.09485    
    215000   304.89764      0.011046042    2.0917384      756.45945     -41.648689      714.81077    
    216000   312.24969      0.011046042    3.7129835      774.70008     -48.478715      726.22136    
    217000   291.99546      0.011046042    8.291524       724.44879     -46.153595      678.29519    
    218000   302.45407      0.011046042    1.3073554      750.39688     -45.136894      705.25998    
    219000   307.4434       0.011046042    3.8562058      762.77556     -44.970309      717.80525    
    220000   297.57297      0.011046042    11.221046      738.28675     -42.722155      695.56459    
    221000   300.24874      0.011046042    8.1814452      744.92539     -41.28094       703.64445    
    222000   299.45376      0.011046042    5.3166154      742.95303     -42.948599      700.00443    
    223000   295.41899      0.011046042    4.1953369      732.94265     -44.866095      688.07655    
    224000   307.98007      0.011046042    5.5332561      764.10705     -43.434165      720.67288    
    225000   298.51069      0.011046042    6.2332376      740.61324     -44.171421      696.44182    
    226000   287.12464      0.011046042    5.20019        712.36414     -43.681914      668.68223    
    227000   301.00087      0.011046042    6.0145846      746.79146     -45.050235      701.74122    
    228000   303.21842      0.011046042    7.4367993      752.29325     -45.767831      706.52542    
    229000   299.91728      0.011046042    5.1232867      744.10304     -43.785568      700.31748    
    230000   299.18336      0.011046042    4.0573582      742.28216     -46.938129      695.34403    
    231000   304.15281      0.011046042    10.221596      754.61152     -43.521353      711.09016    
    232000   303.80462      0.011046042    5.1417698      753.74763     -42.296065      711.45157    
    233000   296.82157      0.011046042    2.5649363      736.42251     -45.990795      690.43171    
    234000   294.79216      0.011046042    5.0761619      731.38748     -46.360021      685.02746    
    235000   319.86775      0.011046042    8.1372388      793.6007      -42.070043      751.53065    
    236000   297.77789      0.011046042    5.8801518      738.79515     -42.826683      695.96847    
    237000   304.06608      0.011046042    5.9321466      754.39633     -45.534391      708.86193    
    238000   302.16514      0.011046042    5.3497515      749.68005     -42.135061      707.54498    
    239000   289.42996      0.011046042    5.7900902      718.08372     -41.059461      677.02425    
    240000   297.35053      0.011046042    7.8867426      737.73486     -43.011807      694.72305    
    241000   295.12747      0.011046042    7.4195909      732.2194      -36.046129      696.17327    
    242000   309.6013       0.011046042    6.0328527      768.12937     -37.856499      730.27287    
    243000   303.54911      0.011046042    3.1053736      753.1137      -42.461299      710.65241    
    244000   282.32127      0.011046042    5.0505389      700.44686     -43.543999      656.90286    
    245000   303.27564      0.011046042    13.647628      752.43521     -42.011999      710.42321    
    246000   309.75527      0.011046042    4.3474105      768.51137     -44.449012      724.06236    
    247000   293.33095      0.011046042    4.5294175      727.76217     -44.655773      683.1064     
    248000   293.93893      0.011046042    5.8141774      729.27058     -43.071664      686.19892    
    249000   324.11468      0.011046042    9.462086       804.13746     -43.742218      760.39525    
    250000   307.92046      0.011046042    3.1699115      763.95916     -44.374865      719.58429    
    251000   283.96418      0.011046042    7.2973425      704.52296     -38.486675      666.03629    
    252000   303.66514      0.011046042    6.4497836      753.40157     -42.44117       710.9604     
    253000   304.77996      0.011046042    4.6276114      756.16748     -44.548989      711.61849    
    254000   297.49421      0.011046042    4.8031805      738.09135     -43.620418      694.47093    
    255000   292.36255      0.011046042    11.586863      725.35954     -38.332931      687.02661    
    256000   301.20724      0.011046042    4.4258005      747.30346     -39.682158      707.62131    
    257000   291.74229      0.011046042   -1.8996537      723.82066     -41.226288      682.59437    
    258000   304.28233      0.011046042    7.9266382      754.93286     -41.672595      713.26026    
    259000   313.63323      0.011046042    4.7813309      778.1327      -41.906793      736.22591    
    260000   286.78303      0.011046042   -0.86540491     711.5166      -45.324345      666.19225    
    261000   290.07083      0.011046042    2.3110132      719.67372     -47.657038      672.01669    
    262000   300.84926      0.011046042    13.788441      746.4153      -45.318897      701.09641    
    263000   317.40409      0.011046042    6.8879926      787.48829     -43.068657      744.41963    
    264000   295.65647      0.011046042    2.3849401      733.53184     -41.035736      692.49611    
    265000   289.3469       0.011046042    6.9942981      717.87763     -39.184599      678.69303    
    266000   308.35419      0.011046042    9.9980986      765.03526     -42.404763      722.63049    
    267000   304.72232      0.011046042    4.1655924      756.02448     -40.941048      715.08343    
    268000   300.1394       0.011046042    5.2087005      744.65412     -38.889815      705.7643     
    269000   302.70582      0.011046042    4.1191043      751.02148     -38.650489      712.37099    
    270000   292.82184      0.011046042    5.8020078      726.49905     -41.912102      684.58695    
    271000   300.69078      0.011046042    7.2231579      746.02211     -35.641567      710.38054    
    272000   306.47529      0.011046042    1.8400001      760.37365     -40.730198      719.64345    
    273000   289.26493      0.011046042    4.9300499      717.67428     -40.179011      677.49527    
    274000   295.48117      0.011046042    5.3494119      733.09693     -35.658258      697.43867    
    275000   296.34134      0.011046042    5.7295702      735.23102     -34.741851      700.48917    
    276000   308.98951      0.011046042    8.9391907      766.6115      -39.327904      727.2836     
    277000   283.43049      0.011046042    6.1149682      703.19885     -40.691758      662.50709    
    278000   300.27331      0.011046042    4.1764093      744.98636     -41.45957       703.52679    
    279000   314.58837      0.011046042    9.8438796      780.50241     -42.110086      738.39233    
    280000   297.19957      0.011046042    7.8831103      737.36032     -39.208449      698.15187    
    281000   287.61215      0.011046042   -0.35540709     713.57368     -33.692412      679.88126    
    282000   316.9569       0.011046042    5.2282389      786.3788      -38.365424      748.01338    
    283000   301.85897      0.011046042    7.2178769      748.92044     -36.74131       712.17913    
    284000   294.79338      0.011046042    1.9241377      731.39049     -40.86754       690.52295    
    285000   303.06602      0.011046042    6.7858908      751.91515     -37.737382      714.17777    
    286000   300.35245      0.011046042    7.8117832      745.18272     -35.002029      710.18069    
    287000   286.02843      0.011046042    4.5495368      709.64441     -34.373513      675.2709     
    288000   299.16357      0.011046042    3.867244       742.23306     -34.311466      707.92159    
    289000   317.93251      0.011046042    10.336605      788.79931     -31.436258      757.36306    
    290000   301.71201      0.011046042    6.6560123      748.55581     -33.979194      714.57661    
    291000   290.01784      0.011046042    2.6144839      719.54225     -37.033297      682.50895    
    292000   316.19648      0.011046042    2.0493843      784.49219     -38.181877      746.31031    
    293000   308.46881      0.011046042    6.5963143      765.31962     -41.902641      723.41698    
    294000   302.18841      0.011046042    5.3904047      749.73777     -40.354981      709.38279    
    295000   301.41261      0.011046042    4.8771817      747.81299     -36.506309      711.30668    
    296000   300.97387      0.011046042    5.8339987      746.72446     -34.902042      711.82241    
    297000   287.15253      0.011046042    5.145868       712.43334     -38.089342      674.34399    
    298000   304.31214      0.011046042    6.1460543      755.0068      -38.911681      716.09512    
    299000   304.55776      0.011046042    6.0059227      755.61619     -32.169584      723.44661    
    300000   281.05892      0.011046042    5.4273036      697.31492     -35.809519      661.5054     
    301000   300.69296      0.011046042    5.1070655      746.02753     -35.834105      710.19342    
    302000   315.24308      0.011046042    5.872683       782.12678     -34.323191      747.80359    
    303000   294.25455      0.011046042    7.767345       730.05365     -30.630127      699.42352    
    304000   292.84916      0.011046042    3.0036541      726.56685     -36.752333      689.81451    
    305000   305.5084       0.011046042    5.7301303      757.97477     -37.03484       720.93993    
    306000   299.47087      0.011046042    8.3901794      742.99548     -38.71752       704.27796    
    307000   295.04239      0.011046042    4.1670581      732.00831     -35.817327      696.19098    
    308000   309.00589      0.011046042    7.6013799      766.65214     -41.430541      725.22159    
    309000   306.05266      0.011046042    5.7547509      759.32509     -42.696722      716.62837    
    310000   291.66881      0.011046042    4.5878267      723.63835     -37.990157      685.6482     
    311000   305.7847       0.011046042    6.5296688      758.66027     -37.207975      721.45229    
    312000   314.70142      0.011046042    5.6408909      780.7829      -39.008152      741.77475    
    313000   292.85424      0.011046042    5.8410898      726.57944     -37.319014      689.26043    
    314000   296.91168      0.011046042    6.5493587      736.64606     -35.249963      701.39609    
    315000   311.46646      0.011046042    6.2128204      772.75688     -33.923114      738.83377    
    316000   301.65946      0.011046042    6.4292088      748.42544     -34.295283      714.13016    
    317000   305.98171      0.011046042    2.3103469      759.14905     -33.921703      725.22734    
    318000   300.03586      0.011046042    7.0598136      744.39724     -32.927681      711.46956    
    319000   295.03577      0.011046042    6.8986852      731.99188     -33.404542      698.58733    
    320000   305.06104      0.011046042    3.7269476      756.86484     -33.928882      722.93596    
    321000   301.91033      0.011046042    5.9399554      749.04785     -36.631959      712.41589    
    322000   299.72839      0.011046042    6.5539625      743.63441     -37.842418      705.79199    
    323000   292.61254      0.011046042    5.6462528      725.97977     -33.125319      692.85445    
    324000   298.31308      0.011046042    5.4141911      740.12297     -35.382885      704.74008    
    325000   306.99942      0.011046042    1.4812354      761.67403     -35.840633      725.8334     
    326000   293.54104      0.011046042    8.1968668      728.2834      -31.428258      696.85514    
    327000   310.45847      0.011046042    6.267145       770.25601     -39.651225      730.60479    
    328000   298.96349      0.011046042    6.2568518      741.73666     -36.11957       705.61709    
    329000   299.22718      0.011046042    5.1588502      742.39088     -32.903637      709.48725    
    330000   307.76323      0.011046042    6.1508961      763.56906     -31.25854       732.31052    
    331000   303.58535      0.011046042    6.9648669      753.20362     -31.986686      721.21694    
    332000   304.4025       0.011046042    6.0108379      755.23098     -29.207709      726.02327    
    333000   293.78223      0.011046042    6.0602027      728.88181     -30.77711       698.1047     
    334000   304.37781      0.011046042    6.1678152      755.16973     -32.06114       723.10859    
    335000   330.16379      0.011046042    6.2904206      819.14548     -30.606157      788.53932    
    336000   300.22263      0.011046042    4.6151977      744.86063     -33.699917      711.16071    
    337000   286.60768      0.011046042    5.9883379      711.08155     -33.536872      677.54468    
    338000   301.46254      0.011046042    8.2382628      747.93687     -32.717339      715.21953    
    339000   309.29668      0.011046042    6.6298483      767.3736      -32.944681      734.42892    
    340000   291.13564      0.011046042    3.7655008      722.31555     -34.047607      688.26795    
    341000   288.13915      0.011046042    6.2902319      714.88119     -32.925648      681.95554    
    342000   295.27973      0.011046042    6.5515765      732.59715     -29.578561      703.01859    
    343000   319.06444      0.011046042    6.0992537      791.60768     -29.831442      761.77624    
    344000   302.71825      0.011046042    6.3881559      751.05233     -31.681503      719.37083    
    345000   295.0673       0.011046042    6.9506032      732.07011     -33.681987      698.38813    
    346000   301.86772      0.011046042    5.0834216      748.94213     -33.419416      715.52271    
    347000   299.49834      0.011046042    5.4186231      743.06365     -33.651051      709.41259    
    348000   314.18184      0.011046042    6.2647569      779.4938      -31.933039      747.56076    
    349000   297.18063      0.011046042    5.8314395      737.31333     -32.266993      705.04633    
    350000   291.91775      0.011046042    6.1342954      724.25599     -31.00876       693.24723    
    351000   305.27312      0.011046042    4.7921211      757.39102     -30.017333      727.37368    
    352000   297.3652       0.011046042    5.7447091      737.77126     -29.412824      708.35843    
    353000   295.08548      0.011046042    6.195947       732.11522     -27.58247       704.53275    
    354000   292.63774      0.011046042    9.2399029      726.0423      -26.040445      700.00186    
    355000   292.39224      0.011046042    6.1299328      725.43321     -29.876712      695.5565     
    356000   304.10765      0.011046042    6.5299018      754.49945     -26.366904      728.13255    
    357000   300.80308      0.011046042    1.0962153      746.30073     -27.352832      718.9479     
    358000   304.31684      0.011046042    7.0831954      755.01847     -32.114197      722.90428    
    359000   305.71112      0.011046042    6.7341643      758.47772     -30.864927      727.6128     
    360000   289.20741      0.011046042    4.3126244      717.53156     -26.750062      690.7815     
    361000   299.0703       0.011046042    5.9445171      742.00165     -28.81215       713.1895     
    362000   297.62372      0.011046042    5.081321       738.41265     -26.021924      712.39072    
    363000   307.01651      0.011046042    6.3714453      761.71642     -28.436938      733.27948    
    364000   308.59793      0.011046042    9.5875198      765.63998     -25.575108      740.06487    
    365000   303.91504      0.011046042    4.9428403      754.02158     -30.394462      723.62712    
    366000   289.29144      0.011046042    5.7941704      717.74003     -27.115717      690.62432    
    367000   291.17447      0.011046042    6.8995381      722.41188     -27.862878      694.549      
    368000   320.51266      0.011046042    7.8355349      795.20075     -32.431384      762.76936    
    369000   309.25753      0.011046042    4.6091855      767.27647     -32.155225      735.12124    
    370000   288.71784      0.011046042    4.0783394      716.31692     -31.280097      685.03683    
    371000   290.88212      0.011046042    7.0209852      721.68656     -31.86016       689.8264     
    372000   311.87128      0.011046042    8.2174642      773.76123     -33.753982      740.00725    
    373000   302.83361      0.011046042    5.1426558      751.33854     -30.603741      720.7348     
    374000   285.37527      0.011046042    8.2668458      708.02391     -31.517586      676.50633    
    375000   303.54291      0.011046042    5.4968849      753.09832     -31.19669       721.90163    
    376000   306.32321      0.011046042    6.1840335      759.99634     -35.295166      724.70117    
    377000   296.92755      0.011046042    3.4022584      736.68543     -30.761939      705.92349    
    378000   294.90511      0.011046042    7.042885       731.66769     -30.9036        700.76409    
    379000   297.82982      0.011046042    6.5247319      738.924       -31.293677      707.63032    
    380000   303.64456      0.011046042    5.8319719      753.35053     -34.259402      719.09113    
    381000   298.61529      0.011046042    3.8278156      740.87277     -28.095287      712.77749    
    382000   296.35926      0.011046042    6.7406929      735.27549     -31.353451      703.92204    
    383000   300.19529      0.011046042    6.9113064      744.79279     -29.354257      715.43853    
    384000   303.9363       0.011046042    3.7416288      754.07435     -32.248087      721.82626    
    385000   300.52112      0.011046042    4.925179       745.60118     -34.113241      711.48794    
    386000   297.70019      0.011046042    6.3645829      738.60238     -33.976872      704.6255     
    387000   294.15786      0.011046042    6.4703203      729.81376     -32.463026      697.35074    
    388000   304.98051      0.011046042    4.7285723      756.66506     -29.366969      727.29809    
    389000   306.47067      0.011046042    4.0187889      760.36218     -32.296189      728.06599    
    390000   302.08657      0.011046042    6.5180937      749.4851      -34.141569      715.34353    
    391000   299.1521       0.011046042    7.7396236      742.2046      -32.375078      709.82952    
    392000   302.97485      0.011046042    1.7348191      751.68897     -32.442429      719.24654    
    393000   300.78876      0.011046042    5.0213869      746.26521     -29.024611      717.2406     
    394000   284.85554      0.011046042    9.2267268      706.73445     -30.141573      676.59288    
    395000   293.23228      0.011046042    6.4341133      727.51736     -30.821167      696.6962     
    396000   318.79516      0.011046042    6.1500148      790.93959     -36.264065      754.67552    
    397000   305.30218      0.011046042    5.5731043      757.46312     -33.707628      723.75549    
    398000   303.58886      0.011046042    5.2194639      753.21233     -28.875352      724.33698    
    399000   302.08994      0.011046042    3.8681639      749.49347     -27.783587      721.70988    
    400000   304.46797      0.011046042    5.6184919      755.39343     -26.798205      728.59522    
    401000   288.22286      0.011046042    6.2037654      715.08887     -24.786898      690.30197    
    402000   296.59414      0.011046042    5.9543868      735.85822     -25.833534      710.02469    
    403000   295.2624       0.011046042    5.6947363      732.55415     -25.36984       707.18431    
    404000   295.5786       0.011046042    6.0524557      733.33865     -23.083975      710.25468    
    405000   309.01795      0.011046042    4.5776736      766.68205     -23.960971      742.72108    
    406000   299.8405       0.011046042    6.9627455      743.91253     -25.917557      717.99498    
    407000   266.45639      0.011046042    5.778796       661.08565     -24.284887      636.80076    
    408000   295.96454      0.011046042    2.5832005      734.29617     -23.081551      711.21462    
    409000   321.31585      0.011046042    5.2876744      797.19347     -26.287697      770.90577    
    410000   307.1339       0.011046042    9.1354064      762.00767     -23.755767      738.2519     
    411000   290.66051      0.011046042    8.8603119      721.13673     -25.757417      695.37931    
    412000   293.21891      0.011046042    3.2757115      727.4842      -23.874015      703.61018    
    413000   307.5788       0.011046042    6.5516237      763.11148     -28.974013      734.13747    
    414000   296.46959      0.011046042    6.8287658      735.54924     -30.057457      705.49178    
    415000   286.70478      0.011046042    5.4823211      711.32246     -26.915597      684.40686    
    416000   310.39495      0.011046042    4.5771875      770.09842     -30.103335      739.99509    
    417000   312.03476      0.011046042    6.6685852      774.16684     -29.481325      744.68552    
    418000   300.17113      0.011046042    9.7360853      744.73285     -23.701145      721.03171    
    419000   290.21344      0.011046042    6.0031078      720.02754     -28.164193      691.86335    
    420000   280.15665      0.011046042    3.1941133      695.07637     -27.669156      667.40721    
    421000   305.0877       0.011046042    5.8539196      756.931       -28.733733      728.19726    
    422000   305.22441      0.011046042    6.0580108      757.27018     -32.153529      725.11665    
    423000   308.12253      0.011046042    5.8223872      764.46049     -32.081862      732.37863    
    424000   292.76207      0.011046042    5.5024247      726.35076     -30.961342      695.38941    
    425000   289.44797      0.011046042    5.8032821      718.12839     -28.779611      689.34878    
    426000   312.46845      0.011046042    6.0685118      775.24285     -28.426787      746.81606    
    427000   309.85179      0.011046042    6.1414019      768.75083     -24.766905      743.98392    
    428000   300.29488      0.011046042    6.5002233      745.03987     -27.112825      717.92705    
    429000   292.16063      0.011046042    5.602572       724.85856     -23.171825      701.68674    
    430000   307.05688      0.011046042    5.2851859      761.81659     -22.958632      738.85796    
    431000   297.14423      0.011046042    5.9812066      737.22302     -21.536258      715.68676    
    432000   295.98679      0.011046042    7.6140636      734.35139     -28.517816      705.83358    
    433000   293.98934      0.011046042    6.4048191      729.39565     -22.459913      706.93573    
    434000   313.25036      0.011046042    4.3748795      777.18279     -22.20247       754.98032    
    435000   308.57767      0.011046042    7.4439609      765.58971     -18.541745      747.04797    
    436000   300.72308      0.011046042    14.12917       746.10226     -18.387441      727.71482    
    437000   299.1114       0.011046042    5.6978306      742.10364     -21.892657      720.21098    
    438000   293.86646      0.011046042   -0.62811802     729.09078     -21.366822      707.72396    
    439000   306.15126      0.011046042    7.0358096      759.56972     -24.209734      735.35999    
    440000   292.61352      0.011046042    7.0276883      725.98221     -20.960502      705.02171    
    441000   295.01723      0.011046042    4.6191965      731.94588     -22.792132      709.15375    
    442000   302.08121      0.011046042    2.8736824      749.47182     -22.766736      726.70508    
    443000   310.07055      0.011046042    16.935009      769.29359     -21.437299      747.85629    
    444000   307.05261      0.011046042    6.8107431      761.80599     -19.979419      741.82657    
    445000   307.0259       0.011046042    7.3528342      761.73973     -21.443352      740.29638    
    446000   283.26624      0.011046042    16.666497      702.79136     -20.996864      681.7945     
    447000   297.96195      0.011046042    3.6272609      739.25182     -23.324374      715.92745    
    448000   308.56967      0.011046042    4.5363602      765.56986     -26.682655      738.8872     
    449000   307.69321      0.011046042    14.848511      763.39534     -25.634253      737.76109    
    450000   295.64111      0.011046042   -1.5694409      733.49374     -25.393593      708.10015    
    451000   295.17161      0.011046042   -2.4498122      732.32891     -26.990102      705.33881    
    452000   299.51495      0.011046042    11.590117      743.10485     -24.535086      718.56976    
    453000   303.62532      0.011046042    11.109323      753.30279     -24.708634      728.59415    
    454000   289.92679      0.011046042    8.1250363      719.31636     -22.741514      696.57485    
    455000   289.60179      0.011046042    2.0169069      718.51002     -22.207016      696.303      
    456000   305.36353      0.011046042    2.3594706      757.61533     -29.977735      727.63759    
    457000   303.39252      0.011046042    2.6476831      752.72522     -29.056084      723.66913    
    458000   306.77328      0.011046042    17.050597      761.11295     -26.282148      734.8308     
    459000   300.68521      0.011046042    5.3850634      746.0083      -23.248765      722.75953    
    460000   309.49737      0.011046042    5.295022       767.87149     -21.297075      746.57442    
    461000   317.08384      0.011046042    10.394996      786.69375     -26.366035      760.32771    
    462000   295.85616      0.011046042    6.6361759      734.02728     -20.827517      713.19977    
    463000   308.01674      0.011046042    6.1719732      764.19803     -22.014154      742.18387    
    464000   296.49074      0.011046042    4.8332         735.60171     -24.349328      711.25238    
    465000   308.56627      0.011046042    4.8611175      765.56143     -28.272746      737.28868    
    466000   301.26735      0.011046042    6.3471484      747.45261     -20.112489      727.34012    
    467000   287.2426       0.011046042    5.6304495      712.6568      -17.515241      695.14156    
    468000   308.76177      0.011046042    5.1546256      766.04646     -19.081126      746.96533    
    469000   305.9741       0.011046042    10.213707      759.13018     -20.760352      738.36983    
    470000   297.85724      0.011046042    7.4667449      738.99202     -18.506677      720.48534    
    471000   298.68057      0.011046042    2.5084031      741.03473     -19.585709      721.44902    
    472000   313.48723      0.011046042    3.5401184      777.77045     -17.161811      760.60864    
    473000   297.14408      0.011046042    6.8817126      737.22265     -19.741941      717.48071    
    474000   302.13401      0.011046042    9.0748422      749.60281     -23.113616      726.48919    
    475000   300.63368      0.011046042    6.1449242      745.88044     -22.035303      723.84513    
    476000   305.73887      0.011046042    3.3549249      758.54656     -27.087473      731.45909    
    477000   306.51151      0.011046042    7.4814633      760.4635      -25.375712      735.08779    
    478000   294.70934      0.011046042    11.128687      731.182       -26.210125      704.97187    
    479000   293.80822      0.011046042    4.2487639      728.9463      -23.224669      705.72163    
    480000   300.29004      0.011046042    3.1444653      745.02786     -22.703436      722.32442    
    481000   305.00242      0.011046042    7.9301534      756.7194      -21.666425      735.05298    
    482000   299.98916      0.011046042    5.671518       744.28138     -25.964489      718.31689    
    483000   290.28415      0.011046042    8.9232434      720.20298     -24.276701      695.92628    
    484000   293.70033      0.011046042    10.509586      728.67861     -24.047626      704.63098    
    485000   295.17132      0.011046042    8.5983807      732.32818     -25.315582      707.01259    
    486000   292.95414      0.011046042    5.5871631      726.82729     -22.660244      704.16705    
    487000   310.61255      0.011046042    4.4531721      770.63831     -25.19608       745.44223    
    488000   310.7638       0.011046042    7.5996288      771.01356     -24.697         746.31656    
    489000   281.10018      0.011046042    3.8375853      697.41729     -25.597519      671.81977    
    490000   302.67086      0.011046042    5.4170258      750.93475     -29.248569      721.68618    
    491000   312.70118      0.011046042    6.1213311      775.82026     -30.412791      745.40747    
    492000   304.75054      0.011046042    4.3061166      756.09449     -26.998409      729.09609    
    493000   283.94209      0.011046042    5.0250952      704.46816     -25.200294      679.26786    
    494000   283.83286      0.011046042    6.5869052      704.19715     -27.414295      676.78286    
    495000   302.72633      0.011046042    8.5610468      751.07237     -26.707457      724.36492    
    496000   304.89134      0.011046042    10.665437      756.44381     -23.029191      733.41462    
    497000   294.25124      0.011046042    5.6508284      730.04545     -25.165659      704.87979    
    498000   306.37701      0.011046042    2.8459888      760.1298      -24.521972      735.60783    
    499000   304.63479      0.011046042    3.2301805      755.80731     -25.14207       730.66524    
    500000   284.70858      0.011046042    12.053644      706.36983     -26.27715       680.09268    
    501000   310.34193      0.011046042    11.06547       769.96688     -26.965832      743.00105    
    502000   318.32337      0.011046042    6.688873       789.76906     -27.853916      761.91514    
    503000   308.09071      0.011046042    3.0760682      764.38155     -29.989252      734.3923     
    504000   282.3949       0.011046042    23.7496        700.62952     -23.610239      677.01928    
    505000   295.98908      0.011046042    6.4173335      734.35708     -24.852564      709.50451    
    506000   307.2249       0.011046042    6.5173981      762.23345     -25.601839      736.63161    
    507000   302.77859      0.011046042    4.4471735      751.20203     -22.374173      728.82786    
    508000   295.88254      0.011046042    4.2803529      734.09273     -23.611196      710.48153    
    509000   299.4827       0.011046042    1.0968471      743.02482     -24.410956      718.61387    
    510000   305.65147      0.011046042    10.608171      758.32973     -27.306523      731.02321    
    511000   300.74149      0.011046042   -1.2682122      746.14793     -27.946721      718.20121    
    512000   292.71675      0.011046042    6.2841081      726.23834     -21.285695      704.95264    
    513000   310.09968      0.011046042    8.013496       769.36585     -25.929288      743.43656    
    514000   296.18515      0.011046042   -1.0020333      734.84351     -27.253426      707.59008    
    515000   291.25924      0.011046042    3.4873863      722.62221     -25.734816      696.8874     
    516000   294.6032       0.011046042    7.443055       730.91867     -25.026724      705.89195    
    517000   311.10071      0.011046042    8.4355963      771.84944     -22.127878      749.72157    
    518000   313.99828      0.011046042    6.4514095      779.03838     -22.488025      756.55036    
    519000   289.10272      0.011046042    5.3212684      717.27181     -27.233352      690.03846    
    520000   303.14001      0.011046042    6.817011       752.09871     -24.547245      727.55147    
    521000   315.38322      0.011046042    4.2254498      782.47447     -27.673306      754.80116    
    522000   299.9674       0.011046042    4.7633589      744.22738     -24.714061      719.51332    
    523000   284.69412      0.011046042    6.3044874      706.33395     -24.697467      681.63648    
    524000   296.17867      0.011046042    7.3974626      734.82745     -27.533594      707.29386    
    525000   319.17072      0.011046042    4.2232041      791.87137     -25.691816      766.17955    
    526000   291.56004      0.011046042    5.5147341      723.36851     -26.115198      697.25331    
    527000   301.88275      0.011046042    8.6861374      748.97943     -24.918291      724.06114    
    528000   317.81442      0.011046042    6.0276065      788.50633     -22.35748       766.14885    
    529000   316.67915      0.011046042    4.5335881      785.68969     -25.49622       760.19347    
    530000   298.90251      0.011046042    5.8715359      741.58536     -27.507493      714.07786    
    531000   287.48197      0.011046042    5.9456629      713.25069     -24.200403      689.05029    
    532000   302.04494      0.011046042    5.5936815      749.38182     -20.104406      729.27742    
    533000   322.60659      0.011046042    6.684839       800.39585     -20.730237      779.66562    
    534000   293.92343      0.011046042    6.600588       729.23213     -16.053516      713.17861    
    535000   291.15737      0.011046042    6.8895324      722.36946     -19.098589      703.27087    
    536000   307.09614      0.011046042    6.7186901      761.914       -20.600326      741.31367    
    537000   312.56277      0.011046042    4.7828769      775.47685     -19.673804      755.80304    
    538000   292.39882      0.011046042    4.5668705      725.44954     -23.655387      701.79415    
    539000   299.37074      0.011046042    8.0957301      742.74705     -24.627787      718.11926    
    540000   306.01049      0.011046042    5.8368509      759.22045     -22.952535      736.26791    
    541000   298.19164      0.011046042    3.2296331      739.82169     -24.446352      715.37534    
    542000   294.12552      0.011046042    6.9794627      729.73353     -24.112378      705.62115    
    543000   305.08449      0.011046042    8.3712313      756.92303     -26.155258      730.76777    
    544000   305.50325      0.011046042    4.0451806      757.96198     -23.496887      734.46509    
    545000   310.37066      0.011046042    4.9023312      770.03815     -22.408159      747.62999    
    546000   298.79399      0.011046042    7.3847067      741.31613     -26.518325      714.79781    
    547000   297.20509      0.011046042    9.1294457      737.37402     -27.039034      710.33499    
    548000   302.15757      0.011046042    5.2114066      749.66127     -25.957033      723.70423    
    549000   307.36166      0.011046042    7.7680221      762.57275     -23.841516      738.73124    
    550000   296.79154      0.011046042    5.4780038      736.34799     -22.786274      713.56171    
    551000   289.0452       0.011046042    0.75454062     717.12912     -24.681643      692.44748    
    552000   295.37633      0.011046042    5.7281912      732.83682     -24.482508      708.35431    
    553000   305.89061      0.011046042    7.6647837      758.92304     -22.280803      736.64224    
    554000   306.71273      0.011046042    6.2443096      760.96275     -21.125598      739.83715    
    555000   299.95972      0.011046042    6.6181968      744.20832     -19.572397      724.63593    
    556000   301.97415      0.011046042    5.9897682      749.2062      -20.543043      728.66315    
    557000   304.2444       0.011046042    6.0516107      754.83875     -21.665334      733.17341    
    558000   291.41917      0.011046042    5.8658982      723.01899     -21.784859      701.23413    
    559000   316.04923      0.011046042    6.5672005      784.12685     -20.339442      763.78741    
    560000   298.51067      0.011046042    5.4036856      740.61321     -21.190588      719.42262    
    561000   299.49231      0.011046042    7.1651883      743.04869     -20.678236      722.37045    
    562000   298.41615      0.011046042    6.2303419      740.3787      -20.67874       719.69996    
    563000   303.63713      0.011046042    3.5939999      753.33208     -21.992592      731.33949    
    564000   297.44306      0.011046042    4.6567823      737.96443     -26.355324      711.60911    
    565000   293.61063      0.011046042    10.395034      728.45606     -25.593788      702.86227    
    566000   299.65958      0.011046042    6.9713431      743.46368     -26.220942      717.24274    
    567000   299.54616      0.011046042    0.74837894     743.18228     -29.104101      714.07818    
    568000   303.03213      0.011046042    6.3406733      751.83107     -25.374133      726.45694    
    569000   302.56804      0.011046042    10.83481       750.67965     -17.391213      733.28843    
    570000   296.33338      0.011046042    2.5598145      735.21129     -20.746666      714.46463    
    571000   283.1427       0.011046042    5.2107909      702.48484     -15.996844      686.488      
    572000   314.31626      0.011046042    6.9168572      779.82731     -18.251099      761.57621    
    573000   304.33809      0.011046042    4.3932993      755.07118     -19.67388       735.3973     
    574000   290.13767      0.011046042    6.7558852      719.83955     -21.301133      698.53841    
    575000   299.43486      0.011046042    7.4010637      742.90613     -22.786128      720.12       
    576000   301.95446      0.011046042    6.6816955      749.15734     -22.242539      726.9148     
    577000   303.80177      0.011046042    4.8127347      753.74058     -25.892893      727.84769    
    578000   286.02034      0.011046042    6.1031525      709.62434     -28.335086      681.28925    
    579000   304.09234      0.011046042    7.7558493      754.46147     -24.009061      730.4524     
    580000   312.52458      0.011046042    5.4972499      775.38211     -24.680062      750.70205    
    581000   280.63217      0.011046042    4.2655476      696.25615     -22.582304      673.67384    
    582000   299.67253      0.011046042    6.237877       743.4958      -26.042162      717.45364    
    583000   312.22262      0.011046042    5.7745506      774.63293     -24.360824      750.2721     
    584000   301.4209       0.011046042    4.6721455      747.83357     -29.736009      718.09756    
    585000   286.5126       0.011046042    6.5931603      710.84565     -29.389162      681.45649    
    586000   308.77875      0.011046042    6.5436102      766.08859     -24.674026      741.41456    
    587000   306.37432      0.011046042    5.4144316      760.12314     -25.030503      735.09264    
    588000   287.79894      0.011046042    5.2420799      714.03711     -22.266524      691.77059    
    589000   297.30355      0.011046042    6.2254707      737.6183      -19.7597        717.8586     
    590000   315.41275      0.011046042    9.2769717      782.54772     -21.553573      760.99415    
    591000   301.35667      0.011046042    4.7636985      747.67419     -18.572257      729.10194    
    592000   289.97995      0.011046042    7.0514315      719.44826     -18.638945      700.80931    
    593000   300.60892      0.011046042    8.1862812      745.81903     -15.596671      730.22236    
    594000   315.69577      0.011046042    3.4375451      783.24992     -15.351706      767.89821    
    595000   296.14826      0.011046042    3.940197       734.75199     -22.751041      712.00095    
    596000   287.34656      0.011046042    11.964369      712.91474     -21.262969      691.65177    
    597000   308.14531      0.011046042    7.3829639      764.51702     -25.133069      739.38395    
    598000   309.68466      0.011046042   -1.1275706      768.33617     -24.22366       744.11251    
    599000   297.78086      0.011046042    5.8476123      738.80252     -26.53933       712.26319    
    600000   305.35616      0.011046042    13.912427      757.59705     -23.832093      733.76495    
    601000   308.84474      0.011046042    3.5989808      766.2523      -24.267985      741.98432    
    602000   299.14467      0.011046042    3.0445655      742.18617     -24.533207      717.65296    
    603000   294.80393      0.011046042    6.0203503      731.41668     -22.747666      708.66901    
    604000   289.7145       0.011046042    7.3666154      718.78966     -23.513303      695.27636    
    605000   301.37951      0.011046042    6.3676304      747.73087     -23.19968       724.53119    
    606000   298.51518      0.011046042    5.7798175      740.62438     -21.111032      719.51335    
    607000   306.41662      0.011046042    5.8787061      760.22809     -20.847191      739.3809     
    608000   297.08907      0.011046042    6.3258969      737.08617     -25.236512      711.84966    
    609000   308.43672      0.011046042    6.6895739      765.23999     -25.775254      739.46474    
    610000   306.85047      0.011046042    5.4096667      761.30447     -22.226199      739.07827    
    611000   292.08772      0.011046042    6.6519734      724.67768     -23.035893      701.64178    
    612000   296.40125      0.011046042    6.8553544      735.37967     -26.068419      709.31125    
    613000   316.96888      0.011046042    8.7277416      786.40854     -24.770989      761.63755    
    614000   298.44712      0.011046042    3.773666       740.45553     -23.299881      717.15565    
    615000   292.06222      0.011046042    10.537725      724.61442     -23.864471      700.74995    
    616000   296.55479      0.011046042    6.4336578      735.7606      -20.756064      715.00453    
    617000   295.93142      0.011046042    2.5922182      734.214       -24.199351      710.01465    
    618000   307.57547      0.011046042    7.9298939      763.10322     -27.091465      736.01176    
    619000   305.53668      0.011046042    6.921157       758.04493     -25.679379      732.36555    
    620000   293.96398      0.011046042    3.1456211      729.33275     -28.28841       701.04434    
    621000   296.34485      0.011046042    5.1563032      735.23975     -23.795276      711.44447    
    622000   305.61975      0.011046042    9.7597116      758.25104     -23.084014      735.16702    
    623000   304.96183      0.011046042    12.082915      756.6187      -26.781773      729.83692    
    624000   307.0528       0.011046042    8.450783       761.80647     -21.972579      739.83389    
    625000   298.9445       0.011046042   -6.4260563      741.68953     -19.756303      721.93323    
    626000   296.28652      0.011046042    8.8142819      735.09502     -20.772341      714.32268    
    627000   294.94382      0.011046042    9.9568009      731.76374     -21.8304        709.93334    
    628000   303.96558      0.011046042    8.1142554      754.14699     -26.475731      727.67126    
    629000   295.7805       0.011046042    1.987405       733.83958     -25.467627      708.37195    
    630000   293.44475      0.011046042    7.8078157      728.04452     -26.094994      701.94953    
    631000   303.77471      0.011046042    8.2133035      753.67342     -25.820383      727.85304    
    632000   294.35481      0.011046042   -3.8052423      730.3024      -21.258798      709.0436     
    633000   289.84443      0.011046042    8.7038163      719.11201     -22.110861      697.00115    
    634000   302.17604      0.011046042    12.766956      749.70708     -26.762583      722.9445     
    635000   306.93847      0.011046042    9.3326579      761.52281     -22.035821      739.48699    
    636000   305.41824      0.011046042    0.036558013    757.75108     -21.667038      736.08404    
    637000   286.35812      0.011046042    2.2279047      710.4624      -21.02175       689.44065    
    638000   307.77099      0.011046042    6.3612631      763.58831     -22.58376       741.00455    
    639000   314.10747      0.011046042    4.6772278      779.3093      -24.420425      754.88888    
    640000   305.43795      0.011046042    5.1476737      757.79998     -25.541873      732.25811    
    641000   294.50862      0.011046042    1.6456252      730.684       -18.585187      712.09881    
    642000   286.86077      0.011046042    9.844531       711.70949     -24.759207      686.95028    
    643000   306.52895      0.011046042    6.8105556      760.50678     -24.248333      736.25844    
    644000   304.28459      0.011046042    5.1724872      754.93845     -20.940213      733.99824    
    645000   289.39095      0.011046042    5.1184799      717.98693     -23.970624      694.01631    
    646000   299.75359      0.011046042    7.0155853      743.69692     -28.169951      715.52697    
    647000   301.99624      0.011046042    5.9529866      749.261       -28.417658      720.84334    
    648000   288.76155      0.011046042    6.1554063      716.42537     -25.530652      690.89472    
    649000   291.53203      0.011046042    5.6208825      723.29901     -27.039821      696.25919    
    650000   307.38703      0.011046042    3.9791051      762.63568     -25.094388      737.5413     
    651000   297.39035      0.011046042    6.679274       737.83366     -19.650686      718.18297    
    652000   307.03473      0.011046042    8.1696836      761.76163     -22.020715      739.74091    
    653000   299.3824       0.011046042    5.5509939      742.77598     -19.989241      722.78674    
    654000   294.88741      0.011046042    5.5368217      731.6238      -23.137298      708.4865     
    655000   302.34144      0.011046042    6.3229411      750.11745     -23.151464      726.96599    
    656000   304.97127      0.011046042    5.9114484      756.64213     -24.620482      732.02164    
    657000   304.01646      0.011046042    4.288584       754.27322     -24.492873      729.78034    
    658000   301.62594      0.011046042    6.09604        748.34227     -27.165281      721.17699    
    659000   293.2426       0.011046042    7.0089548      727.54298     -23.827728      703.71525    
    660000   303.07896      0.011046042    5.5495491      751.94725     -27.991019      723.95623    
    661000   314.34138      0.011046042    6.7537061      779.88962     -23.835879      756.05374    
    662000   304.35725      0.011046042    6.2501097      755.11873     -25.83701       729.28172    
    663000   280.55703      0.011046042    5.1969088      696.06971     -28.235447      667.83427    
    664000   318.21714      0.011046042    6.9370673      789.5055      -25.906766      763.59873    
    665000   313.44895      0.011046042    4.4045019      777.67548     -24.915932      752.75955    
    666000   294.01595      0.011046042    6.9320552      729.46167     -25.279568      704.18211    
    667000   295.64918      0.011046042    7.9913475      733.51375     -25.086355      708.4274     
    668000   305.0777       0.011046042    5.9013259      756.90618     -24.346997      732.55919    
    669000   317.17835      0.011046042    6.9065461      786.92823     -26.022841      760.90539    
    670000   303.00279      0.011046042    6.7436946      751.75828     -24.051806      727.70647    
    671000   284.64214      0.011046042    5.9739304      706.20501     -21.770209      684.4348     
    672000   296.62027      0.011046042    5.1476625      735.92307     -20.423248      715.49983    
    673000   309.10785      0.011046042    5.7294893      766.9051      -20.641487      746.26362    
    674000   311.85345      0.011046042    7.0283689      773.71702     -19.371152      754.34586    
    675000   299.65628      0.011046042    7.6769482      743.45549     -22.718104      720.73739    
    676000   299.67159      0.011046042    6.1273185      743.49347     -26.460543      717.03293    
    677000   305.41328      0.011046042    6.0528374      757.73877     -26.101229      731.63754    
    678000   305.50598      0.011046042    5.6021958      757.96876     -26.695996      731.27276    
    679000   303.24149      0.011046042    9.932547       752.3505      -24.803827      727.54667    
    680000   292.24118      0.011046042    8.1037549      725.05841     -26.925458      698.13295    
    681000   295.77762      0.011046042    4.6212579      733.83243     -23.77675       710.05568    
    682000   307.24847      0.011046042    5.589252       762.29193     -24.117132      738.1748     
    683000   299.38923      0.011046042    7.951421       742.79294     -26.275952      716.51698    
    684000   297.95294      0.011046042    1.0683451      739.22946     -28.068975      711.16048    
    685000   307.08415      0.011046042    9.3153089      761.88423     -28.20405       733.68018    
    686000   301.82374      0.011046042    6.0372189      748.83303     -25.971155      722.86187    
    687000   288.87788      0.011046042    0.69400043     716.71397     -25.382772      691.3312     
    688000   303.50798      0.011046042    7.0198377      753.01167     -28.560428      724.45125    
    689000   300.36824      0.011046042    6.9872724      745.22188     -26.733031      718.48885    
    690000   291.2201       0.011046042    5.6901604      722.5251      -27.922404      694.6027     
    691000   299.21015      0.011046042    5.4727452      742.34864     -28.052996      714.29564    
    692000   301.76779      0.011046042    8.0000854      748.6942      -22.660073      726.03412    
    693000   295.64985      0.011046042    7.2956825      733.51543     -27.442425      706.07301    
    694000   301.56471      0.011046042    4.3932728      748.19035     -29.545623      718.64472    
    695000   305.83868      0.011046042    5.4748123      758.7942      -28.683569      730.11063    
    696000   291.59332      0.011046042    8.3882127      723.45106     -26.527929      696.92313    
    697000   309.95778      0.011046042    4.9337572      769.0138      -27.688321      741.32548    
    698000   311.09055      0.011046042    3.2366128      771.82423     -26.533105      745.29112    
    699000   296.77907      0.011046042    7.2386084      736.31705     -21.316616      715.00044    
    700000   289.79177      0.011046042    4.9367411      718.98136     -21.260292      697.72107    
    701000   292.17536      0.011046042    1.3819542      724.89513     -26.290711      698.60442    
    702000   313.17132      0.011046042    1.0732605      776.98668     -24.476208      752.51048    
    703000   300.93685      0.011046042    7.262235       746.63262     -21.316053      725.31656    
    704000   281.23883      0.011046042    6.113156       697.76128     -17.270806      680.49047    
    705000   306.19632      0.011046042    5.298204       759.6815      -20.134124      739.54738    
    706000   304.06312      0.011046042    5.9689303      754.38899     -19.602333      734.78665    
    707000   288.37133      0.011046042    7.1175212      715.45722     -22.124804      693.33242    
    708000   295.45272      0.011046042    1.1344181      733.02635     -19.967019      713.05933    
    709000   322.36588      0.011046042    4.4743114      799.79863     -18.807561      780.99107    
    710000   300.96493      0.011046042    7.3594416      746.70229     -23.943189      722.7591     
    711000   299.76655      0.011046042    6.1593001      743.72907     -26.768953      716.96012    
    712000   303.42051      0.011046042    5.7641224      752.79465     -25.228832      727.56581    
    713000   300.41152      0.011046042    6.8931255      745.32927     -23.73138       721.59789    
    714000   295.22351      0.011046042    3.1497853      732.45768     -22.970078      709.4876     
    715000   306.12201      0.011046042    6.6316154      759.49714     -18.162954      741.33419    
    716000   304.62985      0.011046042    6.1513629      755.79505     -24.449151      731.3459     
    717000   291.48047      0.011046042    6.6295047      723.17109     -23.670492      699.50059    
    718000   299.68095      0.011046042    4.4762718      743.5167      -24.082505      719.43419    
    719000   312.55409      0.011046042    6.1280866      775.45531     -26.474998      748.98032    
    720000   299.10902      0.011046042    6.7673155      742.09771     -27.088346      715.00937    
    721000   287.32716      0.011046042    6.1210123      712.8666      -29.60026       683.26634    
    722000   306.37781      0.011046042    4.1711024      760.13179     -27.722025      732.40977    
    723000   306.74359      0.011046042    6.6739785      761.0393      -26.912789      734.12651    
    724000   301.20143      0.011046042    6.5104713      747.28906     -28.464077      718.82498    
    725000   300.33997      0.011046042    5.6682542      745.15173     -27.488457      717.66328    
    726000   293.14268      0.011046042    6.3133014      727.29506     -19.970156      707.3249     
    727000   281.8763       0.011046042    7.035714       699.34288     -20.337372      679.00551    
    728000   305.76464      0.011046042    5.9354547      758.61049     -23.910639      734.69985    
    729000   309.00843      0.011046042    5.2263559      766.65842     -20.62487       746.03355    
    730000   293.6604       0.011046042    3.8589561      728.57955     -25.410867      703.16868    
    731000   288.57593      0.011046042    6.1092105      715.96484     -24.219889      691.74495    
    732000   298.805        0.011046042    11.092251      741.34345     -23.467158      717.87629    
    733000   305.46838      0.011046042    0.23978735     757.87547     -25.058437      732.81704    
    734000   301.96802      0.011046042    6.7416029      749.19099     -24.509315      724.68168    
    735000   301.39549      0.011046042    6.6663303      747.77053     -20.672049      727.09848    
    736000   309.63991      0.011046042    7.9310901      768.22516     -24.870674      743.35448    
    737000   291.16558      0.011046042    2.7109981      722.38984     -24.953665      697.43617    
    738000   300.21793      0.011046042    3.8625179      744.84896     -23.657992      721.19096    
    739000   294.70054      0.011046042    5.4119084      731.16015     -28.370525      702.78963    
    740000   299.33413      0.011046042    8.9853527      742.65623     -27.772051      714.88418    
    741000   304.09739      0.011046042    2.7846676      754.47401     -25.813399      728.66061    
    742000   306.08347      0.011046042    3.3699308      759.40152     -22.906236      736.49528    
    743000   298.31576      0.011046042    6.0851363      740.12961     -22.227296      717.90232    
    744000   296.74617      0.011046042    6.5493826      736.23544     -19.928318      716.30712    
    745000   301.47141      0.011046042    4.3699042      747.95887     -24.182186      723.77668    
    746000   290.19139      0.011046042    6.6825516      719.97285     -23.622255      696.35059    
    747000   306.58905      0.011046042    6.9694796      760.65588     -23.692069      736.96381    
    748000   304.11887      0.011046042    5.5400659      754.52729     -22.43133       732.09596    
    749000   297.89186      0.011046042    5.5862721      739.07792     -27.886424      711.1915     
    750000   298.79054      0.011046042    5.6898837      741.30756     -25.9624        715.34516    
    751000   299.47932      0.011046042    5.9634761      743.01644     -24.459834      718.5566     
    752000   298.06543      0.011046042    7.57629        739.50856     -23.909808      715.59875    
    753000   300.73949      0.011046042    6.4261772      746.14297     -25.094166      721.0488     
    754000   303.3643       0.011046042    6.5213564      752.6552      -23.201989      729.45321    
    755000   300.43004      0.011046042    5.6773171      745.37521     -22.514339      722.86087    
    756000   295.98706      0.011046042    5.1619935      734.35204     -23.859481      710.49256    
    757000   297.34815      0.011046042    6.6735993      737.72896     -23.169115      714.55984    
    758000   300.92039      0.011046042    9.9532719      746.59179     -25.674825      720.91697    
    759000   303.70415      0.011046042    4.7783602      753.49836     -27.774748      725.72361    
    760000   293.62212      0.011046042    5.8146726      728.48457     -26.256773      702.2278     
    761000   297.99933      0.011046042    7.5088184      739.34454     -22.416053      716.92849    
    762000   300.23457      0.011046042    6.0576327      744.89024     -23.280337      721.6099     
    763000   302.40798      0.011046042    6.1301266      750.28253     -23.862761      726.41977    
    764000   297.1853       0.011046042    5.591241       737.32493     -24.932977      712.39196    
    765000   302.73246      0.011046042    6.019681       751.08758     -19.995576      731.09201    
    766000   306.62759      0.011046042    5.7533683      760.7515      -22.000084      738.75141    
    767000   300.40467      0.011046042    6.6495702      745.31228     -21.210352      724.10193    
    768000   290.83768      0.011046042    10.834051      721.57629     -23.595071      697.98122    
    769000   305.30713      0.011046042    2.5254658      757.4754      -23.85917       733.61623    
    770000   309.76037      0.011046042    8.9342113      768.52401     -24.967745      743.55627    
    771000   290.71707      0.011046042    9.3823026      721.27707     -21.721693      699.55537    
    772000   305.32672      0.011046042    4.2894419      757.52401     -22.739396      734.78461    
    773000   304.29216      0.011046042    4.7785907      754.95724     -19.89631       735.06093    
    774000   310.3515       0.011046042    10.074305      769.99061     -19.165892      750.82472    
    775000   316.51587      0.011046042    6.1350625      785.2846      -19.314487      765.97011    
    776000   299.73578      0.011046042    9.0142251      743.65273     -17.104185      726.54854    
    777000   291.24352      0.011046042    0.93092167     722.58319     -21.17791       701.40528    
    778000   313.84806      0.011046042    7.3286314      778.66569     -23.315183      755.35051    
    779000   303.89991      0.011046042    7.4998302      753.98406     -22.086206      731.89785    
    780000   283.15954      0.011046042    6.016147       702.52661     -21.554928      680.97168    
    781000   295.07313      0.011046042    4.8819963      732.08458     -23.201842      708.88274    
    782000   304.35504      0.011046042    4.9697894      755.11323     -23.001832      732.1114     
    783000   303.59534      0.011046042    6.8437912      753.2284      -24.008973      729.21942    
    784000   290.42021      0.011046042    6.2915402      720.54053     -32.350912      688.18962    
    785000   308.27199      0.011046042    6.1607645      764.83131     -33.169433      731.66187    
    786000   307.27386      0.011046042    6.3303905      762.35492     -25.753771      736.60115    
    787000   296.82001      0.011046042    5.9935042      736.41863     -23.436797      712.98183    
    788000   302.46522      0.011046042    5.5320419      750.42455     -22.870555      727.554      
    789000   309.13202      0.011046042    6.1088851      766.96507     -20.37491       746.59016    
    790000   299.81193      0.011046042    5.9355851      743.84166     -20.452602      723.38906    
    791000   296.0197       0.011046042    5.5561644      734.43305     -21.510334      712.92271    
    792000   292.09312      0.011046042    0.8370043      724.69107     -24.55946       700.13161    
    793000   311.94785      0.011046042    5.9488265      773.95122     -22.188663      751.76256    
    794000   301.65065      0.011046042    6.5146522      748.40358     -23.897911      724.50567    
    795000   291.71672      0.011046042    5.7725232      723.75721     -22.850468      700.90675    
    796000   307.28037      0.011046042    5.9163813      762.37108     -22.475235      739.89584    
    797000   303.70665      0.011046042    6.1713911      753.50457     -20.187304      733.31727    
    798000   297.83875      0.011046042    5.6491391      738.94614     -19.4169        719.52924    
    799000   298.72251      0.011046042    5.7923473      741.13878     -21.724358      719.41442    
    800000   288.53096      0.011046042    5.4822918      715.85326     -25.315424      690.53784    
    801000   308.36495      0.011046042    7.3462765      765.06193     -22.938231      742.1237     
    802000   306.97622      0.011046042    6.0162422      761.61647     -22.351128      739.26534    
    803000   291.90891      0.011046042    6.1594495      724.23404     -24.197357      700.03669    
    804000   291.90908      0.011046042    4.6310573      724.23447     -22.643663      701.59081    
    805000   311.16853      0.011046042    5.8236145      772.01771     -22.115805      749.9019     
    806000   297.40838      0.011046042    5.9698359      737.87838     -21.560718      716.31766    
    807000   291.94285      0.011046042    4.6914599      724.31825     -22.583984      701.73427    
    808000   287.12232      0.011046042    5.5605036      712.35839     -26.754252      685.60413    
    809000   299.94972      0.011046042    6.7160887      744.18352     -26.691354      717.49217    
    810000   302.98743      0.011046042    5.8659745      751.72017     -24.925267      726.79491    
    811000   297.63474      0.011046042    5.9259012      738.44        -23.387979      715.05202    
    812000   295.77439      0.011046042    5.4965432      733.82442     -25.746248      708.07817    
    813000   299.18919      0.011046042    6.6354435      742.29663     -21.957976      720.33866    
    814000   311.04439      0.011046042    8.1623784      771.70971     -22.882303      748.82741    
    815000   298.56468      0.011046042    3.6975985      740.7472      -20.647243      720.09996    
    816000   309.01201      0.011046042    2.9525682      766.66731     -19.968422      746.69888    
    817000   300.03261      0.011046042    8.7850204      744.38918     -24.980438      719.40875    
    818000   303.45248      0.011046042    5.7995095      752.87396     -23.025963      729.848      
    819000   283.56824      0.011046042    3.0159426      703.54061     -28.233379      675.30724    
    820000   294.13791      0.011046042    6.6716991      729.76427     -24.251942      705.51233    
    821000   308.99702      0.011046042    8.9612208      766.63011     -20.68954       745.94057    
    822000   295.72135      0.011046042    4.8024762      733.69283     -21.685628      712.0072     
    823000   300.18079      0.011046042   -1.4477669      744.75683     -19.130439      725.62639    
    824000   294.12873      0.011046042    3.5702518      729.74149     -18.611161      711.13032    
    825000   300.08534      0.011046042    9.4516245      744.51999     -19.596053      724.92394    
    826000   292.96987      0.011046042    7.4187016      726.86633     -19.036853      707.82948    
    827000   309.37836      0.011046042   -0.23208714     767.57625     -23.670373      743.90587    
    828000   287.85773      0.011046042    0.3929542      714.18295     -20.092907      694.09005    
    829000   295.07523      0.011046042    8.5073636      732.08977     -18.517133      713.57264    
    830000   295.07871      0.011046042    6.2584994      732.09843     -21.612587      710.48584    
    831000   303.84865      0.011046042    14.08907       753.85688     -25.215523      728.64136    
    832000   302.41533      0.011046042   -0.90106553     750.30078     -22.040452      728.26033    
    833000   299.78452      0.011046042    6.3010162      743.77367     -21.932334      721.84133    
    834000   306.846        0.011046042   -1.1110207      761.29338     -21.489208      739.80417    
    835000   298.21661      0.011046042    11.374259      739.88363     -20.40014       719.48349    
    836000   302.39773      0.011046042    7.229453       750.25711     -23.290166      726.96695    
    837000   300.57411      0.011046042   -3.0646023      745.73266     -23.757151      721.97551    
    838000   301.02338      0.011046042    4.4705833      746.8473      -26.314061      720.53323    
    839000   290.71526      0.011046042    5.3089441      721.27257     -23.548443      697.72413    
    840000   308.6212       0.011046042    16.407979      765.69771     -24.160023      741.53769    
    841000   311.77462      0.011046042    1.4418005      773.52143     -24.054094      749.46733    
    842000   299.11583      0.011046042   -8.9990749      742.11462     -22.258379      719.85624    
    843000   298.99227      0.011046042    9.4770082      741.80808     -20.473998      721.33408    
    844000   297.83879      0.011046042    5.7139373      738.94625     -18.208311      720.73794    
    845000   293.54346      0.011046042   -6.9202465      728.28941     -18.035606      710.25381    
    846000   297.64804      0.011046042    5.0984761      738.473       -18.49808       719.97492    
    847000   305.39849      0.011046042    15.852697      757.70208     -19.698716      738.00336    
    848000   312.80675      0.011046042    6.5917243      776.08217     -22.910489      753.17168    
    849000   304.91554      0.011046042   -7.9186026      756.50387     -19.069069      737.4348     
    850000   281.08492      0.011046042   -0.58599676     697.37943     -16.575179      680.80425    
    851000   306.21063      0.011046042    8.3484422      759.71701     -17.412271      742.30474    
    852000   303.891        0.011046042    15.043678      753.96195     -18.542978      735.41897    
    853000   308.01051      0.011046042   -0.48689128     764.18256     -17.387202      746.79536    
    854000   292.85406      0.011046042    4.6714708      726.57899     -16.134677      710.44431    
    855000   302.06139      0.011046042    9.3927499      749.42264     -17.188126      732.23452    
    856000   312.36396      0.011046042    6.6634128      774.98358     -21.950777      753.03281    
    857000   301.78988      0.011046042    4.9730877      748.74901     -21.404286      727.34472    
    858000   289.12822      0.011046042    6.1705929      717.33508     -18.732559      698.60252    
    859000   312.49962      0.011046042    7.6898747      775.32017     -17.504561      757.81561    
    860000   312.70327      0.011046042    4.8513326      775.82542     -19.962781      755.86264    
    861000   287.77861      0.011046042    5.9546451      713.98667     -19.464862      694.52181    
    862000   290.70866      0.011046042    4.336863       721.25619     -22.713919      698.54227    
    863000   299.96014      0.011046042    6.3148073      744.20938     -19.436599      724.77278    
    864000   309.77487      0.011046042    6.4850737      768.56        -22.366062      746.19394    
    865000   286.43         0.011046042    7.7654457      710.64073     -22.511457      688.12927    
    866000   294.28597      0.011046042    2.9801525      730.13161     -21.309092      708.82252    
    867000   305.90461      0.011046042    6.2609691      758.95778     -20.046971      738.9108     
    868000   311.27641      0.011046042    9.0247783      772.28536     -20.490194      751.79516    
    869000   292.70934      0.011046042    0.78430903     726.21995     -19.5744        706.64555    
    870000   302.37114      0.011046042    8.7461424      750.19112     -17.035603      733.15552    
    871000   286.84993      0.011046042    4.0405117      711.68258     -16.732243      694.95034    
    872000   301.0248       0.011046042    0.92910916     746.85083     -14.411732      732.4391     
    873000   306.8863       0.011046042    5.923978       761.39338     -16.740612      744.65276    
    874000   299.44182      0.011046042    8.7155678      742.9234      -19.801574      723.12183    
    875000   302.86828      0.011046042    8.0483482      751.42454     -20.535417      730.88912    
    876000   297.01205      0.011046042    6.6744462      736.89509     -19.036325      717.85876    
    877000   300.14187      0.011046042   -0.087043865    744.66026     -15.608355      729.05191    
    878000   303.95291      0.011046042    7.2383424      754.11555     -14.984948      739.1306     
    879000   305.51589      0.011046042    6.1820217      757.99334     -15.168557      742.82478    
    880000   284.62219      0.011046042    5.639213       706.15551     -16.450623      689.70489    
    881000   301.7374       0.011046042    6.6987502      748.61882     -18.897682      729.72113    
    882000   307.81157      0.011046042    6.842671       763.68898     -20.770535      742.91845    
    883000   300.76365      0.011046042    5.3601566      746.2029      -16.040883      730.16202    
    884000   294.92132      0.011046042    6.6266193      731.70793     -18.025784      713.68214    
    885000   307.07453      0.011046042    6.695734       761.86038     -15.943519      745.91686    
    886000   304.57245      0.011046042    5.9928252      755.65264     -13.719947      741.93269    
    887000   281.98674      0.011046042    5.4801676      699.61687     -15.566539      684.05034    
    888000   295.41616      0.011046042    5.437191       732.93565     -18.116595      714.81905    
    889000   315.47771      0.011046042    6.0344619      782.70888     -17.393666      765.31522    
    890000   303.00283      0.011046042    6.7754645      751.75836     -18.861431      732.89693    
    891000   287.31191      0.011046042    4.938928       712.82877     -20.831152      691.99762    
    892000   281.28523      0.011046042    0.63147985     697.87641     -18.284817      679.5916     
    893000   309.68706      0.011046042    6.3856979      768.34213     -18.512291      749.82984    
    894000   289.1939       0.011046042    5.7350332      717.49803     -17.561985      699.93604    
    895000   301.78491      0.011046042    3.1213091      748.73668     -16.284306      732.45237    
    896000   301.98762      0.011046042    6.361472       749.2396      -17.505061      731.73454    
    897000   304.10921      0.011046042    9.0859284      754.50333     -17.735598      736.76773    
    898000   301.26392      0.011046042    4.993253       747.44408     -16.577619      730.86646    
    899000   307.0717       0.011046042    6.3480762      761.85335     -18.084744      743.76861    
    900000   296.13982      0.011046042    6.634904       734.73105     -20.251631      714.47942    
    901000   296.2488       0.011046042    6.2648857      735.00145     -18.016146      716.9853     
    902000   312.68292      0.011046042    6.2990118      775.77495     -21.569473      754.20548    
    903000   300.25892      0.011046042    5.3822771      744.95067     -20.440743      724.50993    
    904000   298.15981      0.011046042    5.9736195      739.7427      -19.706503      720.03619    
    905000   306.55342      0.011046042    6.4535244      760.56748     -18.353643      742.21383    
    906000   296.15777      0.011046042    4.4639903      734.7756      -18.976717      715.79888    
    907000   304.52482      0.011046042    6.5426136      755.53447     -19.585539      735.94893    
    908000   308.34651      0.011046042    7.0811747      765.01618     -19.785688      745.23049    
    909000   302.90366      0.011046042    5.6659003      751.51234     -20.530622      730.98172    
    910000   301.79039      0.011046042    6.1715323      748.75027     -19.982437      728.76783    
    911000   291.49648      0.011046042    5.54097        723.21081     -19.512991      703.69782    
    912000   299.05212      0.011046042    3.5768648      741.95656     -20.809761      721.1468     
    913000   299.7439       0.011046042    6.7146166      743.67287     -21.370419      722.30245    
    914000   305.93595      0.011046042    7.3608917      759.03552     -22.543439      736.49208    
    915000   292.88779      0.011046042    6.5473039      726.66267     -21.301579      705.36109    
    916000   296.85466      0.011046042    5.2395733      736.5046      -24.729334      711.77526    
    917000   314.36905      0.011046042    3.8875517      779.95828     -21.539937      758.41834    
    918000   307.53091      0.011046042    10.57201       762.99265     -19.846363      743.14629    
    919000   284.41671      0.011046042    6.7275893      705.64571     -20.552367      685.09334    
    920000   302.60322      0.011046042    4.9209924      750.76694     -18.432511      732.33443    
    921000   316.48541      0.011046042    8.2816245      785.20902     -21.51034       763.69868    
    922000   299.98616      0.011046042    8.740994       744.27394     -23.138521      721.13542    
    923000   288.19077      0.011046042    7.0514946      715.00925     -19.158929      695.85032    
    924000   289.72019      0.011046042    5.170274       718.80378     -22.30074       696.50304    
    925000   314.89002      0.011046042    6.3856296      781.25083     -22.777805      758.47302    
    926000   301.93432      0.011046042    6.5279998      749.10738     -20.595662      728.51172    
    927000   292.03226      0.011046042    5.7936869      724.54009     -20.252931      704.28716    
    928000   303.88458      0.011046042    6.2594277      753.94602     -18.065542      735.88048    
    929000   326.8392       0.011046042    6.3642741      810.89706     -16.518183      794.37888    
    930000   301.05295      0.011046042    5.3859325      746.92068     -21.272708      725.64797    
    931000   294.61766      0.011046042    5.9485671      730.95455     -19.225715      711.72883    
    932000   309.48273      0.011046042    6.4557914      767.83518     -23.784402      744.05078    
    933000   304.87538      0.011046042    6.327366       756.40421     -20.521941      735.88227    
    934000   294.00254      0.011046042    5.6420349      729.4284      -26.89802       702.53038    
    935000   304.0553       0.011046042    5.3503451      754.36958     -25.212191      729.15739    
    936000   300.04629      0.011046042    6.9425443      744.42312     -25.270638      719.15248    
    937000   302.17088      0.011046042    4.0508149      749.69427     -23.443492      726.25078    
    938000   294.84202      0.011046042    6.5398639      731.51119     -21.6407        709.87049    
    939000   297.69496      0.011046042    6.7568746      738.5894      -24.038658      714.55075    
    940000   288.5932       0.011046042    5.4452806      716.00768     -25.194338      690.81334    
    941000   298.75287      0.011046042    5.6825778      741.21412     -20.818769      720.39535    
    942000   308.12498      0.011046042    6.1699162      764.46657     -19.639731      744.82684    
    943000   293.87373      0.011046042    6.7304655      729.10883     -20.667873      708.44095    
    944000   298.28605      0.011046042    5.8215258      740.05591     -22.148233      717.90768    
    945000   308.60049      0.011046042    6.6338438      765.64633     -21.3754        744.27093    
    946000   296.4371       0.011046042    6.8194957      735.46862     -18.088587      717.38003    
    947000   285.89652      0.011046042    2.3804124      709.31715     -20.771819      688.54533    
    948000   294.87371      0.011046042    4.3283707      731.58979     -22.732142      708.85765    
    949000   305.23809      0.011046042    6.0181925      757.30411     -21.694834      735.60927    
    950000   303.91791      0.011046042    5.115235       754.02872     -22.65626       731.37246    
    951000   299.04901      0.011046042    6.2873825      741.94884     -21.38572       720.56312    
    952000   305.37853      0.011046042    6.2697461      757.65254     -23.759293      733.89325    
    953000   297.13166      0.011046042    5.6373943      737.19184     -24.249719      712.94212    
    954000   299.57622      0.011046042    6.4046628      743.25686     -21.033538      722.22333    
    955000   305.65864      0.011046042    6.3721861      758.34752     -21.722383      736.62514    
    956000   319.20061      0.011046042    4.5838569      791.9455      -23.955844      767.98966    
    957000   290.60598      0.011046042    4.8253246      721.00143     -23.151077      697.85036    
    958000   302.08121      0.011046042    6.03699        749.47182     -20.984221      728.4876     
    959000   298.72543      0.011046042    6.467924       741.14604     -22.510971      718.63507    
    960000   293.58768      0.011046042    6.0129799      728.39912     -20.591436      707.80769    
    961000   300.41749      0.011046042    6.330877       745.34408     -23.573499      721.77058    
    962000   304.07528      0.011046042    6.1235936      754.41915     -22.510075      731.90907    
    963000   308.33405      0.011046042    6.3203737      764.98527     -23.187326      741.79794    
    964000   294.29991      0.011046042    6.4870195      730.1662      -18.302999      711.8632     
    965000   295.76763      0.011046042    5.852838       733.80765     -20.56372       713.24393    
    966000   299.43193      0.011046042    5.8857155      742.89888     -18.586656      724.31222    
    967000   311.2376       0.011046042    6.0798548      772.18906     -21.51851       750.67055    
    968000   301.44354      0.011046042    5.4937067      747.88973     -21.990726      725.89901    
    969000   289.96381      0.011046042    6.348664       719.40822     -20.973543      698.43467    
    970000   312.07799      0.011046042    6.6290106      774.2741      -23.511065      750.76303    
    971000   299.60467      0.011046042    4.9939936      743.32745     -21.20527       722.12218    
    972000   284.9618       0.011046042    5.5847666      706.99807     -21.407989      685.59008    
    973000   299.15685      0.011046042    6.5294125      742.2164      -20.801206      721.41519    
    974000   309.0396       0.011046042    5.3867495      766.73577     -21.401619      745.33416    
    975000   318.25808      0.011046042    7.3918976      789.60707     -22.787923      766.81915    
    976000   291.38173      0.011046042    7.3170205      722.9261      -19.243307      703.6828     
    977000   288.22828      0.011046042    3.1362114      715.10232     -20.183025      694.91929    
    978000   310.37842      0.011046042    2.5020834      770.05741     -16.498291      753.55912    
    979000   306.76623      0.011046042    5.6432455      761.09547     -21.398558      739.69691    
    980000   299.46826      0.011046042    7.3792165      742.98901     -16.860666      726.12834    
    981000   298.36103      0.011046042    6.3224707      740.24193     -18.729999      721.51193    
    982000   292.59782      0.011046042    5.7516489      725.94325     -19.283816      706.65943    
    983000   319.76427      0.011046042    6.2147021      793.34398     -17.659505      775.68447    
    984000   301.63566      0.011046042    6.5130251      748.3664      -16.641275      731.72512    
    985000   287.81275      0.011046042    4.7899483      714.07136     -17.691388      696.37998    
    986000   301.25813      0.011046042    6.7082913      747.42972     -20.991117      726.4386     
    987000   322.80013      0.011046042    6.9082087      800.87603     -20.929166      779.94687    
    988000   302.6544       0.011046042    6.1461083      750.89391     -22.829433      728.06448    
    989000   289.41728      0.011046042    9.8837912      718.05225     -24.611718      693.44054    
    990000   297.65061      0.011046042    6.6348958      738.47936     -21.029318      717.45004    
    991000   306.28642      0.011046042    5.3865805      759.90505     -22.827444      737.07761    
    992000   296.69629      0.011046042    7.1144318      736.11168     -19.38645       716.72523    
    993000   312.56628      0.011046042    6.6114414      775.48555     -24.343399      751.14215    
    994000   294.67144      0.011046042    6.3080547      731.08797     -20.973483      710.11449    
    995000   296.87354      0.011046042    6.1141228      736.55144     -17.861483      718.68996    
    996000   293.96252      0.011046042   -1.4910722      729.32912     -18.66388       710.66524    
    997000   300.83156      0.011046042    7.8352592      746.37139     -17.844996      728.5264     
    998000   303.38871      0.011046042    7.7004493      752.71575     -20.132138      732.58362    
    999000   295.64173      0.011046042    0.23852385     733.49528     -20.70311       712.79217    
   1000000   298.11605      0.011046042    4.5189435      739.63415     -21.897878      717.73627    
   1001000   313.36476      0.011046042    9.7303176      777.4666      -20.390039      757.07656    
   1002000   301.36921      0.011046042    9.0483676      747.70533     -24.0189        723.68643    
   1003000   297.86828      0.011046042    2.5919959      739.0194      -18.232298      720.7871     
   1004000   294.53314      0.011046042    5.1674423      730.74484     -19.297366      711.44748    
   1005000   298.81431      0.011046042    8.226447       741.36654     -19.137301      722.22924    
   1006000   297.60072      0.011046042    5.3961309      738.35559     -20.762668      717.59292    
   1007000   296.35763      0.011046042    5.7042697      735.27145     -16.751427      718.52002    
   1008000   306.34559      0.011046042    4.5587111      760.05185     -16.716995      743.33486    
   1009000   294.92291      0.011046042    8.3665582      731.71188     -15.506705      716.20518    
   1010000   289.7746       0.011046042    6.1530212      718.93878     -19.069858      699.86892    
   1011000   296.28546      0.011046042    5.9735992      735.09239     -19.633153      715.45924    
   1012000   306.4197       0.011046042    5.4882868      760.23573     -17.600238      742.63549    
   1013000   298.95031      0.011046042    10.286063      741.70397     -17.179826      724.52415    
   1014000   292.76935      0.011046042    5.2492388      726.36883     -19.221631      707.1472     
   1015000   309.35977      0.011046042    5.9608009      767.53012     -20.27125       747.25887    
   1016000   314.05895      0.011046042    7.0167769      779.18892     -18.418517      760.77041    
   1017000   303.36573      0.011046042    5.3385896      752.65875     -20.883982      731.77477    
   1018000   281.98515      0.011046042    5.5806588      699.61293     -14.925287      684.68764    
   1019000   303.3175       0.011046042    5.8656867      752.53908     -15.991854      736.54723    
   1020000   305.22362      0.011046042    6.0362371      757.26822     -16.23001       741.03821    
   1021000   300.50713      0.011046042    5.8735589      745.56647     -16.87414       728.69233    
   1022000   294.22622      0.011046042    5.3496422      729.98336     -20.0516        709.93176    
   1023000   303.60297      0.011046042    6.4078924      753.24734     -18.784636      734.46271    
   1024000   297.79719      0.011046042    5.9092396      738.84303     -17.869264      720.97376    
   1025000   298.11548      0.011046042    6.0768741      739.63273     -17.440152      722.19258    
   1026000   297.13786      0.011046042    5.6009592      737.20723     -20.748289      716.45894    
   1027000   309.14184      0.011046042    7.1217421      766.98942     -20.921899      746.06752    
   1028000   306.88862      0.011046042    5.6756202      761.39912     -19.44062       741.9585     
   1029000   283.04212      0.011046042    5.880787       702.23531     -18.645424      683.58989    
   1030000   299.44951      0.011046042    7.65697        742.9425      -20.81388       722.12862    
   1031000   318.9556       0.011046042    6.3921437      791.33764     -22.14308       769.19456    
   1032000   300.06579      0.011046042    1.1034952      744.4715      -24.181218      720.29029    
   1033000   298.76025      0.011046042    6.1207868      741.23242     -25.013927      716.21849    
   1034000   310.79214      0.011046042    6.2116973      771.08388     -19.751938      751.33194    
   1035000   299.16134      0.011046042    5.6540297      742.22752     -23.558781      718.66874    
   1036000   291.72306      0.011046042    5.4953675      723.77294     -22.011074      701.76187    
   1037000   292.53954      0.011046042    4.6887628      725.79866     -24.112055      701.6866     
   1038000   309.41722      0.011046042    6.185392       767.67266     -22.923589      744.74907    
   1039000   289.00453      0.011046042    6.1344285      717.02821     -21.462876      695.56534    
   1040000   304.47956      0.011046042    6.2094013      755.42217     -22.89656       732.52561    
   1041000   306.66373      0.011046042    6.0350389      760.84117     -23.357659      737.48351    
   1042000   293.0574       0.011046042    6.9576613      727.08349     -21.793796      705.2897     
   1043000   282.30562      0.011046042    6.3767569      700.40802     -21.812732      678.59529    
   1044000   303.46793      0.011046042    5.5552645      752.91229     -25.5131        727.39919    
   1045000   305.23646      0.011046042    5.8616893      757.30008     -18.073363      739.22671    
   1046000   292.07258      0.011046042    7.6886095      724.64012     -18.78499       705.85513    
   1047000   299.11647      0.011046042    4.6352987      742.1162      -22.510996      719.6052     
   1048000   305.19944      0.011046042    5.6506625      757.20823     -18.595349      738.61288    
   1049000   313.0089       0.011046042    5.8155853      776.5837      -19.736659      756.84704    
   1050000   292.46696      0.011046042    6.5786268      725.6186      -13.219785      712.39882    
   1051000   295.92004      0.011046042    4.9518464      734.18577     -21.028225      713.15754    
   1052000   312.11019      0.011046042    5.9701333      774.35397     -17.508554      756.84542    
   1053000   299.222        0.011046042    3.8195724      742.37803     -17.122008      725.25603    
   1054000   289.72466      0.011046042    5.8313874      718.81486     -18.246839      700.56802    
   1055000   300.91582      0.011046042    6.6340238      746.58045     -17.141566      729.43889    
   1056000   311.21884      0.011046042    8.9864743      772.14251     -16.156245      755.98626    
   1057000   303.38922      0.011046042    5.0009033      752.71702     -15.443553      737.27346    
   1058000   298.46375      0.011046042    4.6458007      740.49678     -17.151168      723.34561    
   1059000   296.32172      0.011046042    10.977406      735.18236     -21.891307      713.29105    
   1060000   307.67632      0.011046042    2.1420387      763.35344     -22.288471      741.06497    
   1061000   296.02742      0.011046042    2.8383306      734.45218     -22.556814      711.89537    
   1062000   297.12061      0.011046042    9.0239473      737.16442     -25.409734      711.75468    
   1063000   302.92279      0.011046042    2.2757976      751.55979     -21.969114      729.59067    
   1064000   297.58588      0.011046042    5.7632043      738.31878     -22.631031      715.68775    
   1065000   300.74049      0.011046042    6.8222246      746.14545     -25.971168      720.17428    
   1066000   297.83214      0.011046042    6.6511538      738.92975     -25.973428      712.95632    
   1067000   305.75269      0.011046042    0.9621737      758.58086     -24.207032      734.37383    
   1068000   292.78322      0.011046042    1.2649076      726.40324     -21.656257      704.74698    
   1069000   284.47208      0.011046042    10.872406      705.78308     -21.94013       683.84295    
   1070000   308.33104      0.011046042    6.2177176      764.9778      -18.071604      746.90619    
   1071000   303.09451      0.011046042   -10.393663      751.98585     -19.71709       732.26876    
   1072000   286.69155      0.011046042    3.0699211      711.28964     -18.98338       692.30626    
   1073000   296.90144      0.011046042    6.189184       736.62065     -23.076419      713.54423    
   1074000   300.62798      0.011046042    7.9553267      745.8663      -22.00731       723.85899    
   1075000   307.16433      0.011046042    4.3027288      762.08317     -21.354299      740.72887    
   1076000   302.81975      0.011046042    1.7365177      751.30415     -19.454082      731.85007    
   1077000   292.29766      0.011046042    6.6203384      725.19856     -20.381838      704.81673    
   1078000   301.48285      0.011046042    6.596182       747.98725     -21.205714      726.78154    
   1079000   293.76855      0.011046042    8.5003123      728.84787     -22.718814      706.12906    
   1080000   295.56516      0.011046042    7.1617199      733.30531     -24.431415      708.87389    
   1081000   302.17266      0.011046042    3.9166094      749.69869     -20.562094      729.1366     
   1082000   301.17174      0.011046042    5.5238909      747.2154      -20.207551      727.00785    
   1083000   305.74254      0.011046042    5.9685261      758.55568     -24.485311      734.07036    
   1084000   304.45185      0.011046042    6.9882511      755.35344     -20.051577      735.30186    
   1085000   294.44821      0.011046042    4.9965275      730.53414     -19.25388       711.28026    
   1086000   303.46503      0.011046042    2.0221393      752.9051      -16.104101      736.801      
   1087000   313.83611      0.011046042    6.0945953      778.63604     -19.292174      759.34386    
   1088000   302.12483      0.011046042    6.7097884      749.58004     -19.112325      730.46772    
   1089000   285.4733       0.011046042    6.7357005      708.26712     -16.556082      691.71104    
   1090000   302.93418      0.011046042    3.2064887      751.58806     -20.566412      731.02165    
   1091000   312.17431      0.011046042    8.8555262      774.51306     -21.663624      752.84944    
   1092000   298.54636      0.011046042    9.41968        740.70176     -26.035272      714.66649    
   1093000   284.85796      0.011046042    3.2767471      706.74045     -25.738661      681.00179    
   1094000   295.22695      0.011046042    4.9198266      732.4662      -21.859632      710.60657    
   1095000   306.22433      0.011046042    6.105596       759.751       -19.771506      739.97949    
   1096000   297.26485      0.011046042    5.9068676      737.52228     -18.029856      719.49243    
   1097000   285.30828      0.011046042    5.2333107      707.8577      -18.715096      689.14261    
   1098000   288.72835      0.011046042    6.0360984      716.343       -18.275974      698.06703    
   1099000   316.74201      0.011046042    6.1801156      785.84567     -19.570799      766.27487    
   1100000   296.68501      0.011046042    5.7219511      736.08369     -19.828285      716.25541    
   1101000   293.76109      0.011046042    6.5638431      728.82937     -19.601654      709.22772    
   1102000   311.61942      0.011046042    5.9287978      773.13637     -21.984266      751.1521     
   1103000   309.95523      0.011046042    6.6820997      769.00748     -24.32079       744.68669    
   1104000   281.04904      0.011046042    5.8387649      697.29042     -17.734615      679.5558     
   1105000   302.84628      0.011046042    6.7882716      751.36996     -17.239427      734.13054    
   1106000   317.30802      0.011046042    3.3230926      787.24994     -16.042747      771.20719    
   1107000   298.3573       0.011046042    7.207255       740.23269     -15.931294      724.30139    
   1108000   292.83548      0.011046042    8.5231805      726.53291     -15.761491      710.77142    
   1109000   315.12631      0.011046042    2.7394415      781.83707     -18.376186      763.46088    
   1110000   306.10277      0.011046042    5.886767       759.44942     -18.710935      740.73848    
   1111000   289.77531      0.011046042    6.8780372      718.94053     -24.049642      694.89089    
   1112000   292.41621      0.011046042    6.1644106      725.49267     -21.441878      704.05079    
   1113000   316.85485      0.011046042    6.5185056      786.12563     -20.042804      766.08282    
   1114000   316.28064      0.011046042    5.8174907      784.70099     -21.506313      763.19468    
   1115000   296.77673      0.011046042    5.196795       736.31124     -17.281093      719.03014    
   1116000   288.26311      0.011046042    10.555115      715.18873     -20.720235      694.4685     
   1117000   304.78768      0.011046042    5.7308062      756.18663     -18.047911      738.13872    
   1118000   303.57275      0.011046042    6.180106       753.17237     -19.700346      733.47203    
   1119000   289.05624      0.011046042    6.6423444      717.15649     -19.19977       697.95672    
   1120000   295.58065      0.011046042    6.9448398      733.34373     -18.882983      714.46075    
   1121000   308.97355      0.011046042    6.6845588      766.5719      -16.356435      750.21547    
   1122000   293.35311      0.011046042    6.3860474      727.81714     -19.759917      708.05723    
   1123000   282.8776       0.011046042    7.4756748      701.82713     -19.335157      682.49197    
   1124000   299.10078      0.011046042    3.1928916      742.07729     -15.129861      726.94743    
   1125000   320.59584      0.011046042    9.7017453      795.40712     -20.29423       775.11289    
   1126000   292.55316      0.011046042    5.5860284      725.83246     -18.77241       707.06005    
   1127000   306.0077       0.011046042    0.16854685     759.21355     -19.691718      739.52183    
   1128000   307.44568      0.011046042    8.1639286      762.7812      -18.672473      744.10872    
   1129000   297.63595      0.011046042    4.1237355      738.44299     -17.033396      721.40959    
   1130000   301.33168      0.011046042    1.0323658      747.6122      -17.504332      730.10787    
   1131000   311.51505      0.011046042    7.8990405      772.87743     -14.210056      758.66737    
   1132000   293.99166      0.011046042    8.6525617      729.40141     -18.903055      710.49836    
   1133000   294.39936      0.011046042    5.7836074      730.41293     -16.788684      713.62424    
   1134000   300.48574      0.011046042    5.6791874      745.5134      -18.092375      727.42103    
   1135000   298.59435      0.011046042    6.2200744      740.82081     -20.060343      720.76047    
   1136000   304.58198      0.011046042    7.535562       755.67629     -17.705872      737.97042    
   1137000   297.55847      0.011046042    5.9987767      738.25077     -16.582822      721.66795    
   1138000   310.86937      0.011046042    8.5713074      771.27548     -15.373976      755.9015     
   1139000   314.95966      0.011046042    6.8431018      781.42359     -15.536945      765.88664    
   1140000   288.80611      0.011046042    5.4829516      716.53592     -12.06919       704.46673    
   1141000   285.82217      0.011046042    4.5601612      709.13268     -14.708773      694.4239     
   1142000   302.70859      0.011046042    7.0675419      751.02835     -14.068741      736.95961    
   1143000   309.24392      0.011046042    6.1662799      767.24269     -14.319781      752.92291    
   1144000   298.88061      0.011046042    1.448746       741.53104     -12.305609      729.22543    
   1145000   301.21258      0.011046042    3.190818       747.31672     -13.209913      734.10681    
   1146000   289.03015      0.011046042    5.0753047      717.09178     -15.424988      701.66679    
   1147000   298.34415      0.011046042    9.0411267      740.20006     -17.130723      723.06934    
   1148000   325.49192      0.011046042    5.8786633      807.55442     -17.060389      790.49403    
   1149000   303.08618      0.011046042    1.9084642      751.96516     -18.27483       733.69033    
   1150000   291.63477      0.011046042    5.1510491      723.55391     -17.071563      706.48235    
   1151000   295.24495      0.011046042    6.1738096      732.51085     -15.813488      716.69736    
   1152000   303.42354      0.011046042    15.415519      752.80216     -17.107197      735.69496    
   1153000   316.9102       0.011046042    10.43109       786.26295     -16.81048       769.45247    
   1154000   288.03676      0.011046042    3.507511       714.62714     -16.562589      698.06455    
   1155000   297.58342      0.011046042    4.3173735      738.31268     -16.551131      721.76155    
   1156000   305.87815      0.011046042    15.649015      758.89211     -18.323748      740.56837    
   1157000   301.45526      0.011046042    2.5894013      747.91882     -18.845575      729.07324    
   1158000   278.37807      0.011046042    4.3293519      690.66367     -21.816326      668.84734    
   1159000   297.42471      0.011046042    2.5296446      737.9189      -21.304683      716.61422    
   1160000   311.19138      0.011046042    19.909753      772.0744      -22.265822      749.80858    
   1161000   303.99421      0.011046042    1.7602381      754.21801     -18.934654      735.28336    
   1162000   295.97358      0.011046042    0.22923467     734.31862     -20.419168      713.89945    
   1163000   290.54603      0.011046042    9.688954       720.85271     -23.262877      697.58984    
   1164000   310.60496      0.011046042    5.4738074      770.61947     -22.755996      747.86348    
   1165000   295.39478      0.011046042   -4.516637       732.88259     -23.133167      709.74943    
   1166000   286.39036      0.011046042    8.7910829      710.54237     -19.539362      691.00301    
   1167000   314.51991      0.011046042    2.4746863      780.33257     -19.697801      760.63477    
   1168000   298.87221      0.011046042   -1.6436464      741.51019     -18.044087      723.4661     
   1169000   299.65097      0.011046042    1.4163688      743.44233     -14.444203      728.99813    
   1170000   298.43683      0.011046042    2.7216713      740.43        -17.1802        723.2498     
   1171000   289.75286      0.011046042    13.213188      718.88484     -18.704556      700.18028    
   1172000   305.88292      0.011046042    8.5314531      758.90396     -19.677777      739.22618    
   1173000   313.44844      0.011046042    1.5934196      777.67422     -22.705265      754.96895    
   1174000   289.83529      0.011046042    4.8830765      719.08934     -24.816853      694.27249    
   1175000   300.14671      0.011046042    5.51794        744.67227     -23.336096      721.33617    
   1176000   319.40976      0.011046042    7.4062989      792.46441     -22.073887      770.39052    
   1177000   314.0752       0.011046042    6.9480597      779.22923     -20.047524      759.1817     
   1178000   290.23567      0.011046042    6.5765241      720.08269     -22.029735      698.05295    
   1179000   300.06664      0.011046042    4.8814874      744.47361     -20.933184      723.54043    
   1180000   309.75349      0.011046042    6.4345176      768.50694     -19.106552      749.40039    
   1181000   301.23702      0.011046042    6.2415933      747.37735     -18.051376      729.32597    
   1182000   290.91054      0.011046042    5.7401958      721.75707     -16.737663      705.01941    
   1183000   287.7915       0.011046042    5.8786446      714.01864     -17.229869      696.78877    
   1184000   298.14124      0.011046042    6.5443955      739.69662     -14.633098      725.06352    
   1185000   292.30761      0.011046042    6.9844153      725.22323     -18.145887      707.07734    
   1186000   307.2349       0.011046042    6.2745676      762.25826     -16.474618      745.78364    
   1187000   296.88197      0.011046042    6.5492791      736.57236     -20.27241       716.29995    
   1188000   302.95792      0.011046042    5.8650606      751.64695     -18.453995      733.19295    
   1189000   287.3461       0.011046042    6.172661       712.91359     -20.884186      692.0294     
   1190000   297.32883      0.011046042    6.8054288      737.68101     -15.398837      722.28218    
   1191000   316.14144      0.011046042    5.8070679      784.35563     -17.931478      766.42415    
   1192000   299.06338      0.011046042    5.102497       741.9845      -13.470556      728.51395    
   1193000   282.93129      0.011046042    6.179848       701.96033     -13.023901      688.93642    
   1194000   291.19484      0.011046042    6.0128522      722.46242     -15.771717      706.69071    
   1195000   301.48207      0.011046042    7.1777365      747.98531     -12.071755      735.91356    
   1196000   311.10404      0.011046042    5.4680144      771.8577      -16.400133      755.45756    
   1197000   285.97322      0.011046042    6.4549056      709.50743     -15.984181      693.52325    
   1198000   284.39363      0.011046042    5.8960034      705.58843     -16.894285      688.69414    
   1199000   296.54768      0.011046042    3.8891561      735.74296     -17.455762      718.2872     
   1200000   311.32599      0.011046042    6.495039       772.40837     -16.223965      756.1844     
   1201000   291.01182      0.011046042    8.9478942      722.00836     -18.061217      703.94714    
   1202000   285.16998      0.011046042    6.779099       707.51457     -14.034391      693.48018    
   1203000   303.70882      0.011046042    4.0639512      753.50995     -18.073686      735.43626    
   1204000   304.71337      0.011046042    6.1753767      756.00226     -12.67933       743.32293    
   1205000   297.11859      0.011046042    11.062336      737.1594      -19.898528      717.26087    
   1206000   295.18109      0.011046042    7.3810812      732.35242     -17.93968       714.41274    
   1207000   298.19844      0.011046042    3.2464904      739.83854     -17.463216      722.37532    
   1208000   317.41634      0.011046042    9.7273004      787.51869     -20.573068      766.94562    
   1209000   300.44222      0.011046042    9.6105401      745.40543     -17.940738      727.46469    
   1210000   305.17113      0.011046042    4.0518759      757.13797     -19.413432      737.72454    
   1211000   298.41799      0.011046042    5.5726052      740.38325     -19.482518      720.90073    
   1212000   311.6636       0.011046042    5.8114573      773.24598     -19.826588      753.41939    
   1213000   300.49767      0.011046042    6.7962849      745.54301     -16.555086      728.98792    
   1214000   303.28948      0.011046042    5.1299648      752.46957     -19.644601      732.82497    
   1215000   299.23442      0.011046042    6.4545693      742.40884     -19.636627      722.77221    
   1216000   297.90677      0.011046042    6.9857059      739.11492     -17.318849      721.79607    
   1217000   292.39415      0.011046042    6.1362378      725.43793     -20.480153      704.95778    
   1218000   298.84497      0.011046042    4.9288232      741.4426      -17.040205      724.40239    
   1219000   309.88596      0.011046042    5.7096947      768.83562     -16.074155      752.76146    
   1220000   294.35213      0.011046042    8.9786078      730.29575     -14.520715      715.77504    
   1221000   291.63317      0.011046042    6.1421482      723.54993     -15.920785      707.62915    
   1222000   297.37531      0.011046042    4.2106558      737.79633     -15.18902       722.60732    
   1223000   302.45814      0.011046042    1.7722398      750.40699     -15.273855      735.13313    
   1224000   319.66037      0.011046042    5.6043452      793.08619     -14.465756      778.62043    
   1225000   297.26538      0.011046042    7.6109518      737.52359     -15.36297       722.16062    
   1226000   296.76127      0.011046042    7.0261827      736.27289     -14.76629       721.5066     
   1227000   297.17757      0.011046042    5.902515       737.30574     -17.143429      720.16231    
   1228000   314.63995      0.011046042    4.8930668      780.63038     -18.459354      762.17102    
   1229000   317.42354      0.011046042    6.2853314      787.53654     -19.00836       768.52818    
   1230000   298.76226      0.011046042    7.3510621      741.2374      -17.855114      723.38228    
   1231000   287.07282      0.011046042    6.4198763      712.23558     -16.358543      695.87703    
   1232000   305.77388      0.011046042    5.6301058      758.63343     -15.730175      742.90325    
   1233000   315.702        0.011046042    8.7679942      783.26536     -17.277045      765.98832    
   1234000   294.32775      0.011046042    6.8999057      730.23526     -17.690235      712.54502    
   1235000   290.15842      0.011046042    3.4008539      719.89103     -15.728184      704.16285    
   1236000   314.48244      0.011046042    6.5965188      780.2396      -19.025956      761.21364    
   1237000   308.3072       0.011046042    7.6228659      764.91865     -17.663963      747.25469    
   1238000   295.73864      0.011046042    5.6689341      733.73571     -16.53201       717.2037     
   1239000   294.79744      0.011046042    6.0033815      731.40059     -17.541009      713.85958    
   1240000   284.2165       0.011046042    6.3569887      705.14897     -13.109947      692.03902    
   1241000   305.87614      0.011046042    0.39185414     758.88712     -15.75325       743.13387    
   1242000   305.67463      0.011046042    2.4356413      758.38717     -15.164204      743.22297    
   1243000   316.512        0.011046042    8.9961064      785.27499     -14.403226      770.87176    
   1244000   293.3726       0.011046042    8.3022663      727.86551     -18.345798      709.51972    
   1245000   292.58533      0.011046042   -0.59365998     725.91226     -17.301412      708.61085    
   1246000   308.56809      0.011046042    7.6138215      765.56595     -17.64227       747.92367    
   1247000   305.58507      0.011046042    8.7025428      758.16498     -18.052342      740.11264    
   1248000   297.55367      0.011046042    1.1588749      738.23885     -17.987741      720.25111    
   1249000   313.97933      0.011046042    3.5829629      778.99137     -19.196791      759.79458    
   1250000   286.83327      0.011046042    7.020959       711.64124     -17.821966      693.81928    
   1251000   285.90059      0.011046042    7.2631277      709.32724     -18.622156      690.70509    
   1252000   311.5587       0.011046042    3.8746862      772.98572     -16.724493      756.26122    
   1253000   307.70246      0.011046042    8.7648317      763.41827     -19.452298      743.96598    
   1254000   282.38344      0.011046042    11.787927      700.6011      -16.076603      684.5245     
   1255000   294.41087      0.011046042    9.2576884      730.44147     -19.225999      711.21547    
   1256000   297.31684      0.011046042    5.3436159      737.65126     -20.795588      716.85568    
   1257000   289.24276      0.011046042    3.9040866      717.61927     -20.25601       697.36326    
   1258000   304.41776      0.011046042    5.6813317      755.26885     -22.803664      732.46518    
   1259000   306.80073      0.011046042    9.181854       761.18107     -24.622099      736.55897    
   1260000   299.86913      0.011046042    6.2502162      743.98358     -23.479348      720.50423    
   1261000   301.56772      0.011046042    3.8562006      748.19783     -21.489201      726.70863    
   1262000   304.87495      0.011046042    5.423104       756.40316     -21.647809      734.75536    
   1263000   303.31584      0.011046042    6.0534478      752.53496     -23.805031      728.72992    
   1264000   287.18365      0.011046042    6.1998609      712.51056     -21.343239      691.16732    
   1265000   288.74394      0.011046042    4.6929485      716.38167     -20.430855      695.95082    
   1266000   318.22747      0.011046042    6.6651136      789.53113     -19.837089      769.69404    
   1267000   302.65785      0.011046042    6.6946281      750.90247     -19.944466      730.958      
   1268000   290.56936      0.011046042    5.5393979      720.91059     -21.287278      699.62331    
   1269000   298.18135      0.011046042    5.4368827      739.79616     -18.075141      721.72102    
   1270000   317.06205      0.011046042    6.3555008      786.63969     -18.247417      768.39228    
   1271000   295.35195      0.011046042    7.2674073      732.77633     -15.862517      716.91381    
   1272000   289.3807       0.011046042    5.9154149      717.96149     -15.558867      702.40263    
   1273000   309.9284       0.011046042    5.6688516      768.94091     -17.689354      751.25155    
   1274000   322.25361      0.011046042    6.5883507      799.52008     -18.427992      781.09209    
   1275000   300.99567      0.011046042    6.8276038      746.77856     -17.167324      729.61123    
   1276000   284.68502      0.011046042    5.7800637      706.31138     -17.782283      688.5291     
   1277000   313.04755      0.011046042    5.8887353      776.6796      -17.853178      758.82642    
   1278000   302.96317      0.011046042    5.7373923      751.65997     -21.530274      730.1297     
   1279000   287.59308      0.011046042    5.6688459      713.52636     -17.523793      696.00257    
   1280000   317.0871       0.011046042    6.2521717      786.70184     -21.61934       765.0825     
   1281000   305.40466      0.011046042    5.3892483      757.71737     -16.77431       740.94306    
   1282000   292.44668      0.011046042    5.0412721      725.56828     -19.173754      706.39452    
   1283000   298.10157      0.011046042    7.6197401      739.59821     -18.812297      720.78591    
   1284000   305.24317      0.011046042    6.931285       757.31672     -14.73584       742.58088    
   1285000   307.8564       0.011046042    5.6238485      763.80022     -18.875132      744.92508    
   1286000   298.82075      0.011046042    5.7542611      741.38252     -16.618402      724.76412    
   1287000   289.6875       0.011046042    5.6586927      718.72267     -18.273922      700.44875    
   1288000   305.64042      0.011046042    7.62704        758.30231     -16.010982      742.29132    
   1289000   312.65588      0.011046042    6.9005002      775.70785     -19.101685      756.60616    
   1290000   291.0207       0.011046042    4.0226147      722.03039     -18.299717      703.73067    
   1291000   291.96278      0.011046042    10.772361      724.3677      -20.971294      703.39641    
   1292000   315.85845      0.011046042    8.615622       783.65353     -19.131918      764.52161    
   1293000   301.83895      0.011046042    5.9626572      748.87074     -18.416193      730.45455    
   1294000   295.1677       0.011046042    4.8625035      732.31919     -25.901119      706.41807    
   1295000   301.52836      0.011046042    5.134991       748.10017     -17.912029      730.18814    
   1296000   304.01526      0.011046042    3.3822292      754.27024     -18.483654      735.78658    
   1297000   288.58976      0.011046042    6.2935218      715.99916     -18.344406      697.65475    
   1298000   294.373        0.011046042    9.798143       730.34752     -18.4735        711.87402    
   1299000   303.72665      0.011046042    6.3283554      753.5542      -17.433986      736.12021    
   1300000   305.86694      0.011046042    5.4976614      758.86432     -18.923542      739.94078    
   1301000   296.08637      0.011046042    5.1459554      734.59846     -16.357688      718.24077    
   1302000   294.51802      0.011046042    6.2649518      730.70733     -14.195563      716.51177    
   1303000   297.26398      0.011046042    7.006244       737.52012     -19.012792      718.50733    
   1304000   306.74949      0.011046042    6.056747       761.05395     -16.175355      744.8786     
   1305000   300.29319      0.011046042    5.6400034      745.03568     -16.053447      728.98224    
   1306000   296.74208      0.011046042    5.3867617      736.22528     -19.66374       716.56154    
   1307000   285.25428      0.011046042    6.5326391      707.72374     -19.844063      687.87968    
   1308000   320.65909      0.011046042    6.9198038      795.56403     -16.957828      778.6062     
   1309000   297.36362      0.011046042    5.5534968      737.76733     -17.956708      719.81062    
   1310000   292.40829      0.011046042    6.5707429      725.47304     -17.736496      707.73654    
   1311000   302.47531      0.011046042    10.822408      750.44959     -17.616817      732.83277    
   1312000   301.56403      0.011046042    2.6422484      748.18868     -15.928096      732.26058    
   1313000   300.03264      0.011046042    5.2537746      744.38926     -14.976757      729.4125     
   1314000   297.91874      0.011046042    10.386851      739.14461     -15.413567      723.73104    
   1315000   306.49209      0.011046042    5.8229558      760.41533     -16.470361      743.94497    
   1316000   305.83245      0.011046042    5.1359982      758.77875     -21.714799      737.06395    
   1317000   303.7185       0.011046042    3.6993383      753.53397     -21.282936      732.25103    
   1318000   295.23985      0.011046042    5.9592964      732.49819     -17.877198      714.621      
   1319000   299.71473      0.011046042    6.9303421      743.60052     -19.906789      723.69373    
   1320000   302.46314      0.011046042    2.491802       750.4194      -21.846346      728.57305    
   1321000   297.41367      0.011046042    6.4407256      737.89152     -21.938671      715.95285    
   1322000   295.51077      0.011046042    8.9122127      733.17036     -19.735215      713.43514    
   1323000   301.16651      0.011046042    12.737887      747.20242     -14.826265      732.37616    
   1324000   303.91778      0.011046042    6.2706809      754.02838     -18.760059      735.26832    
   1325000   304.50005      0.011046042    5.4986821      755.47302     -17.967926      737.50509    
   1326000   317.4808       0.011046042    2.4578781      787.67862     -16.489922      771.1887     
   1327000   296.33332      0.011046042    4.2787526      735.21114     -17.802302      717.40884    
   1328000   291.56972      0.011046042    19.806322      723.39251     -18.523234      704.86928    
   1329000   301.75213      0.011046042    3.263566       748.65535     -13.492968      735.16238    
   1330000   306.03365      0.011046042   -1.2423106      759.27792     -16.744456      742.53346    
   1331000   287.90403      0.011046042    4.9530248      714.29783     -20.615106      693.68273    
   1332000   305.49729      0.011046042    10.688518      757.94719     -14.939903      743.00728    
   1333000   304.50873      0.011046042   -2.0205111      755.49455     -11.878865      743.61568    
   1334000   292.93929      0.011046042    2.0564644      726.79046     -14.249309      712.54115    
   1335000   296.77814      0.011046042    7.9845619      736.31474     -10.642819      725.67192    
   1336000   295.6576       0.011046042    10.196665      733.53465     -13.140131      720.39452    
   1337000   300.29309      0.011046042    7.8159101      745.03544     -18.498135      726.5373     
   1338000   302.17871      0.011046042    1.8293115      749.7137      -15.72239       733.99131    
   1339000   297.26406      0.011046042    8.5033749      737.52032     -14.277482      723.24284    
   1340000   299.76271      0.011046042    3.0991966      743.71955     -12.193611      731.52594    
   1341000   283.27869      0.011046042    6.2472149      702.82223     -15.701538      687.12069    
   1342000   311.20978      0.011046042    8.5283907      772.12005     -15.669879      756.45017    
   1343000   302.20912      0.011046042   -0.86125964     749.78916     -16.458009      733.33115    
   1344000   299.55154      0.011046042    4.8918237      743.19563     -16.342707      726.85292    
   1345000   298.24452      0.011046042    6.6773613      739.95287     -16.257473      723.69539    
   1346000   302.53597      0.011046042    8.5062557      750.60009     -13.183894      737.4162     
   1347000   308.38458      0.011046042   -1.1811479      765.11065     -13.575776      751.53487    
   1348000   297.96222      0.011046042    7.596147       739.25249     -14.892078      724.36041    
   1349000   298.84465      0.011046042    8.9963931      741.44181     -15.148133      726.29368    
   1350000   304.76759      0.011046042    4.7269711      756.1368      -13.735998      742.4008     
   1351000   302.91392      0.011046042    6.1032853      751.53777     -10.691699      740.84608    
   1352000   300.40136      0.011046042    2.0336995      745.30405     -11.947199      733.35685    
   1353000   309.57262      0.011046042    6.6479394      768.05821     -13.999835      754.05838    
   1354000   302.26944      0.011046042    8.0031866      749.93881     -14.392021      735.54679    
   1355000   304.43378      0.011046042    1.2791535      755.3086      -16.994434      738.31416    
   1356000   295.88215      0.011046042    5.3288798      734.09178     -18.092527      715.99925    
   1357000   304.87118      0.011046042    7.7398319      756.39381     -16.205476      740.18833    
   1358000   312.2615       0.011046042    6.7533115      774.7294      -15.228899      759.5005     
   1359000   300.99891      0.011046042    2.517831       746.78659     -13.853468      732.93313    
   1360000   286.02063      0.011046042    3.7866015      709.62508     -15.743546      693.88153    
   1361000   305.24094      0.011046042    6.7256745      757.31119     -16.186035      741.12515    
   1362000   311.79988      0.011046042    10.197237      773.5841      -19.602372      753.98172    
   1363000   290.15217      0.011046042    5.5183606      719.87553     -15.584352      704.29118    
   1364000   296.6572       0.011046042    5.0508049      736.01468     -14.383127      721.63156    
   1365000   300.11815      0.011046042    6.502529       744.60141     -17.72235       726.87906    
   1366000   292.48453      0.011046042    7.8639572      725.66217     -16.648736      709.01344    
   1367000   311.25023      0.011046042    6.4088755      772.22039     -16.940992      755.2794     
   1368000   306.49602      0.011046042    5.2387653      760.42506     -15.256223      745.16884    
   1369000   296.34912      0.011046042    3.1603381      735.25034     -13.714729      721.53561    
   1370000   292.88536      0.011046042    7.6611656      726.65665     -13.451333      713.20532    
   1371000   304.08592      0.011046042    9.5492696      754.44556     -15.004916      739.44064    
   1372000   298.78517      0.011046042    2.6066665      741.29424     -16.140937      725.1533     
   1373000   306.82379      0.011046042    5.766035       761.23828     -14.969129      746.26915    
   1374000   285.6745       0.011046042    10.338         708.76631     -17.34479       691.42152    
   1375000   300.85065      0.011046042    7.7304018      746.41877     -15.311696      731.10707    
   1376000   318.88197      0.011046042    3.8565412      791.15496     -16.898473      774.25648    
   1377000   297.42729      0.011046042    4.1451134      737.92531     -15.947742      721.97757    
   1378000   298.25876      0.011046042    14.161126      739.98822     -19.241843      720.74637    
   1379000   312.59277      0.011046042    7.6579726      775.55128     -18.484043      757.06723    
   1380000   295.30701      0.011046042    5.3482365      732.66483     -20.169318      712.49551    
   1381000   288.73116      0.011046042    5.5657098      716.34997     -18.673765      697.6762     
   1382000   311.67786      0.011046042    5.6123816      773.28135     -14.598705      758.68265    
   1383000   316.85187      0.011046042    6.1585574      786.11823     -15.050773      771.06745    
   1384000   291.81672      0.011046042    6.1858636      724.00533     -13.522285      710.48304    
   1385000   284.03499      0.011046042    4.9609224      704.69865     -11.636775      693.06187    
   1386000   302.14804      0.011046042    4.1371742      749.63761     -13.814634      735.82298    
   1387000   314.5585       0.011046042    5.7390039      780.42831     -13.788493      766.63982    
   1388000   306.96936      0.011046042    7.4720009      761.59943     -12.976973      748.62246    
   1389000   297.79355      0.011046042    6.2985262      738.83402     -12.329317      726.5047     
   1390000   294.16094      0.011046042    2.4523034      729.82141     -14.52206       715.29935    
   1391000   306.95558      0.011046042    7.029272       761.56526     -11.531019      750.03425    
   1392000   297.65618      0.011046042    5.4324249      738.49319     -11.576244      726.91695    
   1393000   299.74133      0.011046042    4.203636       743.66651     -10.350082      733.31643    
   1394000   302.84596      0.011046042    7.5030259      751.36918     -13.019778      738.3494     
   1395000   297.70696      0.011046042    4.6853108      738.61918     -17.769949      720.84923    
   1396000   285.56932      0.011046042    5.2818779      708.50535     -17.084443      691.42091    
   1397000   294.53874      0.011046042    3.5094378      730.75872     -15.944711      714.81401    
   1398000   312.90031      0.011046042    6.3209614      776.3143      -13.496782      762.81752    
   1399000   315.61005      0.011046042    8.7751547      783.03723     -17.30641       765.73082    
   1400000   286.89988      0.011046042    4.6600365      711.80652     -15.759987      696.04653    
   1401000   300.28432      0.011046042    4.9761872      745.01368     -16.126241      728.88744    
   1402000   309.17351      0.011046042    6.5514016      767.06801     -14.090766      752.97724    
   1403000   304.41964      0.011046042    5.595291       755.27351     -17.575225      737.69828    
   1404000   298.66506      0.011046042    6.2412896      740.99625     -15.927314      725.06893    
   1405000   310.95909      0.011046042    5.7459273      771.49807     -15.482106      756.01597    
   1406000   298.39593      0.011046042    6.2013488      740.32854     -15.534753      724.79379    
   1407000   286.81698      0.011046042    5.7791783      711.60084     -18.453274      693.14757    
   1408000   307.10382      0.011046042    5.6428404      761.93305     -17.751475      744.18157    
   1409000   307.66895      0.011046042    6.4120679      763.33514     -13.797449      749.53769    
   1410000   300.97435      0.011046042    6.5327265      746.72567     -10.376511      736.34916    
   1411000   299.6824       0.011046042    7.0421582      743.5203      -10.671512      732.84879    
   1412000   293.99338      0.011046042    2.7614107      729.40569     -10.423369      718.98232    
   1413000   295.29627      0.011046042   -2.293041       732.63818     -14.343744      718.29444    
   1414000   302.60643      0.011046042    7.4677786      750.7749      -14.422302      736.3526     
   1415000   297.89474      0.011046042    7.8336276      739.08507     -15.881032      723.20404    
   1416000   303.30876      0.011046042    3.5071305      752.51738     -16.833528      735.68386    
   1417000   305.0741       0.011046042    7.1733863      756.89725     -13.338755      743.55849    
   1418000   302.42501      0.011046042    8.100599       750.32479     -16.008777      734.31602    
   1419000   299.96179      0.011046042    6.1129141      744.21347     -17.408218      726.80525    
   1420000   303.22573      0.011046042    2.0593101      752.31139     -15.765673      736.54572    
   1421000   299.1335       0.011046042    7.9905572      742.15846     -13.317685      728.84078    
   1422000   300.68905      0.011046042    7.3334758      746.01782     -11.229953      734.78787    
   1423000   300.80495      0.011046042    0.59484917     746.30536     -12.558319      733.74705    
   1424000   309.8113       0.011046042    7.1541158      768.65037     -11.137212      757.51315    
   1425000   296.83259      0.011046042    8.4477223      736.44985     -13.338052      723.1118     
   1426000   303.62217      0.011046042    6.2904912      753.29496     -15.9376        737.35736    
   1427000   311.58527      0.011046042    5.6973808      773.05164     -19.789974      753.26166    
   1428000   310.14888      0.011046042    6.6864673      769.48792     -15.745758      753.74216    
   1429000   294.04659      0.011046042    5.5578176      729.53769     -17.949158      711.58853    
   1430000   284.55429      0.011046042    3.4493918      705.98704     -15.92615       690.06089    
   1431000   312.46439      0.011046042    6.1056482      775.23277     -17.556538      757.67623    
   1432000   296.94522      0.011046042    6.4705301      736.72929     -19.207132      717.52215    
   1433000   288.77007      0.011046042    5.9317102      716.44651     -24.584806      691.8617     
   1434000   302.36234      0.011046042    7.1219925      750.1693      -20.207303      729.962      
   1435000   298.5991       0.011046042    6.1378333      740.83261     -21.727268      719.10534    
   1436000   299.85441      0.011046042    4.3388519      743.94705     -23.050421      720.89662    
   1437000   307.94032      0.011046042    6.0271459      764.00841     -24.429466      739.57895    
   1438000   293.80539      0.011046042    7.1353727      728.93927     -21.056088      707.88319    
   1439000   303.59631      0.011046042    1.6727617      753.23081     -21.171961      732.05884    
   1440000   310.44904      0.011046042    6.8826708      770.23262     -15.922562      754.31005    
   1441000   304.2424       0.011046042    7.3660809      754.83377     -18.053847      736.77992    
   1442000   291.0605       0.011046042    6.227364       722.12911     -18.553075      703.57604    
   1443000   299.07719      0.011046042    4.256857       742.01876     -17.806832      724.21192    
   1444000   308.6434       0.011046042    4.9131051      765.75277     -17.66055       748.09222    
   1445000   305.2366       0.011046042    6.6806181      757.30042     -21.126548      736.17387    
   1446000   293.50267      0.011046042    6.4283348      728.18821     -23.687853      704.50035    
   1447000   299.79351      0.011046042    4.7169835      743.79596     -26.286619      717.50934    
   1448000   300.30334      0.011046042    4.3065481      745.06086     -22.350582      722.71027    
   1449000   306.93873      0.011046042    5.8538574      761.52345     -23.160828      738.36262    
   1450000   295.80315      0.011046042    7.8940846      733.89577     -23.106369      710.7894     
   1451000   289.66003      0.011046042    5.1965508      718.65453     -21.43361       697.22092    
   1452000   313.47128      0.011046042    1.3474656      777.73088     -22.571135      755.15974    
   1453000   305.33954      0.011046042    9.3623365      757.55581     -23.656943      733.89887    
   1454000   291.71174      0.011046042    8.3262612      723.74487     -19.484849      704.26002    
   1455000   293.69959      0.011046042    5.1994684      728.67677     -17.763479      710.9133     
   1456000   297.93541      0.011046042    5.6615455      739.18596     -21.508622      717.67733    
   1457000   315.62049      0.011046042    7.1792934      783.06313     -20.252926      762.8102     
   1458000   277.77459      0.011046042    7.6356123      689.16642     -16.477797      672.68862    
   1459000   294.94074      0.011046042    4.2970291      731.75612     -19.834515      711.9216     
   1460000   308.68068      0.011046042    5.967186       765.84529     -18.52763       747.31766    
   1461000   295.26884      0.011046042    5.9456003      732.57012     -20.831786      711.73834    
   1462000   285.34201      0.011046042    5.769854       707.9414      -19.890132      688.05127    
   1463000   293.68828      0.011046042    5.8563145      728.64871     -17.461508      711.1872     
   1464000   306.1712       0.011046042    6.7741971      759.61918     -18.74254       740.87664    
   1465000   303.95284      0.011046042    6.2011333      754.11537     -18.230966      735.8844     
   1466000   294.88336      0.011046042    5.9766024      731.61375     -16.954737      714.65901    
   1467000   297.27221      0.011046042    5.3245539      737.54055     -18.151331      719.38922    
   1468000   297.48769      0.011046042    7.503335       738.07516     -19.742875      718.33229    
   1469000   300.16051      0.011046042    5.4804908      744.70649     -17.970521      726.73597    
   1470000   304.196        0.011046042    5.2692149      754.71865     -14.431614      740.28704    
   1471000   294.88972      0.011046042    6.5689563      731.62953     -14.196652      717.43288    
   1472000   296.30633      0.011046042    6.767365       735.14418     -11.754131      723.39005    
   1473000   316.96096      0.011046042    6.1162913      786.38887     -15.703071      770.6858     
   1474000   291.17119      0.011046042    5.0382393      722.40376     -20.391136      702.01262    
   1475000   291.23208      0.011046042    8.3192595      722.55483     -15.014278      707.54055    
   1476000   300.2923       0.011046042    6.0928464      745.03348     -17.953657      727.07983    
   1477000   307.9736       0.011046042    5.631419       764.091       -19.130591      744.96041    
   1478000   300.10763      0.011046042    5.5643091      744.57531     -20.71076       723.86455    
   1479000   292.16425      0.011046042    5.9042935      724.86756     -18.513025      706.35454    
   1480000   305.14822      0.011046042    4.1343562      757.08114     -20.781037      736.3001     
   1481000   309.84678      0.011046042    5.6065304      768.73839     -21.843233      746.89516    
   1482000   300.90676      0.011046042    5.4412885      746.55797     -18.975115      727.58285    
   1483000   288.70362      0.011046042    5.6908204      716.28164     -20.130266      696.15138    
   1484000   306.38378      0.011046042    6.169448       760.14661     -22.753559      737.39305    
   1485000   314.45335      0.011046042    6.2351042      780.16743     -24.8538        755.31363    
   1486000   303.68038      0.011046042    6.2651511      753.43938     -26.775106      726.66428    
   1487000   284.19741      0.011046042    5.8581773      705.10161     -21.609749      683.49186    
   1488000   288.75545      0.011046042    5.6311033      716.41023     -20.462066      695.94816    
   1489000   304.8634       0.011046042    7.2521583      756.37451     -19.517404      736.8571     
   1490000   316.17033      0.011046042    9.4750472      784.4273      -15.12367       769.30363    
   1491000   304.58483      0.011046042    6.1466605      755.68336     -17.635795      738.04756    
   1492000   278.12349      0.011046042    5.2413266      690.03205     -17.99223       672.03982    
   1493000   299.79249      0.011046042    4.3280344      743.79343     -18.836492      724.95694    
   1494000   308.00829      0.011046042    4.9990331      764.17705     -18.887554      745.28949    
   1495000   307.532        0.011046042    9.3213248      762.99537     -27.291183      735.70418    
   1496000   291.8259       0.011046042    5.8470048      724.0281      -24.11886       699.90924    
   1497000   306.39566      0.011046042    4.7572055      760.17607     -21.913216      738.26286    
   1498000   299.88572      0.011046042    6.2732535      744.02473     -19.45552       724.56921    
   1499000   296.81885      0.011046042    5.8699077      736.41575     -23.399087      713.01666    
   1500000   307.93916      0.011046042    8.1657834      764.00555     -21.518839      742.48671    
   1501000   303.74003      0.011046042    6.0927444      753.58738     -21.027268      732.56011    
   1502000   297.4193       0.011046042    5.612581       737.90549     -20.516563      717.38892    
   1503000   297.01613      0.011046042    6.0500336      736.9052      -20.551159      716.35404    
   1504000   309.48905      0.011046042    5.7925797      767.85087     -20.888492      746.96238    
   1505000   302.65238      0.011046042    7.3954894      750.88889     -22.750474      728.13841    
   1506000   300.23743      0.011046042    5.8857644      744.89734     -22.787171      722.11017    
   1507000   297.23816      0.011046042    2.2040499      737.45606     -18.162917      719.29315    
   1508000   296.66097      0.011046042    3.8536375      736.02405     -20.878388      715.14566    
   1509000   321.35878      0.011046042    7.5869078      797.29999     -18.819483      778.48051    
   1510000   295.71748      0.011046042    6.5631205      733.68321     -17.251567      716.43165    
   1511000   288.06349      0.011046042    5.595523       714.69346     -20.493246      694.20021    
   1512000   311.55236      0.011046042    7.8188479      772.96999     -22.665894      750.3041     
   1513000   302.56912      0.011046042    0.14104302     750.68232     -22.384015      728.29831    
   1514000   296.17376      0.011046042    5.723777       734.81526     -19.199256      715.616      
   1515000   307.44964      0.011046042    6.8766158      762.79102     -20.008313      742.78271    
   1516000   313.10443      0.011046042    6.9509559      776.82071     -19.835075      756.98564    
   1517000   299.67496      0.011046042    5.9285714      743.50184     -21.327392      722.17444    
   1518000   300.90948      0.011046042    5.9075486      746.56472     -17.304895      729.25982    
   1519000   297.21287      0.011046042    3.4246205      737.39332     -16.389345      721.00398    
   1520000   300.45596      0.011046042    6.5740993      745.43951     -15.681256      729.75826    
   1521000   297.47612      0.011046042    6.275092       738.04647     -20.22034       717.82613    
   1522000   298.64083      0.011046042    5.5265559      740.93613     -18.846612      722.08952    
   1523000   296.95601      0.011046042    4.8030105      736.75605     -17.158397      719.59765    
   1524000   312.36224      0.011046042    5.982327       774.97932     -18.960146      756.01918    
   1525000   301.47498      0.011046042    6.6190075      747.96773     -19.265742      728.70199    
   1526000   288.26905      0.011046042    5.0836641      715.20346     -22.118588      693.08487    
   1527000   305.43325      0.011046042    5.6591106      757.78831     -20.394852      737.39346    
   1528000   316.56908      0.011046042    6.1645783      785.41663     -23.133079      762.28355    
   1529000   298.63577      0.011046042    6.8664855      740.92358     -16.358216      724.56537    
   1530000   287.45954      0.011046042    6.037209       713.19504     -18.493606      694.70144    
   1531000   282.0626       0.011046042    3.7476661      699.80508     -16.361292      683.44379    
   1532000   291.99868      0.011046042    4.365791       724.45676     -15.431289      709.02548    
   1533000   304.23739      0.011046042    2.2092814      754.82136     -16.286104      738.53525    
   1534000   305.07681      0.011046042    7.8477859      756.90397     -16.862131      740.04184    
   1535000   290.18455      0.011046042    10.675742      719.95587     -18.243547      701.71232    
   1536000   306.60898      0.011046042    15.343583      760.70533     -17.125859      743.57947    
   1537000   296.9904       0.011046042    5.2455619      736.84137     -17.898029      718.94334    
   1538000   298.90329      0.011046042    0.85796752     741.5873      -16.031901      725.5554     
   1539000   305.44609      0.011046042   -1.4967951      757.82017     -13.80943       744.01074    
   1540000   297.42194      0.011046042    14.085037      737.91204     -18.425079      719.48696    
   1541000   299.74521      0.011046042   -1.5181291      743.67613     -17.489538      726.18659    
   1542000   303.83959      0.011046042    4.640612       753.83439     -17.314857      736.51953    
   1543000   291.14978      0.011046042    9.7889391      722.35063     -19.049779      703.30085    
   1544000   298.80529      0.011046042    5.8322297      741.34416     -20.006337      721.33782    
   1545000   297.80309      0.011046042    0.89446616     738.85767     -16.091987      722.76568    
   1546000   300.47003      0.011046042    4.0677293      745.47444     -21.02032       724.45412    
   1547000   303.66171      0.011046042    11.58731       753.39306     -19.440414      733.95265    
   1548000   304.92023      0.011046042    5.3403873      756.5155      -17.982517      738.53298    
   1549000   300.41053      0.011046042    4.3978047      745.3268      -20.019883      725.30692    
   1550000   296.92452      0.011046042    9.296924       736.67792     -20.482342      716.19558    
   1551000   304.97731      0.011046042    6.6588148      756.65711     -23.109236      733.54787    
   1552000   303.95307      0.011046042    5.2416425      754.11595     -21.786905      732.32905    
   1553000   313.8475       0.011046042    6.0605765      778.6643      -21.797544      756.86676    
   1554000   297.71961      0.011046042    6.5456487      738.65056     -19.867729      718.78283    
   1555000   291.84819      0.011046042    4.5225694      724.08341     -18.69053       705.39288    
   1556000   311.98642      0.011046042    3.5496342      774.04691     -20.240479      753.80643    
   1557000   302.80228      0.011046042    5.2445137      751.2608      -23.364137      727.89666    
   1558000   299.81992      0.011046042    6.6098736      743.8615      -21.686725      722.17477    
   1559000   303.50963      0.011046042    5.8991647      753.01575     -22.287403      730.72834    
   1560000   308.06689      0.011046042    5.8643319      764.32245     -23.891413      740.43104    
   1561000   288.35637      0.011046042    6.8529127      715.42011     -24.362717      691.0574     
   1562000   311.56549      0.011046042    6.1111363      773.00257     -28.217405      744.78516    
   1563000   302.73135      0.011046042    6.554562       751.08483     -23.706567      727.37826    
   1564000   301.38346      0.011046042    5.5734364      747.74067     -19.915524      727.82515    
   1565000   303.6267       0.011046042    5.2819415      753.30622     -22.171449      731.13477    
   1566000   290.89349      0.011046042    7.6873155      721.71476     -20.260852      701.45391    
   1567000   301.35817      0.011046042    5.376083       747.67793     -19.915595      727.76234    
   1568000   299.62697      0.011046042    4.6861581      743.38277     -21.739709      721.64306    
   1569000   300.31134      0.011046042    10.392744      745.0807      -17.583349      727.49735    
   1570000   292.40854      0.011046042    5.5983739      725.47364     -18.057827      707.41582    
   1571000   306.48073      0.011046042    6.7009741      760.38715     -14.85602       745.53113    
   1572000   318.63848      0.011046042    6.8323376      790.55085     -15.996802      774.55405    
   1573000   310.40322      0.011046042    7.2404094      770.11894     -17.243581      752.87536    
   1574000   290.39598      0.011046042    6.4295383      720.48044     -14.590904      705.88953    
   1575000   306.7268       0.011046042    4.1784247      760.99766     -14.0126        746.98506    
   1576000   313.92504      0.011046042    7.1275545      778.85667     -11.984631      766.87204    
   1577000   292.9082       0.011046042    5.8427749      726.71333     -12.73296       713.98037    
   1578000   297.3312       0.011046042    6.7353626      737.6869      -15.078736      722.60817    
   1579000   314.2992       0.011046042    6.6456186      779.78498     -18.493916      761.29107    
   1580000   299.33649      0.011046042    6.108253       742.66209     -15.652078      727.01001    
   1581000   288.61357      0.011046042    6.62928        716.05823     -18.203657      697.85458    
   1582000   326.78221      0.011046042    8.4804635      810.75568     -15.64744       795.10824    
   1583000   306.39682      0.011046042    7.4052225      760.17896     -17.824139      742.35482    
   1584000   299.78009      0.011046042    5.9821598      743.76266     -17.774593      725.98806    
   1585000   311.25716      0.011046042    5.7781451      772.2376      -16.288142      755.94945    
   1586000   296.59421      0.011046042    5.6254408      735.85841     -22.605738      713.25267    
   1587000   286.45951      0.011046042    6.7858853      710.71395     -18.159397      692.55455    
   1588000   309.12929      0.011046042    8.8396842      766.95828     -16.336376      750.62191    
   1589000   308.4735       0.011046042    5.4056515      765.33126     -14.908402      750.42286    
   1590000   295.28063      0.011046042    4.6088985      732.59939     -17.841923      714.75747    
   1591000   297.32255      0.011046042    9.3523714      737.66544     -19.745479      717.91996    
   1592000   313.13698      0.011046042    4.8037223      776.90148     -20.933606      755.96788    
   1593000   297.36451      0.011046042    2.4752631      737.76955     -22.136615      715.63294    
   1594000   295.13436      0.011046042    7.9476645      732.23648     -19.627523      712.60895    
   1595000   306.67979      0.011046042    6.8812693      760.88101     -20.403298      740.47772    
   1596000   315.483        0.011046042    5.6922993      782.72202     -19.425936      763.29608    
   1597000   297.87351      0.011046042    3.8484191      739.03238     -21.890564      717.14182    
   1598000   288.6228       0.011046042    5.75003        716.08112     -21.07559       695.00553    
   1599000   301.21284      0.011046042    6.2362694      747.31735     -20.931756      726.3856     
   1600000   305.29025      0.011046042    7.2310814      757.43352     -15.746563      741.68696    
   1601000   299.14199      0.011046042   -1.028426       742.17951     -18.457437      723.72207    
   1602000   294.83719      0.011046042    5.7442685      731.4992      -18.892655      712.60655    
   1603000   297.74815      0.011046042    7.8520971      738.72136     -18.28351       720.43785    
   1604000   315.88436      0.011046042    9.803396       783.7178      -20.026494      763.6913     
   1605000   307.449        0.011046042    3.822809       762.78944     -20.815438      741.97401    
   1606000   300.28884      0.011046042    4.7079753      745.0249      -20.599879      724.42502    
   1607000   293.71453      0.011046042    5.7409044      728.71386     -20.016319      708.69754    
   1608000   296.50752      0.011046042    6.2444259      735.64333     -18.228895      717.41443    
   1609000   312.99809      0.011046042    6.7199204      776.55689     -16.943545      759.61335    
   1610000   311.11697      0.011046042    5.5106322      771.88978     -16.822489      755.06729    
   1611000   299.18621      0.011046042    5.9235716      742.28923     -19.066491      723.22274    
   1612000   293.46009      0.011046042    6.0097008      728.08257     -18.440159      709.64241    
   1613000   311.71843      0.011046042    5.6717922      773.38201     -20.378117      753.0039     
   1614000   302.14873      0.011046042    7.3107984      749.63932     -24.428169      725.21115    
   1615000   281.18728      0.011046042    4.8691329      697.6334      -26.756662      670.87674    
   1616000   302.42814      0.011046042    5.9280395      750.33256     -31.136497      719.19607    
   1617000   309.63631      0.011046042    6.0390862      768.21621     -30.404805      737.81141    
   1618000   311.16402      0.011046042    6.0528709      772.0065      -23.254053      748.75245    
   1619000   282.30155      0.011046042    5.5267115      700.39792     -25.838692      674.55923    
   1620000   293.52379      0.011046042    7.5804383      728.24061     -24.125456      704.11516    
   1621000   313.72872      0.011046042    5.3311682      778.3696      -24.751935      753.61766    
   1622000   298.93332      0.011046042    0.68470743     741.66181     -20.688463      720.97335    
   1623000   287.47918      0.011046042    6.8216455      713.24378     -21.940564      691.30321    
   1624000   309.0084       0.011046042    11.221582      766.65836     -26.616708      740.04165    
   1625000   305.47779      0.011046042    9.1502469      757.89883     -23.331707      734.56712    
   1626000   305.44552      0.011046042    5.5713911      757.81874     -25.200897      732.61785    
   1627000   297.10411      0.011046042    2.5426873      737.12349     -24.545806      712.57769    
   1628000   295.52044      0.011046042    6.1290586      733.19436     -21.85731       711.33705    
   1629000   309.24165      0.011046042    6.628765       767.23706     -20.655939      746.58112    
   1630000   315.41525      0.011046042    4.7435158      782.55394     -18.359983      764.19396    
   1631000   294.29782      0.011046042    5.7045297      730.161       -19.394769      710.76623    
   1632000   298.5695       0.011046042    5.7352755      740.75915     -19.823417      720.93573    
   1633000   309.31253      0.011046042    6.229332       767.4129      -20.015201      747.3977     
   1634000   296.40912      0.011046042    5.727709       735.39919     -20.530308      714.86888    
   1635000   285.04408      0.011046042    3.0389713      707.20223     -13.932178      693.27005    
   1636000   315.04397      0.011046042    7.7074537      781.63277     -18.932125      762.70064    
   1637000   306.92342      0.011046042    2.7898778      761.48547     -19.761409      741.72406    
   1638000   291.77565      0.011046042    5.8103212      723.90342     -19.578766      704.32465    
   1639000   305.14533      0.011046042    6.7535656      757.07398     -21.333734      735.74024    
   1640000   310.50873      0.011046042    7.8924844      770.38071     -21.64201       748.7387     
   1641000   301.58163      0.011046042    8.2746227      748.23235     -20.014324      728.21802    
   1642000   292.2563       0.011046042    3.9357452      725.09593     -23.529681      701.56625    
   1643000   306.83295      0.011046042    2.1672588      761.26101     -18.766559      742.49445    
   1644000   305.08098      0.011046042    6.1304365      756.91431     -21.697365      735.21695    
   1645000   305.89269      0.011046042    7.0042713      758.9282      -17.906515      741.02168    
   1646000   286.2605       0.011046042    5.2079497      710.2202      -19.403605      690.8166     
   1647000   297.60382      0.011046042    3.8667299      738.36329     -22.041528      716.32176    
   1648000   297.34416      0.011046042    4.6626655      737.71906     -21.002481      716.71658    
   1649000   310.21978      0.011046042    7.5169945      769.66382     -19.62186       750.04196    
   1650000   307.09945      0.011046042    9.2582495      761.92221     -25.028585      736.89363    
   1651000   293.41727      0.011046042    5.6906623      727.97634     -26.31291       701.66343    
   1652000   291.03705      0.011046042    3.8581675      722.07093     -26.063888      696.00705    
   1653000   311.5474       0.011046042    6.3359288      772.9577      -25.597207      747.36049    
   1654000   313.85465      0.011046042    8.882998       778.68203     -22.857053      755.82497    
   1655000   295.09876      0.011046042    5.0463768      732.14815     -20.311308      711.83685    
   1656000   294.2933       0.011046042    4.7056041      730.14979     -18.207571      711.94222    
   1657000   292.65962      0.011046042    5.6516586      726.09659     -16.071856      710.02473    
   1658000   303.059        0.011046042    7.0542624      751.89773     -14.386288      737.51144    
   1659000   302.73296      0.011046042    6.7489564      751.08882     -19.253869      731.83495    
   1660000   290.95403      0.011046042    5.791243       721.86497     -23.369978      698.49499    
   1661000   288.21989      0.011046042    5.7983398      715.08148     -22.573291      692.50819    
   1662000   308.11114      0.011046042    3.108532       764.43223     -23.840186      740.59204    
   1663000   309.30747      0.011046042    7.4147569      767.40035     -22.874366      744.52598    
   1664000   292.82515      0.011046042    5.1114367      726.50728     -24.361975      702.1453     
   1665000   302.55039      0.011046042    3.5383961      750.63585     -28.793415      721.84243    
   1666000   308.09339      0.011046042    5.424087       764.3882      -29.799622      734.58858    
   1667000   305.84957      0.011046042    8.6402138      758.82122     -27.660877      731.16035    
   1668000   293.29196      0.011046042    5.1640654      727.66543     -22.895158      704.77027    
   1669000   300.52197      0.011046042    5.2813262      745.60329     -26.206004      719.39728    
   1670000   312.78858      0.011046042    9.0005681      776.03709     -24.165743      751.87135    
   1671000   294.90214      0.011046042    6.0516143      731.66034     -23.207702      708.45263    
   1672000   283.5856       0.011046042    5.900283       703.5837      -16.15908       687.42462    
   1673000   308.53292      0.011046042    4.2154805      765.47868     -19.154371      746.32431    
   1674000   311.44527      0.011046042    6.6043305      772.7043      -19.435962      753.26834    
   1675000   301.34281      0.011046042    6.2025245      747.63981     -19.572825      728.06699    
   1676000   290.39353      0.011046042    7.1783441      720.47436     -20.053493      700.42087    
   1677000   301.13142      0.011046042    0.45603013     747.11535     -17.909707      729.20564    
   1678000   324.58969      0.011046042    9.15906        805.31596     -16.732809      788.58315    
   1679000   303.89061      0.011046042    7.9398913      753.96099     -17.406659      736.55433    
   1680000   287.27044      0.011046042    7.0904563      712.72589     -22.575881      690.15001    
   1681000   299.06458      0.011046042    3.2556084      741.98746     -21.70589       720.28157    
   1682000   302.59575      0.011046042    6.7327984      750.74839     -19.893086      730.8553     
   1683000   313.03728      0.011046042    7.2896738      776.65412     -21.39868       755.25544    
   1684000   283.57675      0.011046042    6.8950212      703.56175     -25.041912      678.51983    
   1685000   292.21942      0.011046042    5.8474746      725.00445     -24.974219      700.03023    
   1686000   314.73796      0.011046042    5.0958045      780.87355     -27.031472      753.84208    
   1687000   312.7049       0.011046042    6.7587687      775.82948     -22.849215      752.98027    
   1688000   288.62981      0.011046042    5.7807379      716.09852     -23.993786      692.10474    
   1689000   296.77273      0.011046042    6.3245825      736.30132     -23.430062      712.87126    
   1690000   296.02024      0.011046042    6.3786499      734.43437     -25.32828       709.10609    
   1691000   304.19506      0.011046042    5.0549504      754.71632     -24.419316      730.297      
   1692000   287.31052      0.011046042    5.9911576      712.82532     -21.578326      691.24699    
   1693000   313.07503      0.011046042    8.5183653      776.74777     -24.890618      751.85715    
   1694000   304.19303      0.011046042    5.4304864      754.71129     -25.935848      728.77545    
   1695000   290.28216      0.011046042    5.8025147      720.19804     -26.020279      694.17776    
   1696000   292.33221      0.011046042    5.9713112      725.28427     -24.226148      701.05812    
   1697000   311.06278      0.011046042    6.9691092      771.75534     -23.344068      748.41127    
   1698000   323.01841      0.011046042    5.2779332      801.41759     -19.181696      782.23589    
   1699000   292.20891      0.011046042    5.8005626      724.97835     -20.803983      704.17437    
   1700000   284.52393      0.011046042    5.7933536      705.91171     -21.33677       684.57494    
   1701000   295.72094      0.011046042    6.3259097      733.6918      -21.843403      711.84839    
   1702000   308.23284      0.011046042    6.4147776      764.73416     -21.153166      743.58099    
   1703000   293.61176      0.011046042    6.0486255      728.45887     -23.966894      704.49198    
   1704000   290.50316      0.011046042    4.0902948      720.74634     -29.552697      691.19364    
   1705000   288.25491      0.011046042    10.67363       715.16837     -27.064186      688.10419    
   1706000   304.29907      0.011046042    9.3955735      754.97438     -27.063686      727.91069    
   1707000   298.51698      0.011046042    5.8283432      740.62887     -27.880718      712.74815    
   1708000   291.4709       0.011046042    3.2004058      723.14734     -31.495332      691.652      
   1709000   296.24844      0.011046042    4.6209619      735.00054     -30.491433      704.50911    
   1710000   297.9775       0.011046042    11.171986      739.2904      -25.730627      713.55978    
   1711000   301.50586      0.011046042    7.3346179      748.04436     -24.002679      724.04168    
   1712000   307.95093      0.011046042    0.87087382     764.03473     -21.06403       742.9707     
   1713000   294.55036      0.011046042    4.128634       730.78757     -19.934541      710.85303    
   1714000   296.51582      0.011046042    9.0101704      735.66392     -18.936447      716.72747    
   1715000   295.63887      0.011046042    5.6595346      733.48817     -20.23397       713.2542     
   1716000   304.31172      0.011046042    8.1249426      755.00576     -23.828358      731.1774     
   1717000   300.64864      0.011046042    6.2586989      745.91757     -22.976144      722.94143    
   1718000   305.77501      0.011046042    3.7345103      758.63623     -21.712225      736.92401    
   1719000   294.4987       0.011046042    5.4682579      730.65939     -24.735945      705.92344    
   1720000   310.03047      0.011046042    6.1446252      769.19414     -26.305252      742.88888    
   1721000   304.63166      0.011046042    6.5797165      755.79953     -25.193103      730.60643    
   1722000   296.02018      0.011046042    2.7905679      734.43423     -26.611279      707.82295    
   1723000   295.36061      0.011046042    8.0223807      732.7978      -25.338091      707.45971    
   1724000   314.46304      0.011046042    4.5574188      780.19148     -21.985726      758.20575    
   1725000   300.93136      0.011046042    5.3655009      746.619       -28.419364      718.19964    
   1726000   294.04848      0.011046042    6.0117803      729.54239     -23.136073      706.40631    
   1727000   298.8201       0.011046042    6.7981873      741.3809      -25.052661      716.32824    
   1728000   310.03101      0.011046042    8.1561641      769.19548     -24.366459      744.82902    
   1729000   301.72823      0.011046042    3.9931117      748.59605     -19.204861      729.39119    
   1730000   287.84066      0.011046042    6.0850324      714.1406      -19.18686       694.95374    
   1731000   290.03549      0.011046042    8.6391053      719.58605     -19.731951      699.8541     
   1732000   316.20333      0.011046042    9.132166       784.50917     -20.965439      763.54373    
   1733000   315.96217      0.011046042    7.7224714      783.91084     -24.00889       759.90195    
   1734000   296.23602      0.011046042    6.2088828      734.96972     -27.466958      707.50276    
   1735000   293.11144      0.011046042    4.9255835      727.21756     -25.548364      701.6692     
   1736000   295.28546      0.011046042    9.559384       732.61137     -27.856667      704.75471    
   1737000   306.90138      0.011046042    7.5166858      761.43078     -26.260369      735.17041    
   1738000   312.73369      0.011046042    6.7120594      775.9009      -27.290628      748.61027    
   1739000   288.72609      0.011046042    4.4258867      716.33739     -20.898747      695.43865    
   1740000   294.10978      0.011046042    6.0635979      729.69448     -21.891004      707.80347    
   1741000   323.41445      0.011046042    6.9685524      802.40018     -22.16662       780.23356    
   1742000   299.54927      0.011046042    5.9935171      743.18999     -22.611363      720.57863    
   1743000   281.69905      0.011046042    6.3479087      698.90311     -19.163259      679.73985    
   1744000   290.83419      0.011046042    5.6057008      721.56763     -17.209813      704.35782    
   1745000   315.89446      0.011046042    7.1638062      783.74285     -18.455633      765.28722    
   1746000   305.86282      0.011046042    6.848958       758.85409     -17.43268       741.42141    
   1747000   303.97614      0.011046042    5.8171996      754.17318     -18.095096      736.07809    
   1748000   287.0799       0.011046042    4.5383245      712.25316     -20.311032      691.94212    
   1749000   301.45387      0.011046042    6.4456795      747.91536     -17.301444      730.61392    
   1750000   306.67572      0.011046042    6.2804016      760.87091     -20.871572      739.99934    
   1751000   294.77893      0.011046042    5.7868201      731.35466     -18.694487      712.66017    
   1752000   292.62553      0.011046042    5.5691082      726.012       -19.884031      706.12797    
   1753000   293.43446      0.011046042    6.1483715      728.01897     -21.875457      706.14352    
   1754000   310.39939      0.011046042    8.6349433      770.10943     -22.580014      747.52942    
   1755000   310.63329      0.011046042    8.0232133      770.68976     -17.623091      753.06667    
   1756000   298.44667      0.011046042    1.7164072      740.45442     -19.440771      721.01365    
   1757000   294.75021      0.011046042    3.3216507      731.28339     -18.251231      713.03216    
   1758000   299.64395      0.011046042    6.32793        743.4249      -17.542138      725.88276    
   1759000   308.64155      0.011046042    6.3183095      765.7482      -19.394483      746.35371    
   1760000   291.72177      0.011046042    4.3502001      723.76976     -20.513366      703.2564     
   1761000   287.4993       0.011046042    5.6394889      713.2937      -20.178031      693.11567    
   1762000   297.25839      0.011046042    4.3301879      737.50625     -17.959083      719.54717    
   1763000   319.45184      0.011046042    6.6089992      792.56881     -19.145309      773.42351    
   1764000   298.66177      0.011046042    5.8474802      740.98809     -19.294336      721.69375    
   1765000   303.82658      0.011046042    5.5423818      753.80212     -18.225364      735.57676    
   1766000   297.10948      0.011046042    6.0645167      737.13682     -19.129301      718.00752    
   1767000   298.18117      0.011046042    6.3652707      739.7957      -22.529889      717.26581    
   1768000   309.73832      0.011046042    6.1721805      768.46931     -22.572834      745.89647    
   1769000   287.99699      0.011046042    4.6230253      714.52848     -20.178615      694.34986    
   1770000   305.83537      0.011046042    6.2353779      758.78598     -21.463501      737.32248    
   1771000   310.46124      0.011046042    7.5612233      770.26289     -20.212126      750.05077    
   1772000   299.53168      0.011046042    6.3254296      743.14636     -16.962133      726.18423    
   1773000   287.78421      0.011046042    4.9795381      714.00056     -21.223481      692.77708    
   1774000   307.44359      0.011046042    5.9989959      762.77602     -17.604687      745.17133    
   1775000   309.27647      0.011046042    8.239704       767.32345     -19.806631      747.51682    
   1776000   287.57795      0.011046042    4.7227277      713.48883     -23.473773      690.01505    
   1777000   292.16129      0.011046042    5.2613334      724.86022     -18.767573      706.09265    
   1778000   297.44906      0.011046042    4.445475       737.97932     -13.93455       724.04477    
   1779000   313.01155      0.011046042    6.1351806      776.59028     -15.482982      761.10729    
   1780000   297.02705      0.011046042    6.0193238      736.93229     -16.273201      720.65909    
   1781000   290.6938       0.011046042    5.5690553      721.21932     -16.517261      704.70206    
   1782000   307.67425      0.011046042    5.6306277      763.3483      -16.079489      747.26881    
   1783000   314.55503      0.011046042    6.5529591      780.41971     -16.9749        763.44481    
   1784000   295.4295       0.011046042    6.3941806      732.96873     -17.154988      715.81374    
   1785000   290.97451      0.011046042    5.8849728      721.91578     -16.291537      705.62424    
   1786000   289.71015      0.011046042    3.8771426      718.77887     -18.198039      700.58083    
   1787000   314.92684      0.011046042    6.9409691      781.34216     -19.879187      761.46297    
   1788000   293.37175      0.011046042    6.4035921      727.86341     -23.556206      704.3072     
   1789000   290.71537      0.011046042    5.0388077      721.27285     -23.813565      697.45928    
   1790000   311.16146      0.011046042    6.129666       772.00017     -24.617024      747.38315    
   1791000   322.41335      0.011046042    7.5465922      799.91642     -19.494457      780.42196    
   1792000   298.37105      0.011046042    8.0768937      740.26679     -22.644324      717.62246    
   1793000   291.05628      0.011046042    5.3008185      722.11866     -21.338957      700.7797     
   1794000   299.17954      0.011046042    2.3969956      742.27269     -16.054565      726.21812    
   1795000   317.81187      0.011046042    6.5727353      788.50001     -18.963066      769.53695    
   1796000   298.58451      0.011046042    6.9397608      740.79641     -18.007524      722.78889    
   1797000   291.85516      0.011046042    5.9344161      724.10069     -17.396208      706.70448    
   1798000   297.42085      0.011046042    4.1846332      737.90932     -17.64198       720.26734    
   1799000   299.77018      0.011046042    3.6413943      743.73808     -16.577393      727.16068    
   1800000   313.02631      0.011046042    6.384914       776.6269      -19.776701      756.8502     
   1801000   303.14772      0.011046042    5.8320937      752.11785     -23.63759       728.48026    
   1802000   291.3684       0.011046042    6.2379298      722.89303     -18.300435      704.59259    
   1803000   300.71839      0.011046042    5.7751815      746.09061     -18.829969      727.26064    
   1804000   310.45556      0.011046042    4.6522336      770.2488      -17.856701      752.3921     
   1805000   300.4022       0.011046042    6.3183516      745.30613     -18.92636       726.37977    
   1806000   301.80515      0.011046042    6.5741249      748.7869      -19.690403      729.0965     
   1807000   299.15996      0.011046042    5.984595       742.2241      -16.493827      725.73027    
   1808000   298.28724      0.011046042    6.0731223      740.05887     -17.599995      722.45888    
   1809000   297.90495      0.011046042    7.9603967      739.1104      -17.062216      722.04819    
   1810000   299.57481      0.011046042    7.8076733      743.25336     -18.692273      724.56109    
   1811000   298.20464      0.011046042    4.508974       739.85393     -12.762321      727.09161    
   1812000   299.86653      0.011046042    4.8505551      743.97713     -13.398362      730.57877    
   1813000   308.67932      0.011046042    6.18025        765.8419      -13.92723       751.91467    
   1814000   292.82112      0.011046042    12.573113      726.49728     -15.686748      710.81053    
   1815000   285.63798      0.011046042    2.6227737      708.67569     -18.860209      689.81548    
   1816000   310.74861      0.011046042    5.9234299      770.97586     -17.852737      753.12312    
   1817000   307.15195      0.011046042    8.3895936      762.05245     -15.773862      746.27859    
   1818000   301.66643      0.011046042    6.1476285      748.44272     -16.356353      732.08637    
   1819000   288.81225      0.011046042    4.7536836      716.55115     -15.966868      700.58428    
   1820000   315.21151      0.011046042    6.693648       782.04845     -15.904811      766.14364    
   1821000   300.35282      0.011046042    6.6110874      745.18363     -14.062801      731.12083    
   1822000   296.55045      0.011046042    3.5970669      735.74984     -15.822834      719.927      
   1823000   304.1865       0.011046042    6.5376551      754.69508     -14.82613       739.86896    
   1824000   310.95888      0.011046042    8.2335959      771.49756     -11.240164      760.25739    
   1825000   303.61091      0.011046042    3.6593104      753.26703     -16.48273       736.7843     
   1826000   295.84652      0.011046042    5.1875058      734.00338     -14.316939      719.68644    
   1827000   300.36997      0.011046042    11.292836      745.22617     -15.89272       729.33345    
   1828000   292.44754      0.011046042    6.6624249      725.5704      -16.813689      708.75671    
   1829000   296.09356      0.011046042    4.0795486      734.61628     -18.731017      715.88527    
   1830000   301.54959      0.011046042    2.5655355      748.15285     -16.383636      731.76922    
   1831000   305.12557      0.011046042    1.1822542      757.02495     -18.789209      738.23574    
   1832000   299.13035      0.011046042    4.9100761      742.15063     -17.874134      724.2765     
   1833000   312.73548      0.011046042    10.568165      775.90536     -17.482006      758.42335    
   1834000   293.22588      0.011046042    10.544863      727.50149     -20.675696      706.8258     
   1835000   302.94791      0.011046042    2.6974107      751.62211     -18.798108      732.824      
   1836000   309.5454       0.011046042    2.1066761      767.99066     -18.021566      749.9691     
   1837000   299.18047      0.011046042    8.3919346      742.27498     -20.583564      721.69142    
   1838000   305.54299      0.011046042    4.8304128      758.06059     -18.715716      739.34487    
   1839000   295.04329      0.011046042    3.9262334      732.01054     -19.261575      712.74896    
   1840000   298.4834       0.011046042    6.0795433      740.54554     -16.221811      724.32373    
   1841000   318.9019       0.011046042    8.3067206      791.20441     -18.148861      773.05555    
   1842000   301.09589      0.011046042    6.4711044      747.02721     -19.787441      727.23977    
   1843000   283.34198      0.011046042    7.34505        702.97927     -20.066356      682.91292    
   1844000   307.31787      0.011046042    6.9700804      762.46411     -21.978798      740.48531    
   1845000   304.08883      0.011046042    8.993308       754.45277     -19.407101      735.04567    
   1846000   302.42834      0.011046042    3.7345137      750.33305     -15.92152       734.41153    
   1847000   303.30005      0.011046042    4.7471735      752.49579     -19.141563      733.35423    
   1848000   310.07252      0.011046042    9.8903327      769.29846     -18.236633      751.06183    
   1849000   302.46866      0.011046042    8.1031242      750.43308     -17.69172       732.74136    
   1850000   301.63243      0.011046042   -0.12775364     748.35838     -17.069506      731.28887    
   1851000   293.53711      0.011046042    6.7884619      728.27366     -18.514253      709.7594     
   1852000   299.31979      0.011046042    5.986069       742.62066     -17.826726      724.79394    
   1853000   294.02526      0.011046042    5.1237419      729.48479     -15.864499      713.62029    
   1854000   298.38333      0.011046042    4.4107911      740.29728     -19.287582      721.00969    
   1855000   324.07421      0.011046042    5.7220242      804.03706     -16.796707      787.24035    
   1856000   298.43453      0.011046042    6.053208       740.42429     -16.935861      723.48843    
   1857000   302.43466      0.011046042    6.4391485      750.34873     -17.997765      732.35097    
   1858000   301.91607      0.011046042    5.8737129      749.06208     -15.659366      733.40271    
   1859000   300.79723      0.011046042    7.6678687      746.28621     -18.526533      727.75968    
   1860000   305.29797      0.011046042    7.7075491      757.45269     -19.44439       738.0083     
   1861000   291.51562      0.011046042    5.5975585      723.25829     -21.308204      701.95008    
   1862000   293.26806      0.011046042    6.245496       727.60614     -21.109531      706.49661    
   1863000   302.39866      0.011046042    5.7366201      750.25942     -20.679723      729.57969    
   1864000   296.4909       0.011046042    6.4045388      735.60209     -20.916325      714.68577    
   1865000   309.78765      0.011046042    6.3104931      768.5917      -25.020925      743.57077    
   1866000   299.86716      0.011046042    4.7787508      743.97869     -19.055821      724.92287    
   1867000   290.38417      0.011046042    5.2773833      720.45112     -17.94487       702.50625    
   1868000   278.74133      0.011046042    6.0436719      691.56493     -18.325668      673.23926    
   1869000   306.06731      0.011046042    8.317131       759.36142     -19.054365      740.30706    
   1870000   314.49581      0.011046042    6.9807557      780.27278     -21.100856      759.17192    
   1871000   302.73057      0.011046042    3.4370516      751.08288     -19.318292      731.76459    
   1872000   281.97814      0.011046042    6.7732087      699.59553     -22.664557      676.93098    
   1873000   309.91676      0.011046042    11.554546      768.91203     -20.187346      748.72468    
   1874000   306.79578      0.011046042    7.2230146      761.16879     -20.68619       740.4826     
   1875000   309.72735      0.011046042    15.51179       768.4421      -19.613751      748.82834    
   1876000   301.14888      0.011046042   -0.26599859     747.15867     -17.04904       730.10963    
   1877000   298.64447      0.011046042    0.39207736     740.94517     -15.453119      725.49205    
   1878000   310.67719      0.011046042    5.8892799      770.79867     -21.494395      749.30427    
   1879000   305.72356      0.011046042    12.15499       758.50858     -18.827288      739.68129    
   1880000   316.28493      0.011046042    7.0475188      784.71164     -20.332191      764.37945    
   1881000   301.35692      0.011046042    3.3433621      747.67483     -21.925331      725.7495     
   1882000   303.467        0.011046042    5.3298414      752.91        -19.312134      733.59787    
   1883000   306.83542      0.011046042    9.5993738      761.26715     -19.018087      742.24906    
   1884000   290.93789      0.011046042   -3.1071197      721.82493     -16.939829      704.8851     
   1885000   295.49993      0.011046042    6.3731673      733.14347     -17.858423      715.28505    
   1886000   290.55039      0.011046042    7.5388001      720.86352     -17.369454      703.49406    
   1887000   303.06443      0.011046042    7.9337184      751.9112      -18.308407      733.6028     
   1888000   307.50227      0.011046042    6.8095476      762.9216      -16.279473      746.64213    
   1889000   313.28419      0.011046042    4.6183935      777.26671     -17.394637      759.87207    
   1890000   297.93905      0.011046042    5.0269679      739.19499     -14.204085      724.9909     
   1891000   296.75491      0.011046042    9.1803838      736.25711     -17.724714      718.5324     
   1892000   302.25103      0.011046042    6.7424018      749.89314     -17.951502      731.94164    
   1893000   311.97704      0.011046042    5.8929566      774.02363     -18.370539      755.65309    
   1894000   307.02664      0.011046042    1.0506306      761.74157     -19.735555      742.00601    
   1895000   284.63923      0.011046042    8.1868835      706.19776     -20.027458      686.17031    
   1896000   298.89349      0.011046042    7.8497553      741.56298     -22.950444      718.61254    
   1897000   304.52908      0.011046042    3.3399762      755.54503     -23.453626      732.09141    
   1898000   305.18624      0.011046042    6.1209232      757.17547     -22.377304      734.79817    
   1899000   285.02109      0.011046042    7.8163049      707.14518     -21.166204      685.97897    
   1900000   319.61922      0.011046042    7.9665723      792.98409     -18.925946      774.05814    
   1901000   305.22601      0.011046042    5.5048613      757.27414     -20.283053      736.99109    
   1902000   301.85203      0.011046042    5.9861425      748.9032      -18.945772      729.95742    
   1903000   296.05415      0.011046042    6.8242771      734.5185      -20.737721      713.78078    
   1904000   307.18902      0.011046042    5.4110229      762.14442     -23.336378      738.80804    
   1905000   309.6068       0.011046042    5.144264       768.14301     -17.694805      750.44821    
   1906000   289.49756      0.011046042    5.9795198      718.25144     -16.659193      701.59224    
   1907000   302.75779      0.011046042    7.1374397      751.15043     -13.067817      738.08261    
   1908000   298.61276      0.011046042    5.8620318      740.86648     -15.83085       725.03563    
   1909000   285.34787      0.011046042    6.0200576      707.95594     -17.298435      690.6575     
   1910000   312.94829      0.011046042    6.6066058      776.43333     -17.621894      758.81144    
   1911000   306.77767      0.011046042    6.1935945      761.12384     -15.266037      745.85781    
   1912000   291.20299      0.011046042    5.5610179      722.48265     -15.965345      706.5173     
   1913000   288.52672      0.011046042    6.0986011      715.84274     -15.872094      699.97064    
   1914000   309.62431      0.011046042    6.3418209      768.18646     -15.367417      752.81904    
   1915000   302.66701      0.011046042    6.0071791      750.92521     -12.504142      738.42106    
   1916000   300.92344      0.011046042    6.212409       746.59935     -10.780643      735.81871    
   1917000   298.8062       0.011046042    5.7680077      741.34642     -15.58873       725.75769    
   1918000   297.94368      0.011046042    5.8506243      739.20649     -14.437678      724.76881    
   1919000   297.13292      0.011046042    8.1087874      737.19497     -14.875966      722.319      
   1920000   299.17009      0.011046042    6.5805553      742.24924     -14.644516      727.60472    
   1921000   302.36127      0.011046042    1.9324864      750.16664     -16.386413      733.78023    
   1922000   296.00558      0.011046042    5.3873938      734.398       -19.659416      714.73858    
   1923000   293.21355      0.011046042    5.1379635      727.47091     -21.177999      706.29291    
   1924000   299.04162      0.011046042    8.8415529      741.93051     -17.490631      724.43987    
   1925000   304.99053      0.011046042    5.037365       756.68992     -19.777561      736.91236    
   1926000   299.78705      0.011046042    4.6180411      743.77993     -18.092867      725.68706    
   1927000   307.65203      0.011046042    5.9036044      763.29316     -18.947239      744.34592    
   1928000   301.01755      0.011046042    6.830138       746.83284     -20.883718      725.94912    
   1929000   295.8426       0.011046042    8.2358767      733.99366     -16.338131      717.65552    
   1930000   296.02917      0.011046042    7.2400189      734.45653     -17.767491      716.68904    
   1931000   306.74107      0.011046042    1.6361326      761.03304     -16.968854      744.06419    
   1932000   297.21805      0.011046042    5.7796693      737.40617     -20.911731      716.49444    
   1933000   312.16373      0.011046042    9.4284576      774.48682     -16.66963       757.81719    
   1934000   301.2662       0.011046042    3.3088323      747.44975     -20.262512      727.18724    
   1935000   293.37596      0.011046042    4.0406011      727.87384     -16.552684      711.32116    
   1936000   298.34686      0.011046042    6.9161653      740.2068      -20.282779      719.92402    
   1937000   295.7417       0.011046042    8.9572578      733.7433      -18.927112      714.81619    
   1938000   315.22721      0.011046042    7.7886566      782.0874      -18.817174      763.27023    
   1939000   313.92411      0.011046042    2.0113531      778.85436     -19.540367      759.314      
   1940000   293.13957      0.011046042    5.1818977      727.28736     -16.414918      710.87244    
   1941000   293.55277      0.011046042    7.6750637      728.31252     -13.777601      714.53492    
   1942000   310.66088      0.011046042    10.420723      770.7582      -18.250021      752.50818    
   1943000   308.41971      0.011046042    0.29238566     765.1978      -15.547894      749.64991    
   1944000   296.6713       0.011046042    4.3415193      736.04968     -19.7528        716.29688    
   1945000   287.66953      0.011046042    13.461001      713.71604     -17.023848      696.6922     
   1946000   308.82729      0.011046042    7.2049295      766.20903     -13.438623      752.77041    
   1947000   294.97633      0.011046042   -4.1319474      731.84442     -17.465075      714.37934    
   1948000   281.72554      0.011046042    8.1665818      698.96884     -21.804891      677.16395    
   1949000   294.51159      0.011046042    9.6122559      730.69137     -21.61373       709.07764    
   1950000   307.33365      0.011046042    4.0110599      762.50326     -26.810171      735.69309    
   1951000   306.99443      0.011046042    5.4056642      761.66165     -21.155428      740.50622    
   1952000   305.04471      0.011046042    2.9410775      756.82433     -23.640853      733.18348    
   1953000   293.41228      0.011046042    3.6205283      727.96395     -23.924279      704.03967    
   1954000   298.43129      0.011046042    7.1751788      740.41627     -22.047211      718.36906    
   1955000   314.44781      0.011046042    12.517267      780.15368     -22.548831      757.60485    
   1956000   297.57777      0.011046042    3.9551941      738.29865     -17.36272       720.93593    
   1957000   287.39448      0.011046042    2.7739406      713.03364     -20.110233      692.9234     
   1958000   306.46215      0.011046042    9.4666989      760.34105     -21.291257      739.04979    
   1959000   299.82336      0.011046042    1.4638757      743.87002     -19.213858      724.65616    
   1960000   301.73342      0.011046042    2.4037341      748.60893     -22.896419      725.71251    
   1961000   294.62069      0.011046042    7.0069751      730.96205     -21.523891      709.43816    
   1962000   292.4689       0.011046042    6.6913086      725.62341     -20.130849      705.49256    
   1963000   310.36799      0.011046042    6.3002563      770.03155     -21.70299       748.32856    
   1964000   295.26744      0.011046042    2.2503604      732.56665     -22.146682      710.41997    
   1965000   295.94107      0.011046042    7.4761546      734.23796     -20.086457      714.15151    
   1966000   291.93551      0.011046042    6.6936026      724.30005     -21.497964      702.80208    
   1967000   310.11223      0.011046042    6.620418       769.39699     -17.745234      751.65176    
   1968000   303.97321      0.011046042    3.1474743      754.16592     -20.71443       733.45149    
   1969000   296.59707      0.011046042    6.5148772      735.86551     -17.210399      718.65511    
   1970000   296.82573      0.011046042    9.3811869      736.43281     -20.798439      715.63438    
   1971000   302.50062      0.011046042    4.4943728      750.51239     -19.375988      731.1364     
   1972000   295.313        0.011046042    6.7044823      732.67969     -20.814086      711.86561    
   1973000   302.2097       0.011046042    9.0223235      749.79058     -22.676574      727.11401    
   1974000   298.31269      0.011046042    5.5432536      740.122       -19.184745      720.93726    
   1975000   299.13476      0.011046042    6.266905       742.16159     -13.214083      728.94751    
   1976000   303.76099      0.011046042    5.7085073      753.63938     -15.617568      738.02181    
   1977000   306.36352      0.011046042    6.2437239      760.09633     -15.862167      744.23416    
   1978000   319.29173      0.011046042    6.4709815      792.17157     -13.59563       778.57594    
   1979000   303.84462      0.011046042    7.2684741      753.84688     -14.827273      739.01961    
   1980000   291.69667      0.011046042    5.6178951      723.70747     -17.384371      706.3231     
   1981000   294.71542      0.011046042    6.5607448      731.19707     -17.345322      713.85175    
   1982000   310.17031      0.011046042    6.4693819      769.5411      -17.508995      752.0321     
   1983000   296.59671      0.011046042    6.1918338      735.86462     -21.518084      714.34654    
   1984000   293.66021      0.011046042    6.3416245      728.57906     -20.183785      708.39528    
   1985000   310.86042      0.011046042    7.1789607      771.25328     -16.430849      754.82243    
   1986000   313.07826      0.011046042    6.9407262      776.75579     -14.576776      762.17902    
   1987000   299.73241      0.011046042    6.3929579      743.64436     -15.461282      728.18308    
   1988000   288.96279      0.011046042    5.7036237      716.92466     -21.611285      695.31337    
   1989000   300.5651       0.011046042    6.3028483      745.7103      -21.592793      724.11751    
   1990000   313.22065      0.011046042    7.6486602      777.10907     -21.786194      755.32287    
   1991000   285.86489      0.011046042    5.8139743      709.23867     -20.993298      688.24537    
   1992000   299.59354      0.011046042    3.4540334      743.29984     -19.818074      723.48177    
   1993000   310.51945      0.011046042    9.4906152      770.40731     -16.819924      753.58738    
   1994000   291.85337      0.011046042    7.1598246      724.09625     -17.786874      706.30937    
   1995000   300.40479      0.011046042    5.3543766      745.31257     -20.279624      725.03295    
   1996000   311.49134      0.011046042    8.7505386      772.8186      -20.421183      752.39741    
   1997000   298.45316      0.011046042    6.6622856      740.47052     -18.841173      721.62935    
   1998000   301.19332      0.011046042    5.6888025      747.26893     -18.722326      728.5466     
   1999000   322.29014      0.011046042    6.9828637      799.61072     -18.837302      780.77342    
   2000000   296.56604      0.011046042    6.8283741      735.78851     -14.355541      721.43297    
   2001000   287.72082      0.011046042    5.7622884      713.84329     -18.545788      695.2975     
   2002000   318.91832      0.011046042    5.2850078      791.24513     -14.435201      776.80993    
   2003000   303.39417      0.011046042    6.86257        752.72931     -11.014966      741.71434    
   2004000   294.79429      0.011046042    10.58848       731.39275     -15.397999      715.99475    
   2005000   302.1607       0.011046042    6.2776613      749.66902     -13.98176       735.68726    
   2006000   308.77588      0.011046042    4.9482745      766.08148     -15.284108      750.79737    
   2007000   279.3809       0.011046042    9.8826941      693.15172     -16.928491      676.22323    
   2008000   300.62794      0.011046042    3.8484948      745.86621     -16.544881      729.32133    
   2009000   310.18152      0.011046042    3.6082224      769.56889     -15.800387      753.76851    
   2010000   300.91183      0.011046042    9.751834       746.57055     -16.863272      729.70728    
   2011000   289.95872      0.011046042   -1.6623423      719.39557     -18.363449      701.03212    
   2012000   290.74572      0.011046042    5.1506388      721.34815     -19.074655      702.27349    
   2013000   306.20248      0.011046042    6.3567998      759.69679     -19.656502      740.04029    
   2014000   300.4212       0.011046042    7.373194       745.35327     -16.051587      729.30168    
   2015000   287.59947      0.011046042    5.1990704      713.5422      -18.323206      695.219      
   2016000   285.96487      0.011046042    5.0068497      709.48672     -16.917276      692.56944    
   2017000   306.74862      0.011046042    6.2376977      761.05178     -21.058513      739.99327    
   2018000   301.55416      0.011046042    7.2489746      748.16418     -19.236144      728.92804    
   2019000   295.70153      0.011046042    2.3674144      733.64364     -22.002503      711.64113    
   2020000   299.9503       0.011046042    5.9835524      744.18495     -21.533424      722.65153    
   2021000   299.33383      0.011046042    9.9061291      742.65549     -19.707117      722.94837    
   2022000   299.61285      0.011046042    4.4447046      743.34775     -15.430806      727.91694    
   2023000   297.15366      0.011046042    5.9320974      737.24643     -18.878493      718.36794    
   2024000   297.70597      0.011046042    6.1849094      738.61672     -16.176725      722.44       
   2025000   292.13122      0.011046042    5.6401828      724.78562     -16.258687      708.52693    
   2026000   297.5101       0.011046042    4.1516131      738.13076     -13.933414      724.19735    
   2027000   303.63789      0.011046042    6.5274691      753.33399     -8.8963126      744.43767    
   2028000   278.19688      0.011046042    5.4668336      690.21414     -11.056848      679.15729    
   2029000   296.27014      0.011046042    6.6368051      735.05438     -13.076161      721.97821    
   2030000   310.36807      0.011046042    7.2045888      770.03172     -12.815838      757.21589    
   2031000   300.36179      0.011046042    4.6418644      745.20589     -9.9509114      735.25498    
   2032000   294.85481      0.011046042    4.0680089      731.54292     -8.4475207      723.0954     
   2033000   302.01321      0.011046042    4.678541       749.3031      -8.7954637      740.50764    
   2034000   294.39122      0.011046042    11.24874       730.39273     -11.922391      718.47034    
   2035000   296.67586      0.011046042    6.7150568      736.061       -13.454498      722.6065     
   2036000   299.40746      0.011046042    2.6252194      742.83816     -15.434294      727.40387    
   2037000   291.70619      0.011046042    8.3770064      723.73109     -14.245107      709.48599    
   2038000   297.11155      0.011046042    9.5465342      737.14193     -15.086738      722.0552     
   2039000   302.60112      0.011046042    6.2905355      750.76171     -13.213187      737.54853    
   2040000   294.55674      0.011046042    6.0980357      730.8034      -15.633536      715.16986    
   2041000   289.5043       0.011046042    7.123635       718.26816     -11.192542      707.07562    
   2042000   303.56038      0.011046042    4.583428       753.14167     -15.071706      738.06996    
   2043000   313.29242      0.011046042    4.4851063      777.28714     -14.481995      762.80515    
   2044000   298.09222      0.011046042    6.9148696      739.57502     -11.167525      728.40749    
   2045000   301.37851      0.011046042    6.1866276      747.72839     -14.363801      733.36459    
   2046000   297.72035      0.011046042    6.276743       738.6524      -9.9870437      728.66535    
   2047000   291.0983       0.011046042    5.7230169      722.22291     -10.750041      711.47287    
   2048000   315.12967      0.011046042    5.0450766      781.8454      -12.140179      769.70522    
   2049000   297.70061      0.011046042    7.7668625      738.60342     -15.657113      722.94631    
   2050000   297.23343      0.011046042    0.8651513      737.44432     -13.8487        723.59562    
   2051000   313.18063      0.011046042    3.9846395      777.00978     -13.005592      764.00418    
   2052000   297.64086      0.011046042    7.2624998      738.45517     -11.161533      727.29364    
   2053000   293.23498      0.011046042    5.0452562      727.52408     -12.509393      715.01469    
   2054000   305.03783      0.011046042    5.9454974      756.80726     -11.848884      744.95837    
   2055000   298.67668      0.011046042    7.0334736      741.02508     -13.967145      727.05794    
   2056000   293.83951      0.011046042    5.8934521      729.02392     -12.937814      716.08611    
   2057000   319.56327      0.011046042    5.6338258      792.84528     -13.974066      778.87121    
   2058000   304.42241      0.011046042    6.0592237      755.28039     -14.583016      740.69738    
   2059000   287.93493      0.011046042    5.9917664      714.37451     -13.680191      700.69432    
   2060000   309.87146      0.011046042    5.5000205      768.79963     -14.690122      754.10951    
   2061000   305.99818      0.011046042    7.4446725      759.18992     -14.796235      744.39368    
   2062000   292.19397      0.011046042    5.3639684      724.94129     -12.410187      712.53111    
   2063000   309.57332      0.011046042    5.6927324      768.05994     -12.392015      755.66792    
   2064000   294.45258      0.011046042    8.1001573      730.54497     -10.078306      720.46667    
   2065000   296.60584      0.011046042    6.1066926      735.88726     -10.481802      725.40546    
   2066000   301.54607      0.011046042    5.8222601      748.14412     -9.8674172      738.2767     
   2067000   298.34048      0.011046042    6.6601121      740.19094     -12.068872      728.12207    
   2068000   292.60374      0.011046042    7.4391997      725.95794     -14.407655      711.55029    
   2069000   296.4285       0.011046042    8.1069089      735.44729     -13.091041      722.35625    
   2070000   305.47171      0.011046042    5.2288339      757.88374     -13.657966      744.22578    
   2071000   306.89677      0.011046042    2.4047558      761.41934     -17.559857      743.85948    
   2072000   293.37065      0.011046042    5.6364885      727.86067     -12.517959      715.34271    
   2073000   304.21288      0.011046042    7.7575858      754.76055     -14.382274      740.37828    
   2074000   316.10277      0.011046042    4.6404953      784.25969     -18.945396      765.31429    
   2075000   298.6216       0.011046042    5.0531375      740.88843     -18.448612      722.43982    
   2076000   296.69308      0.011046042    6.9765199      736.10371     -17.633187      718.47052    
   2077000   301.55457      0.011046042    5.3237301      748.16521     -21.438628      726.72658    
   2078000   306.24305      0.011046042    3.5014398      759.79744     -21.743093      738.05434    
   2079000   294.6733       0.011046042    2.8290921      731.09257     -21.106925      709.98565    
   2080000   292.04263      0.011046042    8.115859       724.56582     -20.720966      703.84486    
   2081000   302.86046      0.011046042    3.800771       751.40515     -21.182601      730.22255    
   2082000   302.84899      0.011046042    3.6838798      751.37668     -20.778451      730.59823    
   2083000   303.10483      0.011046042    6.616785       752.01144     -13.767639      738.2438     
   2084000   302.08816      0.011046042    8.6684069      749.48905     -10.967147      738.5219     
   2085000   307.31156      0.011046042    6.9398983      762.44844     -12.155259      750.29318    
   2086000   304.05192      0.011046042    5.8790482      754.36121     -13.642345      740.71886    
   2087000   295.78739      0.011046042    6.3768247      733.85666     -14.721776      719.13488    
   2088000   296.32395      0.011046042    5.8140161      735.18789     -15.8388        719.34909    
   2089000   315.08358      0.011046042    6.3154943      781.73105     -17.74586       763.98519    
   2090000   297.47068      0.011046042    5.5772362      738.03297     -17.990235      720.04273    
   2091000   294.77112      0.011046042    10.842285      731.33527     -17.78689       713.54838    
   2092000   309.37542      0.011046042    5.2787509      767.56896     -21.060943      746.50801    
   2093000   307.08108      0.011046042    5.5492602      761.87662     -21.9125        739.96412    
   2094000   289.42591      0.011046042    6.3984284      718.07367     -17.49865       700.57502    
   2095000   307.55667      0.011046042    6.7966454      763.05658     -19.821368      743.23521    
   2096000   311.90474      0.011046042    4.1026706      773.84425     -18.19981       755.64444    
   2097000   298.26205      0.011046042    4.1524218      739.99638     -18.341309      721.65507    
   2098000   293.30458      0.011046042    10.506743      727.69675     -16.883844      710.8129     
   2099000   308.65984      0.011046042    6.440347       765.79357     -19.566107      746.22747    
   2100000   281.70758      0.011046042    2.1085787      698.92427     -19.258399      679.66587    
   2101000   303.89386      0.011046042    9.8935715      753.96904     -18.500693      735.46835    
   2102000   317.23318      0.011046042    4.5957736      787.06426     -21.112399      765.95186    
   2103000   299.11356      0.011046042    5.0311197      742.10898     -21.302484      720.8065     
   2104000   296.88749      0.011046042    7.3067511      736.58603     -21.647705      714.93833    
   2105000   307.17976      0.011046042    5.8441016      762.12144     -20.528178      741.59326    
   2106000   302.68292      0.011046042    3.2435722      750.96466     -21.08245       729.88221    
   2107000   293.46521      0.011046042    10.292733      728.09529     -21.325481      706.7698     
   2108000   296.6771       0.011046042    23.251836      736.06407     -18.776702      717.28737    
   2109000   304.22141      0.011046042    8.9576145      754.7817      -18.558088      736.22361    
   2110000   309.59363      0.011046042    5.7413636      768.11034     -17.884944      750.22539    
   2111000   292.86535      0.011046042    5.1936397      726.60701     -20.762519      705.84449    
   2112000   291.33522      0.011046042    5.47           722.81071     -23.943095      698.86761    
   2113000   314.25913      0.011046042    6.3992376      779.68556     -22.402514      757.28304    
   2114000   299.29438      0.011046042    5.6825311      742.55762     -23.178907      719.37871    
   2115000   291.83506      0.011046042    5.4466496      724.05082     -25.833877      698.21695    
   2116000   304.84421      0.011046042    10.513014      756.3269      -23.884816      732.44208    
   2117000   307.84402      0.011046042    4.1613321      763.7695      -21.6376        742.1319     
   2118000   295.05661      0.011046042    1.5991368      732.04359     -21.627361      710.41623    
   2119000   288.63481      0.011046042    5.5042901      716.11091     -23.372538      692.73838    
   2120000   285.92898      0.011046042    9.4741033      709.39767     -23.157124      686.24055    
   2121000   314.3314       0.011046042    8.7971698      779.86487     -20.332625      759.53225    
   2122000   307.4873       0.011046042    6.5915409      762.88446     -26.267505      736.61695    
   2123000   287.86738      0.011046042    6.0544637      714.20692     -26.82118       687.38574    
   2124000   280.05065      0.011046042    5.1816595      694.81338     -28.864391      665.94899    
   2125000   301.0945       0.011046042    4.3100432      747.02376     -27.235951      719.78781    
   2126000   309.25044      0.011046042    5.7701718      767.25888     -26.820937      740.43794    
   2127000   305.27575      0.011046042    6.2763317      757.39754     -24.393185      733.00436    
   2128000   291.89834      0.011046042    4.1416336      724.20783     -23.240737      700.96709    
   2129000   298.20002      0.011046042    6.4009395      739.84246     -22.494806      717.34766    
   2130000   302.67247      0.011046042    7.8583962      750.93874     -24.921971      726.01677    
   2131000   299.53129      0.011046042    4.534664       743.14539     -19.715793      723.42959    
   2132000   301.37188      0.011046042    6.2969446      747.71195     -17.842145      729.8698     
   2133000   282.40638      0.011046042    6.684295       700.658       -17.204028      683.45398    
   2134000   301.99694      0.011046042    7.8468846      749.26273     -18.065622      731.19711    
   2135000   309.14595      0.011046042    8.2448481      766.99963     -14.957792      752.04184    
   2136000   294.19371      0.011046042    4.3995794      729.9027      -15.020486      714.88222    
   2137000   287.7466       0.011046042    7.76632        713.90726     -14.859588      699.04767    
   2138000   302.95709      0.011046042    6.8805252      751.6449      -16.421501      735.2234     
   2139000   314.77084      0.011046042    9.7980436      780.95514     -20.07749       760.87765    
   2140000   291.70335      0.011046042    5.1877993      723.72404     -16.814509      706.90953    
   2141000   293.62732      0.011046042    7.1163582      728.49747     -21.286667      707.21081    
   2142000   307.68426      0.011046042    7.3352134      763.37314     -19.628835      743.7443     
   2143000   312.08453      0.011046042    6.2055302      774.29033     -20.389753      753.90058    
   2144000   297.72314      0.011046042    5.1116304      738.65931     -21.899229      716.76008    
   2145000   296.7974       0.011046042    6.0711306      736.36253     -15.171665      721.19087    
   2146000   309.84153      0.011046042    6.8391523      768.72539     -15.89163       752.83376    
   2147000   310.99865      0.011046042    5.0138336      771.59623     -17.391176      754.20506    
   2148000   289.74824      0.011046042    4.9262877      718.87336     -19.069672      699.80369    
   2149000   293.59216      0.011046042    8.9995579      728.41024     -16.594029      711.81621    
   2150000   305.08692      0.011046042    6.6305946      756.92906     -19.976048      736.95302    
   2151000   303.01328      0.011046042    5.383763       751.7843      -18.357914      733.42639    
   2152000   295.99061      0.011046042    8.4765176      734.36087     -22.120915      712.23996    
   2153000   298.75845      0.011046042    9.4614276      741.22794     -20.447632      720.78031    
   2154000   302.22411      0.011046042    5.0961055      749.82635     -22.120291      727.70606    
   2155000   298.48938      0.011046042    3.4885367      740.56039     -16.222322      724.33807    
   2156000   301.4089       0.011046042    6.2469281      747.80379     -17.150463      730.65333    
   2157000   301.23226      0.011046042    13.171076      747.36554     -17.366278      729.99927    
   2158000   306.22629      0.011046042    6.3540028      759.75586     -17.403441      742.35242    
   2159000   306.74991      0.011046042    1.4372786      761.05499     -18.945258      742.10973    
   2160000   300.57625      0.011046042    3.0045723      745.73797     -18.946445      726.79152    
   2161000   290.65369      0.011046042    5.7477557      721.11981     -16.26079       704.85902    
   2162000   293.57539      0.011046042    10.132327      728.36863     -18.132767      710.23586    
   2163000   311.96759      0.011046042    7.3347435      774.00018     -16.101018      757.89916    
   2164000   306.07376      0.011046042    3.001882       759.37744     -22.934918      736.44252    
   2165000   290.98202      0.011046042    5.91187        721.93442     -18.858172      703.07625    
   2166000   296.75578      0.011046042    7.1635994      736.25927     -23.280904      712.97837    
   2167000   303.4092       0.011046042    13.216076      752.7666      -20.100069      732.66653    
   2168000   307.72176      0.011046042    11.368584      763.46617     -14.421625      749.04454    
   2169000   301.85117      0.011046042    2.3281636      748.90106     -14.76023       734.14083    
   2170000   305.38383      0.011046042    4.5004665      757.6657      -15.305064      742.36064    
   2171000   298.59782      0.011046042    7.9969711      740.82943     -18.568986      722.26044    
   2172000   298.40564      0.011046042    10.920931      740.35261     -15.572995      724.77962    
   2173000   300.6454       0.011046042    6.1662526      745.90954     -15.182172      730.72736    
   2174000   300.12443      0.011046042    3.960517       744.61699     -17.193919      727.42307    
   2175000   294.24678      0.011046042    6.3837534      730.03438     -18.108954      711.92542    
   2176000   297.95243      0.011046042    7.9839153      739.22818     -15.488726      723.73946    
   2177000   307.34433      0.011046042    4.6620818      762.52975     -13.395493      749.13425    
   2178000   286.10756      0.011046042    4.9526338      709.84075     -14.288893      695.55186    
   2179000   299.4328       0.011046042    6.3760722      742.90103     -15.189296      727.71174    
   2180000   299.01185      0.011046042    6.1745567      741.85663     -16.448321      725.40831    
   2181000   305.80323      0.011046042    4.4588421      758.70623     -20.796471      737.90976    
   2182000   293.11617      0.011046042    5.2852502      727.2293      -17.099771      710.12953    
   2183000   289.42533      0.011046042    5.7055497      718.07223     -17.173808      700.89842    
   2184000   303.78103      0.011046042    5.6860295      753.68912     -17.506844      736.18228    
   2185000   305.5241       0.011046042    5.9317733      758.0137      -17.087821      740.92588    
   2186000   292.46159      0.011046042    7.5005896      725.60527     -15.781165      709.8241     
   2187000   294.00629      0.011046042    5.8645439      729.4377      -17.906183      711.53152    
   2188000   316.69046      0.011046042    6.2672329      785.71777     -17.710208      768.00756    
   2189000   300.93444      0.011046042    5.3311876      746.62664     -20.611648      726.01499    
   2190000   286.06352      0.011046042    6.0331107      709.73148     -21.514924      688.21656    
   2191000   301.27359      0.011046042    6.4518703      747.46807     -22.573901      724.89417    
   2192000   308.99611      0.011046042    7.0498849      766.62786     -20.084612      746.54325    
   2193000   301.17918      0.011046042    3.5229461      747.23385     -20.176707      727.05714    
   2194000   280.37165      0.011046042    5.7542709      695.6098      -18.87497       676.73483    
   2195000   289.76829      0.011046042    5.7874         718.92313     -14.31107       704.61206    
   2196000   311.02965      0.011046042    6.2571533      771.67314     -21.006927      750.66621    
   2197000   297.64419      0.011046042    5.706761       738.46343     -17.057544      721.40589    
   2198000   284.77669      0.011046042    5.4226489      706.53882     -16.18317       690.35565    
   2199000   307.035        0.011046042    6.1336877      761.76229     -16.628926      745.13337    
   2200000   314.62503      0.011046042    4.7185177      780.59338     -16.769432      763.82394    
   2201000   291.39564      0.011046042    5.8502107      722.96062     -17.679558      705.28106    
   2202000   307.50286      0.011046042    7.041648       762.92308     -20.056803      742.86628    
   2203000   307.98472      0.011046042    6.4591242      764.11857     -19.420066      744.6985     
   2204000   293.23831      0.011046042    5.9387474      727.53234     -16.308278      711.22406    
   2205000   306.53923      0.011046042    6.1027712      760.53229     -22.169327      738.36296    
   2206000   307.47267      0.011046042    6.4119236      762.84816     -21.238282      741.60988    
   2207000   304.38861      0.011046042    7.9433204      755.19654     -21.380817      733.81572    
   2208000   291.45475      0.011046042    6.1985755      723.10726     -22.243667      700.86359    
   2209000   290.62598      0.011046042    6.0094154      721.05107     -18.394343      702.65673    
   2210000   303.09656      0.011046042    5.4176282      751.99091     -18.308209      733.6827     
   2211000   309.54272      0.011046042    6.3063614      767.98401     -18.543416      749.4406     
   2212000   291.73987      0.011046042    5.6815079      723.81465     -21.565851      702.2488     
   2213000   292.21379      0.011046042    5.5112734      724.99047     -18.976648      706.01382    
   2214000   314.15974      0.011046042    5.4366474      779.43897     -17.034076      762.40489    
   2215000   295.15679      0.011046042    7.7131707      732.29213     -19.15435       713.13778    
   2216000   279.58202      0.011046042    6.6408932      693.65069     -23.223017      670.42767    
   2217000   289.35363      0.011046042    4.8066644      717.89432     -26.579412      691.31491    
   2218000   309.49466      0.011046042    3.520596       767.86479     -22.125038      745.73976    
   2219000   309.96406      0.011046042    6.0944296      769.02938     -23.423781      745.60559    
   2220000   300.53515      0.011046042    8.1475379      745.63599     -22.742818      722.89318    
   2221000   290.34993      0.011046042    5.8326495      720.36619     -17.973515      702.39267    
   2222000   306.21784      0.011046042    1.9286111      759.73491     -19.760629      739.97428    
   2223000   303.8459       0.011046042    5.3340153      753.85007     -17.782456      736.06761    
   2224000   305.77048      0.011046042    10.543962      758.625       -18.337933      740.28707    
   2225000   298.34304      0.011046042    3.1116219      740.1973      -17.81543       722.38187    
   2226000   297.14939      0.011046042    4.8159962      737.23582     -16.022752      721.21307    
   2227000   302.31705      0.011046042    6.5523862      750.05693     -18.862965      731.19396    
   2228000   306.49128      0.011046042    6.4005122      760.41332     -18.174686      742.23864    
   2229000   294.8624       0.011046042    6.1467574      731.56174     -20.305009      711.25673    
   2230000   290.4333       0.011046042    4.4779189      720.57302     -19.20419       701.36883    
   2231000   298.66782      0.011046042    2.1971547      741.00309     -19.440246      721.56285    
   2232000   312.16705      0.011046042    7.4414817      774.49505     -19.176693      755.31835    
   2233000   292.93244      0.011046042    5.7054683      726.77346     -20.766009      706.00745    
   2234000   298.07159      0.011046042    8.1208394      739.52384     -18.537895      720.98594    
   2235000   295.35905      0.011046042    7.0763116      732.79394     -18.22941       714.56453    
   2236000   291.38079      0.011046042    3.7711868      722.92378     -20.839086      702.0847     
   2237000   291.29933      0.011046042    3.5904325      722.72168     -24.24631       698.47537    
   2238000   305.3171       0.011046042    9.7349117      757.50015     -20.351769      737.14838    
   2239000   300.25909      0.011046042    6.0512536      744.95107     -25.313719      719.63735    
   2240000   309.40943      0.011046042    5.4513728      767.65331     -25.614164      742.03915    
   2241000   298.12114      0.011046042    5.7249633      739.64678     -27.13136       712.51542    
   2242000   290.5936       0.011046042    6.2213076      720.97074     -20.565539      700.4052     
   2243000   307.16879      0.011046042    3.2131339      762.09424     -21.445105      740.64913    
   2244000   304.90718      0.011046042    5.3154341      756.48312     -22.343         734.14012    
   2245000   306.27543      0.011046042    13.543014      759.87778     -20.227922      739.64986    
   2246000   300.89174      0.011046042    7.9565336      746.52069     -16.028909      730.49178    
   2247000   296.09204      0.011046042    6.4703301      734.61252     -15.625737      718.98679    
   2248000   297.88882      0.011046042    8.2554252      739.07037     -15.523121      723.54725    
   2249000   295.80773      0.011046042    0.12682115     733.90714     -12.81466       721.09248    
   2250000   295.3181       0.011046042    5.1746443      732.69234     -19.691821      713.00052    
   2251000   294.80923      0.011046042    8.2833134      731.42983     -15.649667      715.78016    
   2252000   309.86694      0.011046042    5.4073719      768.78842     -21.171923      747.61649    
   2253000   299.06675      0.011046042   -1.3135957      741.99286     -20.151754      721.8411     
   2254000   304.88587      0.011046042    8.9469745      756.43025     -19.89997       736.53028    
   2255000   299.42402      0.011046042    8.1592355      742.87925     -15.270438      727.60881    
   2256000   304.54114      0.011046042    5.8010645      755.57496     -14.326896      741.24807    
   2257000   311.14923      0.011046042    4.2454427      771.96981     -12.727133      759.24268    
   2258000   300.93575      0.011046042    8.7089072      746.62988     -13.602564      733.02732    
   2259000   297.1072       0.011046042    6.726966       737.13115     -14.824156      722.30699    
   2260000   303.7581       0.011046042    4.2907629      753.63222     -16.622389      737.00983    
   2261000   312.35523      0.011046042    6.2560649      774.96193     -16.009625      758.95231    
   2262000   294.04848      0.011046042    7.5563044      729.54238     -18.358085      711.18429    
   2263000   309.50583      0.011046042    2.7061189      767.89249     -18.017383      749.87511    
   2264000   309.56351      0.011046042    5.4732084      768.0356      -18.970574      749.06503    
   2265000   294.21544      0.011046042    8.0827276      729.95661     -20.348938      709.60767    
   2266000   302.07824      0.011046042    6.0665637      749.46444     -20.01414       729.4503     
   2267000   303.64201      0.011046042    6.3278496      753.34421     -17.822569      735.52164    
   2268000   304.66176      0.011046042    5.654063       755.87423     -16.979057      738.89518    
   2269000   293.68676      0.011046042    5.2964422      728.64494     -19.694981      708.94996    
   2270000   300.68196      0.011046042    4.2451645      746.00024     -16.941795      729.05845    
   2271000   299.53658      0.011046042    5.1955274      743.15851     -18.870204      724.2883     
   2272000   291.81274      0.011046042    9.5446524      723.99546     -17.134592      706.86087    
   2273000   304.64206      0.011046042    1.6906843      755.82534     -20.682184      735.14316    
   2274000   302.48823      0.011046042    4.7417262      750.48164     -22.562744      727.9189     
   2275000   302.27497      0.011046042    11.689113      749.95253     -18.015981      731.93655    
   2276000   301.88717      0.011046042    5.1374853      748.9904      -20.125845      728.86456    
   2277000   296.64417      0.011046042    3.1342352      735.98237     -17.803559      718.17881    
   2278000   293.67564      0.011046042    6.9480873      728.61736     -19.098314      709.51904    
   2279000   297.3144       0.011046042    7.4971658      737.64522     -18.496567      719.14865    
   2280000   311.08894      0.011046042    6.2772651      771.82023     -14.94837       756.87186    
   2281000   295.51488      0.011046042    2.3319501      733.18057     -17.901233      715.27933    
   2282000   295.97504      0.011046042    6.6743958      734.32224     -16.539227      717.78301    
   2283000   300.22335      0.011046042    8.1646872      744.8624      -16.264578      728.59782    
   2284000   309.73687      0.011046042    4.1604758      768.46571     -15.806064      752.65964    
   2285000   294.33424      0.011046042    3.4522518      730.25136     -11.171309      719.08005    
   2286000   294.47827      0.011046042    9.0750679      730.60872     -12.136023      718.47269    
   2287000   322.1231       0.011046042    5.4420554      799.19628     -14.87143       784.32485    
   2288000   302.16443      0.011046042    4.7002231      749.67828     -16.717465      732.96082    
   2289000   290.84911      0.011046042    7.0360218      721.60466     -19.936911      701.66775    
   2290000   292.50167      0.011046042    11.720646      725.70471     -18.35921       707.3455     
   2291000   305.33617      0.011046042    6.230724       757.54745     -18.914965      738.63248    
   2292000   300.18077      0.011046042    4.3998455      744.75677     -15.431222      729.32555    
   2293000   301.52589      0.011046042    5.9725208      748.09405     -12.690323      735.40373    
   2294000   312.2843       0.011046042    8.1104525      774.78596     -13.623177      761.16278    
   2295000   308.48423      0.011046042    6.0375255      765.35788     -12.304167      753.05371    
   2296000   295.03775      0.011046042    5.7870562      731.9968      -12.289674      719.70713    
   2297000   287.79317      0.011046042    6.5504023      714.02278     -14.12829       699.89449    
   2298000   303.3848       0.011046042    5.1706315      752.70604     -16.200029      736.50602    
   2299000   305.53863      0.011046042    10.594166      758.04977     -15.161753      742.88801    
   2300000   300.33769      0.011046042    8.801897       745.14608     -16.959598      728.18648    
   2301000   308.37993      0.011046042    3.6997808      765.0991      -18.29833       746.80077    
   2302000   294.85412      0.011046042    1.2930928      731.54121     -20.226987      711.31422    
   2303000   300.99215      0.011046042    11.40301       746.76983     -21.689842      725.07999    
   2304000   291.51383      0.011046042    3.6212962      723.25385     -19.171497      704.08235    
   2305000   317.71451      0.011046042   -4.4576889      788.25845     -20.706526      767.55192    
   2306000   309.42651      0.011046042    4.8280305      767.69571     -18.804213      748.8915     
   2307000   291.2215       0.011046042    6.4052813      722.52857     -21.29963       701.22895    
   2308000   297.99026      0.011046042    5.9843437      739.32205     -20.712875      718.60918    
   2309000   305.60944      0.011046042    7.3124354      758.22546     -20.779478      737.44598    
   2310000   296.13877      0.011046042    5.5266116      734.72846     -19.691164      715.03729    
   2311000   299.4496       0.011046042    6.6885833      742.94271     -21.655772      721.28694    
   2312000   298.27202      0.011046042    6.2639583      740.0211      -19.611387      720.40971    
   2313000   304.61042      0.011046042    6.283145       755.74684     -17.351851      738.39499    
   2314000   296.13704      0.011046042    3.029061       734.72417     -16.023227      718.70094    
   2315000   290.69841      0.011046042    5.5850407      721.23077     -14.9964        706.23437    
   2316000   296.58474      0.011046042    10.725301      735.83491     -14.965102      720.86981    
   2317000   310.80846      0.011046042    6.1238424      771.12436     -15.646635      755.47773    
   2318000   303.27576      0.011046042    5.1145844      752.43553     -17.431954      735.00358    
   2319000   286.32555      0.011046042    5.592676       710.38158     -19.06076       691.32082    
   2320000   319.28243      0.011046042    9.4714636      792.14851     -18.438914      773.7096     
   2321000   302.25343      0.011046042    3.0293337      749.89908     -20.131002      729.76808    
   2322000   285.76366      0.011046042    2.7647998      708.98752     -21.347403      687.64012    
   2323000   282.3306       0.011046042    2.5895337      700.47001     -20.26223       680.20778    
   2324000   309.27267      0.011046042    10.480997      767.31402     -18.148662      749.16536    
   2325000   298.26354      0.011046042    6.0460943      740.00008     -17.29792       722.70215    
   2326000   297.23524      0.011046042    2.5984419      737.44883     -15.880053      721.56878    
   2327000   299.42946      0.011046042   -0.41254006     742.89274     -17.54905       725.34369    
   2328000   299.75971      0.011046042    14.721921      743.71211     -18.80758       724.90453    
   2329000   301.87424      0.011046042    5.2351763      748.95831     -16.032367      732.92594    
   2330000   296.38016      0.011046042    2.6603973      735.32734     -18.994576      716.33276    
   2331000   303.216        0.011046042    9.9894645      752.28726     -16.065545      736.22172    
   2332000   315.82674      0.011046042    6.9029013      783.57486     -17.732993      765.84186    
   2333000   295.57928      0.011046042    4.997992       733.34034     -18.954         714.38634    
   2334000   289.90497      0.011046042    6.432075       719.26222     -15.413606      703.84862    
   2335000   307.61118      0.011046042    6.5344975      763.19182     -18.379503      744.81232    
   2336000   296.86184      0.011046042    3.969516       736.52241     -17.779083      718.74332    
   2337000   281.05653      0.011046042    3.5709258      697.30901     -18.080022      679.22899    
   2338000   294.83943      0.011046042    6.0871846      731.50476     -20.174126      711.33063    
   2339000   307.23915      0.011046042    6.7632028      762.26881     -17.64858       744.62023    
   2340000   296.05314      0.011046042    6.3484446      734.51601     -15.43428       719.08173    
   2341000   304.72396      0.011046042    5.3175526      756.02855     -15.456169      740.57238    
   2342000   299.43813      0.011046042    5.5729956      742.91425     -16.516937      726.39731    
   2343000   299.49005      0.011046042    6.289058       743.04307     -15.601771      727.4413     
   2344000   301.71403      0.011046042    6.4605556      748.56084     -16.832117      731.72872    
   2345000   304.02213      0.011046042    7.2266177      754.28728     -15.513574      738.77371    
   2346000   298.26979      0.011046042    6.8855191      740.01557     -15.547839      724.46773    
   2347000   292.80038      0.011046042    3.5234959      726.44582     -15.657166      710.78865    
   2348000   298.97319      0.011046042    5.3536634      741.76072     -19.188539      722.57218    
   2349000   313.78874      0.011046042    7.379654       778.51851     -18.74562       759.77289    
   2350000   305.8035       0.011046042    7.3583638      758.70692     -17.867414      740.83951    
   2351000   301.46662      0.011046042    6.0508822      747.947       -18.214262      729.73273    
   2352000   298.36562      0.011046042    5.7232391      740.25333     -21.696789      718.55654    
   2353000   301.14632      0.011046042    9.1271282      747.15233     -26.086527      721.0658     
   2354000   302.32173      0.011046042    5.8442679      750.06855     -23.363174      726.70538    
   2355000   295.59595      0.011046042    1.5198468      733.3817      -16.594137      716.78756    
   2356000   305.91462      0.011046042    8.1969962      758.98261     -20.322644      738.65996    
   2357000   293.31351      0.011046042    6.5687806      727.7189      -18.467279      709.25162    
   2358000   304.19874      0.011046042    6.3739519      754.72547     -15.223775      739.50169    
   2359000   306.60173      0.011046042    9.0292505      760.68734     -16.842783      743.84456    
   2360000   285.27694      0.011046042    6.9243162      707.77996     -17.972718      689.80724    
   2361000   294.63475      0.011046042    5.3804557      730.99694     -17.841993      713.15495    
   2362000   294.22425      0.011046042    4.8328491      729.97848     -20.729748      709.24874    
   2363000   299.99288      0.011046042    5.5151134      744.29059     -18.479626      725.81097    
   2364000   309.58005      0.011046042    6.8321526      768.07663     -19.159431      748.9172     
   2365000   293.45846      0.011046042    5.5614807      728.07853     -19.538462      708.54007    
   2366000   302.74121      0.011046042    3.2391174      751.10928     -17.457409      733.65187    
   2367000   309.59205      0.011046042    4.8427302      768.10641     -24.030443      744.07597    
   2368000   304.2689       0.011046042    14.179465      754.89952     -20.416989      734.48253    
   2369000   294.70072      0.011046042    8.421251       731.16061     -20.103394      711.05722    
   2370000   283.40832      0.011046042    4.3007289      703.14385     -19.912181      683.23167    
   2371000   284.01198      0.011046042    4.0755083      704.64156     -20.660547      683.98101    
   2372000   310.40287      0.011046042    4.9556348      770.11808     -18.645812      751.47227    
   2373000   298.61258      0.011046042    20.501075      740.86605     -17.287883      723.57817    
   2374000   294.74833      0.011046042    7.051886       731.27874     -19.258762      712.01997    
   2375000   295.61682      0.011046042    2.8385948      733.43348     -20.470415      712.96306    
   2376000   309.19004      0.011046042   -3.9102881      767.10902     -20.619479      746.48954    
   2377000   316.73307      0.011046042    8.487935       785.82349     -21.654489      764.169      
   2378000   295.61221      0.011046042    8.299089       733.42204     -17.679956      715.74209    
   2379000   288.74991      0.011046042    10.654912      716.3965      -16.538539      699.85796    
   2380000   306.38662      0.011046042    1.1593277      760.15366     -14.03132       746.12234    
   2381000   318.29067      0.011046042    4.2181409      789.68792     -13.649631      776.03829    
   2382000   295.25387      0.011046042    9.3548916      732.53299     -16.268321      716.26467    
   2383000   290.84811      0.011046042    3.2689168      721.60218     -15.616747      705.98544    
   2384000   303.45171      0.011046042    2.6661112      752.87206     -16.097539      736.77452    
   2385000   304.67828      0.011046042    8.7882816      755.9152      -16.430905      739.48429    
   2386000   302.86629      0.011046042    8.1685318      751.41961     -18.578435      732.84117    
   2387000   310.99637      0.011046042    6.53725        771.59057     -16.579374      755.01119    
   2388000   297.22146      0.011046042    5.1209043      737.41465     -20.464466      716.95018    
   2389000   308.97764      0.011046042    7.1759345      766.58205     -18.66351       747.91854    
   2390000   294.95452      0.011046042    6.2917872      731.79029     -22.311096      709.47919    
   2391000   297.03231      0.011046042    4.2580393      736.94535     -23.610147      713.3352     
   2392000   313.00777      0.011046042    5.8337048      776.5809      -20.176529      756.40437    
   2393000   305.08252      0.011046042    7.0575679      756.91815     -22.576961      734.34119    
   2394000   288.67487      0.011046042    5.7848938      716.2103      -19.28361       696.92669    
   2395000   298.78535      0.011046042    7.3628929      741.29468     -19.566916      721.72777    
   2396000   319.56799      0.011046042    7.1064518      792.857       -22.681554      770.17544    
   2397000   304.06962      0.011046042    4.6433981      754.40511     -21.300774      733.10433    
   2398000   301.4561       0.011046042    6.4380104      747.92089     -23.926508      723.99438    
   2399000   289.96893      0.011046042    9.6319536      719.42091     -24.694322      694.72658    
   2400000   298.85935      0.011046042    6.0473017      741.47828     -23.611113      717.86717    
   2401000   294.67462      0.011046042    4.3743243      731.09586     -25.681786      705.41408    
   2402000   315.12884      0.011046042    8.7587488      781.84333     -22.579522      759.26381    
   2403000   306.09081      0.011046042    2.8139148      759.41973     -21.975501      737.44423    
   2404000   289.65877      0.011046042   -1.0972946      718.65138     -18.003717      700.64767    
   2405000   305.90958      0.011046042    7.3763236      758.9701      -16.97768       741.99242    
   2406000   299.57032      0.011046042    6.8200459      743.24221     -17.878598      725.36362    
   2407000   298.15752      0.011046042    4.5615911      739.73702     -17.922394      721.81463    
   2408000   289.60921      0.011046042   -4.3861106      718.52842     -21.478312      697.05011    
   2409000   296.93277      0.011046042    5.9855046      736.69839     -21.45857       715.23982    
   2410000   308.14683      0.011046042    15.599015      764.52077     -25.970029      738.55074    
   2411000   299.81935      0.011046042    11.728702      743.86007     -21.937946      721.92212    
   2412000   310.45103      0.011046042    0.093832378    770.23757     -22.379013      747.85855    
   2413000   302.16632      0.011046042    3.3250668      749.68297     -22.382091      727.30088    
   2414000   292.8837       0.011046042    10.462083      726.65254     -22.424668      704.22787    
   2415000   303.46843      0.011046042    5.4356956      752.91355     -21.436367      731.47718    
   2416000   288.30665      0.011046042    1.4883924      715.29674     -18.146172      697.15057    
   2417000   283.65175      0.011046042    14.489281      703.74782     -19.281911      684.4659     
   2418000   312.69717      0.011046042    8.6287674      775.81031     -19.917949      755.89236    
   2419000   305.1679       0.011046042    2.9490334      757.12998     -19.239229      737.89075    
   2420000   287.8561       0.011046042    16.039383      714.17892     -23.080857      691.09806    
   2421000   302.42147      0.011046042    7.813948       750.31601     -18.568573      731.74744    
   2422000   316.44637      0.011046042    4.2463056      785.11216     -20.168484      764.94368    
   2423000   307.89165      0.011046042   -0.11751671     763.88768     -20.644557      743.24313    
   2424000   292.01821      0.011046042    4.1257304      724.50523     -21.947689      702.55754    
   2425000   307.73658      0.011046042    11.885076      763.50294     -24.369352      739.13359    
   2426000   318.46605      0.011046042    6.1607665      790.12305     -18.742632      771.38042    
   2427000   308.86708      0.011046042    3.7062082      766.30774     -21.986952      744.32079    
   2428000   286.67968      0.011046042    2.6684396      711.2602      -18.24431       693.01589    
   2429000   295.82196      0.011046042    6.4052499      733.94243     -17.198015      716.74442    
   2430000   304.57765      0.011046042    8.7872316      755.66554     -16.004142      739.6614     
   2431000   310.45033      0.011046042    5.5348581      770.23583     -18.316782      751.91905    
   2432000   292.9775       0.011046042    3.7637367      726.88525     -20.013067      706.87218    
   2433000   293.08197      0.011046042    5.8292034      727.14445     -17.56709       709.57736    
   2434000   305.15731      0.011046042    8.9692888      757.10369     -23.034677      734.06901    
   2435000   318.07633      0.011046042    6.6032602      789.15614     -18.030138      771.12601    
   2436000   292.65077      0.011046042   -2.9044111      726.07462     -18.442575      707.63205    
   2437000   296.85196      0.011046042    6.5164957      736.49789     -18.572382      717.92551    
   2438000   302.23771      0.011046042    5.965708       749.8601      -23.965332      725.89476    
   2439000   301.52119      0.011046042    6.4901337      748.08239     -18.544968      729.53742    
   2440000   292.999        0.011046042    7.7910853      726.93859     -18.019113      708.91948    
   2441000   296.02883      0.011046042    6.0008794      734.45568     -18.777546      715.67813    
   2442000   302.5891       0.011046042    6.4549612      750.7319      -17.686222      733.04568    
   2443000   301.0067       0.011046042    6.4788072      746.80592     -19.146427      727.65949    
   2444000   302.8739       0.011046042    7.2174597      751.43849     -14.116483      737.32201    
   2445000   296.07149      0.011046042    6.8293624      734.56152     -17.254717      717.3068     
   2446000   301.07877      0.011046042    4.7266141      746.98472     -18.763313      728.22141    
   2447000   305.06598      0.011046042    4.5238644      756.87711     -16.497338      740.37977    
   2448000   302.317        0.011046042    7.3204903      750.05682     -19.712108      730.34471    
   2449000   300.64802      0.011046042    9.8608225      745.91603     -15.571151      730.34488    
   2450000   302.59473      0.011046042    4.5524614      750.74588     -15.408069      735.33781    
   2451000   300.53043      0.011046042    5.1403457      745.62429     -12.540021      733.08427    
   2452000   292.82469      0.011046042    10.903836      726.50612     -12.633259      713.87286    
   2453000   303.52562      0.011046042    10.021214      753.05542     -14.256563      738.79886    
   2454000   304.63515      0.011046042    2.0099673      755.80821     -16.447842      739.36037    
   2455000   297.69954      0.011046042    3.5187319      738.60077     -16.320345      722.28042    
   2456000   306.97134      0.011046042    9.1825798      761.60436     -20.230866      741.37349    
   2457000   292.39326      0.011046042    6.2702075      725.43574     -18.874617      706.56113    
   2458000   285.24792      0.011046042    4.7539489      707.70795     -22.289786      685.41816    
   2459000   301.32723      0.011046042    2.3330369      747.60116     -22.441859      725.15931    
   2460000   306.94645      0.011046042    5.8534173      761.5426      -21.582511      739.96009    
   2461000   291.51005      0.011046042    9.5588176      723.24448     -22.30655       700.93793    
   2462000   291.96012      0.011046042    11.545439      724.3611      -19.142647      705.21845    
   2463000   290.11567      0.011046042    3.0104808      719.78498     -20.336769      699.44822    
   2464000   313.76313      0.011046042    4.470403       778.45497     -14.255449      764.19952    
   2465000   305.25892      0.011046042    6.3010169      757.35579     -16.212954      741.14284    
   2466000   297.36579      0.011046042    6.7055868      737.77271     -14.234348      723.53836    
   2467000   297.62705      0.011046042    5.8579359      738.42091     -13.85555       724.56536    
   2468000   303.30052      0.011046042    4.0518348      752.49695     -16.499175      735.99777    
   2469000   306.33715      0.011046042    7.3406187      760.03092     -17.242071      742.78885    
   2470000   286.93169      0.011046042    6.0164896      711.88542     -16.929672      694.95575    
   2471000   297.39126      0.011046042    5.0575873      737.83591     -13.291976      724.54393    
   2472000   324.708        0.011046042    6.3004622      805.6095      -18.88487       786.72463    
   2473000   299.78075      0.011046042    5.0804824      743.76431     -14.404889      729.35942    
   2474000   287.45319      0.011046042    5.348887       713.1793      -16.214956      696.96434    
   2475000   299.23786      0.011046042    5.5909289      742.41737     -19.331609      723.08576    
   2476000   320.0941       0.011046042    5.8447822      794.16229     -18.831724      775.33057    
   2477000   311.97368      0.011046042    6.6164924      774.01529     -17.428225      756.58707    
   2478000   293.97058      0.011046042    6.1114195      729.3491      -19.273683      710.07542    
   2479000   286.15429      0.011046042    5.1696734      709.95667     -18.855875      691.1008     
   2480000   302.76343      0.011046042    5.3028464      751.16441     -16.365818      734.7986     
   2481000   321.60129      0.011046042    7.8774095      797.90166     -17.045256      780.8564     
   2482000   297.70769      0.011046042    6.5143841      738.62099     -21.346699      717.27429    
   2483000   291.96215      0.011046042    5.0598731      724.36615     -21.741209      702.62494    
   2484000   292.79378      0.011046042    1.9909483      726.42944     -15.224835      711.20461    
   2485000   300.30701      0.011046042    6.6042846      745.06998     -15.866163      729.20382    
   2486000   299.47496      0.011046042    5.9782914      743.00563     -19.3744        723.63123    
   2487000   301.88317      0.011046042    6.406673       748.98047     -18.612919      730.36755    
   2488000   301.1129       0.011046042    0.91647694     747.0694      -22.052678      725.01672    
   2489000   305.53482      0.011046042    8.5465416      758.04032     -20.869813      737.17051    
   2490000   306.49184      0.011046042    7.2282093      760.41469     -15.910844      744.50385    
   2491000   292.25326      0.011046042    5.0204092      725.08839     -17.300998      707.78739    
   2492000   298.4965       0.011046042    3.4719004      740.57804     -16.188283      724.38976    
   2493000   302.92006      0.011046042    9.1174729      751.55301     -14.755337      736.79767    
   2494000   297.52427      0.011046042    7.7493116      738.16592     -17.590619      720.57531    
   2495000   299.84982      0.011046042    6.9143369      743.93567     -17.834795      726.10087    
   2496000   295.82156      0.011046042    2.9288118      733.94144     -19.982433      713.959      
   2497000   303.16296      0.011046042    6.8180439      752.15565     -16.877639      735.27801    
   2498000   298.51589      0.011046042    6.4993656      740.62616     -15.672921      724.95324    
   2499000   306.84155      0.011046042    8.8916534      761.28233     -17.358633      743.9237     
   2500000   290.05195      0.011046042    5.1399762      719.62687     -16.120741      703.50613    
   2501000   294.48934      0.011046042    5.0111942      730.63616     -16.309428      714.32674    
   2502000   320.43934      0.011046042    11.31659       795.01883     -19.018823      776          
   2503000   301.63132      0.011046042    5.9323943      748.35562     -17.85053       730.50509    
   2504000   307.79139      0.011046042    5.698232       763.63892     -14.213979      749.42494    
   2505000   302.95102      0.011046042    9.4815054      751.62982     -14.739947      736.88988    
   2506000   272.96555      0.011046042    7.6856552      677.23505     -15.94383       661.29122    
   2507000   300.23187      0.011046042    5.799673       744.88355     -18.564955      726.3186     
   2508000   318.61174      0.011046042    7.2340609      790.4845      -23.378586      767.10591    
   2509000   298.01913      0.011046042    5.8232078      739.39367     -22.756986      716.63668    
   2510000   298.03735      0.011046042    5.9282217      739.43887     -20.304079      719.13479    
   2511000   306.71065      0.011046042    5.6998051      760.95757     -19.766497      741.19108    
   2512000   294.6273       0.011046042    5.9428301      730.97846     -18.721041      712.25742    
   2513000   300.97307      0.011046042    5.7837353      746.72249     -16.271281      730.45121    
   2514000   292.07225      0.011046042    6.115743       724.6393      -17.825629      706.81367    
   2515000   301.80512      0.011046042    7.6095993      748.78682     -18.776265      730.01056    
   2516000   303.55702      0.011046042    6.2893081      753.13334     -20.736551      732.39679    
   2517000   297.74971      0.011046042    3.6825669      738.72523     -20.415241      718.30999    
   2518000   297.88111      0.011046042    4.7487594      739.05123     -20.158636      718.8926     
   2519000   293.67998      0.011046042    8.2751095      728.62812     -24.518499      704.10962    
   2520000   312.99442      0.011046042    13.967551      776.5478      -22.041254      754.50654    
   2521000   301.88497      0.011046042    4.2456762      748.98493     -18.711219      730.27371    
   2522000   287.00168      0.011046042    6.444898       712.05908     -17.950817      694.10827    
   2523000   305.27034      0.011046042    11.384086      757.38413     -21.452957      735.93118    
   2524000   298.09004      0.011046042    7.0464427      739.5696      -22.809109      716.76049    
   2525000   295.74599      0.011046042    0.96223997     733.75395     -23.613128      710.14083    
   2526000   290.20488      0.011046042    10.496356      720.00629     -21.161566      698.84473    
   2527000   314.99658      0.011046042    9.2064193      781.5152      -21.800497      759.71471    
   2528000   314.11135      0.011046042    3.7562057      779.31892     -23.57503       755.74389    
   2529000   288.14451      0.011046042    2.3978744      714.89448     -22.357771      692.53671    
   2530000   294.15959      0.011046042    6.4872315      729.81806     -25.95886       703.8592     
   2531000   308.63953      0.011046042    9.4463879      765.74317     -22.634434      743.10874    
   2532000   311.40551      0.011046042    6.7761098      772.60565     -21.722143      750.8835     
   2533000   297.69006      0.011046042    4.8310911      738.57726     -22.578412      715.99884    
   2534000   287.49145      0.011046042    6.1180673      713.2742      -19.524927      693.74928    
   2535000   297.91053      0.011046042    7.4520796      739.12425     -17.995987      721.12826    
   2536000   301.11879      0.011046042    8.2619429      747.08402     -18.526518      728.55751    
   2537000   294.31886      0.011046042    10.375553      730.21321     -18.664518      711.54869    
   2538000   299.88803      0.011046042    5.8153676      744.03047     -20.759136      723.27133    
   2539000   291.80414      0.011046042    3.9629564      723.97411     -18.816802      705.15731    
   2540000   307.64791      0.011046042    6.0123461      763.28296     -18.636812      744.64614    
   2541000   309.04045      0.011046042    6.6485672      766.73789     -18.897953      747.83993    
   2542000   305.86489      0.011046042    6.6923927      758.85922     -17.368683      741.49054    
   2543000   297.69182      0.011046042    4.5580545      738.58161     -17.017921      721.56369    
   2544000   288.34177      0.011046042    4.0588539      715.38389     -19.20269       696.1812     
   2545000   299.09478      0.011046042    7.9769579      742.0624      -20.25836       721.80404    
   2546000   312.60764      0.011046042    11.245351      775.58818     -17.3663        758.22188    
   2547000   298.48991      0.011046042    4.203036       740.56171     -20.373404      720.1883     
   2548000   302.86215      0.011046042    4.2511359      751.40935     -15.312833      736.09651    
   2549000   296.26745      0.011046042    8.6031449      735.04771     -17.161261      717.88645    
   2550000   302.35919      0.011046042    5.9665762      750.16149     -18.337673      731.82382    
   2551000   303.42468      0.011046042    6.5389798      752.80499     -15.090854      737.71414    
   2552000   297.01117      0.011046042    5.9982428      736.89291     -16.956982      719.93593    
   2553000   299.24839      0.011046042    6.6489729      742.44351     -17.452521      724.99098    
   2554000   308.43914      0.011046042    6.6374097      765.24602     -14.876518      750.3695     
   2555000   292.19722      0.011046042    5.6105714      724.94936     -15.863603      709.08576    
   2556000   283.68812      0.011046042    5.7921892      703.83805     -13.513315      690.32474    
   2557000   302.98918      0.011046042    6.6962196      751.7245      -18.253502      733.471      
   2558000   314.78449      0.011046042    5.0257429      780.98899     -16.528271      764.46072    
   2559000   295.08346      0.011046042    5.5576845      732.11019     -18.841513      713.26868    
   2560000   294.12932      0.011046042    4.4283153      729.74294     -19.48269       710.26025    
   2561000   320.90645      0.011046042    6.7136323      796.17774     -19.387671      776.79007    
   2562000   295.81103      0.011046042    6.4581295      733.91531     -19.873293      714.04202    
   2563000   288.32709      0.011046042    5.6986218      715.34746     -16.771038      698.57643    
   2564000   317.40003      0.011046042    6.4801125      787.47822     -14.999447      772.47877    
   2565000   297.73134      0.011046042    6.2191261      738.67966     -12.903321      725.77634    
   2566000   289.03535      0.011046042    5.2151021      717.10467     -16.999412      700.10526    
   2567000   302.54921      0.011046042    6.1344336      750.63293     -17.205223      733.42771    
   2568000   298.17449      0.011046042    5.7832386      739.77912     -17.051932      722.72719    
   2569000   301.50055      0.011046042    6.8145354      748.03117     -19.051846      728.97932    
   2570000   306.0387       0.011046042    6.08663        759.29046     -20.893631      738.39683    
   2571000   284.42773      0.011046042    4.0976602      705.67303     -19.994132      685.67889    
   2572000   297.44649      0.011046042    5.8092139      737.97295     -22.27609       715.69686    
   2573000   305.19424      0.011046042    6.4714024      757.19533     -18.577727      738.61761    
   2574000   297.05119      0.011046042    6.0779129      736.99219     -21.429437      715.56276    
   2575000   308.09215      0.011046042    4.1230507      764.38511     -19.97411       744.411      
   2576000   296.97828      0.011046042    5.7660755      736.81129     -18.947242      717.86405    
   2577000   311.21721      0.011046042    6.4791598      772.13848     -17.303734      754.83474    
   2578000   300.3165       0.011046042    5.3259498      745.09351     -18.114457      726.97906    
   2579000   283.50131      0.011046042    4.9365243      703.37456     -18.734264      684.6403     
   2580000   299.87894      0.011046042    9.0949151      744.00791     -20.91316       723.09475    
   2581000   310.70771      0.011046042    5.5504732      770.8744      -26.530198      744.3442     
   2582000   298.5325       0.011046042    7.2445514      740.66737     -16.598663      724.0687     
   2583000   305.2558       0.011046042    4.9825444      757.34804     -20.422738      736.92531    
   2584000   297.30676      0.011046042    2.1283482      737.62626     -21.295478      716.33078    
   2585000   298.43765      0.011046042    6.9051926      740.43204     -18.830142      721.60189    
   2586000   287.05866      0.011046042    10.756638      712.20045     -16.714966      695.48548    
   2587000   297.62147      0.011046042    8.2924456      738.40706     -15.60661       722.80045    
   2588000   310.1271       0.011046042    7.24776        769.43388     -18.762177      750.6717     
   2589000   299.17628      0.011046042    1.9278176      742.26459     -18.436439      723.82815    
   2590000   288.61605      0.011046042    6.4463851      716.06438     -17.70855       698.35583    
   2591000   305.05523      0.011046042    9.3733527      756.85043     -15.438492      741.41194    
   2592000   307.50596      0.011046042    3.8501209      762.93076     -13.705819      749.22494    
   2593000   306.45276      0.011046042    6.2027583      760.31774     -17.143099      743.17464    
   2594000   292.9789       0.011046042    7.1098757      726.88873     -16.374403      710.51433    
   2595000   305.24654      0.011046042    5.8747846      757.32508     -15.53785       741.78723    
   2596000   294.57999      0.011046042    4.4593932      730.86108     -16.726205      714.13487    
   2597000   299.28756      0.011046042    7.9295765      742.54068     -19.261853      723.27883    
   2598000   308.59413      0.011046042    6.1948837      765.63054     -19.939887      745.69065    
   2599000   293.46531      0.011046042    6.0201941      728.09552     -15.432908      712.66261    
   2600000   305.608        0.011046042    7.1358002      758.22187     -17.340985      740.88089    
   2601000   302.46184      0.011046042    6.9484604      750.41616     -18.033429      732.38273    
   2602000   294.59503      0.011046042    6.5348361      730.89839     -19.899744      710.99865    
   2603000   302.13688      0.011046042    5.4956763      749.60993     -18.120847      731.48909    
   2604000   298.2843       0.011046042    4.2552854      740.05157     -20.103832      719.94774    
   2605000   304.60774      0.011046042    6.4915601      755.74019     -17.567362      738.17283    
   2606000   308.56181      0.011046042    5.9524021      765.55035     -19.279728      746.27062    
   2607000   295.17282      0.011046042    3.3417381      732.33191     -19.290672      713.04124    
   2608000   301.80069      0.011046042    5.4101344      748.77583     -18.787031      729.9888     
   2609000   299.41258      0.011046042    7.4674818      742.85086     -17.869596      724.98127    
   2610000   306.71869      0.011046042    5.5191277      760.97752     -15.622645      745.35488    
   2611000   285.99937      0.011046042    4.0754458      709.57231     -16.01526       693.55705    
   2612000   290.08204      0.011046042    6.1569554      719.70153     -19.461439      700.24009    
   2613000   305.61837      0.011046042    8.3793909      758.2476      -15.376951      742.87065    
   2614000   313.75753      0.011046042    6.7419639      778.44108     -15.579032      762.86204    
   2615000   283.95824      0.011046042    5.601219       704.50822     -18.147786      686.36043    
   2616000   293.12271      0.011046042    5.7715187      727.24552     -18.290618      708.9549     
   2617000   302.35671      0.011046042    6.1143961      750.15534     -19.103004      731.05233    
   2618000   296.13782      0.011046042    6.1161486      734.7261      -18.455725      716.27038    
   2619000   288.25305      0.011046042    4.2726772      715.16375     -19.933102      695.23065    
   2620000   301.32319      0.011046042    5.4681391      747.59115     -16.408292      731.18285    
   2621000   303.77579      0.011046042    8.7317113      753.67611     -14.599987      739.07612    
   2622000   293.19344      0.011046042    8.0698478      727.421       -16.847529      710.57347    
   2623000   295.26968      0.011046042    7.0788218      732.57221     -16.340517      716.2317     
   2624000   302.48844      0.011046042    0.10765566     750.48216     -16.695383      733.78678    
   2625000   320.8892       0.011046042    4.6682061      796.13494     -16.585939      779.549      
   2626000   303.21632      0.011046042    10.147246      752.28804     -17.759894      734.52814    
   2627000   287.90512      0.011046042    5.8077519      714.30053     -16.056094      698.24444    
   2628000   309.74441      0.011046042    5.1434522      768.48443     -19.977654      748.50678    
   2629000   313.95156      0.011046042    8.105267       778.92247     -21.428286      757.49418    
   2630000   293.49164      0.011046042    5.9040475      728.16084     -16.762219      711.39862    
   2631000   292.14568      0.011046042    3.7151357      724.82149     -14.38021       710.44128    
   2632000   307.81714      0.011046042    6.3695242      763.70281     -17.223995      746.47882    
   2633000   297.40858      0.011046042    6.4680417      737.87889     -18.063349      719.81554    
   2634000   297.73155      0.011046042    6.2173751      738.68019     -16.249865      722.43032    
   2635000   290.7506       0.011046042    4.8873455      721.36025     -17.458161      703.90208    
   2636000   302.95337      0.011046042    6.0772267      751.63567     -20.062279      731.57339    
   2637000   295.27397      0.011046042    9.9788784      732.58286     -19.514277      713.06858    
   2638000   292.64142      0.011046042    5.1099979      726.05143     -18.449591      707.60184    
   2639000   290.08861      0.011046042   -0.41544861     719.71783     -17.976903      701.74093    
   2640000   297.48959      0.011046042    8.4872173      738.07987     -18.707505      719.37237    
   2641000   304.83469      0.011046042    9.8858543      756.30327     -18.211106      738.09216    
   2642000   280.73651      0.011046042    3.9083927      696.51502     -16.099027      680.41599    
   2643000   304.95661      0.011046042    4.9139444      756.60574     -17.003467      739.60228    
   2644000   308.25466      0.011046042    14.170529      764.78831     -21.393718      743.39459    
   2645000   295.07347      0.011046042    6.3012857      732.08542     -18.630173      713.45525    
   2646000   305.32464      0.011046042    2.1538784      757.51884     -17.543595      739.97525    
   2647000   311.49347      0.011046042    4.8401587      772.82387     -17.307714      755.51616    
   2648000   303.78045      0.011046042    7.0836735      753.68767     -19.67444       734.01323    
   2649000   286.79815      0.011046042    7.6744166      711.55412     -20.405532      691.14859    
   2650000   281.17889      0.011046042    4.7306882      697.61257     -24.090831      673.52174    
   2651000   311.6961       0.011046042    4.8096954      773.32661     -20.810316      752.51629    
   2652000   294.04777      0.011046042    12.666532      729.54062     -28.349704      701.19091    
   2653000   293.39501      0.011046042    11.384441      727.92111     -25.430991      702.49012    
   2654000   302.02225      0.011046042    4.2618556      749.32552     -21.77972       727.5458     
   2655000   304.60403      0.011046042    5.9236344      755.731       -26.999039      728.73197    
   2656000   291.74741      0.011046042    13.03117       723.83337     -25.803915      698.02946    
   2657000   295.94514      0.011046042    2.0502708      734.24805     -28.345223      705.90283    
   2658000   305.3266       0.011046042    4.6254265      757.52371     -21.942778      735.58094    
   2659000   303.18568      0.011046042    1.0860384      752.21204     -23.696374      728.51566    
   2660000   301.86333      0.011046042    5.7959265      748.93125     -19.311839      729.61941    
   2661000   307.95688      0.011046042    11.513028      764.0495      -22.432807      741.61669    
   2662000   288.9186       0.011046042    0.58487238     716.815       -25.664935      691.15007    
   2663000   292.05703      0.011046042   -4.9884823      724.60154     -24.83579       699.76575    
   2664000   295.18965      0.011046042    7.7271102      732.37365     -24.615678      707.75797    
   2665000   320.94756      0.011046042    8.9640668      796.27975     -20.262311      776.01743    
   2666000   294.29261      0.011046042    9.859326       730.14807     -19.815115      710.33295    
   2667000   290.57565      0.011046042    3.8899899      720.9262      -15.905779      705.02042    
   2668000   307.57666      0.011046042    8.0812898      763.10618     -14.285969      748.82021    
   2669000   309.88643      0.011046042    6.5705951      768.83678     -16.189598      752.64718    
   2670000   293.27257      0.011046042    5.5955639      727.61732     -15.423564      712.19376    
   2671000   281.85497      0.011046042    5.8157162      699.28996     -19.148418      680.14154    
   2672000   308.71966      0.011046042    7.2079637      765.94198     -19.577256      746.36472    
   2673000   305.9945       0.011046042    4.3304699      759.18078     -17.457516      741.72326    
   2674000   285.64594      0.011046042    2.8919529      708.69544     -17.728737      690.96671    
   2675000   294.28079      0.011046042    8.5772815      730.11874     -16.270641      713.8481     
   2676000   325.76985      0.011046042    8.8383129      808.24398     -15.413689      792.83029    
   2677000   308.05243      0.011046042    7.3384781      764.28658     -15.835874      748.45071    
   2678000   295.20859      0.011046042   -3.7692445      732.42065     -15.21784       717.20281    
   2679000   295.43343      0.011046042   -6.253079       732.97849     -17.885829      715.09266    
   2680000   297.85651      0.011046042    8.7749097      738.99021     -17.152578      721.83763    
   2681000   310.28205      0.011046042    8.1675507      769.81832     -15.605543      754.21277    
   2682000   285.4847       0.011046042   -10.624611      708.2954      -16.823003      691.4724     
   2683000   296.06198      0.011046042   -0.062543283    734.53792     -15.82698       718.71094    
   2684000   311.547        0.011046042    7.1526237      772.95669     -15.865533      757.09116    
   2685000   312.53714      0.011046042    14.024747      775.41325     -16.579877      758.83337    
   2686000   300.4176       0.011046042   -2.5972823      745.34436     -15.832987      729.51137    
   2687000   302.45866      0.011046042   -1.3464451      750.40828     -16.795257      733.61302    
   2688000   299.91228      0.011046042    16.174312      744.09064     -15.284863      728.80578    
   2689000   302.94824      0.011046042    10.216745      751.62294     -18.317688      733.30525    
   2690000   301.01236      0.011046042   -6.0052095      746.81996     -18.000512      728.81944    
   2691000   293.47014      0.011046042    2.9016164      728.10751     -19.670933      708.43658    
   2692000   295.21514      0.011046042    17.363984      732.43689     -18.637133      713.79976    
   2693000   312.3354       0.011046042    17.341705      774.91274     -17.493299      757.41944    
   2694000   294.58209      0.011046042   -1.7304703      730.86629     -16.108631      714.75766    
   2695000   299.48085      0.011046042    8.1680544      743.02025     -14.745305      728.27495    
   2696000   302.15205      0.011046042    8.7160373      749.64755     -15.83645       733.8111     
   2697000   301.46731      0.011046042    4.2826564      747.9487      -17.519653      730.42905    
   2698000   300.36901      0.011046042    3.9567949      745.22379     -10.884776      734.33902    
   2699000   308.15509      0.011046042    11.274275      764.54127     -16.367483      748.17379    
   2700000   301.90202      0.011046042    6.8622731      749.02724     -15.613372      733.41387    
   2701000   296.34437      0.011046042    2.7636961      735.23856     -17.435836      717.80272    
   2702000   301.30379      0.011046042    5.5788592      747.54301     -17.605509      729.9375     
   2703000   310.01156      0.011046042    17.144021      769.14724     -19.63341       749.51383    
   2704000   305.15968      0.011046042    13.753828      757.10957     -20.578647      736.53092    
   2705000   301.77602      0.011046042    6.1686244      748.71462     -17.648072      731.06655    
   2706000   304.53422      0.011046042   -12.135423      755.55778     -18.465459      737.09233    
   2707000   299.28424      0.011046042    7.4297613      742.53246     -18.020831      724.51163    
   2708000   297.88778      0.011046042    13.925052      739.06779     -18.72457       720.34322    
   2709000   309.67352      0.011046042   -4.2824929      768.30854     -16.681304      751.62723    
   2710000   298.72585      0.011046042    2.5203139      741.14707     -16.022298      725.12477    
   2711000   296.44773      0.011046042    13.761828      735.49498     -15.017372      720.47761    
   2712000   303.4033       0.011046042    10.338115      752.75196     -21.020014      731.73194    
   2713000   296.55488      0.011046042    2.0734693      735.76083     -20.299225      715.4616     
   2714000   291.93795      0.011046042    11.462587      724.3061      -19.415672      704.89043    
   2715000   310.63586      0.011046042    7.6919976      770.69614     -24.783949      745.91219    
   2716000   306.53943      0.011046042    6.9054439      760.53277     -23.656377      736.8764     
   2717000   281.3038       0.011046042   -4.0181515      697.92248     -22.690229      675.23225    
   2718000   300.00911      0.011046042    7.0598391      744.33086     -23.430739      720.90012    
   2719000   304.23852      0.011046042    6.6267887      754.82415     -22.893314      731.93084    
   2720000   303.85461      0.011046042    6.9430024      753.87167     -23.55103       730.32064    
   2721000   311.42237      0.011046042    2.0964519      772.64748     -27.460521      745.18696    
   2722000   290.02789      0.011046042    5.7884943      719.5672      -28.49802       691.06918    
   2723000   289.27158      0.011046042    2.4549362      717.69076     -26.656225      691.03454    
   2724000   301.63783      0.011046042    5.7024171      748.37178     -20.799614      727.57217    
   2725000   305.5797       0.011046042    9.090711       758.15165     -24.565602      733.58604    
   2726000   294.83084      0.011046042    8.6743622      731.48344     -14.599506      716.88393    
   2727000   276.18805      0.011046042    4.8469374      685.23017     -17.761936      667.46823    
   2728000   311.07569      0.011046042   -0.58257515     771.78736     -14.563417      757.22394    
   2729000   308.7294       0.011046042    6.6379805      765.96615     -19.362523      746.60363    
   2730000   286.62202      0.011046042    6.1104017      711.11714     -20.537783      690.57936    
   2731000   296.93732      0.011046042    6.1462582      736.70968     -20.75141       715.95827    
   2732000   313.70553      0.011046042    6.1292897      778.31206     -21.755815      756.55625    
   2733000   306.35962      0.011046042    5.4359041      760.08665     -19.716448      740.3702     
   2734000   289.92525      0.011046042    6.2486808      719.31254     -17.84831       701.46423    
   2735000   295.0188       0.011046042    6.3909835      731.94979     -18.569044      713.38074    
   2736000   309.96735      0.011046042    5.959559       769.03754     -17.754865      751.28267    
   2737000   286.34704      0.011046042    5.1275042      710.4349      -17.800021      692.63488    
   2738000   297.15558      0.011046042    6.6587355      737.25119     -22.884625      714.36657    
   2739000   308.61952      0.011046042    6.1760402      765.69354     -19.209776      746.48377    
   2740000   303.93892      0.011046042    5.8556262      754.08083     -18.038348      736.04248    
   2741000   283.81572      0.011046042    5.5778954      704.15463     -18.219422      685.93521    
   2742000   300.31002      0.011046042    5.103197       745.07744     -19.484596      725.59285    
   2743000   300.26434      0.011046042    6.7173671      744.96411     -21.392409      723.5717     
   2744000   298.64554      0.011046042    5.9840473      740.94782     -21.074499      719.87332    
   2745000   309.59655      0.011046042    6.3330135      768.11758     -15.736788      752.3808     
   2746000   302.35545      0.011046042    7.0406309      750.15219     -17.381684      732.77051    
   2747000   295.00066      0.011046042    5.5622369      731.90477     -20.11184       711.79293    
   2748000   290.92139      0.011046042    5.8607982      721.784       -17.843936      703.94006    
   2749000   298.32448      0.011046042    4.8030722      740.15126     -22.194855      717.9564     
   2750000   315.13522      0.011046042    11.785522      781.85917     -20.290667      761.5685     
   2751000   289.91884      0.011046042    7.8330518      719.29663     -18.755026      700.5416     
   2752000   288.55234      0.011046042    0.39212071     715.90631     -16.188226      699.71809    
   2753000   302.90672      0.011046042   -0.73357012     751.51993     -16.952487      734.56744    
   2754000   306.22696      0.011046042    5.8997761      759.75752     -17.693704      742.06381    
   2755000   296.41756      0.011046042    7.4205884      735.42013     -16.593736      718.82639    
   2756000   290.41063      0.011046042    6.3760739      720.51678     -16.708335      703.80845    
   2757000   301.4674       0.011046042    5.7917354      747.94892     -17.221547      730.72737    
   2758000   325.77676      0.011046042    1.1619573      808.26112     -20.735413      787.52571    
   2759000   315.51652      0.011046042    10.139754      782.80518     -21.56903       761.23615    
   2760000   290.15888      0.011046042    8.3141733      719.89218     -23.419572      696.47261    
   2761000   295.5103       0.011046042    4.3836044      733.16919     -18.944922      714.22427    
   2762000   309.81256      0.011046042    3.8924159      768.65351     -17.00624       751.64727    
   2763000   298.82908      0.011046042    7.2041077      741.40319     -16.522162      724.88103    
   2764000   304.75808      0.011046042    6.4483983      756.11319     -15.024133      741.08906    
   2765000   301.73715      0.011046042    4.8247879      748.61819     -16.36588       732.25231    
   2766000   296.91597      0.011046042    5.9740906      736.65671     -16.856578      719.80013    
   2767000   302.46828      0.011046042    9.3818068      750.43214     -17.689356      732.74279    
   2768000   298.8917       0.011046042    5.6365338      741.55855     -18.138802      723.41975    
   2769000   307.50579      0.011046042    6.2586739      762.93034     -19.755273      743.17507    
   2770000   296.00121      0.011046042    6.1846609      734.38715     -17.802788      716.58436    
   2771000   293.69789      0.011046042    5.4488996      728.67255     -20.792913      707.87964    
   2772000   305.8052       0.011046042    6.1168956      758.71112     -19.093861      739.61726    
   2773000   325.18775      0.011046042    7.3311708      806.79978     -17.865378      788.9344     
   2774000   304.07014      0.011046042    6.0912244      754.4064      -18.954218      735.45218    
   2775000   287.0875       0.011046042    6.0409617      712.272       -20.159713      692.11228    
   2776000   294.02218      0.011046042    7.7199942      729.47713     -21.186169      708.29096    
   2777000   308.12075      0.011046042    9.4646368      764.45608     -17.837472      746.6186     
   2778000   302.32249      0.011046042   -0.68398399     750.07042     -14.643477      735.42695    
   2779000   292.44579      0.011046042    6.4266317      725.56606     -18.94527       706.62079    
   2780000   301.01761      0.011046042    6.4023663      746.833       -19.091809      727.74119    
   2781000   285.26052      0.011046042    2.1964724      707.7392      -23.667506      684.0717     
   2782000   296.7246       0.011046042    10.891883      736.18192     -21.240589      714.94133    
   2783000   311.54813      0.011046042    7.2699191      772.95949     -20.707575      752.25191    
   2784000   295.11883      0.011046042    6.2367982      732.19796     -18.269797      713.92816    
   2785000   292.28351      0.011046042    5.4479606      725.16345     -17.878848      707.2846     
   2786000   311.17915      0.011046042    6.2530891      772.04404     -13.187286      758.85675    
   2787000   315.31349      0.011046042    6.4397726      782.30147     -14.223541      768.07793    
   2788000   290.50796      0.011046042    6.3039713      720.75827     -19.501092      701.25717    
   2789000   285.31873      0.011046042    5.118419       707.88364     -17.489205      690.39444    
   2790000   308.14548      0.011046042    6.3569241      764.51744     -11.287892      753.22955    
   2791000   308.25371      0.011046042    5.4572873      764.78595     -14.55741       750.22854    
   2792000   282.8927       0.011046042    5.3551579      701.86458     -14.90686       686.95772    
   2793000   280.67396      0.011046042    5.8910228      696.35983     -15.221069      681.13876    
   2794000   310.00021      0.011046042    5.7420516      769.11906     -14.907313      754.21174    
   2795000   301.41938      0.011046042    6.6515043      747.82978     -13.617957      734.21182    
   2796000   285.62449      0.011046042    6.3646555      708.64224     -13.979297      694.66294    
   2797000   290.6714       0.011046042    6.1071696      721.16375     -12.742521      708.42123    
   2798000   304.06851      0.011046042    5.4592148      754.40235     -15.428957      738.97339    
   2799000   306.01357      0.011046042    6.044502       759.2281      -17.396946      741.83115    
   2800000   302.10786      0.011046042    5.8706549      749.53793     -17.463636      732.07429    
   2801000   296.79791      0.011046042    8.2086318      736.3638      -19.447019      716.91678    
   2802000   299.65592      0.011046042    7.3398889      743.45459     -17.238132      726.21646    
   2803000   306.74275      0.011046042    5.4118108      761.03721     -20.155963      740.88125    
   2804000   292.55886      0.011046042    5.3889683      725.8466      -17.613976      708.23262    
   2805000   293.99002      0.011046042    7.2649148      729.39735     -19.357513      710.03984    
   2806000   307.34984      0.011046042    6.4752487      762.54342     -13.794311      748.7491     
   2807000   302.69105      0.011046042    7.2760197      750.98484     -15.520065      735.46477    
   2808000   292.28776      0.011046042    5.9368201      725.17399     -16.823108      708.35088    
   2809000   296.1075       0.011046042    4.028386       734.65087     -17.905492      716.74538    
   2810000   306.0204       0.011046042    6.8264121      759.24506     -15.848405      743.39665    
   2811000   297.46957      0.011046042    6.5596392      738.0302      -16.888974      721.14123    
   2812000   308.16689      0.011046042    5.2366064      764.57056     -21.022218      743.54834    
   2813000   307.77483      0.011046042    5.0571084      763.59784     -20.029973      743.56787    
   2814000   301.40095      0.011046042    6.5478296      747.78405     -21.203473      726.58058    
   2815000   288.1994       0.011046042    10.07051       715.03065     -22.079397      692.95125    
   2816000   295.4978       0.011046042    2.3284429      733.13818     -24.176762      708.96142    
   2817000   308.97954      0.011046042    6.1085151      766.58676     -21.537577      745.04918    
   2818000   292.35816      0.011046042    8.453983       725.34866     -20.158843      705.18982    
   2819000   300.02364      0.011046042    5.6247462      744.36692     -16.91215       727.45477    
   2820000   316.1795       0.011046042    8.5255715      784.45006     -17.75254       766.69752    
   2821000   310.7073       0.011046042    8.5740992      770.87338     -19.20562       751.66776    
   2822000   291.43961      0.011046042    8.2003816      723.06971     -18.59014       704.47957    
   2823000   291.88245      0.011046042    4.2405376      724.16841     -20.747855      703.42056    
   2824000   311.06277      0.011046042    4.3839928      771.7553      -21.829636      749.92567    
   2825000   306.49704      0.011046042    10.790625      760.42762     -21.956027      738.47159    
   2826000   298.56421      0.011046042    10.75226       740.74603     -22.834617      717.91142    
   2827000   293.50205      0.011046042    5.3220669      728.18666     -21.961256      706.22541    
   2828000   309.41252      0.011046042    5.3587042      767.66099     -20.701874      746.95911    
   2829000   312.54952      0.011046042    7.2272179      775.44399     -21.924317      753.51967    
   2830000   289.20023      0.011046042    5.1990194      717.51375     -17.708142      699.80561    
   2831000   300.53256      0.011046042    0.34048941     745.62957     -17.069669      728.5599     
   2832000   310.88043      0.011046042    16.795719      771.30291     -17.745232      753.55768    
   2833000   294.80257      0.011046042    5.1805429      731.4133      -15.551376      715.86192    
   2834000   307.18185      0.011046042    8.0587832      762.12664     -16.064797      746.06184    
   2835000   297.80981      0.011046042    13.112504      738.87434     -18.05586       720.81848    
   2836000   299.93704      0.011046042    0.51300713     744.15206     -21.279659      722.8724     
   2837000   298.58689      0.011046042    0.84333041     740.80231     -20.263144      720.53917    
   2838000   300.05036      0.011046042    7.3307805      744.43322     -21.150353      723.28286    
   2839000   294.62867      0.011046042    8.8883475      730.98184     -20.175058      710.80678    
   2840000   313.56227      0.011046042    3.6293476      777.95663     -21.575475      756.38115    
   2841000   308.45196      0.011046042    8.7672053      765.27781     -20.794685      744.48312    
   2842000   291.93396      0.011046042    11.749801      724.29619     -23.394232      700.90196    
   2843000   290.01087      0.011046042    3.7008728      719.52497     -22.2007        697.32427    
   2844000   302.2438       0.011046042    3.5913885      749.8752      -18.476646      731.39855    
   2845000   306.62878      0.011046042    5.619715       760.75447     -16.202171      744.5523     
   2846000   296.46352      0.011046042    9.4491847      735.53417     -14.329824      721.20435    
   2847000   282.12279      0.011046042    5.1568635      699.95442     -10.701178      689.25324    
   2848000   309.51326      0.011046042   -2.4582859      767.91093     -14.993618      752.91731    
   2849000   309.4677       0.011046042    9.2401835      767.79789     -13.392629      754.40526    
   2850000   297.42741      0.011046042    8.938539       737.92561     -14.198031      723.72758    
   2851000   293.19615      0.011046042    6.8044037      727.42773     -13.386573      714.04116    
   2852000   311.86481      0.011046042    3.5895285      773.74519     -16.829279      756.91592    
   2853000   304.59331      0.011046042    6.0496992      755.70441     -18.157335      737.54707    
   2854000   299.84849      0.011046042    9.5884861      743.93237     -14.221596      729.71077    
   2855000   300.56462      0.011046042    4.1525993      745.7091      -16.532235      729.17687    
   2856000   306.63824      0.011046042    4.3964089      760.77794     -18.405631      742.37231    
   2857000   300.32863      0.011046042    8.3001227      745.12362     -20.680247      724.44337    
   2858000   298.39234      0.011046042    5.6378038      740.31962     -25.94427       714.37535    
   2859000   326.91757      0.011046042    6.503248       811.09151     -24.921955      786.16955    
   2860000   313.884        0.011046042    6.2633838      778.75485     -25.552594      753.20225    
   2861000   292.52414      0.011046042    6.807997       725.76045     -18.411433      707.34902    
   2862000   308.14519      0.011046042    5.9824853      764.51672     -21.221015      743.29571    
   2863000   309.53959      0.011046042    4.3002116      767.97624     -18.870542      749.1057     
   2864000   308.71768      0.011046042    5.324989       765.93708     -19.509535      746.42755    
   2865000   306.30542      0.011046042    6.2328594      759.9522      -13.715781      746.23642    
   2866000   301.34066      0.011046042    4.7570995      747.63448     -17.17603       730.45845    
   2867000   294.71637      0.011046042    6.0419653      731.19943     -12.483315      718.71612    
   2868000   293.28468      0.011046042    6.8905083      727.64737     -15.355253      712.29212    
   2869000   312.67928      0.011046042    5.781392       775.76591     -16.74239       759.02352    
   2870000   298.11886      0.011046042    6.6012656      739.64111     -16.140005      723.50111    
   2871000   281.52667      0.011046042    5.583908       698.47543     -14.215811      684.25962    
   2872000   306.22468      0.011046042    6.6414676      759.75187     -15.733353      744.01852    
   2873000   315.89215      0.011046042    6.1787222      783.73714     -19.145796      764.59134    
   2874000   295.38658      0.011046042    4.8103192      732.86225     -18.694608      714.16764    
   2875000   294.71388      0.011046042    6.5853506      731.19326     -15.374882      715.81838    
   2876000   309.61839      0.011046042    6.9955076      768.17177     -17.637128      750.53464    
   2877000   310.79113      0.011046042    6.3147513      771.08136     -17.518104      753.56326    
   2878000   292.60057      0.011046042    6.5374089      725.95009     -17.611299      708.33879    
   2879000   291.01467      0.011046042    5.337004       722.01542     -18.182202      703.83322    
   2880000   312.48919      0.011046042    3.777992       775.29429     -20.956541      754.33775    
   2881000   316.61663      0.011046042    6.9259616      785.53458     -17.953489      767.58109    
   2882000   297.2798       0.011046042    7.9619098      737.55939     -21.904702      715.65468    
   2883000   289.581        0.011046042    5.959176       718.45843     -23.347377      695.11106    
   2884000   293.28258      0.011046042    5.8097697      727.64216     -18.659081      708.98307    
   2885000   306.15496      0.011046042    6.3333884      759.57888     -20.551414      739.02747    
   2886000   306.28696      0.011046042    5.9213882      759.9064      -19.43284       740.47356    
   2887000   292.98761      0.011046042    1.8324448      726.91033     -17.517704      709.39263    
   2888000   288.90459      0.011046042    7.930816       716.78024     -20.206735      696.57351    
   2889000   298.91251      0.011046042    8.5374434      741.61019     -20.653967      720.95622    
   2890000   311.44125      0.011046042    6.2537629      772.69433     -24.1662        748.52813    
   2891000   286.76902      0.011046042    2.2803401      711.48184     -19.968712      691.51313    
   2892000   293.61893      0.011046042    7.2389361      728.47665     -21.624067      706.85259    
   2893000   314.60843      0.011046042    14.68993       780.55219     -24.293125      756.25906    
   2894000   297.13635      0.011046042    5.4456254      737.20346     -22.120957      715.08251    
   2895000   295.55341      0.011046042    5.0249799      733.27615     -22.644555      710.63159    
   2896000   310.46634      0.011046042    9.4067884      770.27554     -23.281782      746.99376    
   2897000   304.36531      0.011046042    8.0687765      755.13872     -22.227612      732.91111    
   2898000   299.51473      0.011046042    0.6380814      743.10429     -17.210751      725.89354    
   2899000   299.59705      0.011046042    3.390709       743.30854     -17.964662      725.34388    
   2900000   285.31549      0.011046042    5.3627308      707.87559     -14.820975      693.05462    
   2901000   290.84416      0.011046042    7.5696035      721.59239     -19.555131      702.03725    
   2902000   311.64832      0.011046042    8.6578663      773.20807     -19.601981      753.60609    
   2903000   297.70043      0.011046042    0.24178201     738.60297     -21.119622      717.48334    
   2904000   291.23115      0.011046042    9.1431858      722.55251     -18.776784      703.77572    
   2905000   307.08361      0.011046042    7.4239346      761.88291     -18.062611      743.8203     
   2906000   310.01147      0.011046042    3.4101024      769.14701     -15.683747      753.46326    
   2907000   293.70037      0.011046042    5.5655921      728.67871     -17.550558      711.12815    
   2908000   306.56434      0.011046042    6.7037168      760.59457     -18.067421      742.52715    
   2909000   302.54116      0.011046042    6.0065497      750.61296     -17.421047      733.19191    
   2910000   301.26546      0.011046042    5.7504399      747.4479      -19.169835      728.27807    
   2911000   294.22412      0.011046042    5.5293863      729.97816     -21.360502      708.61766    
   2912000   303.79506      0.011046042    7.1963395      753.72392     -19.020459      734.70346    
   2913000   298.30274      0.011046042    5.1642499      740.09732     -20.778124      719.3192     
   2914000   293.13705      0.011046042    5.6647013      727.28109     -20.51554       706.76555    
   2915000   297.31865      0.011046042    3.487084       737.65577     -20.174959      717.48081    
   2916000   300.29255      0.011046042    6.5142689      745.0341      -19.806496      725.2276     
   2917000   296.22772      0.011046042    8.3428058      734.94913     -21.185141      713.76399    
   2918000   295.95703      0.011046042    4.7948518      734.27754     -20.560399      713.71714    
   2919000   301.21266      0.011046042    5.1948783      747.31692     -16.381076      730.93584    
   2920000   306.44826      0.011046042    6.3370327      760.30659     -18.600431      741.70616    
   2921000   292.53614      0.011046042    9.6175191      725.79022     -18.000552      707.78967    
   2922000   305.96194      0.011046042    3.6921628      759.10002     -17.253122      741.8469     
   2923000   321.63579      0.011046042    5.560343       797.98727     -15.130079      782.85719    
   2924000   309.8164       0.011046042    6.7628103      768.66303     -18.681083      749.98195    
   2925000   292.35153      0.011046042    6.015486       725.33221     -23.102727      702.22948    
   2926000   289.97151      0.011046042    3.6896656      719.42731     -19.962514      699.4648     
   2927000   321.03267      0.011046042    6.2823811      796.49089     -20.21322       776.27767    
   2928000   304.28477      0.011046042    6.6759891      754.93889     -18.321071      736.61782    
   2929000   285.43957      0.011046042    8.0865353      708.18344     -17.559584      690.62386    
   2930000   294.58377      0.011046042    6.6693061      730.87044     -19.087578      711.78286    
   2931000   309.05345      0.011046042    4.8000906      766.77012     -22.159439      744.61068    
   2932000   293.04541      0.011046042    19.105246      727.05374     -15.525538      711.5282     
   2933000   287.86556      0.011046042    9.5334553      714.2024      -16.984393      697.21801    
   2934000   318.58588      0.011046042   -0.74950681     790.42034     -15.647619      774.77272    
   2935000   310.83926      0.011046042    2.5084885      771.20077     -15.003089      756.19768    
   2936000   301.3148       0.011046042    16.890306      747.57034     -21.518043      726.05229    
   2937000   291.01015      0.011046042    16.3938        722.00419     -17.347253      704.65694    
   2938000   296.82394      0.011046042    3.7948127      736.42839     -20.244982      716.18341    
   2939000   297.76337      0.011046042    2.2226026      738.75914     -18.291203      720.46793    
   2940000   295.52885      0.011046042    8.420862       733.21523     -19.823235      713.392      
   2941000   304.32473      0.011046042    14.729042      755.03805     -15.493557      739.54449    
   2942000   295.43528      0.011046042    4.0996638      732.98307     -15.148563      717.8345     
   2943000   295.87924      0.011046042   -3.1631546      734.08456     -15.936648      718.14791    
   2944000   301.74595      0.011046042    4.6495221      748.64003     -18.332898      730.30713    
   2945000   293.51605      0.011046042    15.027546      728.2214      -18.004537      710.21686    
   2946000   296.63033      0.011046042    2.451353       735.94803     -14.331657      721.61638    
   2947000   307.30475      0.011046042   -3.5045595      762.43156     -14.825277      747.60628    
   2948000   300.6564       0.011046042    8.9984209      745.93682     -16.195726      729.74109    
   2949000   293.93842      0.011046042    6.3987131      729.26933     -21.026958      708.24237    
   2950000   300.18282      0.011046042    4.7244536      744.76184     -19.812235      724.9496     
   2951000   314.38312      0.011046042    2.1147622      779.9932      -16.651829      763.34137    
   2952000   294.22856      0.011046042    8.3331153      729.98917     -19.888124      710.10105    
   2953000   286.3882       0.011046042    4.9855627      710.53701     -16.092195      694.44481    
   2954000   296.13286      0.011046042    3.3298985      734.71378     -16.669523      718.04426    
   2955000   303.03815      0.011046042    5.8847321      751.846       -16.126977      735.71902    
   2956000   306.56713      0.011046042    6.5923436      760.60149     -17.720612      742.88088    
   2957000   288.36579      0.011046042    5.336853       715.44347     -18.689926      696.75354    
   2958000   294.84954      0.011046042    6.3986629      731.52983     -13.798615      717.73122    
   2959000   316.0725       0.011046042    6.3733999      784.18459     -16.641237      767.54335    
   2960000   309.84043      0.011046042    4.1613804      768.72264     -16.920012      751.80263    
   2961000   292.50956      0.011046042    7.6360492      725.72429     -17.761787      707.9625     
   2962000   286.4156       0.011046042    6.6513505      710.60499     -14.825115      695.77987    
   2963000   305.07543      0.011046042    6.0001442      756.90055     -13.302114      743.59844    
   2964000   313.34593      0.011046042    6.1888085      777.4199      -17.863379      759.55652    
   2965000   296.03587      0.011046042    5.6833535      734.47316     -14.230871      720.24229    
   2966000   299.94515      0.011046042    6.60651        744.17218     -15.669802      728.50238    
   2967000   303.08295      0.011046042    5.9725845      751.95715     -18.480332      733.47682    
   2968000   304.99102      0.011046042    4.8731144      756.69112     -19.880111      736.81101    
   2969000   303.40827      0.011046042    3.8688739      752.76429     -17.773577      734.99071    
   2970000   282.76812      0.011046042    5.7918346      701.5555      -13.745769      687.80973    
   2971000   302.21809      0.011046042    6.5934358      749.81142     -18.128049      731.68337    
   2972000   297.91567      0.011046042    0.62666671     739.13699     -19.979019      719.15797    
   2973000   310.25103      0.011046042    5.141544       769.74136     -17.674529      752.06683    
   2974000   304.78216      0.011046042    4.1369862      756.17295     -14.233776      741.93918    
   2975000   290.1168       0.011046042    7.3585834      719.78777     -13.40681       706.38096    
   2976000   293.89088      0.011046042    10.244081      729.15137     -12.354199      716.79717    
   2977000   305.93493      0.011046042    5.4167365      759.03298     -12.325589      746.70739    
   2978000   299.54248      0.011046042    3.1055807      743.17316     -16.658579      726.51458    
   2979000   300.41152      0.011046042    6.2060059      745.32926     -16.956641      728.37262    
   2980000   300.87855      0.011046042    7.8329215      746.48798     -16.938958      729.54902    
   2981000   295.6411       0.011046042    6.7662539      733.49373     -14.676053      718.81767    
   2982000   298.51716      0.011046042    0.17710967     740.62929     -13.888886      726.74041    
   2983000   297.78277      0.011046042    3.9638585      738.80726     -18.564992      720.24227    
   2984000   298.99887      0.011046042    12.712975      741.82444     -17.994342      723.8301     
   2985000   293.33277      0.011046042    7.0369037      727.76668     -19.666097      708.10059    
   2986000   311.61619      0.011046042   -1.0406519      773.12835     -23.522218      749.60614    
   2987000   302.72933      0.011046042    6.174554       751.07982     -19.240996      731.83882    
   2988000   305.12169      0.011046042    5.769024       757.01533     -15.071845      741.94348    
   2989000   291.48245      0.011046042    3.6196347      723.17599     -16.834874      706.34111    
   2990000   293.84669      0.011046042    11.48864       729.04173     -16.43956       712.60217    
   2991000   301.51737      0.011046042    7.4180088      748.0729      -20.861701      727.2112     
   2992000   303.85166      0.011046042    2.3897638      753.86434     -23.301625      730.56272    
   2993000   285.31962      0.011046042    5.2548042      707.88585     -21.088564      686.79729    
   2994000   297.10514      0.011046042    13.799056      737.12604     -23.681991      713.44405    
   2995000   301.29949      0.011046042    12.241866      747.53233     -20.346778      727.18556    
   2996000   294.59976      0.011046042   -0.65194863     730.91013     -17.872884      713.03724    
   2997000   285.7284       0.011046042    6.2162206      708.90003     -19.652462      689.24756    
   2998000   301.62743      0.011046042    7.9464701      748.34596     -21.58927       726.75669    
   2999000   313.04129      0.011046042    5.109308       776.66408     -19.54667       757.11741    
   3000000   289.07333      0.011046042    5.452761       717.19891     -23.662418      693.53649    
   3001000   291.42115      0.011046042    4.6603905      723.02392     -20.647275      702.37664    
   3002000   300.95194      0.011046042    4.7656516      746.67007     -19.44956       727.22051    
   3003000   293.96621      0.011046042    7.1180008      729.33826     -20.394128      708.94413    
   3004000   298.72372      0.011046042    8.1857751      741.14177     -18.60465       722.53712    
   3005000   305.91645      0.011046042    4.3495521      758.98715     -19.907468      739.07968    
   3006000   307.64817      0.011046042    4.4335618      763.28358     -18.848555      744.43503    
   3007000   291.04618      0.011046042    5.4344294      722.09359     -17.29687       704.79672    
   3008000   300.99688      0.011046042    8.0975384      746.78156     -16.740469      730.04109    
   3009000   320.50578      0.011046042    7.3584227      795.18367     -18.189304      776.99436    
   3010000   299.58223      0.011046042    4.7904169      743.27177     -19.237276      724.03449    
   3011000   292.42776      0.011046042    7.121653       725.52132     -22.673273      702.84805    
   3012000   310.46182      0.011046042    7.3314676      770.26434     -23.641115      746.62323    
   3013000   300.82687      0.011046042    2.5605703      746.35975     -21.970272      724.38948    
   3014000   271.89403      0.011046042    3.6278207      674.57659     -25.614223      648.96236    
   3015000   294.20973      0.011046042    5.0724375      729.94245     -24.49869       705.44376    
   3016000   316.05572      0.011046042    6.0915559      784.14296     -21.843242      762.29972    
   3017000   304.49524      0.011046042    5.5275306      755.46108     -21.266764      734.19431    
   3018000   286.91965      0.011046042    5.6355967      711.85557     -20.440621      691.41495    
   3019000   295.32874      0.011046042    6.481151       732.71874     -20.375522      712.34322    
   3020000   316.8308       0.011046042    6.2959892      786.06595     -19.297722      766.76823    
   3021000   298.44362      0.011046042    3.7010371      740.44684     -22.892925      717.55391    
   3022000   287.95564      0.011046042    8.8423576      714.42588     -17.070723      697.35516    
   3023000   315.57008      0.011046042    7.1165667      782.93807     -20.225705      762.71237    
   3024000   304.01586      0.011046042    3.6782369      754.27172     -22.249068      732.02266    
   3025000   295.04884      0.011046042    4.2275436      732.0243      -24.30706       707.71724    
   3026000   287.54176      0.011046042    9.4415476      713.39903     -21.059646      692.33938    
   3027000   307.27655      0.011046042    9.8155274      762.36159     -19.212036      743.14956    
   3028000   311.89121      0.011046042    6.9265397      773.81068     -17.657402      756.15328    
   3029000   304.99183      0.011046042    4.4892085      756.69314     -18.525191      738.16795    
   3030000   280.91282      0.011046042    2.9786375      696.95244     -16.876693      680.07575    
   3031000   306.92686      0.011046042    8.1546194      761.49401     -20.958072      740.53594    
   3032000   306.47169      0.011046042    6.6604026      760.36471     -19.033259      741.33145    
   3033000   293.82363      0.011046042    5.5861726      728.98452     -24.271357      704.71316    
   3034000   307.42901      0.011046042    3.4270284      762.73985     -25.091664      737.64819    
   3035000   298.34443      0.011046042    5.8422268      740.20075     -22.50066       717.70009    
   3036000   297.39165      0.011046042    5.6363979      737.83688     -22.418484      715.4184     
   3037000   299.04937      0.011046042    7.3727874      741.94974     -23.16755       718.78219    
   3038000   298.60055      0.011046042    6.0031386      740.8362      -21.12227       719.71393    
   3039000   288.52481      0.011046042    5.6134242      715.838       -19.898872      695.93912    
   3040000   301.75347      0.011046042    5.9515055      748.65868     -18.464505      730.19418    
   3041000   298.16071      0.011046042    7.2275289      739.74493     -18.76861       720.97632    
   3042000   298.98277      0.011046042    7.4379171      741.7845      -16.580576      725.20393    
   3043000   298.6214       0.011046042    5.0831713      740.88794     -23.236441      717.6515     
   3044000   298.67136      0.011046042    6.1266417      741.01186     -19.203803      721.80806    
   3045000   318.55985      0.011046042    6.5635983      790.35577     -20.738172      769.6176     
   3046000   289.32049      0.011046042    6.3601188      717.81212     -20.21097       697.60115    
   3047000   286.85131      0.011046042    6.2284399      711.686       -20.439356      691.24664    
   3048000   301.27326      0.011046042    5.0625804      747.46727     -17.518914      729.94835    
   3049000   316.49098      0.011046042    7.3575721      785.22285     -16.308239      768.91461    
   3050000   302.89193      0.011046042    5.983747       751.48323     -22.280604      729.20263    
   3051000   292.97839      0.011046042    5.5054792      726.88745     -24.34712       702.54033    
   3052000   301.27191      0.011046042    6.2584052      747.46391     -24.868191      722.59572    
   3053000   302.65086      0.011046042    7.4818794      750.88513     -18.540663      732.34447    
   3054000   308.43268      0.011046042    6.5195559      765.22999     -25.35874       739.87125    
   3055000   303.96329      0.011046042    5.2026557      754.1413      -23.152232      730.98907    
   3056000   302.01116      0.011046042    7.3490867      749.298       -21.863522      727.43448    
   3057000   285.18552      0.011046042    7.7252946      707.55314     -23.739668      683.81347    
   3058000   307.46508      0.011046042    5.3339238      762.82933     -20.356213      742.47311    
   3059000   299.91762      0.011046042    3.5329739      744.10388     -20.450771      723.65311    
   3060000   298.71324      0.011046042    5.3617518      741.11577     -20.823398      720.29238    
   3061000   306.27674      0.011046042    6.5672423      759.88104     -18.458697      741.42234    
   3062000   308.07395      0.011046042    5.7089638      764.33996     -18.325344      746.01462    
   3063000   284.11837      0.011046042    5.6167755      704.90551     -17.471805      687.43371    
   3064000   306.53806      0.011046042    6.2957312      760.52938     -16.583957      743.94542    
   3065000   300.51728      0.011046042    5.4492557      745.59165     -18.219906      727.37175    
   3066000   294.166        0.011046042    8.5955952      729.83396     -18.874619      710.95934    
   3067000   303.58286      0.011046042    8.0286516      753.19745     -19.959503      733.23795    
   3068000   305.42226      0.011046042    4.2301443      757.76105     -16.919609      740.84144    
   3069000   297.07472      0.011046042    3.4524799      737.05056     -19.306889      717.74367    
   3070000   305.52678      0.011046042    9.8117127      758.02036     -20.437145      737.58321    
   3071000   306.54156      0.011046042    4.6157304      760.53807     -18.288343      742.24973    
   3072000   294.65571      0.011046042    4.1090879      731.04895     -21.885989      709.16296    
   3073000   292.45507      0.011046042    5.8101194      725.5891      -21.25554       704.33356    
   3074000   307.3912       0.011046042    7.4196948      762.64605     -19.739782      742.90627    
   3075000   318.03396      0.011046042    5.4835617      789.05102     -18.290102      770.76092    
   3076000   297.58091      0.011046042    1.6505266      738.30643     -14.193579      724.11285    
   3077000   289.15026      0.011046042    3.9384907      717.38978     -17.309498      700.08028    
   3078000   294.34849      0.011046042    11.061382      730.28673     -17.813911      712.47282    
   3079000   312.26668      0.011046042    6.6510286      774.74225     -18.128637      756.61361    
   3080000   299.32364      0.011046042   -3.262591       742.6302      -21.238059      721.39214    
   3081000   292.65641      0.011046042    5.9689148      726.08861     -24.315671      701.77294    
   3082000   301.7749       0.011046042    13.784384      748.71184     -15.591247      733.1206     
   3083000   319.36036      0.011046042    6.3842621      792.34185     -17.121177      775.22067    
   3084000   309.89027      0.011046042    2.3982304      768.8463      -19.406739      749.43956    
   3085000   288.59965      0.011046042    4.7229519      716.02368     -20.052649      695.97104    
   3086000   300.67524      0.011046042    7.1184435      745.98355     -18.305568      727.67798    
   3087000   303.00045      0.011046042    16.508191      751.75248     -21.900244      729.85224    
   3088000   302.10108      0.011046042    14.601536      749.5211      -17.340689      732.18041    
   3089000   307.96267      0.011046042    2.7283045      764.06387     -19.769689      744.29418    
   3090000   294.17373      0.011046042   -3.9169448      729.85313     -19.411097      710.44203    
   3091000   304.68637      0.011046042    11.152756      755.93529     -22.250807      733.68448    
   3092000   307.38427      0.011046042    13.089055      762.62885     -19.26598       743.36287    
   3093000   291.1659       0.011046042    4.1354779      722.39063     -20.708142      701.68249    
   3094000   285.91783      0.011046042    7.5074841      709.37001     -21.194516      688.1755     
   3095000   315.11897      0.011046042    6.5849966      781.81885     -15.503855      766.315      
   3096000   304.68933      0.011046042    5.387697       755.94262     -19.953112      735.98951    
   3097000   285.05393      0.011046042    5.1419626      707.22665     -18.022591      689.20406    
   3098000   305.45486      0.011046042    11.925954      757.84193     -18.096854      739.74508    
   3099000   303.69625      0.011046042    8.2478955      753.47876     -17.34907       736.12969    
   3100000   298.88521      0.011046042    6.4283703      741.54245     -17.151477      724.39097    
   3101000   298.28697      0.011046042    0.1882053      740.05819     -17.133791      722.9244     
   3102000   300.47464      0.011046042    9.380206       745.48587     -16.429203      729.05667    
   3103000   310.08889      0.011046042    6.3960586      769.33909     -17.020438      752.31865    
   3104000   297.56788      0.011046042   -1.5260024      738.27412     -14.389229      723.88489    
   3105000   297.90314      0.011046042    7.4176144      739.10591     -17.149565      721.95635    
   3106000   310.57315      0.011046042    4.7519501      770.54054     -18.592644      751.9479     
   3107000   318.75382      0.011046042    13.162487      790.83702     -19.391875      771.44515    
   3108000   303.03052      0.011046042    4.165865       751.82708     -18.250273      733.5768     
   3109000   282.94047      0.011046042    6.5747603      701.9831      -20.834496      681.1486     
   3110000   308.15698      0.011046042    7.3928649      764.54595     -23.771916      740.77403    
   3111000   305.71665      0.011046042    5.561642       758.49144     -24.6868        733.80464    
   3112000   287.13042      0.011046042    6.0842492      712.37848     -17.012904      695.36557    
   3113000   291.44038      0.011046042    6.9121137      723.07162     -19.682679      703.38894    
   3114000   305.70024      0.011046042    6.9597512      758.45071     -24.670616      733.78009    
   3115000   297.20457      0.011046042    5.0996701      737.37273     -16.816872      720.55585    
   3116000   280.82591      0.011046042    5.4647165      696.73683     -20.888945      675.84789    
   3117000   293.83851      0.011046042    6.3373624      729.02145     -20.361958      708.65949    
   3118000   303.55824      0.011046042    5.8616215      753.13636     -18.679747      734.45661    
   3119000   305.80761      0.011046042    6.378306       758.7171      -15.396604      743.3205     
   3120000   292.55941      0.011046042    5.564716       725.84796     -20.687474      705.16049    
   3121000   294.17508      0.011046042    6.370563       729.85648     -15.726424      714.13005    
   3122000   315.21569      0.011046042    7.2193689      782.05882     -16.466485      765.59234    
   3123000   295.72411      0.011046042    5.9669841      733.69967     -18.727381      714.97229    
   3124000   294.1495       0.011046042    5.3667844      729.79302     -18.354742      711.43828    
   3125000   304.65116      0.011046042    5.1399094      755.84792     -20.909768      734.93815    
   3126000   310.17825      0.011046042    8.0537569      769.56079     -20.820371      748.74042    
   3127000   297.25679      0.011046042    7.7145465      737.5023      -19.692667      717.80963    
   3128000   286.5114       0.011046042    6.7514042      710.84269     -19.512455      691.33024    
   3129000   296.8497       0.011046042    4.5252844      736.49228     -22.312287      714.18       
   3130000   313.51048      0.011046042    7.680127       777.82815     -19.231658      758.59649    
   3131000   287.91044      0.011046042    6.1894924      714.31373     -20.792435      693.5213     
   3132000   297.72537      0.011046042    6.7990615      738.66484     -24.430299      714.23454    
   3133000   308.26301      0.011046042    6.1939682      764.80902     -21.481286      743.32773    
   3134000   294.4063       0.011046042    5.7581929      730.43015     -27.612943      702.8172     
   3135000   292.75411      0.011046042    5.5910924      726.33102     -23.207464      703.12356    
   3136000   307.74229      0.011046042    6.7680775      763.51709     -23.405984      740.11111    
   3137000   308.38862      0.011046042    6.3884953      765.12066     -20.471901      744.64875    
   3138000   295.76754      0.011046042    6.0413095      733.80742     -22.035978      711.77144    
   3139000   279.30194      0.011046042    5.1437499      692.9558      -19.15551       673.8003     
   3140000   304.77446      0.011046042    6.3502773      756.15383     -14.993132      741.16069    
   3141000   310.90738      0.011046042    6.3215141      771.36978     -15.824768      755.54501    
   3142000   300.01126      0.011046042    6.3418207      744.33621     -16.209845      728.12636    
   3143000   301.59094      0.011046042    5.3877379      748.25543     -17.023854      731.23158    
   3144000   290.76512      0.011046042    5.3486412      721.39627     -18.909073      702.4872     
   3145000   311.38536      0.011046042    7.2442742      772.55567     -21.993811      750.56185    
   3146000   296.4633       0.011046042    8.5327319      735.53362     -25.239858      710.29376    
   3147000   300.94237      0.011046042    3.1340252      746.64631     -26.137833      720.50847    
   3148000   302.18051      0.011046042    5.3630502      749.71817     -25.246849      724.47132    
   3149000   295.32769      0.011046042    9.6652502      732.71614     -21.507989      711.20815    
   3150000   289.83476      0.011046042    5.8857039      719.08803     -23.222462      695.86557    
   3151000   317.92124      0.011046042    6.0649869      788.77135     -23.580352      765.191      
   3152000   305.13292      0.011046042    6.0522911      757.04319     -22.933565      734.10963    
   3153000   297.23409      0.011046042    5.4760391      737.44598     -23.144312      714.30167    
   3154000   296.85928      0.011046042    5.5500243      736.51607     -21.251454      715.26461    
   3155000   299.86557      0.011046042    6.8560793      743.97474     -19.584106      724.39063    
   3156000   302.19564      0.011046042    5.2684531      749.75571     -23.495568      726.26014    
   3157000   304.0619       0.011046042    4.3923577      754.38595     -22.541564      731.84439    
   3158000   300.78812      0.011046042    5.8783984      746.26362     -25.244358      721.01926    
   3159000   302.65755      0.011046042    6.8371268      750.90173     -24.200222      726.70151    
   3160000   296.86275      0.011046042    5.9302878      736.52467     -17.877257      718.64741    
   3161000   283.55955      0.011046042    9.3512921      703.51907     -22.063884      681.45518    
   3162000   301.87063      0.011046042    5.4926206      748.94934     -20.805051      728.14429    
   3163000   310.02447      0.011046042    5.4910258      769.17926     -22.232372      746.94689    
   3164000   318.22081      0.011046042    8.3949899      789.51461     -26.114544      763.40006    
   3165000   286.64494      0.011046042    7.6931906      711.174       -24.778804      686.3952     
   3166000   298.12405      0.011046042    5.5303014      739.65398     -22.059995      717.59399    
   3167000   314.0085       0.011046042    6.0180661      779.06374     -20.309916      758.75383    
   3168000   286.96761      0.011046042    7.1451412      711.97454     -20.61352       691.36102    
   3169000   289.11801      0.011046042    4.1385127      717.30976     -24.229332      693.08043    
   3170000   299.18827      0.011046042    5.1899173      742.29434     -22.810235      719.4841     
   3171000   316.35823      0.011046042    6.6686693      784.89349     -22.472347      762.42114    
   3172000   300.42757      0.011046042    5.1996615      745.36909     -22.330338      723.03875    
   3173000   285.66569      0.011046042    5.3965465      708.74444     -18.81624       689.9282     
   3174000   300.97017      0.011046042    7.637135       746.71529     -18.483791      728.2315     
   3175000   302.27313      0.011046042    6.2870747      749.94797     -16.822983      733.12499    
   3176000   303.29956      0.011046042    5.6758366      752.49456     -19.534248      732.96031    
   3177000   305.80825      0.011046042    4.8180346      758.71869     -16.673163      742.04552    
   3178000   298.09007      0.011046042    6.6614951      739.56967     -15.842199      723.72747    
   3179000   308.89061      0.011046042    6.7447109      766.36612     -18.495759      747.87036    
   3180000   303.38828      0.011046042    5.7035407      752.7147      -21.873577      730.84112    
   3181000   301.16468      0.011046042    4.5108847      747.19786     -23.628951      723.56891    
   3182000   300.27728      0.011046042    6.1911602      744.99621     -21.375783      723.62042    
   3183000   305.35274      0.011046042    5.9836489      757.58858     -23.690666      733.89791    
   3184000   288.34085      0.011046042    3.5538611      715.38159     -21.135075      694.24652    
   3185000   294.88471      0.011046042    7.554589       731.61709     -22.61737       708.99972    
   3186000   313.35607      0.011046042    7.0770547      777.44505     -23.561723      753.88333    
   3187000   303.68551      0.011046042   -4.4142125      753.45211     -25.353421      728.09869    
   3188000   284.04158      0.011046042    5.8708275      704.71499     -23.600305      681.11468    
   3189000   299.96063      0.011046042    9.3028263      744.21059     -20.643775      723.56682    
   3190000   312.31402      0.011046042    6.6767601      774.85969     -17.493399      757.36629    
   3191000   299.5766       0.011046042    7.7516247      743.25779     -19.473635      723.78416    
   3192000   290.94397      0.011046042    5.999762       721.84002     -16.041002      705.79902    
   3193000   315.63643      0.011046042    8.4561382      783.10269     -18.49443       764.60826    
   3194000   310.32664      0.011046042    7.4391593      769.92895     -18.25553       751.67342    
   3195000   302.71793      0.011046042    5.2641365      751.05153     -17.811029      733.2405     
   3196000   290.65097      0.011046042    2.7628734      721.11308     -19.251357      701.86172    
   3197000   304.99495      0.011046042    7.5538545      756.70089     -19.249287      737.4516     
   3198000   309.76408      0.011046042    2.3218822      768.53323     -21.697652      746.83558    
   3199000   287.48408      0.011046042    3.0259596      713.25592     -19.160791      694.09512    
   3200000   298.95221      0.011046042    13.618916      741.70868     -14.77833       726.93035    
   3201000   307.37577      0.011046042    4.6182375      762.60775     -19.476408      743.13134    
   3202000   295.07647      0.011046042    4.4592603      732.09286     -17.13587       714.95699    
   3203000   296.3907       0.011046042    7.1097582      735.35351     -18.659711      716.6938     
   3204000   309.11535      0.011046042    5.4612568      766.92371     -17.937609      748.9861     
   3205000   302.22833      0.011046042    4.6259912      749.83681     -16.404633      733.43217    
   3206000   302.16568      0.011046042    5.778238       749.68139     -21.624817      728.05658    
   3207000   300.10946      0.011046042    7.1661412      744.57983     -22.572         722.00783    
   3208000   302.81596      0.011046042    6.226266       751.29474     -21.180568      730.11417    
   3209000   299.03373      0.011046042    4.7513837      741.91094     -21.907035      720.0039     
   3210000   299.89522      0.011046042    6.2000488      744.0483      -21.009997      723.0383     
   3211000   304.6618       0.011046042    6.293297       755.87432     -22.6623        733.21202    
   3212000   303.1521       0.011046042    6.6062796      752.1287      -22.183538      729.94517    
   3213000   307.48443      0.011046042    9.2567394      762.87734     -21.417623      741.45971    
   3214000   287.02443      0.011046042    5.599718       712.11552     -14.850784      697.26473    
   3215000   308.0614       0.011046042    4.5807541      764.30882     -16.195984      748.11284    
   3216000   314.85936      0.011046042    4.5060209      781.17475     -18.037888      763.13686    
   3217000   297.94867      0.011046042    9.8403069      739.21887     -19.125008      720.09386    
   3218000   289.6368       0.011046042    6.6378378      718.59689     -21.820137      696.77675    
   3219000   304.88064      0.011046042   -1.7333219      756.41727     -20.961866      735.4554     
   3220000   310.87756      0.011046042    2.8315268      771.29579     -18.828406      752.46738    
   3221000   300.4083       0.011046042    11.181393      745.32126     -19.684239      725.63703    
   3222000   298.99596      0.011046042    5.9118583      741.81723     -17.825213      723.99202    
   3223000   310.83813      0.011046042    1.7087074      771.19797     -20.958993      750.23898    
   3224000   310.03011      0.011046042    9.5187387      769.19325     -18.688886      750.50436    
   3225000   288.31804      0.011046042    16.414494      715.32501     -19.271329      696.05368    
   3226000   298.2253       0.011046042   -6.5709736      739.90518     -18.336402      721.56878    
   3227000   307.77183      0.011046042    5.3247138      763.59039     -17.156115      746.43427    
   3228000   294.97099      0.011046042    6.6246713      731.83115     -17.354785      714.47636    
   3229000   294.30403      0.011046042    13.31427       730.17641     -19.883143      710.29326    
   3230000   304.67762      0.011046042   -4.7597023      755.91357     -19.881669      736.0319     
   3231000   310.43309      0.011046042    7.1319591      770.19305     -22.54044       747.65261    
   3232000   286.54526      0.011046042    12.041685      710.92669     -21.857828      689.06886    
   3233000   291.21664      0.011046042    3.3228431      722.51651     -21.698242      700.81826    
   3234000   309.62502      0.011046042    0.74381516     768.1882      -15.367518      752.82068    
   3235000   309.46343      0.011046042    7.2255111      767.7873      -12.851134      754.93617    
   3236000   304.68678      0.011046042    9.7026193      755.93631     -18.092279      737.84403    
   3237000   297.34226      0.011046042    9.4316929      737.71435     -17.100055      720.61429    
   3238000   293.77181      0.011046042   -2.452474       728.85595     -15.601618      713.25433    
   3239000   308.34182      0.011046042    4.0668629      765.00457     -16.968206      748.03636    
   3240000   303.64825      0.011046042    11.600785      753.35967     -16.571136      736.78853    
   3241000   290.56529      0.011046042    5.344702       720.90049     -17.37467       703.52582    
   3242000   296.55297      0.011046042    3.2378344      735.7561      -17.004169      718.75193    
   3243000   315.70486      0.011046042    4.0985324      783.27245     -13.215612      770.05684    
   3244000   301.02456      0.011046042    8.5391112      746.85022     -15.582576      731.26764    
   3245000   284.40631      0.011046042   -3.5659486      705.6199      -20.134941      685.48496    
   3246000   306.40382      0.011046042    6.7601173      760.19632     -20.074469      740.12185    
   3247000   295.68246      0.011046042    9.6103973      733.59635     -20.378183      713.21816    
   3248000   296.5589       0.011046042    4.85105        735.77081     -17.841039      717.92977    
   3249000   303.45572      0.011046042   -3.4197616      752.88201     -19.430339      733.45168    
   3250000   321.25881      0.011046042    13.728863      797.05196     -20.07137       776.98059    
   3251000   309.73177      0.011046042    9.158969       768.45306     -18.872613      749.58044    
   3252000   292.53919      0.011046042    8.0842807      725.79779     -14.984453      710.81334    
   3253000   288.57232      0.011046042   -4.3087319      715.95589     -17.404396      698.5515     
   3254000   301.49526      0.011046042   -0.040456632    748.01805     -14.860382      733.15767    
   3255000   316.97942      0.011046042    8.3543349      786.43467     -19.425536      767.00914    
   3256000   301.29767      0.011046042    20.602965      747.52784     -18.285786      729.24205    
   3257000   286.0907       0.011046042    9.103574       709.79891     -16.32152       693.47739    
   3258000   292.20594      0.011046042    1.7889835      724.97099     -17.191632      707.77936    
   3259000   312.29313      0.011046042    2.6559544      774.80786     -23.510706      751.29716    
   3260000   303.92031      0.011046042    5.7519478      754.03466     -19.01471       735.01995    
   3261000   291.26559      0.011046042    11.87598       722.63795     -21.619151      701.0188     
   3262000   288.60669      0.011046042   -2.0210844      716.04115     -22.509384      693.53177    
   3263000   306.36976      0.011046042    4.9354384      760.11181     -19.116578      740.99523    
   3264000   303.6859       0.011046042    8.0796692      753.45309     -21.207657      732.24543    
   3265000   295.59538      0.011046042    5.3329351      733.38027     -18.511298      714.86898    
   3266000   293.8274       0.011046042    0.60329481     728.99388     -18.744992      710.24889    
   3267000   306.34901      0.011046042    13.278528      760.06034     -17.408786      742.65155    
   3268000   297.68868      0.011046042    8.4222435      738.57382     -17.456565      721.11726    
   3269000   297.25065      0.011046042    1.9011386      737.48705     -18.877485      718.60956    
   3270000   299.06534      0.011046042    5.7408629      741.98934     -14.810025      727.17932    
   3271000   299.28869      0.011046042    11.659652      742.54348     -17.044253      725.49923    
   3272000   287.18588      0.011046042    8.9963351      712.51608     -13.530084      698.986      
   3273000   298.14037      0.011046042   -1.2173973      739.69448     -14.319663      725.37482    
   3274000   313.20349      0.011046042    5.1351469      777.0665      -13.08132       763.98518    
   3275000   300.52217      0.011046042    8.5379665      745.6038      -13.530157      732.07364    
   3276000   286.01605      0.011046042    4.0853328      709.6137      -15.896014      693.71768    
   3277000   309.24536      0.011046042    6.3445635      767.24626     -14.375425      752.87083    
   3278000   299.66427      0.011046042    6.2899989      743.47532     -14.933799      728.54152    
   3279000   286.1069       0.011046042    5.8497658      709.83911     -18.399582      691.43953    
   3280000   303.90791      0.011046042    6.1373082      754.0039      -20.458066      733.54583    
   3281000   305.17766      0.011046042    6.2718512      757.15419     -17.281561      739.87262    
   3282000   301.472        0.011046042    5.5697304      747.96035     -18.977571      728.98278    
   3283000   298.61251      0.011046042    6.245587       740.86588     -16.538787      724.32709    
   3284000   302.12692      0.011046042    6.9334874      749.58521     -16.202587      733.38262    
   3285000   314.84531      0.011046042    6.8876935      781.13989     -17.858269      763.28162    
   3286000   292.60855      0.011046042    1.4448327      725.96987     -22.674679      703.29519    
   3287000   287.64789      0.011046042    7.0616516      713.66235     -21.833767      691.82859    
   3288000   306.2713       0.011046042    6.5422816      759.86754     -19.795939      740.0716     
   3289000   303.11334      0.011046042    3.1722905      752.03256     -19.453695      732.57886    
   3290000   286.25327      0.011046042    7.0001705      710.20224     -19.782957      690.41929    
   3291000   294.15409      0.011046042    11.129615      729.80442     -24.001456      705.80296    
   3292000   308.64986      0.011046042    4.45497        765.76882     -24.17737       741.59145    
   3293000   296.22823      0.011046042    6.2708011      734.95041     -20.629312      714.3211     
   3294000   299.30189      0.011046042    8.3185896      742.57625     -23.14497       719.43128    
   3295000   308.57928      0.011046042    4.7187128      765.59369     -22.911901      742.68179    
   3296000   304.92515      0.011046042    3.8321771      756.5277      -22.096092      734.43161    
   3297000   303.4658       0.011046042    5.3136642      752.90702     -27.051663      725.85536    
   3298000   303.45867      0.011046042    7.0964325      752.88932     -25.841413      727.0479     
   3299000   292.88908      0.011046042    5.3250837      726.66587     -23.377814      703.28806    
   3300000   292.70207      0.011046042    7.3518359      726.20192     -22.880085      703.32183    
   3301000   311.84376      0.011046042    9.0437549      773.69297     -22.34224       751.35073    
   3302000   306.89092      0.011046042    5.8463721      761.40483     -19.81099       741.59384    
   3303000   295.00332      0.011046042    3.8766366      731.91137     -18.505677      713.40569    
   3304000   293.111        0.011046042    6.1152495      727.21648     -21.20039       706.01609    
   3305000   298.46651      0.011046042    6.4129013      740.50365     -20.635483      719.86816    
   3306000   308.87597      0.011046042    11.040719      766.32979     -23.322005      743.00779    
   3307000   302.08628      0.011046042    3.7776534      749.48439     -25.55238       723.93201    
   3308000   287.48445      0.011046042    1.3058197      713.25685     -23.281625      689.97523    
   3309000   286.53962      0.011046042    7.9241503      710.9127      -24.260496      686.65221    
   3310000   309.56111      0.011046042    10.883086      768.02965     -21.596893      746.43275    
   3311000   313.08065      0.011046042    4.5189205      776.76173     -18.526744      758.23499    
   3312000   296.20353      0.011046042    5.474496       734.88913     -18.442464      716.44666    
   3313000   305.88414      0.011046042    9.1174563      758.90699     -17.162787      741.74421    
   3314000   305.96209      0.011046042    4.5524546      759.10038     -21.634929      737.46546    
   3315000   296.19983      0.011046042    0.66617007     734.87993     -22.854504      712.02543    
   3316000   306.51768      0.011046042    7.3821239      760.47881     -22.665716      737.81309    
   3317000   305.44992      0.011046042    7.1997307      757.82966     -22.490074      735.33959    
   3318000   295.10084      0.011046042    5.7503952      732.15332     -23.447922      708.7054     
   3319000   302.37121      0.011046042    4.9310059      750.19131     -22.269647      727.92167    
   3320000   293.33809      0.011046042    5.8446024      727.77988     -21.615648      706.16423    
   3321000   300.83246      0.011046042    8.0723247      746.37364     -17.621357      728.75228    
   3322000   303.29679      0.011046042    2.7597912      752.4877      -19.283765      733.20393    
   3323000   294.09264      0.011046042    2.8561617      729.65194     -17.893784      711.75815    
   3324000   292.91832      0.011046042    12.00446       726.73843     -19.730234      707.00819    
   3325000   308.13537      0.011046042    8.6067753      764.49235     -21.313988      743.17837    
   3326000   311.5795       0.011046042    3.3982015      773.03732     -18.705511      754.33181    
   3327000   304.72811      0.011046042   -2.1302202      756.03885     -18.270099      737.76875    
   3328000   296.43721      0.011046042    7.129937       735.46889     -18.641566      716.82732    
   3329000   308.17488      0.011046042    12.685466      764.59037     -21.287905      743.30246    
   3330000   299.90446      0.011046042   -1.3016449      744.07122     -22.35538       721.71584    
   3331000   304.13624      0.011046042    7.1177881      754.57039     -20.386595      734.1838     
   3332000   305.67576      0.011046042    7.1746166      758.38998     -21.419406      736.97057    
   3333000   289.53964      0.011046042   -2.5768143      718.35584     -21.545303      696.81053    
   3334000   278.21888      0.011046042    8.9547407      690.26871     -20.303512      669.9652     
   3335000   317.43626      0.011046042    10.177895      787.56812     -25.070567      762.49755    
   3336000   312.08826      0.011046042    5.4040058      774.29959     -23.780814      750.51877    
   3337000   294.1421       0.011046042    5.0312573      729.77467     -19.279481      710.49519    
   3338000   292.38892      0.011046042    6.865853       725.42497     -23.820505      701.60446    
   3339000   300.53777      0.011046042    5.9013997      745.64249     -20.934336      724.70815    
   3340000   312.98136      0.011046042    11.68972       776.51538     -21.153975      755.36141    
   3341000   298.45658      0.011046042    6.3941235      740.47899     -22.865923      717.61307    
   3342000   297.63734      0.011046042    5.3987318      738.44644     -23.54223       714.90421    
   3343000   314.09898      0.011046042    4.0162217      779.28822     -23.015436      756.27279    
   3344000   306.24186      0.011046042    7.7392549      759.79449     -23.526969      736.26752    
   3345000   274.4164       0.011046042    11.254075      680.83465     -24.600027      656.23463    
   3346000   287.75255      0.011046042    4.9130393      713.92202     -20.615304      693.30672    
   3347000   317.4233       0.011046042    2.1122525      787.53596     -20.21035       767.32561    
   3348000   309.68375      0.011046042    6.1813231      768.33391     -17.803027      750.53089    
   3349000   283.0646       0.011046042    5.8865317      702.29107     -14.544028      687.74704    
   3350000   293.05875      0.011046042    7.1242538      727.08684     -20.526676      706.56017    
   3351000   318.22627      0.011046042    6.3966735      789.52814     -22.291848      767.23629    
   3352000   304.17213      0.011046042    5.0302417      754.65944     -20.356278      734.30316    
   3353000   292.29085      0.011046042    8.399967       725.18165     -22.90357       702.27808    
   3354000   295.06081      0.011046042    7.0085592      732.054       -18.943956      713.11004    
   3355000   311.19699      0.011046042    5.7443905      772.08831     -20.876173      751.21213    
   3356000   291.10545      0.011046042    2.7095453      722.24064     -18.165937      704.0747     
   3357000   287.44358      0.011046042    3.2375754      713.15544     -17.236829      695.91862    
   3358000   298.32293      0.011046042    13.406745      740.14741     -17.364848      722.78256    
   3359000   313.78992      0.011046042    4.0658254      778.52144     -16.202113      762.31933    
   3360000   282.61418      0.011046042    6.8271981      701.17357     -16.006672      685.1669     
   3361000   297.17834      0.011046042    11.887451      737.30766     -18.644592      718.66307    
   3362000   310.28497      0.011046042    4.0202734      769.82557     -20.694258      749.13131    
   3363000   285.66827      0.011046042    0.66590058     708.75085     -18.689992      690.06086    
   3364000   292.61026      0.011046042    5.7342962      725.97412     -21.455036      704.51909    
   3365000   301.11776      0.011046042    13.37908       747.08146     -22.409718      724.67174    
   3366000   304.90679      0.011046042    4.189222       756.48214     -22.088245      734.3939     
   3367000   287.76153      0.011046042   -1.7855836      713.94429     -19.850625      694.09367    
   3368000   299.17349      0.011046042    9.5610999      742.25767     -20.963552      721.29411    
   3369000   299.77015      0.011046042    6.7788446      743.73799     -21.278013      722.45998    
   3370000   299.93175      0.011046042   -2.1121791      744.13893     -18.528112      725.61082    
   3371000   295.41409      0.011046042    0.67018985     732.93049     -16.602604      716.32789    
   3372000   302.11234      0.011046042    14.423493      749.54904     -18.454665      731.09438    
   3373000   318.56055      0.011046042    0.68677403     790.35751     -18.690278      771.66724    
   3374000   303.55349      0.011046042   -2.3998077      753.12459     -16.57241       736.55218    
   3375000   301.42466      0.011046042    5.6966174      747.84289     -16.273837      731.56906    
   3376000   297.90525      0.011046042    9.5328007      739.11113     -13.0168        726.09433    
   3377000   308.01971      0.011046042    8.6476793      764.20539     -14.414484      749.79091    
   3378000   308.58957      0.011046042   -0.91025543     765.61922     -16.64643       748.97279    
   3379000   286.77686      0.011046042    4.0469737      711.50129     -19.07782       692.42347    
   3380000   289.89724      0.011046042    12.908739      719.24304     -18.28486       700.95818    
   3381000   307.43791      0.011046042    4.6595308      762.76194     -19.771103      742.99083    
   3382000   306.86166      0.011046042    4.9864956      761.33223     -16.092815      745.23941    
   3383000   292.48221      0.011046042    3.4041958      725.65641     -14.029048      711.62736    
   3384000   291.37091      0.011046042    6.2749696      722.89925     -15.29536       707.60389    
   3385000   309.0001       0.011046042    7.8596173      766.63778     -12.383404      754.25437    
   3386000   306.47775      0.011046042    5.0831117      760.37975     -13.154421      747.22533    
   3387000   280.6216       0.011046042    5.1367039      696.22993     -15.46787       680.76206    
   3388000   290.33561      0.011046042    7.9863543      720.33065     -15.656126      704.67452    
   3389000   306.16184      0.011046042    9.2937032      759.59596     -18.232829      741.36313    
   3390000   311.59602      0.011046042    6.0788458      773.07831     -18.524728      754.55359    
   3391000   295.59055      0.011046042    0.72107167     733.36831     -16.830428      716.53788    
   3392000   292.81168      0.011046042    6.0271728      726.47385     -18.433443      708.04041    
   3393000   308.24587      0.011046042    7.6793726      764.7665      -19.184203      745.58229    
   3394000   313.09894      0.011046042    3.445209       776.80711     -19.407835      757.39927    
   3395000   288.38527      0.011046042    4.4372017      715.49181     -18.872184      696.61962    
   3396000   287.66209      0.011046042    11.423417      713.69759     -21.586408      692.11118    
   3397000   309.4574       0.011046042    11.614363      767.77233     -17.972164      749.80017    
   3398000   306.96337      0.011046042    4.5018552      761.58458     -17.690315      743.89426    
   3399000   299.98882      0.011046042    5.5723512      744.28053     -20.429189      723.85134    
   3400000   288.63614      0.011046042    6.3946997      716.11423     -22.195653      693.91858    
   3401000   302.47718      0.011046042    6.4849326      750.45423     -18.276631      732.1776     
   3402000   310.72445      0.011046042    6.2731627      770.91593     -22.159329      748.7566     
   3403000   295.53873      0.011046042    5.2415522      733.23975     -21.256444      711.9833     
   3404000   289.69385      0.011046042    5.6614963      718.73843     -18.980221      699.75821    
   3405000   292.44125      0.011046042    4.0610426      725.55481     -16.930313      708.6245     
   3406000   308.88487      0.011046042    5.2336905      766.35187     -17.395468      748.9564     
   3407000   308.50258      0.011046042    6.266389       765.4034      -17.14142       748.26198    
   3408000   292.76661      0.011046042    6.8308747      726.36204     -17.285382      709.07665    
   3409000   300.12072      0.011046042    5.9548318      744.60778     -16.64383       727.96395    
   3410000   300.86824      0.011046042    5.8167812      746.4624      -19.071744      727.39066    
   3411000   293.20805      0.011046042    6.995434       727.45727     -17.849353      709.60791    
   3412000   288.43717      0.011046042    5.7723125      715.62058     -18.053871      697.56671    
   3413000   305.24319      0.011046042    6.0133208      757.31676     -18.623657      738.69311    
   3414000   303.55389      0.011046042    6.923761       753.12557     -20.152827      732.97274    
   3415000   308.46608      0.011046042    6.1357177      765.31285     -16.801857      748.511      
   3416000   299.00823      0.011046042    5.1385826      741.84765     -18.128857      723.7188     
   3417000   285.75037      0.011046042    6.1550073      708.95453     -21.301119      687.65341    
   3418000   299.70001      0.011046042    7.7122953      743.56399     -20.657819      722.90617    
   3419000   305.47438      0.011046042    5.0539645      757.89037     -21.955206      735.93516    
   3420000   296.64709      0.011046042    6.392549       735.9896      -16.46869       719.52091    
   3421000   291.93216      0.011046042    3.1800496      724.29173     -14.23581       710.05592    
   3422000   311.49374      0.011046042    4.0282591      772.82456     -18.630823      754.19374    
   3423000   297.69544      0.011046042    7.0071406      738.59059     -12.023477      726.56711    
   3424000   296.79135      0.011046042    6.8595015      736.34751     -18.731808      717.6157     
   3425000   297.24264      0.011046042    5.6160416      737.46719     -19.965853      717.50134    
   3426000   306.03377      0.011046042    6.724032       759.27821     -22.466         736.81221    
   3427000   291.74925      0.011046042    6.2105473      723.83793     -21.196692      702.64124    
   3428000   300.29297      0.011046042    6.0703102      745.03513     -23.367595      721.66754    
   3429000   283.25446      0.011046042    5.2861916      702.76212     -25.395275      677.36685    
   3430000   313.44683      0.011046042    8.3612191      777.67023     -20.215344      757.45488    
   3431000   306.73223      0.011046042    6.1668573      761.01113     -22.203482      738.80764    
   3432000   303.15588      0.011046042    6.3297743      752.13809     -21.100295      731.03779    
   3433000   298.89661      0.011046042    7.9176268      741.57074     -15.771199      725.79954    
   3434000   303.34023      0.011046042    5.8071413      752.59548     -16.868091      735.72739    
   3435000   299.64195      0.011046042    6.3284075      743.41993     -16.91904       726.50089    
   3436000   307.34682      0.011046042    4.2818352      762.53594     -18.024038      744.5119     
   3437000   305.81509      0.011046042    5.9672765      758.73567     -18.299906      740.43576    
   3438000   310.1537       0.011046042    5.6823656      769.49988     -17.63084       751.86904    
   3439000   300.22595      0.011046042    6.2215022      744.86885     -15.248737      729.62011    
   3440000   296.74602      0.011046042    6.6391496      736.23505     -17.684879      718.55017    
   3441000   300.1071       0.011046042    6.4738642      744.57399     -19.270571      725.30342    
   3442000   297.06902      0.011046042    7.2944894      737.03643     -22.407         714.62943    
   3443000   286.26169      0.011046042    6.4361436      710.22314     -26.650666      683.57247    
   3444000   285.17364      0.011046042    2.6883619      707.52367     -23.231235      684.29244    
   3445000   296.5999       0.011046042    1.2770283      735.87254     -23.655727      712.21681    
   3446000   310.01437      0.011046042    4.7679327      769.15419     -22.248661      746.90552    
   3447000   313.66197      0.011046042    9.8430585      778.204       -19.330195      758.8738     
   3448000   296.46684      0.011046042    8.0325691      735.54241     -19.818848      715.72356    
   3449000   288.12982      0.011046042    5.7379739      714.85803     -17.810204      697.04783    
   3450000   293.09556      0.011046042    1.4823184      727.17816     -23.088185      704.08998    
   3451000   310.82687      0.011046042    2.2668572      771.17003     -22.783289      748.38674    
   3452000   297.0507       0.011046042    13.007944      736.99098     -20.873305      716.11767    
   3453000   288.25555      0.011046042    7.9348103      715.16997     -20.984779      694.18519    
   3454000   301.47278      0.011046042    0.020114663    747.96229     -23.045126      724.91716    
   3455000   291.71204      0.011046042    11.475386      723.7456      -22.475404      701.2702     
   3456000   302.08551      0.011046042    10.515807      749.48249     -20.938269      728.54422    
   3457000   293.95363      0.011046042   -0.034937012    729.30706     -20.016585      709.29047    
   3458000   310.46134      0.011046042    3.7335381      770.26313     -20.711243      749.55189    
   3459000   292.19079      0.011046042    11.463165      724.93341     -16.357991      708.57542    
   3460000   308.64668      0.011046042    3.8507728      765.76091     -17.725442      748.03547    
   3461000   309.18578      0.011046042    0.87120051     767.09844     -16.45827       750.64017    
   3462000   290.4763       0.011046042    10.660977      720.67971     -20.035855      700.64385    
   3463000   311.79859      0.011046042    6.0195925      773.58091     -21.023232      752.55768    
   3464000   303.75695      0.011046042    3.9827277      753.62936     -25.188465      728.44089    
   3465000   308.09652      0.011046042    8.7866407      764.39595     -24.773627      739.62233    
   3466000   304.07971      0.011046042    6.9747516      754.43015     -22.208854      732.2213     
   3467000   300.04662      0.011046042    7.6114204      744.42394     -19.510677      724.91326    
   3468000   309.66758      0.011046042    2.6044687      768.29379     -18.589679      749.70411    
   3469000   316.85318      0.011046042    6.0421363      786.12147     -26.221579      759.89989    
   3470000   297.91786      0.011046042    8.6191952      739.14242     -21.423429      717.71899    
   3471000   294.54989      0.011046042   -1.1550569      730.78639     -25.705374      705.08102    
   3472000   301.72831      0.011046042    3.5601477      748.59625     -23.465212      725.13103    
   3473000   310.21895      0.011046042    15.525474      769.66176     -20.347145      749.31462    
   3474000   299.19062      0.011046042    6.608174       742.30017     -22.263113      720.03706    
   3475000   300.50555      0.011046042    1.7531899      745.56256     -22.514161      723.0484     
   3476000   301.95149      0.011046042    7.3103547      749.14998     -20.511515      728.63846    
   3477000   290.01388      0.011046042    5.191906       719.53242     -20.926757      698.60567    
   3478000   298.61653      0.011046042    4.6193956      740.87584     -22.220627      718.65522    
   3479000   309.76549      0.011046042    6.3185079      768.53671     -19.828649      748.70806    
   3480000   297.42182      0.011046042    6.6802394      737.91173     -23.038966      714.87276    
   3481000   300.00418      0.011046042    4.9817297      744.31863     -21.65135       722.66728    
   3482000   311.907        0.011046042    5.9776306      773.84986     -18.784961      755.0649     
   3483000   304.31889      0.011046042    5.6778259      755.02355     -19.468362      735.55519    
   3484000   285.35756      0.011046042    5.4753085      707.97997     -17.485466      690.4945     
   3485000   306.25876      0.011046042    6.1428542      759.83642     -18.876181      740.96024    
   3486000   293.73299      0.011046042    5.5320671      728.75964     -20.599959      708.15968    
   3487000   295.76653      0.011046042    2.7036793      733.80492     -23.733093      710.07182    
   3488000   296.65093      0.011046042    10.391247      735.99913     -21.487408      714.51173    
   3489000   299.63083      0.011046042    5.6437288      743.39235     -20.675487      722.71686    
   3490000   302.45344      0.011046042    3.1526975      750.39533     -18.631995      731.76333    
   3491000   298.49536      0.011046042    9.4417143      740.57522     -20.034971      720.54025    
   3492000   306.61063      0.011046042    5.7163131      760.70943     -19.728859      740.98057    
   3493000   300.82702      0.011046042   -0.87818617     746.36014     -21.450911      724.90923    
   3494000   289.55246      0.011046042    12.283177      718.38764     -20.88903       697.49861    
   3495000   307.68554      0.011046042    8.9304179      763.3763      -21.17483       742.20147    
   3496000   308.25722      0.011046042    0.13991742     764.79465     -20.96655       743.8281     
   3497000   302.75559      0.011046042    1.7784949      751.14496     -21.458824      729.68614    
   3498000   301.0858       0.011046042    5.0657923      747.00218     -19.851462      727.15072    
   3499000   302.43188      0.011046042    15.79501       750.34182     -22.636374      727.70545    
   3500000   304.4682       0.011046042   -6.1543748      755.394       -16.507621      738.88637    
   3501000   290.88547      0.011046042   -6.1731676      721.69487     -14.205764      707.4891     
   3502000   303.86761      0.011046042    7.956552       753.90393     -16.693341      737.21058    
   3503000   310.70789      0.011046042    9.8011017      770.87484     -16.4723        754.40254    
   3504000   314.65703      0.011046042   -2.6064434      780.67276     -14.957422      765.71534    
   3505000   295.11391      0.011046042   -12.271431      732.18574     -13.87301       718.31273    
   3506000   296.0716       0.011046042    8.340819       734.5618      -17.162999      717.3988     
   3507000   318.21672      0.011046042    25.023699      789.50446     -16.498834      773.00562    
   3508000   300.5237       0.011046042    14.957625      745.60758     -16.475225      729.13236    
   3509000   301.38102      0.011046042    3.3278008      747.73462     -13.969144      733.76547    
   3510000   307.5459       0.011046042    3.1457634      763.02986     -15.275354      747.75451    
   3511000   294.51392      0.011046042    18.578857      730.69715     -18.333002      712.36415    
   3512000   300.87808      0.011046042    19.405601      746.4868      -18.00093       728.48587    
   3513000   307.43663      0.011046042    3.084121       762.75875     -18.884093      743.87466    
   3514000   300.52411      0.011046042   -2.1454296      745.6086      -20.260503      725.34809    
   3515000   315.19966      0.011046042   -4.2160672      782.01903     -21.090809      760.92823    
   3516000   291.80788      0.011046042    7.2143348      723.98341     -22.204271      701.77913    
   3517000   302.74134      0.011046042    11.718841      751.1096      -18.313973      732.79563    
   3518000   295.16011      0.011046042   -2.1447117      732.30038     -22.430127      709.87025    
   3519000   294.15888      0.011046042    3.3151472      729.81629     -21.270478      708.54581    
   3520000   308.0767       0.011046042    25.888127      764.34678     -22.204786      742.14199    
   3521000   306.07993      0.011046042    8.8206794      759.39274     -21.220939      738.1718     
   3522000   297.02671      0.011046042   -0.5625721      736.93146     -17.726826      719.20463    
   3523000   289.36293      0.011046042    7.4144594      717.91741     -17.401486      700.51593    
   3524000   296.80522      0.011046042    10.296981      736.38194     -14.718234      721.66371    
   3525000   306.12214      0.011046042    15.509681      759.49746     -14.885811      744.61165    
   3526000   304.39382      0.011046042    7.4406032      755.20946     -13.748042      741.46142    
   3527000   296.08963      0.011046042   -1.5210695      734.60654     -18.050189      716.55635    
   3528000   304.88252      0.011046042    2.415635       756.42195     -16.976657      739.44529    
   3529000   300.58761      0.011046042    10.205411      745.76614     -22.409258      723.35689    
   3530000   299.40527      0.011046042    11.957909      742.83272     -17.988844      724.84387    
   3531000   311.18482      0.011046042    5.2415642      772.05812     -15.996678      756.06144    
   3532000   306.80044      0.011046042   -0.7453218      761.18035     -18.103496      743.07685    
   3533000   288.33541      0.011046042    6.0753346      715.36809     -16.353371      699.01472    
   3534000   293.00028      0.011046042    7.704091       726.94177     -16.387041      710.55473    
   3535000   308.41819      0.011046042    11.657207      765.19404     -17.678583      747.51546    
   3536000   317.26441      0.011046042    4.9543846      787.14174     -15.578919      771.56282    
   3537000   298.82647      0.011046042    2.3070299      741.39672     -15.683771      725.71295    
   3538000   293.81028      0.011046042    6.7124871      728.9514      -17.336685      711.61472    
   3539000   302.62712      0.011046042    12.714808      750.82623     -16.304676      734.52156    
   3540000   300.74964      0.011046042    4.0037693      746.16815     -17.92878       728.23937    
   3541000   292.97915      0.011046042    4.3925685      726.88935     -14.145248      712.7441     
   3542000   302.80321      0.011046042    9.9682886      751.2631      -15.917595      735.34551    
   3543000   303.91774      0.011046042    8.8934269      754.02828     -13.477837      740.55045    
   3544000   294.69417      0.011046042   -1.9526335      731.14437     -15.613458      715.53091    
   3545000   296.23885      0.011046042    6.0472781      734.97675     -15.485398      719.49135    
   3546000   306.01767      0.011046042    13.584548      759.23827     -16.494613      742.74366    
   3547000   307.14777      0.011046042    2.3885863      762.04209     -15.723213      746.31887    
   3548000   294.19017      0.011046042    5.9607863      729.89391     -15.582587      714.31133    
   3549000   292.20584      0.011046042    7.7910192      724.97074     -17.337152      707.63359    
   3550000   311.12283      0.011046042    7.1916937      771.90432     -19.006644      752.89767    
   3551000   309.57811      0.011046042    5.8129781      768.07182     -18.136363      749.93545    
   3552000   309.6442       0.011046042   -3.7436079      768.23579     -18.010268      750.22552    
   3553000   292.12289      0.011046042    0.61613547     724.76494     -19.326185      705.43875    
   3554000   299.76901      0.011046042    8.0587889      743.73517     -19.084167      724.651      
   3555000   305.64046      0.011046042    6.4517188      758.30241     -18.858879      739.44353    
   3556000   284.92977      0.011046042    5.4448921      706.91863     -14.958595      691.96003    
   3557000   299.09846      0.011046042    2.7714488      742.07153     -16.622763      725.44877    
   3558000   304.17618      0.011046042    5.5099155      754.66948     -17.112527      737.55695    
   3559000   294.2601       0.011046042    7.4177063      730.06742     -16.314183      713.75323    
   3560000   309.55523      0.011046042    7.4607463      768.01506     -16.273304      751.74176    
   3561000   303.20347      0.011046042    4.5706154      752.25616     -16.694475      735.56169    
   3562000   285.45911      0.011046042    5.392799       708.23192     -15.887941      692.34398    
   3563000   303.94453      0.011046042    6.3012814      754.09477     -17.486634      736.60813    
   3564000   305.68404      0.011046042    6.6233909      758.41052     -18.629197      739.78133    
   3565000   290.68674      0.011046042    5.9463382      721.2018      -21.012712      700.18909    
   3566000   294.31591      0.011046042    5.0321051      730.20589     -19.233034      710.97286    
   3567000   302.50862      0.011046042    6.1169718      750.53222     -19.513621      731.0186     
   3568000   299.6834       0.011046042    12.90492       743.52276     -15.754866      727.7679     
   3569000   300.23996      0.011046042    5.6218423      744.90362     -18.448189      726.45543    
   3570000   305.82823      0.011046042    4.6816551      758.76827     -18.693079      740.07519    
   3571000   302.91295      0.011046042    6.5704214      751.53537     -14.509635      737.02573    
   3572000   282.84725      0.011046042    12.145376      701.75182     -16.854356      684.89746    
   3573000   295.18078      0.011046042    6.936375       732.35166     -17.276639      715.07502    
   3574000   302.92742      0.011046042    3.5445388      751.57129     -14.374635      737.19666    
   3575000   306.4106       0.011046042    4.9033915      760.21314     -16.155411      744.05773    
   3576000   310.27517      0.011046042    11.745033      769.80126     -18.006223      751.79503    
   3577000   278.28401      0.011046042    6.0388079      690.43031     -13.023989      677.40632    
   3578000   301.53243      0.011046042    1.4800996      748.11026     -13.246496      734.86376    
   3579000   317.29814      0.011046042    11.004793      787.22543     -15.741363      771.48407    
   3580000   282.89844      0.011046042    10.440034      701.87882     -16.232832      685.64599    
   3581000   286.2302       0.011046042    14.741927      710.14501     -17.904519      692.24049    
   3582000   308.99315      0.011046042    4.6463699      766.62052     -20.065412      746.55511    
   3583000   314.94254      0.011046042   -9.6945135      781.38113     -18.307737      763.07339    
   3584000   300.04104      0.011046042    8.1045357      744.41009     -18.552774      725.85732    
   3585000   291.25887      0.011046042    10.432131      722.62129     -21.901888      700.7194     
   3586000   304.16735      0.011046042    0.36924324     754.64757     -20.277223      734.37035    
   3587000   297.81367      0.011046042    5.1393792      738.88394     -18.962181      719.92176    
   3588000   301.5369       0.011046042    7.6075865      748.12137     -18.837116      729.28425    
   3589000   296.57575      0.011046042    12.239533      735.81262     -19.92974       715.88288    
   3590000   305.77851      0.011046042    0.94144041     758.64491     -19.497032      739.14788    
   3591000   302.41022      0.011046042    9.5844297      750.2881      -18.04066       732.24744    
   3592000   295.80114      0.011046042    10.289444      733.89078     -16.376296      717.51448    
   3593000   303.26936      0.011046042    8.4962463      752.41964     -18.830005      733.58964    
   3594000   302.64679      0.011046042   -1.3124271      750.87502     -20.026874      730.84815    
   3595000   295.02856      0.011046042    6.3746072      731.97399     -22.570495      709.4035     
   3596000   305.53011      0.011046042    9.6683914      758.02862     -16.606637      741.42198    
   3597000   296.77301      0.011046042   -0.15783268     736.30201     -17.50183       718.80018    
   3598000   301.5317       0.011046042   -1.8715343      748.10846     -16.901323      731.20714    
   3599000   294.97678      0.011046042    5.6610582      731.84552     -14.317814      717.52771    
   3600000   288.20803      0.011046042    17.955903      715.05206     -14.506557      700.5455     
   3601000   295.25842      0.011046042    10.371701      732.54428     -16.922525      715.62176    
   3602000   303.07297      0.011046042    5.7738587      751.93239     -15.412988      736.5194     
   3603000   308.62933      0.011046042    0.15371298     765.71788     -15.998724      749.71916    
   3604000   309.90996      0.011046042    8.2768395      768.89514     -16.512785      752.38236    
   3605000   288.57863      0.011046042    4.3366347      715.97153     -16.177179      699.79435    
   3606000   285.69551      0.011046042    2.3638654      708.81845     -19.753134      689.06531    
   3607000   306.9235       0.011046042    7.1772426      761.48566     -20.221851      741.2638     
   3608000   302.91458      0.011046042    6.2871682      751.53943     -18.079519      733.45992    
   3609000   290.29796      0.011046042    5.9312435      720.23725     -18.245772      701.99147    
   3610000   292.06511      0.011046042    4.9467945      724.62159     -17.740516      706.88107    
   3611000   290.95579      0.011046042    4.2230471      721.86933     -16.865706      705.00363    
   3612000   309.1384       0.011046042    4.1299693      766.9809      -18.431765      748.54913    
   3613000   303.10539      0.011046042    8.1144847      752.01283     -13.450646      738.56219    
   3614000   287.26974      0.011046042    5.1886602      712.72413     -12.952974      699.77116    
   3615000   303.42948      0.011046042    4.6915456      752.81691     -18.595544      734.22136    
   3616000   310.21026      0.011046042    4.9724576      769.6402      -18.413008      751.22719    
   3617000   305.15112      0.011046042    6.2304406      757.08834     -20.318611      736.76973    
   3618000   293.64478      0.011046042    9.6168929      728.5408      -18.1597        710.3811     
   3619000   286.45887      0.011046042    8.9243077      710.71235     -17.323361      693.38899    
   3620000   302.46189      0.011046042    4.88916        750.41629     -17.784143      732.63214    
   3621000   306.5037       0.011046042    2.5222574      760.44414     -21.293364      739.15077    
   3622000   310.72304      0.011046042    9.2131269      770.91242     -19.188501      751.72392    
   3623000   303.63456      0.011046042    6.8596877      753.32572     -19.287537      734.03819    
   3624000   301.742        0.011046042    8.3883898      748.63021     -16.88434       731.74587    
   3625000   304.81484      0.011046042    0.28535695     756.25402     -14.596204      741.65781    
   3626000   301.27517      0.011046042    6.5241063      747.472       -15.503403      731.9686     
   3627000   305.77301      0.011046042    7.3969851      758.63126     -18.23949       740.39177    
   3628000   304.39402      0.011046042    6.879393       755.20995     -16.142204      739.06774    
   3629000   290.87998      0.011046042    6.0030006      721.68125     -18.076021      703.60522    
   3630000   288.4267       0.011046042    5.6992884      715.59459     -16.014093      699.58049    
   3631000   300.57296      0.011046042    4.4656057      745.72979     -17.3592        728.37059    
   3632000   321.32957      0.011046042    6.8227341      797.22752     -17.399421      779.8281     
   3633000   292.89904      0.011046042    7.7522845      726.69058     -16.482757      710.20782    
   3634000   293.84622      0.011046042    6.6270054      729.04057     -16.101464      712.93911    
   3635000   304.33043      0.011046042    5.8192209      755.05217     -17.363176      737.689      
   3636000   294.02507      0.011046042    6.8579783      729.4843      -15.52072       713.96358    
   3637000   302.7023       0.011046042    5.9484941      751.01276     -16.077516      734.93524    
   3638000   316.68469      0.011046042    5.0809921      785.70346     -15.713723      769.98973    
   3639000   295.50183      0.011046042    6.0193323      733.14817     -10.853301      722.29487    
   3640000   306.66229      0.011046042    5.6015223      760.8376      -12.49893       748.33867    
   3641000   303.69931      0.011046042    4.5236418      753.48635     -11.133028      742.35332    
   3642000   303.74104      0.011046042    6.2653109      753.5899      -15.243267      738.34664    
   3643000   298.50631      0.011046042    7.07155        740.60239     -15.944265      724.65813    
   3644000   292.83552      0.011046042    5.4076991      726.53299     -14.235693      712.2973     
   3645000   310.87716      0.011046042    4.133057       771.2948      -13.592706      757.70209    
   3646000   304.8502       0.011046042    9.678595       756.34176     -14.670831      741.67093    
   3647000   284.98602      0.011046042    7.4668693      707.05818     -18.017991      689.04019    
   3648000   295.52535      0.011046042    5.7504589      733.20653     -19.655297      713.55124    
   3649000   317.77148      0.011046042    6.0416237      788.39981     -16.796821      771.60299    
   3650000   312.92126      0.011046042    7.7642907      776.36627     -17.726649      758.63962    
   3651000   296.50894      0.011046042    6.0620062      735.64686     -18.380296      717.26656    
   3652000   284.84152      0.011046042    3.6150646      706.69965     -18.596823      688.10283    
   3653000   302.58175      0.011046042    3.8385071      750.71365     -20.686818      730.02683    
   3654000   316.5623       0.011046042    6.4781474      785.39979     -19.298039      766.10175    
   3655000   297.17601      0.011046042    7.8711117      737.30188     -14.194269      723.10761    
   3656000   292.37361      0.011046042    5.3126066      725.38698     -19.066643      706.32033    
   3657000   308.03944      0.011046042    5.2036637      764.25435     -20.56846       743.68589    
   3658000   311.27727      0.011046042    11.10632       772.2875      -20.624464      751.66303    
   3659000   302.10763      0.011046042    9.4442895      749.53736     -18.767439      730.76992    
   3660000   283.08636      0.011046042    6.1771586      702.34506     -18.828951      683.51611    
   3661000   301.05949      0.011046042    1.15958        746.9369      -18.141782      728.79512    
   3662000   314.52559      0.011046042    7.4930462      780.34666     -17.539601      762.80706    
   3663000   299.9614       0.011046042    9.5855367      744.21249     -15.042414      729.17008    
   3664000   299.03003      0.011046042    13.868387      741.90176     -19.117285      722.78447    
   3665000   302.00701      0.011046042    9.7730294      749.28772     -20.746418      728.5413     
   3666000   297.95086      0.011046042    4.0862376      739.22428     -20.218397      719.00589    
   3667000   289.05032      0.011046042    5.1770234      717.14181     -19.676451      697.46536    
   3668000   309.16895      0.011046042    8.8530162      767.05669     -19.601015      747.45568    
   3669000   299.5884       0.011046042    3.8833069      743.28709     -20.591062      722.69603    
   3670000   294.36584      0.011046042    5.5582875      730.32976     -17.307539      713.02223    
   3671000   297.41767      0.011046042    11.889905      737.90144     -15.727594      722.17385    
   3672000   295.69082      0.011046042    1.6113912      733.61708     -14.846616      718.77046    
   3673000   302.00872      0.011046042    5.9240543      749.29196     -20.02934       729.26262    
   3674000   305.80364      0.011046042    9.4425146      758.70725     -17.527346      741.1799     
   3675000   290.7967       0.011046042    7.7078224      721.47462     -21.004952      700.46967    
   3676000   300.75562      0.011046042    2.5114265      746.18298     -20.237557      725.94542    
   3677000   307.81398      0.011046042    6.8383795      763.69496     -21.393946      742.30101    
   3678000   313.52849      0.011046042    10.654382      777.87283     -18.087046      759.78578    
   3679000   296.08457      0.011046042    8.0732886      734.59399     -22.702357      711.89163    
   3680000   289.58679      0.011046042    0.0599621      718.4728      -21.836346      696.63645    
   3681000   307.69474      0.011046042    7.3315577      763.39914     -20.605812      742.79333    
   3682000   311.20148      0.011046042    8.8148392      772.09946     -21.355471      750.74399    
   3683000   289.00221      0.011046042    5.1064464      717.02244     -19.036132      697.98631    
   3684000   296.04561      0.011046042    5.7137197      734.49732     -19.837125      714.6602     
   3685000   311.95844      0.011046042    5.9940149      773.9775      -16.013516      757.96398    
   3686000   306.82161      0.011046042    8.9662705      761.23287     -18.904763      742.32811    
   3687000   278.12359      0.011046042    5.974781       690.03229     -12.674422      677.35787    
   3688000   280.91738      0.011046042    3.989103       696.96375     -13.148363      683.81539    
   3689000   298.44163      0.011046042    5.6644312      740.44192     -15.143147      725.29877    
   3690000   292.48651      0.011046042    7.5478464      725.66709     -13.598478      712.06861    
   3691000   295.58567      0.011046042    6.8782522      733.3562      -15.426146      717.93005    
   3692000   296.87122      0.011046042    5.0137341      736.54569     -12.780458      723.76523    
   3693000   313.52138      0.011046042    4.869001       777.85518     -16.60533       761.24985    
   3694000   297.95168      0.011046042    10.512176      739.22633     -17.556008      721.67032    
   3695000   297.96912      0.011046042    9.9047761      739.2696      -15.285203      723.98439    
   3696000   300.0347       0.011046042    2.7329872      744.39436     -15.311271      729.08309    
   3697000   295.98934      0.011046042    4.7369118      734.35771     -15.956455      718.40126    
   3698000   307.33639      0.011046042    17.842698      762.51005     -16.041232      746.46881    
   3699000   298.42854      0.011046042    9.0975168      740.40944     -12.729965      727.67948    
   3700000   292.2456       0.011046042    5.9651019      725.06938     -13.34066       711.72872    
   3701000   298.15749      0.011046042    3.1819452      739.73695     -10.323433      729.41352    
   3702000   300.81638      0.011046042    11.186606      746.33373     -14.452417      731.88132    
   3703000   300.4057       0.011046042    3.7471251      745.31483     -11.773642      733.54119    
   3704000   296.75013      0.011046042   -0.54399813     736.24525     -13.707479      722.53777    
   3705000   296.18514      0.011046042    7.8538919      734.84349     -16.647993      718.1955     
   3706000   292.93546      0.011046042    3.6642499      726.78095     -22.435994      704.34496    
   3707000   304.53937      0.011046042    4.9799655      755.57057     -22.508899      733.06167    
   3708000   297.57567      0.011046042    5.720957       738.29344     -22.056001      716.23744    
   3709000   315.41176      0.011046042    7.5113222      782.54528     -18.932851      763.61243    
   3710000   295.9748       0.011046042    6.0592832      734.32163     -21.169248      713.15238    
   3711000   294.4454       0.011046042    6.1395999      730.52715     -22.086493      708.44065    
   3712000   316.20504      0.011046042    6.878463       784.51342     -19.656577      764.85684    
   3713000   303.31996      0.011046042    6.1996698      752.54519     -20.986862      731.55832    
   3714000   297.50861      0.011046042    5.8362542      738.12706     -17.408135      720.71893    
   3715000   308.67468      0.011046042    5.7996365      765.83038     -17.855543      747.97484    
   3716000   301.77146      0.011046042    6.3747283      748.70331     -18.462783      730.24052    
   3717000   297.65166      0.011046042    4.5570567      738.48197     -18.226282      720.25569    
   3718000   294.73359      0.011046042    7.9813081      731.24215     -22.77614       708.46601    
   3719000   298.32229      0.011046042    9.0435434      740.14584     -17.556623      722.58921    
   3720000   296.0583       0.011046042    5.6436674      734.52881     -19.450997      715.07781    
   3721000   301.96219      0.011046042    4.9565938      749.17653     -17.569559      731.60697    
   3722000   302.20242      0.011046042    6.5422397      749.77253     -16.858672      732.91386    
   3723000   293.37794      0.011046042    9.0716635      727.87876     -15.767101      712.11166    
   3724000   304.10734      0.011046042    6.5606049      754.49869     -16.414451      738.08424    
   3725000   305.88567      0.011046042    4.8453237      758.91078     -20.096962      738.81381    
   3726000   299.06243      0.011046042    7.2027084      741.98213     -20.193543      721.78858    
   3727000   302.46325      0.011046042    9.3241438      750.41966     -18.868522      731.55114    
   3728000   302.25303      0.011046042    4.4794858      749.8981      -18.08786       731.81024    
   3729000   297.2665       0.011046042    2.1115574      737.52639     -18.562241      718.96415    
   3730000   281.33405      0.011046042    4.3435894      697.99754     -18.070866      679.92667    
   3731000   303.54613      0.011046042    8.4505143      753.10632     -18.458591      734.64773    
   3732000   298.89883      0.011046042    6.3161622      741.57623     -15.741533      725.8347     
   3733000   301.88227      0.011046042    4.2545242      748.97822     -16.746594      732.23163    
   3734000   296.09085      0.011046042    5.2269143      734.60957     -16.595457      718.01412    
   3735000   298.25067      0.011046042    11.716028      739.96814     -16.139349      723.8288     
   3736000   299.7615       0.011046042    6.7754148      743.71654     -15.967494      727.74904    
   3737000   301.70663      0.011046042    3.8721726      748.54247     -18.419748      730.12272    
   3738000   290.84975      0.011046042    3.578853       721.60625     -20.174535      701.43171    
   3739000   299.81419      0.011046042    7.5754906      743.84727     -16.788615      727.05866    
   3740000   305.17768      0.011046042    11.183668      757.15423     -16.311618      740.84261    
   3741000   306.74383      0.011046042    5.1951379      761.0399      -17.172937      743.86697    
   3742000   308.00791      0.011046042   -0.38349371     764.17612     -14.702504      749.47362    
   3743000   294.2307       0.011046042    4.1829532      729.99447     -12.801605      717.19287    
   3744000   300.684        0.011046042    12.139237      746.00529     -11.723608      734.28168    
   3745000   308.33303      0.011046042    5.8321254      764.98273     -11.602768      753.37997    
   3746000   287.53541      0.011046042    3.7082076      713.38327     -11.894381      701.48889    
   3747000   292.70824      0.011046042    9.0936338      726.21722     -15.000673      711.21654    
   3748000   300.59504      0.011046042    5.8292069      745.78458     -15.573313      730.21126    
   3749000   303.73275      0.011046042    2.1202452      753.56934     -15.602305      737.96703    
   3750000   302.91878      0.011046042    3.255754       751.54984     -16.27426       735.27558    
   3751000   298.83036      0.011046042    15.575852      741.40635     -19.081627      722.32473    
   3752000   310.05971      0.011046042    4.5299995      769.2667      -16.999381      752.26732    
   3753000   306.33771      0.011046042    4.2937283      760.0323      -17.807143      742.22516    
   3754000   304.33392      0.011046042    4.3693341      755.06084     -15.459496      739.60135    
   3755000   279.44497      0.011046042    9.3362482      693.31068     -17.273794      676.03689    
   3756000   294.91388      0.011046042    13.60076       731.68945     -18.695444      712.99401    
   3757000   314.01651      0.011046042    9.6392539      779.08361     -18.89841       760.1852     
   3758000   313.25751      0.011046042    2.3039246      777.20051     -18.151964      759.04854    
   3759000   287.1286       0.011046042    2.6607843      712.37398     -19.527215      692.84676    
   3760000   290.43904      0.011046042    5.9646895      720.58726     -22.62084       697.96642    
   3761000   316.27119      0.011046042    10.224669      784.67754     -18.375972      766.30156    
   3762000   304.62869      0.011046042    5.7355034      755.79217     -16.786355      739.00582    
   3763000   286.7121       0.011046042   -9.5964471      711.34063     -13.487898      697.85273    
   3764000   301.85626      0.011046042    7.2403753      748.91371     -15.879062      733.03465    
   3765000   290.14461      0.011046042    9.916282       719.85676     -18.035601      701.82116    
   3766000   299.65775      0.011046042    8.7412957      743.45913     -18.524816      724.93431    
   3767000   304.50181      0.011046042   -4.9386377      755.47737     -14.012407      741.46497    
   3768000   303.44466      0.011046042   -0.33394343     752.85457     -16.534933      736.31964    
   3769000   290.07456      0.011046042    4.7159604      719.68297     -17.631409      702.05156    
   3770000   293.24435      0.011046042    10.300813      727.54732     -20.123861      707.42346    
   3771000   299.12655      0.011046042    14.499977      742.14121     -19.999731      722.14148    
   3772000   315.6049       0.011046042    8.5817477      783.02445     -16.189693      766.83476    
   3773000   292.84478      0.011046042    0.43838243     726.55598     -17.053907      709.50208    
   3774000   293.68186      0.011046042    6.1828102      728.6328      -13.991635      714.64116    
   3775000   304.19421      0.011046042    11.160301      754.71422     -12.843594      741.87063    
   3776000   304.27838      0.011046042    6.4850063      754.92304     -13.048996      741.87405    
   3777000   295.66972      0.011046042    5.0158678      733.56472     -14.027676      719.53705    
   3778000   295.52021      0.011046042    5.4011073      733.19378     -15.168835      718.02494    
   3779000   305.47561      0.011046042    7.6316155      757.89342     -17.802802      740.09061    
   3780000   308.70573      0.011046042    4.9869422      765.90742     -18.779686      747.12774    
   3781000   293.13782      0.011046042    2.5095553      727.28301     -17.106454      710.17655    
   3782000   282.44695      0.011046042    8.1195992      700.75866     -16.949691      683.80897    
   3783000   306.65192      0.011046042    6.402467       760.81186     -15.298444      745.51341    
   3784000   319.01216      0.011046042    4.4688606      791.47795     -15.063098      776.41486    
   3785000   286.12996      0.011046042    3.286781       709.89633     -13.412214      696.48412    
   3786000   298.36054      0.011046042    10.520743      740.24072     -13.853539      726.38718    
   3787000   312.21828      0.011046042   -1.3592303      774.62215     -12.291182      762.33097    
   3788000   293.84438      0.011046042    5.9121081      729.03602     -11.868677      717.16734    
   3789000   312.27097      0.011046042    13.289195      774.75289     -16.520645      758.23224    
   3790000   298.2944       0.011046042    6.380545       740.07663     -15.858162      724.21846    
   3791000   301.01404      0.011046042    0.20185746     746.82413     -14.013309      732.81082    
   3792000   304.27963      0.011046042    5.3420441      754.92615     -11.730349      743.1958     
   3793000   296.9898       0.011046042    8.4957718      736.83989     -13.943133      722.89675    
   3794000   299.01809      0.011046042    6.446307       741.87213     -15.441567      726.43056    
   3795000   299.54209      0.011046042    2.6180889      743.17219     -12.917384      730.25481    
   3796000   284.27199      0.011046042    6.6980286      705.28664     -17.965671      687.32097    
   3797000   306.9478       0.011046042    8.4624719      761.54595     -19.401139      742.14481    
   3798000   306.28273      0.011046042   -0.41345069     759.89589     -18.69339       741.2025     
   3799000   295.27833      0.011046042    6.0882079      732.59368     -16.424054      716.16963    
   3800000   299.08371      0.011046042    5.7366054      742.03493     -15.47151       726.56342    
   3801000   322.83211      0.011046042    6.0676296      800.95537     -19.316197      781.63917    
   3802000   305.13528      0.011046042    5.728929       757.04905     -21.984548      735.0645     
   3803000   289.48855      0.011046042    6.3049291      718.22907     -18.235915      699.99315    
   3804000   301.69787      0.011046042    5.8316038      748.52074     -16.562623      731.95812    
   3805000   320.85409      0.011046042    5.9906665      796.04783     -18.68192       777.36591    
   3806000   291.41694      0.011046042    5.8280677      723.01347     -17.91085       705.10262    
   3807000   301.4583       0.011046042    2.925692       747.92636     -19.267061      728.6593     
   3808000   316.01282      0.011046042    6.1412868      784.03652     -21.667847      762.36867    
   3809000   303.66465      0.011046042    12.235966      753.40037     -18.421755      734.97862    
   3810000   295.1028       0.011046042    4.6788569      732.15817     -17.027482      715.13069    
   3811000   292.94076      0.011046042    5.0637757      726.79409     -16.619269      710.17482    
   3812000   308.69232      0.011046042    4.6604835      765.87416     -17.913081      747.96107    
   3813000   303.21515      0.011046042    10.217189      752.28514     -20.756618      731.52852    
   3814000   292.90166      0.011046042    5.2369304      726.6971      -20.09153       706.60557    
   3815000   291.97141      0.011046042    2.4961118      724.38911     -18.839195      705.54992    
   3816000   306.52758      0.011046042    5.4957252      760.50338     -22.380673      738.12271    
   3817000   302.76813      0.011046042    9.0281473      751.17607     -17.99016       733.18591    
   3818000   300.2174       0.011046042    6.1403536      744.84765     -19.216827      725.63083    
   3819000   300.29979      0.011046042    6.0801838      745.05206     -18.448429      726.60363    
   3820000   303.37494      0.011046042    7.9275624      752.68158     -21.966965      730.71462    
   3821000   306.17056      0.011046042    6.0774624      759.6176      -17.536057      742.08154    
   3822000   292.97724      0.011046042    9.3584438      726.88461     -20.523807      706.3608     
   3823000   298.51733      0.011046042    2.2993951      740.62973     -20.726263      719.90347    
   3824000   318.34543      0.011046042    5.7397669      789.8238      -19.645506      770.17829    
   3825000   307.16796      0.011046042    13.38079       762.09218     -20.326709      741.76547    
   3826000   288.9377       0.011046042    8.8984639      716.86239     -19.529487      697.3329     
   3827000   295.52945      0.011046042    0.44193517     733.21672     -20.938033      712.27869    
   3828000   311.67457      0.011046042    9.9820493      773.2732      -17.378242      755.89496    
   3829000   291.19494      0.011046042    8.7320451      722.46267     -17.632055      704.83062    
   3830000   291.0179       0.011046042   -2.1081745      722.02344     -20.644047      701.37939    
   3831000   312.86928      0.011046042    3.2099563      776.2373      -18.847794      757.38951    
   3832000   312.34786      0.011046042    12.115473      774.94365     -20.0845        754.85915    
   3833000   281.74607      0.011046042    6.3292474      699.01976     -19.803904      679.21585    
   3834000   287.00441      0.011046042    2.6253284      712.06585     -21.900292      690.16555    
   3835000   307.71228      0.011046042    10.608359      763.44264     -16.910099      746.53254    
   3836000   324.24696      0.011046042    17.14924       804.46564     -15.129016      789.33662    
   3837000   300.82409      0.011046042    6.8049986      746.35285     -16.469221      729.88363    
   3838000   283.45326      0.011046042    0.99365823     703.25535     -17.501496      685.75385    
   3839000   305.78038      0.011046042    4.8493637      758.64956     -19.318198      739.33136    
   3840000   303.8772       0.011046042    5.3405006      753.92771     -19.022588      734.90512    
   3841000   308.81705      0.011046042    6.5413396      766.18362     -19.023564      747.16005    
   3842000   289.71878      0.011046042    7.3238257      718.80028     -20.462668      698.33761    
   3843000   292.33665      0.011046042    6.1097584      725.29529     -19.753155      705.54214    
   3844000   292.70462      0.011046042    5.0242087      726.20824     -18.237629      707.97061    
   3845000   307.97939      0.011046042    6.2161975      764.10535     -19.935669      744.16968    
   3846000   302.36713      0.011046042    5.7381345      750.18119     -17.459739      732.72146    
   3847000   298.60589      0.011046042    6.6384995      740.84945     -16.578395      724.27105    
   3848000   288.74427      0.011046042    5.6744264      716.38249     -21.278307      695.10418    
   3849000   298.88147      0.011046042    6.3363848      741.53318     -21.089558      720.44362    
   3850000   305.6588       0.011046042    6.9833049      758.34792     -19.484656      738.86326    
   3851000   297.56985      0.011046042    5.8065643      738.279       -20.267705      718.0113     
   3852000   298.94724      0.011046042    5.6012365      741.69633     -20.10226       721.59407    
   3853000   300.8212       0.011046042    4.8798711      746.3457      -22.083488      724.26221    
   3854000   301.92659      0.011046042    6.6240833      749.08818     -23.637574      725.45061    
   3855000   301.29006      0.011046042    6.9868791      747.50895     -22.234729      725.27422    
   3856000   297.842        0.011046042    5.8782998      738.9542      -20.646656      718.30754    
   3857000   304.64932      0.011046042    5.2384418      755.84335     -17.290232      738.55312    
   3858000   297.17398      0.011046042    6.1660747      737.29683     -19.119871      718.17696    
   3859000   280.89799      0.011046042    5.692005       696.91565     -22.095046      674.8206     
   3860000   306.04179      0.011046042    4.2330414      759.29812     -19.500054      739.79806    
   3861000   314.7732       0.011046042    7.6313404      780.96099     -17.932699      763.02829    
   3862000   293.60818      0.011046042    5.4564431      728.44998     -16.751562      711.69842    
   3863000   297.92349      0.011046042    5.2884985      739.15639     -15.41144       723.74495    
   3864000   301.71756      0.011046042    6.9822786      748.56957     -17.986946      730.58263    
   3865000   302.65459      0.011046042    5.9702276      750.89438     -18.199882      732.6945     
   3866000   282.82927      0.011046042    4.7660382      701.7072      -15.047917      686.65929    
   3867000   292.81241      0.011046042    5.9112206      726.47567     -16.156728      710.31894    
   3868000   312.08689      0.011046042    6.019282       774.29617     -18.350385      755.94578    
   3869000   308.49865      0.011046042    6.3926817      765.39364     -20.452386      744.94126    
   3870000   293.59385      0.011046042    5.3742599      728.41443     -21.035565      707.37887    
   3871000   291.17687      0.011046042    6.4519394      722.41784     -20.370732      702.04711    
   3872000   311.55583      0.011046042    6.6735007      772.97861     -18.362541      754.61607    
   3873000   306.62273      0.011046042    5.549546       760.73946     -16.775836      743.96362    
   3874000   291.2958       0.011046042    4.877726       722.71292     -16.617972      706.09495    
   3875000   299.76083      0.011046042    4.962648       743.71488     -16.549723      727.16516    
   3876000   301.55781      0.011046042    9.3828681      748.17325     -14.059399      734.11385    
   3877000   287.87594      0.011046042    5.0893162      714.22813     -16.595907      697.63223    
   3878000   306.40859      0.011046042    5.5485417      760.20817     -18.754991      741.45317    
   3879000   303.52784      0.011046042    5.4309298      753.06094     -19.821313      733.23963    
   3880000   294.69233      0.011046042    10.265326      731.1398      -22.312201      708.8276     
   3881000   285.50667      0.011046042    2.4899071      708.34992     -22.616275      685.73364    
   3882000   305.20386      0.011046042    6.3242883      757.21918     -20.006499      737.21268    
   3883000   304.095        0.011046042    7.4079023      754.46808     -22.346485      732.1216     
   3884000   293.51423      0.011046042    6.3827639      728.21689     -21.660632      706.55626    
   3885000   296.13134      0.011046042    3.1785454      734.71002     -20.885686      713.82433    
   3886000   304.30741      0.011046042    12.32013       754.99507     -21.126528      733.86854    
   3887000   295.68002      0.011046042    8.7792412      733.59028     -17.626079      715.9642     
   3888000   298.91619      0.011046042    3.8108167      741.61932     -18.063692      723.55563    
   3889000   306.21935      0.011046042    4.0586685      759.73864     -20.346712      739.39193    
   3890000   315.84383      0.011046042    5.2659968      783.61725     -24.15354       759.46371    
   3891000   288.09247      0.011046042    7.0180743      714.76536     -19.360979      695.40438    
   3892000   291.74611      0.011046042    5.107966       723.83015     -15.443812      708.38634    
   3893000   311.20152      0.011046042    6.1116424      772.09954     -13.256879      758.84266    
   3894000   314.0356       0.011046042    6.541498       779.13099     -14.079185      765.05181    
   3895000   295.03633      0.011046042    6.2064213      731.99327     -16.612882      715.38039    
   3896000   287.5194       0.011046042    5.6699467      713.34356     -17.96743       695.37613    
   3897000   295.8759       0.011046042    6.438677       734.07626     -16.57236       717.5039     
   3898000   315.19165      0.011046042    6.4494662      781.99917     -12.681082      769.31809    
   3899000   300.8351       0.011046042    5.3399635      746.38018     -18.208216      728.17197    
   3900000   288.35532      0.011046042    6.7248731      715.41751     -22.959848      692.45766    
   3901000   298.86719      0.011046042    6.6373671      741.49773     -21.484063      720.01367    
   3902000   307.18338      0.011046042    5.9667454      762.13042     -19.842473      742.28795    
   3903000   300.95359      0.011046042    5.5915319      746.67416     -21.942792      724.73137    
   3904000   301.76941      0.011046042    6.2487446      748.69822     -17.088253      731.60997    
   3905000   294.9328       0.011046042    6.141262       731.7364      -18.682099      713.05431    
   3906000   304.52134      0.011046042    7.9257941      755.52583     -19.533429      735.9924     
   3907000   315.746        0.011046042    6.2811233      783.37453     -19.892996      763.48153    
   3908000   308.19848      0.011046042    7.6306324      764.64893     -21.851049      742.79788    
   3909000   296.24722      0.011046042    5.9231846      734.99751     -20.470877      714.52664    
   3910000   300.05203      0.011046042    7.3621704      744.43735     -16.746317      727.69103    
   3911000   301.52991      0.011046042    5.352649       748.10402     -16.167074      731.93695    
   3912000   314.3313       0.011046042    3.7688862      779.86462     -13.828281      766.03634    
   3913000   307.69744      0.011046042    6.6460495      763.40584     -14.215041      749.1908     
   3914000   287.83582      0.011046042    6.1323562      714.12859     -16.883659      697.24493    
   3915000   290.53836      0.011046042    6.0431212      720.83367     -16.646719      704.18695    
   3916000   308.53521      0.011046042    6.2291847      765.48437     -14.61432       750.87005    
   3917000   307.25459      0.011046042    6.1706933      762.30711     -14.782866      747.52425    
   3918000   293.23635      0.011046042    5.6688648      727.52748     -16.911432      710.61605    
   3919000   280.52225      0.011046042    6.7585875      695.98344     -14.413092      681.57035    
   3920000   316.87746      0.011046042    8.4316655      786.1817      -15.070215      771.11149    
   3921000   302.44588      0.011046042    4.5959397      750.37656     -17.916471      732.46009    
   3922000   282.90961      0.011046042    8.4604741      701.90653     -19.776844      682.12969    
   3923000   305.5148       0.011046042    8.0164166      757.99064     -19.480792      738.50985    
   3924000   321.9097       0.011046042    1.5781976      798.66683     -19.654587      779.01224    
   3925000   310.61426      0.011046042    5.5215235      770.64255     -25.412508      745.23004    
   3926000   289.08898      0.011046042    7.057431       717.23772     -15.83689       701.40083    
   3927000   281.8171       0.011046042    9.6094453      699.196       -25.804751      673.39125    
   3928000   307.32232      0.011046042    8.1527281      762.47514     -20.62744       741.8477     
   3929000   314.38997      0.011046042    9.3867835      780.01018     -22.670538      757.33964    
   3930000   303.21204      0.011046042    4.4231061      752.27742     -21.253029      731.02439    
   3931000   289.82069      0.011046042    1.5824553      719.05311     -25.143876      693.90924    
   3932000   295.75723      0.011046042    7.6113053      733.78183     -24.458101      709.32373    
   3933000   317.66089      0.011046042    8.6669366      788.12543     -23.653297      764.47213    
   3934000   302.70581      0.011046042    5.6405085      751.02146     -23.044137      727.97732    
   3935000   297.22512      0.011046042    6.0893842      737.42372     -22.33057       715.09315    
   3936000   298.58635      0.011046042    6.2357222      740.80097     -21.206898      719.59408    
   3937000   305.2825       0.011046042    2.4685627      757.41429     -23.63658       733.77771    
   3938000   298.58         0.011046042    7.0376604      740.78522     -17.883452      722.90177    
   3939000   294.45673      0.011046042    13.037689      730.55527     -17.500459      713.05481    
   3940000   308.86387      0.011046042    8.6017444      766.29979     -16.185206      750.11458    
   3941000   306.65153      0.011046042    2.240664       760.81091     -18.882878      741.92803    
   3942000   292.71223      0.011046042    5.4039225      726.22712     -18.840562      707.38656    
   3943000   301.40422      0.011046042    8.3975387      747.79219     -21.446204      726.34598    
   3944000   306.77112      0.011046042    6.5548743      761.10761     -22.034025      739.07358    
   3945000   295.04699      0.011046042    3.5696635      732.01972     -20.104122      711.91559    
   3946000   289.21266      0.011046042    5.5386436      717.54459     -20.392559      697.15203    
   3947000   290.14119      0.011046042    6.3341522      719.84828     -19.037197      700.81109    
   3948000   311.3801       0.011046042    5.4263348      772.54262     -21.318458      751.22416    
   3949000   305.06963      0.011046042    7.5377963      756.88616     -20.019209      736.86695    
   3950000   290.96861      0.011046042    5.6633706      721.90113     -20.055218      701.84592    
   3951000   299.98362      0.011046042   -0.99091606     744.26763     -21.271051      722.99657    
   3952000   318.69252      0.011046042    5.2227479      790.68493     -21.868126      768.81681    
   3953000   306.98145      0.011046042    11.083353      761.62944     -21.724942      739.9045     
   3954000   283.59531      0.011046042    6.6996359      703.60778     -20.02706       683.58072    
   3955000   283.14443      0.011046042    7.6843739      702.48914     -16.678972      685.81016    
   3956000   300.36336      0.011046042    3.6034998      745.20979     -15.734474      729.47531    
   3957000   303.02513      0.011046042    11.24001       751.8137      -16.710851      735.10284    
   3958000   295.99249      0.011046042    8.8305737      734.36552     -16.220168      718.14535    
   3959000   311.80996      0.011046042    3.4508751      773.6091      -14.470491      759.1386     
   3960000   305.71172      0.011046042    3.4933325      758.47919     -14.593141      743.88605    
   3961000   298.78618      0.011046042    7.9200654      741.29674     -17.319396      723.97734    
   3962000   295.15235      0.011046042    6.7416848      732.28111     -18.99178       713.28933    
   3963000   302.89158      0.011046042    5.9254888      751.48237     -18.800866      732.6815     
   3964000   305.29875      0.011046042    6.4054561      757.4546      -22.180491      735.27411    
   3965000   293.04944      0.011046042    6.7011423      727.06374     -24.016353      703.04739    
   3966000   292.14391      0.011046042    4.8048164      724.81709     -19.613896      705.20319    
   3967000   301.84636      0.011046042    5.5947915      748.88915     -18.321023      730.56813    
   3968000   303.84413      0.011046042    6.0345077      753.84565     -21.277612      732.56804    
   3969000   296.48779      0.011046042    5.1510096      735.59437     -19.122975      716.4714     
   3970000   292.7529       0.011046042    6.119984       726.32802     -16.020337      710.30769    
   3971000   298.15635      0.011046042    7.9328271      739.73412     -18.838406      720.89571    
   3972000   302.60903      0.011046042    5.849271       750.78134     -16.399225      734.38212    
   3973000   305.29733      0.011046042    5.4912369      757.45109     -19.702649      737.74844    
   3974000   293.96017      0.011046042    5.7272426      729.32329     -18.347679      710.97561    
   3975000   297.29705      0.011046042    5.0437298      737.60217     -18.397351      719.20482    
   3976000   303.74181      0.011046042    5.9103762      753.59181     -16.446512      737.1453     
   3977000   295.06813      0.011046042    5.4022682      732.07216     -16.699777      715.37239    
   3978000   293.77642      0.011046042    5.6738864      728.86739     -19.079083      709.78831    
   3979000   290.82014      0.011046042    6.3943799      721.53278     -20.59939       700.93339    
   3980000   305.94574      0.011046042    7.0890483      759.05982     -20.202799      738.85702    
   3981000   319.4335       0.011046042    4.3087333      792.52331     -24.349841      768.17347    
   3982000   292.25799      0.011046042    5.3293179      725.10014     -25.847215      699.25292    
   3983000   298.45916      0.011046042    8.6045593      740.48541     -21.197688      719.28773    
   3984000   303.15986      0.011046042    5.3574342      752.14798     -26.415478      725.7325     
   3985000   301.77344      0.011046042    5.0816746      748.70823     -24.196089      724.51214    
   3986000   309.64894      0.011046042    7.03511        768.24755     -18.268584      749.97896    
   3987000   296.8541       0.011046042    4.677395       736.50321     -18.392427      718.11078    
   3988000   281.31483      0.011046042    4.7254165      697.94985     -17.841032      680.10882    
   3989000   310.2197       0.011046042    7.1200597      769.66364     -21.34211       748.32153    
   3990000   304.21094      0.011046042    5.6605794      754.75572     -21.745094      733.01063    
   3991000   291.36027      0.011046042    1.6136763      722.87286     -20.031032      702.84182    
   3992000   299.80763      0.011046042    3.2239684      743.83101     -22.734799      721.09621    
   3993000   295.14856      0.011046042    13.32731       732.27172     -21.024466      711.24726    
   3994000   294.58895      0.011046042    7.9525362      730.88331     -18.743811      712.1395     
   3995000   303.29669      0.011046042   -3.3754082      752.48745     -19.835705      732.65175    
   3996000   297.26147      0.011046042    8.6933584      737.51389     -17.096415      720.41747    
   3997000   310.41159      0.011046042    5.7007633      770.13972     -11.102876      759.03685    
   3998000   300.52558      0.011046042    4.4019825      745.61226     -12.308726      733.30353    
   3999000   279.15668      0.011046042    4.6733024      692.59541     -14.39302       678.20239    
   4000000   302.77462      0.011046042    8.4085549      751.19218     -16.38292       734.80926    
Loop time of 7795.89 on 1 procs for 4000000 steps with 1500 atoms

Performance: 11.083 ns/day, 2.166 hours/ns, 513.091 timesteps/s, 769.636 katom-step/s
100.0% CPU use with 1 MPI tasks x 1 OpenMP threads

MPI task timing breakdown:
Section |  min time  |  avg time  |  max time  |%varavg| %total
---------------------------------------------------------------
Pair    | 805.31     | 805.31     | 805.31     |   0.0 | 10.33
Bond    | 90.216     | 90.216     | 90.216     |   0.0 |  1.16
Kspace  | 6386.5     | 6386.5     | 6386.5     |   0.0 | 81.92
Neigh   | 0.026969   | 0.026969   | 0.026969   |   0.0 |  0.00
Comm    | 18.045     | 18.045     | 18.045     |   0.0 |  0.23
Output  | 0.09002    | 0.09002    | 0.09002    |   0.0 |  0.00
Modify  | 482.86     | 482.86     | 482.86     |   0.0 |  6.19
Other   |            | 12.83      |            |       |  0.16

Nlocal:           1500 ave        1500 max        1500 min
Histogram: 1 0 0 0 0 0 0 0 0 0
Nghost:           1045 ave        1045 max        1045 min
Histogram: 1 0 0 0 0 0 0 0 0 0
Neighs:              0 ave           0 max           0 min
Histogram: 1 0 0 0 0 0 0 0 0 0

Total # of neighbors = 0
Ave neighs/atom = 0
Ave special neighs/atom = 2
Neighbor list builds = 16257
Dangerous builds = 0
write_data	last_conf.data pair ij
System init for write_data ...
PPPM initialization ...
  using 12-bit tables for long-range coulomb (src/kspace.cpp:342)
  G vector (1/distance) = 0.16146867
  grid = 30 30 30
  stencil order = 5
  estimated absolute RMS force accuracy = 0.033120649
  estimated relative force accuracy = 9.9741851e-05
  using double precision FFTW3
  3d grid and FFT values/proc = 42875 27000
Generated 1 of 1 mixed pair_coeff terms from arithmetic mixing rule
Total wall time: 2:09:55
