LAMMPS (29 Aug 2024 - Update 1)
  using 1 OpenMP thread(s) per MPI task
package gpu 1 gpuID 0
# GCMC for CO2 molecular fluid, rigid/small/nvt dynamics
# Rigid CO2 TraPPE model
# [Potoff and J.I. Siepmann, Vapor-liquid equilibria of
# mixtures containing alkanes, carbon dioxide and
# nitrogen AIChE J., 47,1676-1682 (2001)].

# global model settings

units           real
atom_style      full
boundary        p p p
pair_style      lj/cut/coul/long  12
pair_modify     mix arithmetic shift yes
kspace_style    pppm 1.0e-4
bond_style      harmonic
angle_style     harmonic
neigh_modify    one 4000

# box, start molecules on simple cubic lattice
region          mbox block 0 ${lbox} 0 ${lbox} 0 ${lbox} units box
region          mbox block 0 139 0 ${lbox} 0 ${lbox} units box
region          mbox block 0 139 0 139 0 ${lbox} units box
region          mbox block 0 139 0 139 0 139 units box
create_box      2 mbox                                       bond/types 1                                angle/types 1                               extra/bond/per/atom 2                       extra/angle/per/atom 1                      extra/special/per/atom 2
Created orthogonal box = (0 0 0) to (139 139 139)
  1 by 1 by 1 MPI processor grid
molecule        co2mol ../CO2.txt
Read molecule template co2mol:
# CO2 molecule file. TraPPE model.
  1 molecules
  0 fragments
  3 atoms with max type 2
  2 bonds with max type 1
  1 angles with max type 1
  0 dihedrals with max type 0
  0 impropers with max type 0
create_atoms   	0 random ${nmols} 34578 mbox mol co2mol 464563 overlap 1.2
create_atoms   	0 random 500 34578 mbox mol co2mol 464563 overlap 1.2
Created 1500 atoms
  using lattice units in orthogonal box = (0 0 0) to (139 139 139)
  create_atoms CPU = 0.013 seconds

# rigid CO2 TraPPE model

pair_coeff      1   1  0.053649   2.800
pair_coeff      2   2  0.156973   3.050
bond_coeff      1       0       1.16
angle_coeff     1       0       180

# masses

mass 1 12.0107
mass 2 15.9994

write_data init_conf.data  pair ij
System init for write_data ...
PPPM initialization ...
  using 12-bit tables for long-range coulomb (src/kspace.cpp:342)
  G vector (1/distance) = 0.16705332
  grid = 30 30 30
  stencil order = 5
  estimated absolute RMS force accuracy = 0.028224335
  estimated relative force accuracy = 8.4996747e-05
  using double precision FFTW3
  3d grid and FFT values/proc = 42875 27000
Generated 1 of 1 mixed pair_coeff terms from arithmetic mixing rule

# MD settings

group           co2 type 1 2
1500 atoms in group co2
velocity       	all create 300 54654
timestep        0.25

# rigid constraints with thermostat
fix             myrigidnvt co2 rigid/nvt molecule temp 300 300 $(100*dt)
fix             myrigidnvt co2 rigid/nvt molecule temp 300 300 25
  500 rigid bodies with 1500 atoms

thermo 1000
thermo_style custom step temp density press ke pe etotal


variable    mvol equal vol
variable    mden equal density
variable	mtmp equal temp
variable    mpre equal press

fix mydat all ave/time 1 4000 4000 v_mtmp v_mden v_mpre file statistics.dat ## every 1ps

run 4000000 ## 1ns

CITE-CITE-CITE-CITE-CITE-CITE-CITE-CITE-CITE-CITE-CITE-CITE-CITE

Your simulation uses code contributions which should be cited:

- GPU package (short-range, long-range and three-body potentials): doi:10.1016/j.cpc.2010.12.021, doi:10.1016/j.cpc.2011.10.012, doi:10.1016/j.cpc.2013.08.002, doi:10.1016/j.commatsci.2014.10.068, doi:10.1016/j.cpc.2016.10.020, doi:10.3233/APC200086

@Article{Brown11,
 author = {W. M. Brown and P. Wang and S. J. Plimpton and A. N. Tharrington},
 title = {Implementing Molecular Dynamics on Hybrid High Performance Computers---Short Range Forces},
 journal = {Comput.\ Phys.\ Commun.},
 year =    2011,
 volume =  182,
 pages =   {898--911},
 doi =     {10.1016/j.cpc.2010.12.021}
}

@Article{Brown12,
 author = {W. M. Brown and A. Kohlmeyer and S. J. Plimpton and A. N. Tharrington},
 title = {Implementing Molecular Dynamics on Hybrid High Performance Computers - Particle-Particle Particle-Mesh},
 journal = {Comput.\ Phys.\ Commun.},
 year =    2012,
 volume =  183,
 doi =     {10.1016/j.cpc.2011.10.012},
 pages =   {449--459}
}

@Article{Brown13,
 author = {W. M. Brown and Y. Masako},
 title = {Implementing Molecular Dynamics on Hybrid High Performance Computers---Three-Body Potentials},
 journal = {Comput.\ Phys.\ Commun.},
 year =    2013,
 volume =  184,
 pages =   {2785--2793},
 doi =     {10.1016/j.cpc.2013.08.002},
}

@Article{Trung15,
 author = {T. D. Nguyen and S. J. Plimpton},
 title = {Accelerating Dissipative Particle Dynamics Simulations for Soft Matter Systems},
 journal = {Comput.\ Mater.\ Sci.},
 year =    2015,
 doi =     {10.1016/j.commatsci.2014.10.068},
 volume =  100,
 pages =   {173--180}
}

@Article{Trung17,
 author = {T. D. Nguyen},
 title = {{GPU}-Accelerated {T}ersoff Potentials for Massively Parallel
    Molecular Dynamics Simulations},
 journal = {Comput.\ Phys.\ Commun.},
 year =    2017,
 doi =     {10.1016/j.cpc.2016.10.020},
 volume =  212,
 pages =   {113--122}
}

@inproceedings{Nikolskiy19,
 author = {V. Nikolskiy and V. Stegailov},
 title = {{GPU} Acceleration of Four-Site Water Models in {LAMMPS}},
 booktitle = {Proceedings of the International Conference on Parallel
    Computing (ParCo 2019), Prague, Czech Republic},
 doi =     {10.3233/APC200086},
 year =    2019
}

CITE-CITE-CITE-CITE-CITE-CITE-CITE-CITE-CITE-CITE-CITE-CITE-CITE

PPPM initialization ...
  using 12-bit tables for long-range coulomb (src/kspace.cpp:342)
  G vector (1/distance) = 0.16705332
  grid = 30 30 30
  stencil order = 5
  estimated absolute RMS force accuracy = 0.028224335
  estimated relative force accuracy = 8.4996747e-05
  using double precision FFTW3
  3d grid and FFT values/proc = 42875 27000
Generated 1 of 1 mixed pair_coeff terms from arithmetic mixing rule
Per MPI rank memory allocation (min/avg/max) = 11.39 | 11.39 | 11.39 Mbytes
   Step          Temp         Density         Press          KinEng         PotEng         TotEng    
         0   307.41471      0.013605706   -158.86011      762.70438      8645.076       9407.7804    
      1000   328.82148      0.013605706    14.40659       815.81516     -15.765397      800.04977    
      2000   294.76535      0.013605706    7.9447239      731.32095     -17.974614      713.34634    
      3000   294.41858      0.013605706    6.3446006      730.4606      -26.116885      704.34372    
      4000   310.95529      0.013605706    3.9396301      771.48865     -32.363322      739.12533    
      5000   298.84901      0.013605706    7.0832283      741.45262     -30.328377      711.12424    
      6000   289.82454      0.013605706    8.8030969      719.06268     -36.076666      682.98602    
      7000   306.85346      0.013605706    7.1897559      761.31188     -37.498542      723.81334    
      8000   309.49531      0.013605706    6.5603327      767.86638     -39.317069      728.54931    
      9000   290.57794      0.013605706    6.6372748      720.93187     -42.457656      678.47421    
     10000   294.57933      0.013605706    11.661998      730.85943     -42.519109      688.34032    
     11000   304.04174      0.013605706    4.0869738      754.33594     -42.528259      711.80768    
     12000   291.70702      0.013605706    8.2618937      723.73315     -46.172346      677.5608     
     13000   277.5515       0.013605706    15.594315      688.61292     -46.991558      641.62136    
     14000   310.75671      0.013605706   -9.4608294      770.99597     -47.983997      723.01197    
     15000   298.45311      0.013605706    5.9627949      740.47039     -47.658206      692.81218    
     16000   287.51613      0.013605706    17.774759      713.33544     -40.968414      672.36703    
     17000   303.51915      0.013605706   -5.2723631      753.03939     -49.784788      703.2546     
     18000   299.76449      0.013605706    6.4397875      743.72397     -53.736189      689.98778    
     19000   316.85411      0.013605706    10.14496       786.12377     -53.369433      732.75434    
     20000   302.72901      0.013605706    7.3458167      751.07901     -56.770546      694.30847    
     21000   288.63218      0.013605706    7.5574585      716.10438     -54.913777      661.19061    
     22000   302.63856      0.013605706    8.4179917      750.85461     -61.366105      689.48851    
     23000   304.3722       0.013605706    7.1946986      755.15581     -61.824676      693.33114    
     24000   285.78609      0.013605706    6.487363       709.04318     -61.715902      647.32728    
     25000   297.41287      0.013605706    7.7503262      737.88954     -65.278644      672.6109     
     26000   320.90826      0.013605706    8.799011       796.18225     -64.392051      731.7902     
     27000   290.90168      0.013605706    7.6488687      721.73508     -62.016944      659.71813    
     28000   288.21496      0.013605706    6.2146952      715.06927     -69.931859      645.13741    
     29000   301.53712      0.013605706    8.6982122      748.1219      -70.602499      677.5194     
     30000   312.36254      0.013605706    13.230475      774.98008     -69.379824      705.60026    
     31000   301.9957       0.013605706    7.3149233      749.25965     -66.46523       682.79442    
     32000   300.28178      0.013605706    7.7139689      745.00738     -69.431922      675.57546    
     33000   299.65745      0.013605706    6.9681892      743.45839     -71.209097      672.24929    
     34000   306.22309      0.013605706    7.4178946      759.74792     -72.617786      687.13013    
     35000   314.71766      0.013605706    8.300515       780.8232      -71.3598        709.4634     
     36000   299.20419      0.013605706    8.4557797      742.33384     -68.30833       674.02551    
     37000   300.69065      0.013605706    8.5224909      746.02179     -76.202808      669.81898    
     38000   303.14314      0.013605706    6.4827792      752.10648     -75.638871      676.46761    
     39000   302.28046      0.013605706    7.2571313      749.96616     -72.366512      677.59964    
     40000   301.60945      0.013605706    7.5807181      748.30137     -74.822917      673.47845    
     41000   291.79086      0.013605706    5.5279173      723.94117     -75.688412      648.25276    
     42000   309.41688      0.013605706    4.3764006      767.67182     -65.336694      702.33512    
     43000   305.6078       0.013605706    5.5571497      758.22138     -71.62203       686.59935    
     44000   298.82788      0.013605706    12.063145      741.4002      -74.133967      667.26623    
     45000   291.94664      0.013605706    5.6880858      724.32766     -78.520751      645.80691    
     46000   309.06795      0.013605706    7.206349       766.80611     -78.845992      687.96012    
     47000   319.37211      0.013605706    6.4354445      792.371       -83.063756      709.30724    
     48000   297.22627      0.013605706    8.8952463      737.42656     -82.918249      654.50831    
     49000   291.20375      0.013605706    5.8317283      722.48454     -79.994407      642.49014    
     50000   318.03963      0.013605706    10.625755      789.0651      -77.743767      711.32133    
     51000   309.18328      0.013605706    7.4409959      767.09224     -78.995024      688.09721    
     52000   277.08833      0.013605706    6.3083842      687.46379     -83.631751      603.83204    
     53000   296.84619      0.013605706    9.6199119      736.48358     -84.656444      651.82714    
     54000   302.62555      0.013605706    9.4449441      750.82234     -76.870415      673.95193    
     55000   314.30523      0.013605706    5.3538164      779.79994     -85.204596      694.59534    
     56000   301.61805      0.013605706    10.8805        748.3227      -83.009172      665.31353    
     57000   303.07707      0.013605706    10.486875      751.94256     -86.656166      665.28639    
     58000   311.86252      0.013605706    0.34645846     773.73951     -83.301599      690.43791    
     59000   292.50924      0.013605706   -4.2607994      725.7235      -81.503657      644.21984    
     60000   291.69427      0.013605706    8.1177305      723.70153     -87.423709      636.27782    
     61000   303.33215      0.013605706    11.356582      752.57542     -85.803679      666.77174    
     62000   312.63684      0.013605706    7.9241263      775.66061     -85.937244      689.72336    
     63000   295.16725      0.013605706    6.8742052      732.31809     -92.006504      640.31158    
     64000   289.99306      0.013605706    5.9675618      719.48078     -88.590639      630.89014    
     65000   304.41969      0.013605706    9.8703875      755.27364     -84.327031      670.94661    
     66000   307.88705      0.013605706    6.5268597      763.87626     -85.514753      678.3615     
     67000   283.91519      0.013605706    8.4552214      704.40141     -77.600411      626.801      
     68000   299.47981      0.013605706    6.4687241      743.01766     -88.484848      654.53281    
     69000   309.7766       0.013605706    9.0140658      768.56429     -92.848772      675.71552    
     70000   306.74277      0.013605706    3.0103696      761.03728     -94.084131      666.95315    
     71000   293.71982      0.013605706    6.6070764      728.72697     -89.087829      639.63914    
     72000   286.24311      0.013605706    8.1089202      710.17703     -90.443786      619.73325    
     73000   290.67177      0.013605706    14.722657      721.16467     -88.112915      633.05175    
     74000   309.19173      0.013605706    4.9571635      767.1132      -86.865553      680.24764    
     75000   294.94463      0.013605706    6.2392332      731.76576     -83.828956      647.9368     
     76000   290.08837      0.013605706    7.1847986      719.71725     -86.326069      633.39118    
     77000   277.87592      0.013605706    8.0363819      689.41782     -86.136841      603.28098    
     78000   302.27262      0.013605706    16.304791      749.9467      -69.684233      680.26246    
     79000   300.67627      0.013605706    7.0733537      745.98611     -82.003007      663.98311    
     80000   297.07074      0.013605706    11.617303      737.0407      -84.341415      652.69928    
     81000   307.61966      0.013605706    6.5745837      763.21285     -86.744602      676.46825    
     82000   299.75897      0.013605706    4.9026746      743.71026     -83.651138      660.05912    
     83000   309.50539      0.013605706    6.5420079      767.8914      -79.810607      688.08079    
     84000   319.61349      0.013605706    7.2615713      792.96987     -81.489741      711.48013    
     85000   291.56237      0.013605706    7.5220407      723.37428     -84.835646      638.53863    
     86000   289.8461       0.013605706    5.7278747      719.11616     -83.957738      635.15842    
     87000   305.85673      0.013605706    4.9418727      758.83899     -87.709227      671.12976    
     88000   311.63632      0.013605706    11.51836       773.1783      -92.097164      681.08114    
     89000   293.93172      0.013605706    12.437666      729.2527      -87.26929       641.98341    
     90000   293.1111       0.013605706    2.0518775      727.21671     -88.110637      639.10608    
     91000   304.05445      0.013605706   -2.0100534      754.36746     -85.832192      668.53527    
     92000   313.79347      0.013605706    10.533246      778.53024     -90.586658      687.94359    
     93000   289.5956       0.013605706    1.0464368      718.49467     -93.819949      624.67472    
     94000   300.3512       0.013605706    6.5809416      745.17962     -93.369405      651.81021    
     95000   300.59845      0.013605706    10.300598      745.79305     -94.68958       651.10347    
     96000   295.64954      0.013605706    7.1256509      733.51466     -88.123802      645.39086    
     97000   303.86153      0.013605706    6.5502382      753.88884     -87.577532      666.31131    
     98000   293.80465      0.013605706    8.4372918      728.93743     -95.386638      633.55079    
     99000   296.57674      0.013605706    5.6366849      735.81506     -93.229646      642.58542    
    100000   307.47446      0.013605706    1.561364       762.8526      -96.857439      665.99516    
    101000   316.23237      0.013605706    6.9134702      784.58122     -87.231868      697.34935    
    102000   299.87347      0.013605706    10.491389      743.99433     -83.334641      660.65969    
    103000   294.21663      0.013605706    7.2254267      729.95957     -84.256647      645.70292    
    104000   305.28939      0.013605706    6.9609861      757.43139     -81.132969      676.29842    
    105000   300.51394      0.013605706    3.9784983      745.58337     -77.813423      667.76995    
    106000   292.35622      0.013605706    6.4983662      725.34385     -77.317611      648.02624    
    107000   284.82836      0.013605706    7.2716633      706.66702     -77.73189       628.93513    
    108000   305.58484      0.013605706    8.297176       758.16442     -82.742057      675.42236    
    109000   313.11322      0.013605706    5.6207092      776.84252     -81.082741      695.75978    
    110000   287.42239      0.013605706    6.6005211      713.10286     -80.138119      632.96474    
    111000   305.08405      0.013605706    6.0011057      756.92193     -82.514087      674.40785    
    112000   316.92664      0.013605706    8.6615057      786.30372     -84.862176      701.44155    
    113000   294.55728      0.013605706    8.5371889      730.80474     -86.669712      644.13503    
    114000   291.40142      0.013605706    7.2224207      722.97497     -86.510613      636.46435    
    115000   309.8352       0.013605706   -12.443688      768.70968     -85.187112      683.52257    
    116000   318.43553      0.013605706    3.7590507      790.04734     -89.668635      700.3787     
    117000   302.25893      0.013605706    9.8286174      749.91275     -87.689947      662.2228     
    118000   282.95586      0.013605706    6.1330014      702.0213      -86.612279      615.40902    
    119000   311.74466      0.013605706    1.2040196      773.44709     -88.046824      685.40027    
    120000   311.12723      0.013605706    3.1191762      771.91522     -83.628778      688.28644    
    121000   300.75378      0.013605706    18.293002      746.17841     -86.771887      659.40652    
    122000   295.38841      0.013605706    17.814173      732.86678     -89.861824      643.00495    
    123000   300.00649      0.013605706   -2.0567968      744.32436     -89.804266      654.5201     
    124000   302.13485      0.013605706   -5.544903       749.60489     -87.48833       662.11656    
    125000   306.92026      0.013605706    15.571326      761.47762     -86.200961      675.27666    
    126000   291.24612      0.013605706    18.467436      722.58965     -87.203747      635.3859     
    127000   297.84576      0.013605706    5.9469618      738.96354     -85.456805      653.50674    
    128000   308.69386      0.013605706    1.3853156      765.87798     -83.33303       682.54495    
    129000   300.30987      0.013605706    9.495294       745.07707     -86.80053       658.27654    
    130000   296.08277      0.013605706    7.9088477      734.58951     -86.813768      647.77574    
    131000   303.29785      0.013605706    4.1110843      752.49033     -88.090558      664.39977    
    132000   305.26099      0.013605706    7.0794216      757.36094     -90.179164      667.18177    
    133000   299.68068      0.013605706    9.7483235      743.51603     -85.552686      657.96335    
    134000   296.97461      0.013605706    4.9555946      736.8022      -85.308107      651.49409    
    135000   315.69251      0.013605706    5.1120576      783.24182     -87.01204       696.22978    
    136000   318.45006      0.013605706    8.5652116      790.08338     -88.434412      701.64897    
    137000   297.51508      0.013605706    6.4875258      738.14311     -91.672381      646.47073    
    138000   295.28636      0.013605706    7.4058139      732.6136      -90.794352      641.81925    
    139000   294.27928      0.013605706    6.1398992      730.11499     -88.244644      641.87035    
    140000   296.52233      0.013605706    6.2552384      735.68007     -89.482981      646.19709    
    141000   314.00713      0.013605706    7.0666393      779.06034     -96.538468      682.52187    
    142000   296.60403      0.013605706    9.9354133      735.88279     -94.493501      641.38929    
    143000   292.12019      0.013605706    4.2381707      724.75825     -92.594453      632.16379    
    144000   302.07816      0.013605706    3.3817867      749.46423     -96.174122      653.29011    
    145000   308.73093      0.013605706    3.591647       765.96994     -95.619224      670.35072    
    146000   293.65627      0.013605706    15.813518      728.56929     -87.878502      640.69079    
    147000   302.44657      0.013605706    0.96190632     750.37828     -93.339426      657.03886    
    148000   316.77603      0.013605706    4.9765212      785.93007     -93.812559      692.11751    
    149000   294.02488      0.013605706    14.786573      729.48383     -90.724952      638.75888    
    150000   294.5525       0.013605706    6.3738131      730.79287     -93.173987      637.61888    
    151000   304.13978      0.013605706   -1.2892593      754.57917     -88.732068      665.8471     
    152000   313.79904      0.013605706    12.250163      778.54407     -92.555068      685.989      
    153000   294.59333      0.013605706    8.7279855      730.89418     -94.83174       636.06244    
    154000   300.10544      0.013605706    5.8292444      744.56987     -91.654888      652.91498    
    155000   311.59718      0.013605706    5.2460677      773.0812      -90.800146      682.28106    
    156000   304.34996      0.013605706    7.4096676      755.10063     -87.92228       667.17835    
    157000   290.308        0.013605706    10.403753      720.26214     -90.915916      629.34623    
    158000   303.30941      0.013605706   -0.40581618     752.51902     -80.945777      671.57324    
    159000   310.03362      0.013605706    9.0901078      769.20196     -83.993847      685.20812    
    160000   292.75766      0.013605706    14.826792      726.33981     -88.25146       638.08835    
    161000   285.60693      0.013605706    6.6496865      708.59866     -86.647348      621.95131    
    162000   300.17926      0.013605706    3.9507207      744.75301     -85.502579      659.25043    
    163000   307.28304      0.013605706    5.7961611      762.37769     -83.682786      678.6949     
    164000   306.59428      0.013605706    14.114923      760.66885     -87.780983      672.88787    
    165000   283.48138      0.013605706    11.939402      703.32511     -89.710859      613.61425    
    166000   299.27713      0.013605706    3.6128354      742.5148      -86.341696      656.17311    
    167000   306.41305      0.013605706    5.9449849      760.21922     -87.024273      673.19495    
    168000   303.06307      0.013605706    13.589974      751.90784     -91.881308      660.02653    
    169000   298.2182       0.013605706    0.37352029     739.88758     -86.44109       653.44649    
    170000   301.87573      0.013605706    5.1095064      748.962       -85.87577       663.08623    
    171000   298.33654      0.013605706    6.8109272      740.18118     -90.990444      649.19074    
    172000   310.09749      0.013605706    10.665784      769.36043     -89.971197      679.38923    
    173000   289.40457      0.013605706    7.9550656      718.02072     -90.168599      627.85212    
    174000   290.94399      0.013605706    7.8297145      721.84005     -87.493118      634.34693    
    175000   296.19961      0.013605706    5.9479396      734.87939     -89.682654      645.19673    
    176000   311.86841      0.013605706    7.4148004      773.75412     -87.545819      686.2083     
    177000   300.08358      0.013605706    6.1897819      744.51564     -86.475417      658.04022    
    178000   293.92873      0.013605706    6.7392326      729.24527     -87.476103      641.76917    
    179000   298.66638      0.013605706    4.3144099      740.99952     -95.247479      645.75204    
    180000   302.46848      0.013605706    6.5634796      750.43264     -87.886462      662.54618    
    181000   300.78852      0.013605706    13.068168      746.26461     -86.162983      660.10162    
    182000   295.59599      0.013605706    6.1978158      733.38181     -87.20057       646.18124    
    183000   306.88294      0.013605706    5.0247569      761.38504     -86.394403      674.99063    
    184000   311.19201      0.013605706    11.068444      772.07595     -87.282775      684.79318    
    185000   286.05702      0.013605706    11.719325      709.71536     -91.622464      618.09289    
    186000   291.27274      0.013605706    4.288012       722.65569     -84.231489      638.4242     
    187000   314.73333      0.013605706    5.358017       780.86208     -88.938141      691.92393    
    188000   300.59056      0.013605706    8.3777336      745.77347     -87.427102      658.34637    
    189000   297.87625      0.013605706    7.5849361      739.03919     -86.013429      653.02577    
    190000   289.01609      0.013605706    7.0500933      717.05689     -89.037144      628.01975    
    191000   301.64099      0.013605706    6.2194448      748.37961     -88.387905      659.9917     
    192000   299.33182      0.013605706    7.4465917      742.6505      -86.780071      655.87043    
    193000   297.06132      0.013605706    6.7204242      737.01733     -81.28109       655.73624    
    194000   297.86677      0.013605706    6.2473856      739.01566     -84.972804      654.04286    
    195000   304.74722      0.013605706    7.7837253      756.08625     -85.181224      670.90503    
    196000   296.26127      0.013605706    11.510302      735.03237     -84.693463      650.3389     
    197000   299.95037      0.013605706    7.2284271      744.18513     -85.522513      658.66261    
    198000   304.66521      0.013605706    0.003358597    755.88279     -85.616085      670.2667     
    199000   302.0476       0.013605706    10.20901       749.38842     -80.903795      668.48462    
    200000   302.86526      0.013605706    6.9697624      751.41706     -81.176844      670.24022    
    201000   302.18399      0.013605706    7.5424543      749.72681     -84.421568      665.30524    
    202000   304.89439      0.013605706    11.791145      756.45139     -80.493543      675.95785    
    203000   296.13441      0.013605706    6.3097623      734.71763     -80.595162      654.12247    
    204000   294.244        0.013605706    10.351611      730.02747     -76.528789      653.49868    
    205000   297.98367      0.013605706    7.9347299      739.30569     -79.582688      659.723      
    206000   328.73132      0.013605706    7.2671669      815.59147     -78.428878      737.16259    
    207000   291.29143      0.013605706    7.0325612      722.70206     -72.216205      650.48586    
    208000   285.20983      0.013605706    6.3383517      707.61344     -73.642648      633.97079    
    209000   315.89195      0.013605706    6.2153791      783.73664     -73.038609      710.69803    
    210000   301.02972      0.013605706    6.1305136      746.86302     -74.129322      672.7337     
    211000   281.54019      0.013605706    6.6865119      698.50897     -81.13375       617.37522    
    212000   314.82011      0.013605706    6.8051479      781.07738     -79.175644      701.90174    
    213000   306.44104      0.013605706    9.1466957      760.28868     -75.765998      684.52268    
    214000   290.89341      0.013605706    5.8679592      721.71457     -73.825823      647.88875    
    215000   293.75756      0.013605706    6.7440451      728.82061     -76.098521      652.72209    
    216000   310.6165       0.013605706    6.7405452      770.6481      -76.284159      694.36394    
    217000   304.49229      0.013605706    5.7303432      755.45376     -82.492103      672.96166    
    218000   296.5036       0.013605706    10.191188      735.63361     -80.573948      655.05967    
    219000   310.79365      0.013605706    14.898623      771.0876      -76.271791      694.81581    
    220000   278.87745      0.013605706    6.6208832      691.90264     -70.906535      620.99611    
    221000   289.93629      0.013605706    10.129555      719.33994     -73.119888      646.22005    
    222000   312.28035      0.013605706    9.9311842      774.77615     -71.496413      703.27974    
    223000   311.40699      0.013605706    2.4653179      772.60932     -71.021386      701.58793    
    224000   281.44402      0.013605706    6.923514       698.27036     -63.403646      634.86672    
    225000   306.64644      0.013605706    10.551347      760.79826     -70.890009      689.90826    
    226000   313.18798      0.013605706    6.1994653      777.02802     -72.806852      704.22116    
    227000   302.33009      0.013605706    4.9019566      750.08928     -73.42855       676.66073    
    228000   277.41396      0.013605706    9.507907       688.27169     -71.739393      616.5323     
    229000   288.72335      0.013605706    3.7240318      716.3306      -73.932618      642.39798    
    230000   313.95034      0.013605706    13.955016      778.91944     -75.0847        703.83474    
    231000   302.16332      0.013605706    0.66623874     749.67552     -71.748636      677.92688    
    232000   294.15033      0.013605706    2.2433751      729.79509     -72.926353      656.86874    
    233000   287.93469      0.013605706    14.318631      714.37391     -74.794312      639.5796     
    234000   300.81551      0.013605706    7.1970388      746.33157     -76.085754      670.24581    
    235000   309.11706      0.013605706    6.5736735      766.92794     -79.952373      686.97557    
    236000   292.82853      0.013605706    4.7602534      726.51564     -81.481471      645.03417    
    237000   288.85542      0.013605706    9.5622323      716.65827     -74.718758      641.93951    
    238000   301.02829      0.013605706    7.6910426      746.8595      -74.662336      672.19716    
    239000   298.82176      0.013605706    3.5673322      741.38503     -75.339606      666.04543    
    240000   300.84         0.013605706    8.706602       746.39233     -76.291498      670.10083    
    241000   304.24616      0.013605706    12.027634      754.8431      -80.321387      674.52171    
    242000   299.40758      0.013605706    0.99515562     742.83847     -78.125383      664.71308    
    243000   301.35956      0.013605706    2.2276564      747.68138     -80.320147      667.36123    
    244000   298.94328      0.013605706    7.3407327      741.68651     -82.394782      659.29173    
    245000   284.53643      0.013605706    10.130083      705.94273     -73.301813      632.64091    
    246000   300.9307       0.013605706    10.431391      746.61737     -77.502436      669.11494    
    247000   316.19865      0.013605706    4.6826127      784.49756     -77.762456      706.73511    
    248000   295.22377      0.013605706    6.2382526      732.4583      -80.719012      651.73929    
    249000   296.07859      0.013605706    12.874161      734.57914     -75.425049      659.15409    
    250000   313.46046      0.013605706    7.670269       777.70404     -79.713899      697.99014    
    251000   308.55774      0.013605706    6.4337552      765.54027     -78.41512       687.12515    
    252000   297.97265      0.013605706    6.1908286      739.27835     -78.538606      660.73975    
    253000   295.69868      0.013605706    6.0581464      733.63657     -83.422675      650.21389    
    254000   305.0405       0.013605706    0.76096828     756.81388     -77.571527      679.24235    
    255000   313.19188      0.013605706    2.3644512      777.03768     -75.535238      701.50244    
    256000   293.62991      0.013605706    11.719294      728.50391     -80.382378      648.12153    
    257000   285.36149      0.013605706    11.512705      707.98972     -83.348678      624.64104    
    258000   310.17268      0.013605706    5.0622136      769.54698     -78.278777      691.2682     
    259000   308.4791       0.013605706    2.5913903      765.34516     -79.497191      685.84797    
    260000   304.09815      0.013605706    14.668648      754.4759      -78.231491      676.24441    
    261000   293.14642      0.013605706    10.173431      727.30435     -76.783296      650.52105    
    262000   297.0245       0.013605706    2.943649       736.92597     -74.109152      662.81682    
    263000   307.68361      0.013605706    1.6044191      763.37152     -75.611026      687.7605     
    264000   298.59136      0.013605706    15.829605      740.81339     -74.585648      666.22774    
    265000   291.37554      0.013605706   -1.5142957      722.91075     -75.288242      647.62251    
    266000   303.06774      0.013605706    4.364411       751.91942     -77.902267      674.01715    
    267000   306.11672      0.013605706    15.905855      759.48403     -74.08956       685.39447    
    268000   289.18542      0.013605706    8.471885       717.477       -78.422498      639.0545     
    269000   297.58771      0.013605706   -1.0936569      738.32332     -77.277212      661.04611    
    270000   308.92142      0.013605706    7.0814329      766.44255     -75.580622      690.86193    
    271000   294.84253      0.013605706    11.705118      731.51244     -74.349452      657.16299    
    272000   295.06733      0.013605706    6.702222       732.07017     -80.208452      651.86172    
    273000   308.50858      0.013605706    2.8415737      765.41828     -80.962102      684.45618    
    274000   315.99388      0.013605706    4.5905898      783.98954     -79.923558      704.06598    
    275000   301.57823      0.013605706    7.6978265      748.22389     -79.798902      668.42499    
    276000   288.82069      0.013605706    10.153913      716.5721      -79.889454      636.68264    
    277000   288.84479      0.013605706    4.4352339      716.63188     -83.309837      633.32205    
    278000   296.16784      0.013605706    7.5802381      734.80058     -77.478214      657.32237    
    279000   297.31606      0.013605706    8.5825994      737.64934     -83.403954      654.24539    
    280000   293.68256      0.013605706    6.6142893      728.63452     -77.365387      651.26914    
    281000   301.0259       0.013605706    8.2830926      746.85356     -78.062277      668.79128    
    282000   302.87349      0.013605706    7.4951581      751.43748     -79.05319       672.38429    
    283000   315.31749      0.013605706    9.8310061      782.31138     -76.940324      705.37105    
    284000   296.52409      0.013605706    6.3808644      735.68445     -82.270268      653.41418    
    285000   299.15529      0.013605706    7.6844426      742.21252     -80.618241      661.59428    
    286000   301.39183      0.013605706    7.0999359      747.76143     -74.457215      673.30422    
    287000   302.17427      0.013605706    6.7011398      749.70269     -73.262824      676.43987    
    288000   307.9762       0.013605706    8.3715593      764.09745     -73.846309      690.25114    
    289000   291.20545      0.013605706    6.4652714      722.48875     -74.94169       647.54706    
    290000   288.93172      0.013605706    7.1204419      716.84756     -72.802046      644.04551    
    291000   301.35403      0.013605706    7.3726421      747.66766     -73.867334      673.80033    
    292000   310.66931      0.013605706    9.2678566      770.77913     -73.831673      696.94746    
    293000   298.16639      0.013605706    6.3833237      739.75902     -77.70335       662.05567    
    294000   293.20139      0.013605706    6.1283573      727.44073     -73.765796      653.67493    
    295000   299.89311      0.013605706    7.3713678      744.04308     -76.181823      667.86126    
    296000   314.45873      0.013605706    6.9541746      780.18076     -75.68577       704.495      
    297000   294.5576       0.013605706    3.5772777      730.80552     -77.200636      653.60488    
    298000   293.04858      0.013605706    6.9284316      727.0616      -75.489438      651.57217    
    299000   299.79244      0.013605706    8.3785519      743.7933      -76.568704      667.2246     
    300000   305.36628      0.013605706    10.188722      757.62216     -61.808802      695.81336    
    301000   300.83652      0.013605706    7.3924322      746.38371     -73.269447      673.11426    
    302000   302.37299      0.013605706    1.1428914      750.19573     -76.076198      674.11953    
    303000   301.47559      0.013605706    6.5290043      747.96926     -77.31573       670.65353    
    304000   303.54466      0.013605706    8.192703       753.10268     -80.121062      672.98162    
    305000   306.03397      0.013605706    7.4933445      759.27872     -80.735644      678.54308    
    306000   307.5304       0.013605706    5.9721409      762.99141     -80.28798       682.70343    
    307000   299.19911      0.013605706    5.1372624      742.32123     -83.527468      658.79376    
    308000   290.47058      0.013605706    7.4888605      720.66552     -82.521544      638.14398    
    309000   300.10301      0.013605706    9.0925996      744.56383     -78.787079      665.77676    
    310000   311.93138      0.013605706    6.6151685      773.91034     -78.193869      695.71647    
    311000   282.94228      0.013605706    5.7332098      701.98761     -72.996683      628.99093    
    312000   291.13307      0.013605706    7.923162       722.30916     -69.197051      653.11211    
    313000   299.70263      0.013605706    7.3345733      743.57049     -71.621639      671.94885    
    314000   309.0765       0.013605706    7.1154856      766.82731     -70.579244      696.24807    
    315000   295.48251      0.013605706    5.4034505      733.10025     -69.261893      663.83836    
    316000   301.07282      0.013605706    13.135793      746.96997     -63.576952      683.39302    
    317000   305.69281      0.013605706    6.5642917      758.4323      -70.237845      688.19445    
    318000   288.17921      0.013605706    3.58939        714.98056     -62.708842      652.27172    
    319000   297.83475      0.013605706    18.607363      738.93623     -57.681192      681.25503    
    320000   310.8309       0.013605706    10.654913      771.18004     -66.163712      705.01633    
    321000   294.81681      0.013605706    3.8278234      731.44862     -66.832292      664.61633    
    322000   292.71038      0.013605706    7.2612854      726.22252     -68.251501      657.97102    
    323000   308.63794      0.013605706    7.8384788      765.73924     -68.583966      697.15528    
    324000   308.88602      0.013605706    7.4313212      766.35472     -67.217584      699.13714    
    325000   292.8093       0.013605706    5.0919603      726.46794     -67.422533      659.04541    
    326000   299.46324      0.013605706    6.4741466      742.97656     -75.786018      667.19054    
    327000   302.37546      0.013605706    8.481264       750.20186     -67.45478       682.74708    
    328000   303.96186      0.013605706    9.9790636      754.13776     -69.410075      684.72768    
    329000   305.16298      0.013605706   -10.542149      757.11778     -68.925504      688.19227    
    330000   297.97843      0.013605706    6.324364       739.2927      -66.475661      672.81704    
    331000   306.44915      0.013605706    8.464015       760.30878     -70.641342      689.66744    
    332000   314.13754      0.013605706    4.6706445      779.38389     -74.551352      704.83254    
    333000   291.84992      0.013605706   -3.5047012      724.0877      -65.065375      659.02233    
    334000   286.72265      0.013605706    7.7056537      711.3668      -64.107247      647.25956    
    335000   306.13481      0.013605706    10.510482      759.5289      -68.076276      691.45262    
    336000   315.82711      0.013605706    5.1424379      783.57576     -69.865865      713.7099     
    337000   295.16128      0.013605706   -0.81918714     732.30328     -66.814394      665.48888    
    338000   292.21629      0.013605706    7.7971701      724.99667     -71.126624      653.87005    
    339000   311.708        0.013605706    12.270547      773.35614     -71.086362      702.26978    
    340000   310.23954      0.013605706   -3.1091817      769.71286     -68.657968      701.05489    
    341000   292.77071      0.013605706    12.277673      726.3722      -68.917425      657.45477    
    342000   299.19915      0.013605706    13.952521      742.32135     -72.034602      670.28674    
    343000   308.74632      0.013605706    3.7711005      766.00813     -66.568095      699.44003    
    344000   296.79118      0.013605706    5.4976841      736.3471      -61.985595      674.3615     
    345000   302.71197      0.013605706    19.32085       751.03675     -56.843956      694.19279    
    346000   299.36315      0.013605706    0.14560503     742.72823     -61.551049      681.17718    
    347000   294.06538      0.013605706    1.9261789      729.58432     -61.038223      668.5461     
    348000   301.43749      0.013605706    12.339407      747.87471     -64.358358      683.51635    
    349000   309.38942      0.013605706    13.041453      767.60367     -63.071361      704.53231    
    350000   304.99214      0.013605706   -6.4737974      756.6939      -61.693713      695.00018    
    351000   284.51271      0.013605706    3.6198555      705.88387     -61.825012      644.05885    
    352000   311.07126      0.013605706    11.960953      771.77638     -61.350804      710.42558    
    353000   306.31831      0.013605706    2.1619626      759.98416     -65.229047      694.75512    
    354000   294.05645      0.013605706    6.1487312      729.56217     -67.184196      662.37797    
    355000   295.8457       0.013605706    9.140511       734.00134     -59.775931      674.22541    
    356000   298.80605      0.013605706    7.4113146      741.34605     -64.179118      677.16693    
    357000   292.30625      0.013605706   -3.4939407      725.21987     -58.926265      666.2936     
    358000   299.14118      0.013605706    9.185644       742.17751     -57.557966      684.61954    
    359000   295.53617      0.013605706    8.2678289      733.23339     -63.463137      669.77025    
    360000   317.74939      0.013605706    5.7030368      788.345       -63.251195      725.09381    
    361000   301.48628      0.013605706    6.9663263      747.99576     -62.10986       685.8859     
    362000   286.24228      0.013605706    6.6216928      710.17499     -59.918898      650.25609    
    363000   302.48218      0.013605706    7.111346       750.46664     -62.925163      687.54148    
    364000   304.30604      0.013605706    5.4832698      754.99168     -62.121483      692.8702     
    365000   296.49263      0.013605706    7.8830694      735.6064      -59.031913      676.57448    
    366000   303.47175      0.013605706    7.3883586      752.92178     -57.672062      695.24972    
    367000   299.16897      0.013605706    5.6596413      742.24647     -60.96587       681.2806     
    368000   306.05007      0.013605706    5.7875846      759.31866     -65.084149      694.23451    
    369000   298.22236      0.013605706    15.578152      739.8979      -65.591906      674.30599    
    370000   301.28831      0.013605706    7.1744756      747.50459     -64.350492      683.1541     
    371000   298.38397      0.013605706    6.9831972      740.29886     -66.824894      673.47397    
    372000   300.52896      0.013605706    6.157982       745.62063     -60.527818      685.09282    
    373000   307.77167      0.013605706    7.5039516      763.58999     -62.034201      701.55579    
    374000   297.05602      0.013605706    7.2539886      737.00418     -60.103296      676.90088    
    375000   299.30363      0.013605706    7.0171266      742.58054     -60.553478      682.02707    
    376000   285.49924      0.013605706    5.9883561      708.33148     -62.25505       646.07643    
    377000   313.87792      0.013605706    7.9774908      778.73976     -62.741843      715.99792    
    378000   302.53015      0.013605706    7.2105004      750.58563     -54.448664      696.13697    
    379000   286.29965      0.013605706    7.2521529      710.31732     -51.973147      658.34417    
    380000   296.26806      0.013605706    3.9163861      735.04923     -49.784059      685.26517    
    381000   305.62017      0.013605706    8.2434137      758.25207     -51.685508      706.56656    
    382000   295.85404      0.013605706    6.6127904      734.02203     -53.835768      680.18626    
    383000   311.82985      0.013605706    3.2892533      773.65845     -49.480855      724.17759    
    384000   303.64047      0.013605706    10.651676      753.34037     -50.847596      702.49278    
    385000   295.75024      0.013605706    13.015935      733.7645      -50.213192      683.55131    
    386000   297.83162      0.013605706    6.8078271      738.92847     -52.691874      686.23659    
    387000   305.55124      0.013605706    6.0943604      758.08105     -53.147694      704.93336    
    388000   311.83736      0.013605706    8.8140714      773.67708     -58.66802       715.00906    
    389000   291.0143       0.013605706    10.670398      722.0145      -56.760847      665.25366    
    390000   293.60462      0.013605706    0.72721529     728.44117     -54.2152        674.22597    
    391000   304.4718       0.013605706    6.9294416      755.40294     -57.397399      698.00554    
    392000   301.1787       0.013605706    17.620121      747.23265     -51.406972      695.82568    
    393000   290.00892      0.013605706   -2.5750507      719.52011     -49.228011      670.2921     
    394000   302.71741      0.013605706    2.8555168      751.05023     -46.035017      705.01522    
    395000   300.26321      0.013605706    15.336512      744.96129     -44.547487      700.4138     
    396000   288.46917      0.013605706    6.2651305      715.69996     -48.795616      666.90434    
    397000   292.90299      0.013605706   -1.5560582      726.70039     -51.024427      675.67596    
    398000   302.88337      0.013605706    9.8488943      751.46198     -51.142617      700.31937    
    399000   285.53886      0.013605706    10.689973      708.42978     -47.879895      660.54989    
    400000   303.21839      0.013605706    0.89078102     752.29318     -51.216474      701.07671    
    401000   302.44463      0.013605706    8.8037331      750.37346     -48.600063      701.77339    
    402000   296.16527      0.013605706    15.642427      734.79419     -52.897082      681.89711    
    403000   281.93886      0.013605706    4.8466015      699.49809     -45.96511       653.53298    
    404000   312.65429      0.013605706   -7.6436859      775.70391     -44.951305      730.75261    
    405000   313.2185       0.013605706    6.4232722      777.10374     -46.423254      730.68048    
    406000   290.5088       0.013605706    11.391525      720.76035     -43.55192       677.20843    
    407000   292.51458      0.013605706    6.4887658      725.73674     -47.392267      678.34447    
    408000   309.3952       0.013605706    7.0535111      767.61803     -48.922872      718.69516    
    409000   296.26543      0.013605706    7.5994931      735.04269     -44.309398      690.73329    
    410000   297.97652      0.013605706    4.4306642      739.28797     -46.123632      693.16433    
    411000   320.08416      0.013605706    8.2319489      794.13763     -46.052015      748.08561    
    412000   308.5328       0.013605706    12.146653      765.47839     -41.593441      723.88495    
    413000   291.83697      0.013605706    9.2752028      724.05556     -41.070305      682.98526    
    414000   305.64369      0.013605706    6.7005786      758.31041     -46.24718       712.06323    
    415000   307.32381      0.013605706    5.9190231      762.47884     -50.642943      711.8359     
    416000   304.33719      0.013605706    8.7451944      755.06895     -51.865298      703.20365    
    417000   289.46336      0.013605706    6.7037885      718.16657     -50.068422      668.09815    
    418000   296.05259      0.013605706    5.062093       734.51464     -48.11825       686.39639    
    419000   304.9916       0.013605706    7.7620989      756.69258     -50.548481      706.1441     
    420000   312.32575      0.013605706    7.6523471      774.88879     -52.392256      722.49653    
    421000   301.46181      0.013605706    7.3899066      747.93507     -52.794124      695.14095    
    422000   292.96297      0.013605706    8.3625225      726.84921     -45.687246      681.16197    
    423000   294.23875      0.013605706    8.5396861      730.01445     -44.108854      685.9056     
    424000   311.24512      0.013605706    8.8303224      772.20772     -44.507864      727.69986    
    425000   305.76793      0.013605706    6.9728629      758.61867     -43.044484      715.57418    
    426000   279.25838      0.013605706    6.6589387      692.84774     -46.879895      645.96784    
    427000   291.12649      0.013605706    6.9586281      722.29284     -44.848456      677.44438    
    428000   294.01985      0.013605706    8.0642496      729.47135     -41.129817      688.34154    
    429000   303.08911      0.013605706    7.7150042      751.97244     -40.891274      711.08116    
    430000   300.19574      0.013605706    5.249202       744.7939      -41.942664      702.85123    
    431000   287.31361      0.013605706    8.5241322      712.83298     -41.03369       671.79929    
    432000   311.97366      0.013605706    13.267452      774.01525     -44.444171      729.57108    
    433000   308.56454      0.013605706    7.867738       765.55712     -44.042516      721.5146     
    434000   302.80441      0.013605706    5.209212       751.26609     -38.906522      712.35957    
    435000   286.97294      0.013605706    8.8233959      711.98777     -38.053439      673.93433    
    436000   302.23476      0.013605706    12.04436       749.85277     -35.347124      714.50564    
    437000   310.45245      0.013605706    6.9776045      770.2411      -35.848795      734.3923     
    438000   319.86902      0.013605706    5.8906613      793.60386     -43.146253      750.4576     
    439000   296.55464      0.013605706    7.0446107      735.76023     -39.396361      696.36387    
    440000   294.83362      0.013605706    7.7632204      731.49033     -38.317692      693.17264    
    441000   304.77963      0.013605706    7.3348592      756.16665     -37.143326      719.02333    
    442000   301.74507      0.013605706    7.7053122      748.63784     -35.438956      713.19888    
    443000   300.62726      0.013605706    5.9313324      745.86451     -35.486626      710.37788    
    444000   302.93411      0.013605706    7.88842        751.58788     -34.579         717.00888    
    445000   299.27138      0.013605706    4.3754979      742.50055     -32.531471      709.96908    
    446000   293.40444      0.013605706    8.4794083      727.94451     -34.709079      693.23543    
    447000   316.7617       0.013605706    8.8492179      785.8945      -35.885667      750.00883    
    448000   302.91774      0.013605706    6.5041118      751.54727     -36.356675      715.1906     
    449000   297.32277      0.013605706    7.0994671      737.666       -36.922718      700.74328    
    450000   304.26658      0.013605706    8.266283       754.89378     -33.55843       721.33535    
    451000   314.37369      0.013605706    8.7381457      779.96978     -34.93025       745.03953    
    452000   307.67401      0.013605706    5.5256658      763.34769     -37.686549      725.66114    
    453000   285.77938      0.013605706    6.8674344      709.02651     -35.833222      673.19329    
    454000   290.6623       0.013605706    6.7843089      721.14118     -37.469314      683.67187    
    455000   310.77887      0.013605706    7.6846931      771.05094     -37.296659      733.75428    
    456000   302.55508      0.013605706    6.7866186      750.64748     -38.017938      712.62955    
    457000   298.93985      0.013605706    6.6007162      741.67801     -35.58184       706.09617    
    458000   295.4383       0.013605706    6.5398171      732.99056     -35.386111      697.60445    
    459000   295.37648      0.013605706    8.8057015      732.83719     -35.525767      697.31142    
    460000   309.72197      0.013605706    5.7754125      768.42874     -34.728827      733.69991    
    461000   303.24909      0.013605706    6.6743171      752.36936     -33.520157      718.8492     
    462000   293.29259      0.013605706    10.250241      727.667       -34.262182      693.40481    
    463000   305.70454      0.013605706    8.3278293      758.4614      -33.439313      725.02208    
    464000   301.49801      0.013605706    6.9513568      748.02487     -34.909843      713.11502    
    465000   299.81799      0.013605706    5.94808        743.85669     -32.050672      711.80602    
    466000   298.72014      0.013605706    7.2875427      741.1329      -30.259751      710.87315    
    467000   296.5715       0.013605706    8.5432781      735.80206     -35.975454      699.8266     
    468000   303.04878      0.013605706    7.3000444      751.87239     -35.37114       716.50124    
    469000   307.43019      0.013605706    5.8382458      762.74276     -36.190015      726.55275    
    470000   293.04581      0.013605706    5.70408        727.05474     -37.250155      689.80458    
    471000   292.90335      0.013605706    6.001871       726.70127     -38.464778      688.2365     
    472000   299.05399      0.013605706    11.410002      741.9612      -36.513086      705.44811    
    473000   307.53825      0.013605706    6.8114704      763.01088     -35.295821      727.71506    
    474000   295.52934      0.013605706    6.1702268      733.21644     -42.112445      691.104      
    475000   287.23979      0.013605706    5.813913       712.64984     -43.035154      669.61469    
    476000   298.33334      0.013605706    7.6168007      740.17324     -36.765378      703.40787    
    477000   307.8008       0.013605706    5.1284519      763.66228     -39.320547      724.34173    
    478000   288.98058      0.013605706    10.933201      716.96878     -36.695834      680.27294    
    479000   300.01337      0.013605706    13.592062      744.34144     -36.73322       707.60822    
    480000   305.05952      0.013605706    0.17894034     756.86107     -35.348406      721.51267    
    481000   304.24703      0.013605706    7.9901764      754.84527     -32.546511      722.29876    
    482000   298.30003      0.013605706    9.4848586      740.09059     -45.678417      694.41218    
    483000   311.68223      0.013605706    11.721276      773.29222     -39.065269      734.22695    
    484000   305.84101      0.013605706    3.1544742      758.79997     -36.898384      721.90158    
    485000   284.073        0.013605706    7.5714341      704.79293     -39.11553       665.6774     
    486000   299.53542      0.013605706    9.0332906      743.15563     -38.722032      704.4336     
    487000   305.24753      0.013605706    2.3878729      757.32753     -37.918899      719.40863    
    488000   291.34807      0.013605706    6.5759885      722.8426      -38.385347      684.45725    
    489000   299.82377      0.013605706    9.9634529      743.87105     -38.678327      705.19272    
    490000   302.95783      0.013605706    9.1336584      751.64674     -38.566514      713.08022    
    491000   308.24509      0.013605706    9.8420792      764.76457     -37.121254      727.64332    
    492000   297.57816      0.013605706    7.0349009      738.29961     -35.146567      703.15305    
    493000   292.3519       0.013605706    3.6857788      725.33313     -33.42882       691.90431    
    494000   307.01552      0.013605706    7.5995908      761.71398     -36.897383      724.81659    
    495000   311.2558       0.013605706    11.415517      772.23421     -33.363362      738.87085    
    496000   300.35574      0.013605706    6.8888222      745.19086     -38.630805      706.56006    
    497000   303.42046      0.013605706    2.9529189      752.79452     -37.548532      715.24599    
    498000   321.75745      0.013605706    5.1551829      798.28911     -46.397092      751.89202    
    499000   289.79582      0.013605706    10.703526      718.99143     -42.267047      676.72438    
    500000   281.87826      0.013605706    7.0908316      699.34772     -37.422315      661.92541    
    501000   307.60933      0.013605706    4.7705468      763.18722     -35.84142       727.3458     
    502000   302.80046      0.013605706    10.649879      751.25628     -33.118586      718.13769    
    503000   289.81171      0.013605706    9.3136665      719.03084     -37.411915      681.61893    
    504000   300.082        0.013605706    8.6843643      744.51171     -35.810266      708.70144    
    505000   294.88613      0.013605706    8.6942373      731.62061     -36.414702      695.20591    
    506000   304.60014      0.013605706    0.39639301     755.72134     -33.166893      722.55445    
    507000   324.29036      0.013605706    0.31899023     804.57333     -33.051919      771.52141    
    508000   296.99588      0.013605706    10.288334      736.85496     -34.237034      702.61792    
    509000   291.60337      0.013605706    8.2433578      723.476       -37.448313      686.02768    
    510000   298.71158      0.013605706   -0.9334795      741.11167     -37.626234      703.48544    
    511000   298.70574      0.013605706    6.0608482      741.09717     -37.468166      703.62901    
    512000   300.81765      0.013605706    5.5857822      746.33689     -34.282219      712.05467    
    513000   307.46052      0.013605706    12.496172      762.81803     -35.025162      727.79287    
    514000   290.01786      0.013605706    9.1772931      719.54231     -33.154803      686.38751    
    515000   295.68085      0.013605706    3.8999217      733.59235     -32.718991      700.87336    
    516000   309.31681      0.013605706    13.173295      767.42354     -36.011135      731.41241    
    517000   301.96091      0.013605706    7.8243784      749.17335     -33.135308      716.03804    
    518000   300.32193      0.013605706    4.7403875      745.10698     -27.548869      717.55811    
    519000   298.95759      0.013605706    7.4424894      741.72202     -25.726106      715.99591    
    520000   292.73901      0.013605706    9.4860081      726.29356     -28.845032      697.44853    
    521000   310.77961      0.013605706    5.1756944      771.05277     -29.384438      741.66834    
    522000   305.75826      0.013605706    9.6232361      758.59467     -30.892787      727.70189    
    523000   291.52812      0.013605706    7.9754931      723.2893      -32.452244      690.83706    
    524000   289.2101       0.013605706   -2.0920714      717.53823     -31.050957      686.48727    
    525000   306.40285      0.013605706   -2.0964266      760.19392     -31.90892       728.285      
    526000   308.99212      0.013605706    12.252471      766.61797     -34.346675      732.2713     
    527000   298.10673      0.013605706    9.416908       739.611       -30.647034      708.96397    
    528000   290.94774      0.013605706    0.3792374      721.84937     -33.39981       688.44956    
    529000   314.20608      0.013605706    2.2084702      779.55396     -35.124958      744.429      
    530000   304.60013      0.013605706    10.381408      755.72132     -35.861466      719.85985    
    531000   297.39861      0.013605706    6.8033218      737.85416     -34.313881      703.54028    
    532000   306.88861      0.013605706    2.2695005      761.3991      -31.811212      729.58789    
    533000   296.3697       0.013605706    10.084037      735.30139     -30.404906      704.89648    
    534000   302.25625      0.013605706    6.9207564      749.9061      -26.886023      723.02007    
    535000   287.16964      0.013605706    5.612689       712.4758      -29.536215      682.93958    
    536000   305.91809      0.013605706    7.9103321      758.9912      -32.459945      726.53126    
    537000   304.5458       0.013605706    6.9260557      755.58654     -29.337059      726.24948    
    538000   294.33522      0.013605706    7.4770138      730.2538      -28.927116      701.32668    
    539000   301.44818      0.013605706    7.2560961      747.90124     -21.353642      726.5476     
    540000   317.45321      0.013605706    6.7172605      787.61017     -26.042511      761.56766    
    541000   290.14079      0.013605706    7.7232509      719.8473      -25.148805      694.6985     
    542000   294.52568      0.013605706    7.7454573      730.72634     -29.195187      701.53116    
    543000   311.67176      0.013605706    7.4034227      773.26623     -25.265653      748.00058    
    544000   303.64613      0.013605706    6.7510246      753.35441     -24.167793      729.18661    
    545000   280.97547      0.013605706    7.9494336      697.10788     -22.76107       674.34681    
    546000   296.98358      0.013605706    7.3993204      736.82446     -27.295794      709.52866    
    547000   305.76245      0.013605706    8.0831441      758.60508     -29.519416      729.08566    
    548000   304.35057      0.013605706    6.6175031      755.10216     -27.668532      727.43363    
    549000   292.64313      0.013605706    7.6691777      726.05567     -31.802951      694.25272    
    550000   289.37339      0.013605706    7.3234697      717.94336     -31.522673      686.42069    
    551000   300.43075      0.013605706    6.6792926      745.37696     -35.973261      709.4037     
    552000   303.77277      0.013605706    1.4792653      753.66861     -33.742626      719.92598    
    553000   311.20087      0.013605706    8.7103738      772.09794     -32.805942      739.29199    
    554000   303.57031      0.013605706    10.028525      753.16632     -32.560706      720.60561    
    555000   299.49324      0.013605706    9.2555177      743.05098     -35.803566      707.24741    
    556000   298.19778      0.013605706    5.450067       739.83691     -32.568653      707.26826    
    557000   299.77241      0.013605706    7.1011198      743.74362     -30.586559      713.15706    
    558000   316.41757      0.013605706    8.3618414      785.0407      -27.312653      757.72805    
    559000   295.67581      0.013605706    6.9611273      733.57984     -27.241214      706.33863    
    560000   295.70456      0.013605706    7.5984685      733.65118     -33.809187      699.84199    
    561000   303.3259       0.013605706    7.0334846      752.55992     -34.389641      718.17028    
    562000   300.7075       0.013605706    4.7222628      746.06359     -36.354327      709.70926    
    563000   304.02629      0.013605706    9.4066384      754.29762     -36.413971      717.88365    
    564000   301.84467      0.013605706    6.9795458      748.88494     -35.972786      712.91216    
    565000   295.9551       0.013605706    6.3161156      734.27277     -30.749858      703.52291    
    566000   313.03003      0.013605706    11.868061      776.63613     -28.937231      747.6989     
    567000   300.9133       0.013605706    6.6120482      746.5742      -27.066571      719.50763    
    568000   297.43435      0.013605706    7.6515803      737.94283     -28.525738      709.41709    
    569000   311.49034      0.013605706    12.662515      772.81612     -32.316299      740.49982    
    570000   303.82439      0.013605706    9.8780266      753.7967      -32.12748       721.66922    
    571000   293.73524      0.013605706    3.67247        728.76523     -32.336163      696.42907    
    572000   293.38951      0.013605706    12.157765      727.90747     -34.534009      693.37346    
    573000   311.91636      0.013605706    8.2647635      773.8731      -32.006092      741.86701    
    574000   306.89916      0.013605706    6.1368389      761.42527     -32.948789      728.47648    
    575000   281.11133      0.013605706    7.4669363      697.44495     -33.122238      664.32272    
    576000   310.40048      0.013605706    7.2692735      770.11215     -28.261348      741.8508     
    577000   296.46657      0.013605706    8.8328877      735.54172     -29.100748      706.44098    
    578000   293.78985      0.013605706    7.4357885      728.90073     -26.910649      701.99008    
    579000   300.51826      0.013605706    7.3715863      745.59409     -26.37761       719.21648    
    580000   311.23018      0.013605706    9.0677248      772.17066     -31.244768      740.92589    
    581000   283.99389      0.013605706    7.173013       704.59667     -28.86191       675.73476    
    582000   291.70294      0.013605706    7.1995658      723.72305     -30.102995      693.62005    
    583000   303.15325      0.013605706    7.6281477      752.13157     -23.817701      728.31387    
    584000   305.96556      0.013605706    7.252382       759.10899     -23.813677      735.29531    
    585000   298.7236       0.013605706    10.67298       741.14148     -25.860295      715.28119    
    586000   293.34306      0.013605706    11.280041      727.79222     -29.213743      698.57848    
    587000   297.44383      0.013605706    2.8573907      737.96634     -32.400068      705.56627    
    588000   298.29423      0.013605706   -1.1929815      740.0762      -31.560592      708.51561    
    589000   310.15422      0.013605706    10.60108       769.50117     -27.977394      741.52378    
    590000   284.72724      0.013605706    8.7313327      706.41612     -25.425414      680.99071    
    591000   299.22861      0.013605706    0.15098898     742.39443     -25.726259      716.66817    
    592000   306.7709       0.013605706    7.8487536      761.10707     -24.585038      736.52203    
    593000   295.96135      0.013605706    11.450887      734.28826     -26.504559      707.7837     
    594000   291.80541      0.013605706    2.8256947      723.97728     -28.915828      695.06145    
    595000   297.27292      0.013605706    4.455252       737.54232     -26.111751      711.43057    
    596000   310.90808      0.013605706    7.075545       771.37152     -28.726014      742.64551    
    597000   317.84131      0.013605706    7.4715068      788.57306     -27.581672      760.99139    
    598000   302.25861      0.013605706    8.0475435      749.91193     -26.498907      723.41302    
    599000   282.60365      0.013605706    6.999082       701.14744     -27.574587      673.57286    
    600000   307.69115      0.013605706    13.921222      763.39023     -30.932949      732.45728    
    601000   310.61763      0.013605706    9.4563695      770.65091     -31.561778      739.08913    
    602000   285.08859      0.013605706    6.9314888      707.31265     -28.433883      678.87877    
    603000   294.92672      0.013605706    7.2316526      731.72133     -31.833565      699.88777    
    604000   300.61266      0.013605706    11.166281      745.8283      -28.710887      717.11741    
    605000   294.15472      0.013605706    10.62255       729.80596     -26.758478      703.04748    
    606000   301.2436       0.013605706    4.1610185      747.39368     -24.774273      722.61941    
    607000   303.42482      0.013605706    6.8623529      752.80533     -28.288362      724.51697    
    608000   300.10023      0.013605706    6.7766381      744.55695     -28.990701      715.56624    
    609000   297.52609      0.013605706    7.7520848      738.17043     -30.82184       707.34859    
    610000   304.01349      0.013605706    15.239619      754.26586     -28.339038      725.92682    
    611000   302.78075      0.013605706    10.13426       751.20739     -28.268351      722.93904    
    612000   305.27872      0.013605706   -0.87347139     757.40492     -35.436362      721.96855    
    613000   303.31485      0.013605706    11.747001      752.53251     -31.21774       721.31477    
    614000   293.05223      0.013605706    5.9481397      727.07067     -27.505709      699.56496    
    615000   305.84477      0.013605706    6.9191659      758.80931     -27.028853      731.78046    
    616000   308.65622      0.013605706    7.6851634      765.7846      -25.280712      740.50388    
    617000   301.42838      0.013605706    10.540333      747.85212     -26.615215      721.2369     
    618000   283.48668      0.013605706    4.2140935      703.33827     -28.737233      674.60103    
    619000   302.32937      0.013605706    6.7638029      750.08751     -29.946195      720.14131    
    620000   304.29782      0.013605706    10.874889      754.97128     -24.026832      730.94445    
    621000   303.98346      0.013605706    7.7372134      754.19135     -22.514086      731.67726    
    622000   300.55922      0.013605706    7.7487606      745.69571     -25.919783      719.77592    
    623000   316.20487      0.013605706    8.1969666      784.513       -27.112277      757.40072    
    624000   296.499        0.013605706    7.1400773      735.62219     -22.900533      712.72166    
    625000   296.77865      0.013605706    7.3423465      736.316       -27.002482      709.31352    
    626000   304.83225      0.013605706    8.2613581      756.29722     -27.27703       729.02019    
    627000   312.45637      0.013605706    9.0295346      775.21286     -25.983738      749.22913    
    628000   311.36004      0.013605706    12.163142      772.49285     -25.548033      746.94481    
    629000   298.94906      0.013605706    5.3243111      741.70087     -23.35731       718.34356    
    630000   301.85701      0.013605706    5.7987898      748.91556     -22.248043      726.66752    
    631000   300.70051      0.013605706    9.58061        746.04626     -21.014061      725.0322     
    632000   305.01594      0.013605706    7.2484944      756.75296     -26.256595      730.49636    
    633000   301.65355      0.013605706    6.8484381      748.41078     -21.714136      726.69664    
    634000   314.00116      0.013605706    7.3196441      779.04554     -23.994592      755.05095    
    635000   281.48983      0.013605706    6.6378383      698.38404     -25.060747      673.32329    
    636000   301.20799      0.013605706    7.4421965      747.30532     -25.587759      721.71756    
    637000   306.83569      0.013605706    9.6950885      761.26779     -24.322564      736.94523    
    638000   305.94808      0.013605706    7.9359733      759.06562     -22.365205      736.70042    
    639000   282.61146      0.013605706    7.0505247      701.16682     -26.141301      675.02552    
    640000   297.44259      0.013605706    7.096859       737.96327     -23.875984      714.08728    
    641000   315.80779      0.013605706    7.5538041      783.52784     -23.663984      759.86385    
    642000   308.0564       0.013605706    6.8487112      764.29641     -24.56459       739.73182    
    643000   294.60933      0.013605706    6.8236428      730.93386     -27.140869      703.79299    
    644000   285.39845      0.013605706    9.0629996      708.08143     -29.663578      678.41785    
    645000   304.21654      0.013605706    7.3106868      754.76961     -24.937464      729.83215    
    646000   297.15805      0.013605706    6.5108709      737.25731     -26.945276      710.31203    
    647000   294.71942      0.013605706    6.4804987      731.20699     -25.616376      705.59062    
    648000   298.42296      0.013605706    7.86604        740.39558     -26.451165      713.94442    
    649000   303.73508      0.013605706    9.3367666      753.57512     -24.113015      729.4621     
    650000   299.40549      0.013605706    8.5162732      742.83327     -24.191821      718.64145    
    651000   304.87352      0.013605706    6.538708       756.3996      -25.775092      730.62451    
    652000   295.76634      0.013605706    5.3364419      733.80443     -27.39883       706.4056     
    653000   290.20764      0.013605706    8.1496931      720.01315     -32.557443      687.4557     
    654000   308.26492      0.013605706    9.5409739      764.81377     -25.137752      739.67602    
    655000   308.66976      0.013605706    6.9934774      765.81819     -27.126647      738.69154    
    656000   291.46277      0.013605706    8.4912725      723.12716     -24.873304      698.25386    
    657000   295.23165      0.013605706    8.998592       732.47786     -24.846998      707.63086    
    658000   309.12546      0.013605706    3.9324423      766.94878     -27.222348      739.72644    
    659000   296.44751      0.013605706    7.844001       735.49443     -30.981358      704.51308    
    660000   304.53422      0.013605706    10.133677      755.55778     -31.971129      723.58665    
    661000   308.89902      0.013605706    7.7070335      766.38698     -33.143203      733.24377    
    662000   299.93586      0.013605706    7.2221931      744.14914     -33.867176      710.28196    
    663000   300.17583      0.013605706    5.0277699      744.74452     -30.946765      713.79775    
    664000   292.40373      0.013605706    12.57664       725.46171     -28.675436      696.78627    
    665000   291.31246      0.013605706    14.591865      722.75425     -26.191953      696.5623     
    666000   300.28626      0.013605706    16.681549      745.01849     -22.775606      722.24289    
    667000   305.32798      0.013605706   -0.46452978     757.52712     -26.16402       731.3631     
    668000   302.53059      0.013605706    8.5802142      750.58674     -26.904182      723.68255    
    669000   297.55293      0.013605706    10.928142      738.23701     -28.225885      710.01113    
    670000   300.83786      0.013605706    5.9323564      746.38703     -30.416693      715.97034    
    671000   303.43111      0.013605706    4.7874054      752.82094     -26.395411      726.42553    
    672000   310.66087      0.013605706    3.3244519      770.75818     -28.170487      742.58769    
    673000   302.01529      0.013605706    10.288704      749.30826     -33.220587      716.08767    
    674000   297.57441      0.013605706    14.498327      738.29033     -24.606809      713.68352    
    675000   307.73057      0.013605706    2.7316855      763.48803     -25.844692      737.64333    
    676000   284.1956       0.013605706    9.3641261      705.09711     -25.228973      679.86814    
    677000   287.50401      0.013605706    12.63987       713.30538     -26.090679      687.21471    
    678000   300.89535      0.013605706    12.795602      746.52966     -26.697416      719.83224    
    679000   323.10987      0.013605706    9.5799698      801.64449     -26.285915      775.35858    
    680000   297.10365      0.013605706    7.1835846      737.12235     -28.252681      708.86967    
    681000   291.74045      0.013605706    6.5132456      723.8161      -30.160671      693.65543    
    682000   301.75716      0.013605706    8.8821134      748.66783     -30.31287       718.35496    
    683000   297.5378       0.013605706    9.0509941      738.19948     -27.569107      710.63037    
    684000   309.2479       0.013605706    7.8304063      767.25255     -28.905565      738.34699    
    685000   307.63371      0.013605706    6.1844646      763.24771     -32.505109      730.74261    
    686000   282.42081      0.013605706    5.5388224      700.69382     -27.782983      672.91083    
    687000   285.76398      0.013605706    6.5181649      708.98831     -27.409959      681.57835    
    688000   303.77643      0.013605706    8.2760021      753.67771     -29.330588      724.34712    
    689000   317.98992      0.013605706    8.6672459      788.94176     -28.126681      760.81508    
    690000   304.96042      0.013605706    3.4235166      756.6152      -30.490421      726.12478    
    691000   289.69573      0.013605706    7.5131974      718.74309     -33.162725      685.58037    
    692000   311.1981       0.013605706    7.2037187      772.09107     -34.748175      737.34289    
    693000   302.48258      0.013605706    7.6414966      750.46762     -33.993246      716.47438    
    694000   290.70203      0.013605706    7.0762768      721.23975     -33.873172      687.36658    
    695000   296.3968       0.013605706    9.7200887      735.36862     -29.870276      705.49834    
    696000   313.37391      0.013605706    7.5053397      777.48931     -29.1156        748.37371    
    697000   314.53136      0.013605706    6.6269514      780.36098     -28.242917      752.11806    
    698000   293.20772      0.013605706    3.7914537      727.45643     -25.542303      701.91412    
    699000   297.29035      0.013605706    7.773165       737.58556     -24.428955      713.15661    
    700000   319.15156      0.013605706    8.0635555      791.82382     -25.092252      766.73157    
    701000   297.67724      0.013605706    6.9843802      738.54544     -27.522974      711.02247    
    702000   291.27799      0.013605706    7.4760895      722.66871     -23.434944      699.23377    
    703000   299.88057      0.013605706    6.9143109      744.01196     -26.325648      717.68631    
    704000   301.30106      0.013605706    8.9513119      747.53624     -24.464401      723.07184    
    705000   302.55998      0.013605706    7.7450874      750.65966     -24.594404      726.06525    
    706000   301.63497      0.013605706    5.6636683      748.36467     -27.547073      720.8176     
    707000   295.21301      0.013605706    6.3231226      732.43162     -23.470446      708.96117    
    708000   302.69512      0.013605706    6.997346       750.99493     -18.492121      732.50281    
    709000   300.42689      0.013605706    9.9382866      745.3674      -23.500592      721.86681    
    710000   305.10482      0.013605706    6.4813863      756.97348     -21.575108      735.39837    
    711000   297.89405      0.013605706    6.5913926      739.08335     -24.955201      714.12815    
    712000   303.50602      0.013605706    8.5309663      753.00681     -22.513623      730.49319    
    713000   308.74517      0.013605706    8.1189387      766.00527     -23.347734      742.65754    
    714000   298.2723       0.013605706    8.6144595      740.02181     -28.831136      711.19067    
    715000   302.58737      0.013605706    7.5175984      750.72759     -26.433583      724.29401    
    716000   310.61496      0.013605706    7.0810961      770.64429     -26.109817      744.53447    
    717000   305.3312       0.013605706    6.2956177      757.53512     -21.114514      736.42061    
    718000   307.89212      0.013605706    7.4331789      763.88884     -24.324523      739.56432    
    719000   295.92995      0.013605706    7.3248208      734.21036     -25.669875      708.54049    
    720000   292.81426      0.013605706    7.2673619      726.48025     -22.610915      703.86934    
    721000   301.0468       0.013605706    9.4267434      746.90541     -23.852268      723.05315    
    722000   301.22579      0.013605706    6.5776351      747.34949     -23.017337      724.33215    
    723000   293.18138      0.013605706    7.0251757      727.39109     -22.63582       704.75527    
    724000   298.35243      0.013605706    6.9157459      740.22061     -19.190596      721.03002    
    725000   307.44654      0.013605706    7.7972605      762.78335     -20.94905       741.83429    
    726000   301.14476      0.013605706    7.264582       747.14844     -25.658344      721.4901     
    727000   297.76784      0.013605706    7.1922807      738.77023     -27.344436      711.42579    
    728000   303.58736      0.013605706    7.3117697      753.20861     -26.356571      726.85203    
    729000   301.30357      0.013605706    3.6840534      747.54247     -18.998211      728.54426    
    730000   308.61548      0.013605706    7.7802353      765.6835      -20.465676      745.21783    
    731000   303.00526      0.013605706    10.570699      751.76439     -20.899505      730.86489    
    732000   286.22285      0.013605706    4.4296806      710.12677     -24.108659      686.01811    
    733000   298.59449      0.013605706    6.1352177      740.82116     -26.634078      714.18708    
    734000   305.18106      0.013605706    9.4042991      757.16263     -25.003996      732.15863    
    735000   302.79993      0.013605706    8.7811906      751.25499     -23.738534      727.51645    
    736000   297.62187      0.013605706   -2.5880762      738.40806     -27.929364      710.4787     
    737000   307.65156      0.013605706    5.5882297      763.29199     -27.197375      736.09461    
    738000   289.68978      0.013605706    9.5461842      718.72833     -28.902383      689.82595    
    739000   291.66968      0.013605706    7.0989775      723.64052     -30.606471      693.03405    
    740000   313.13759      0.013605706    6.3336302      776.90298     -24.813428      752.08955    
    741000   313.52214      0.013605706    8.1176938      777.85707     -24.285055      753.57202    
    742000   283.80331      0.013605706    8.0079657      704.12384     -26.001337      678.1225     
    743000   296.95159      0.013605706    9.0848563      736.74508     -23.826573      712.9185     
    744000   300.56006      0.013605706    7.1151049      745.6978      -23.361141      722.33665    
    745000   295.42607      0.013605706    7.3767185      732.96022     -19.931365      713.02886    
    746000   300.59849      0.013605706    5.9693664      745.79315     -23.525985      722.26717    
    747000   312.22769      0.013605706    7.8411088      774.64551     -20.092251      754.55325    
    748000   302.87827      0.013605706    7.8049322      751.44933     -25.329634      726.11969    
    749000   291.85507      0.013605706    8.2926951      724.10046     -23.296898      700.80357    
    750000   289.75478      0.013605706    8.8759119      718.88959     -24.238631      694.65096    
    751000   301.4938       0.013605706    8.8964023      748.01444     -21.937013      726.07743    
    752000   311.03723      0.013605706    7.5694933      771.69195     -21.724815      749.96713    
    753000   307.96896      0.013605706    7.2867419      764.07948     -19.092986      744.98649    
    754000   292.57386      0.013605706    7.452643       725.88381     -23.617316      702.26649    
    755000   309.60379      0.013605706    7.3147593      768.13553     -24.518832      743.6167     
    756000   310.6756       0.013605706    7.6467351      770.79472     -23.801853      746.99286    
    757000   297.09688      0.013605706    6.5368007      737.10554     -25.639195      711.46635    
    758000   296.92592      0.013605706    5.3773171      736.6814      -21.462341      715.21906    
    759000   301.07243      0.013605706    7.8187311      746.969       -25.031583      721.93742    
    760000   315.62103      0.013605706    9.5753981      783.06446     -27.537803      755.52666    
    761000   292.88076      0.013605706    7.0510386      726.64524     -26.711856      699.93338    
    762000   291.3619       0.013605706    5.7920996      722.8769      -26.950598      695.92631    
    763000   306.92241      0.013605706    9.1991214      761.48296     -33.874822      727.60814    
    764000   313.22442      0.013605706    7.1120252      777.11841     -31.500142      745.61827    
    765000   293.40561      0.013605706    8.0019368      727.94741     -26.526038      701.42137    
    766000   297.90532      0.013605706    7.2650995      739.1113      -24.963758      714.14755    
    767000   305.74947      0.013605706    6.6248173      758.57286     -28.783361      729.7895     
    768000   300.86897      0.013605706    13.209547      746.4642      -28.670348      717.79385    
    769000   294.63333      0.013605706    6.3710753      730.9934      -28.127957      702.86545    
    770000   314.04976      0.013605706    5.8995961      779.16611     -24.375017      754.7911     
    771000   314.55567      0.013605706    7.1957016      780.4213      -24.288304      756.13299    
    772000   293.3575       0.013605706    7.9231041      727.82804     -25.802364      702.02568    
    773000   285.84999      0.013605706    4.5395488      709.2017      -26.48298       682.71872    
    774000   307.92439      0.013605706    7.9052121      763.96889     -28.997898      734.97099    
    775000   311.19941      0.013605706    6.4431914      772.09431     -27.418521      744.67579    
    776000   287.81457      0.013605706    13.26368       714.07587     -28.656199      685.41967    
    777000   289.95612      0.013605706    2.5812728      719.38914     -33.772156      685.61698    
    778000   315.7121       0.013605706    8.3531842      783.29043     -26.635328      756.6551     
    779000   298.0027       0.013605706    9.659034       739.35292     -30.840489      708.51243    
    780000   290.26765      0.013605706    6.368318       720.16204     -28.493403      691.66864    
    781000   304.42281      0.013605706    6.1614395      755.28139     -23.926345      731.35505    
    782000   312.67609      0.013605706    8.8360932      775.758       -24.632944      751.12505    
    783000   290.45798      0.013605706    7.2806994      720.63425     -24.769106      695.86514    
    784000   305.73113      0.013605706    5.9428132      758.52737     -25.10455       733.42282    
    785000   309.42026      0.013605706    7.8924615      767.68019     -28.53255       739.14764    
    786000   300.26745      0.013605706    6.9397417      744.97182     -30.099459      714.87236    
    787000   304.09928      0.013605706    7.1897864      754.47869     -27.884217      726.59448    
    788000   298.7847       0.013605706    6.5866649      741.29307     -25.651193      715.64187    
    789000   305.85453      0.013605706    7.1212678      758.83352     -23.245869      735.58765    
    790000   304.16869      0.013605706    8.7328301      754.6509      -23.293662      731.35724    
    791000   285.34023      0.013605706    6.3580728      707.93698     -26.741282      681.1957     
    792000   303.6542       0.013605706    4.9339664      753.37444     -27.507384      725.86705    
    793000   313.99577      0.013605706    9.0086615      779.03215     -31.183057      747.8491     
    794000   292.16812      0.013605706    8.3411897      724.87715     -32.190251      692.6869     
    795000   297.71792      0.013605706    6.9883979      738.64637     -32.164757      706.48161    
    796000   296.94827      0.013605706    6.4137515      736.73683     -31.524852      705.21198    
    797000   308.55874      0.013605706    7.5051674      765.54274     -30.75182       734.79092    
    798000   305.70688      0.013605706    9.7309067      758.4672      -26.73998       731.72722    
    799000   280.00584      0.013605706    8.7634216      694.7022      -31.119829      663.58237    
    800000   298.52893      0.013605706    7.8436758      740.65851     -26.125547      714.53296    
    801000   300.31384      0.013605706    6.7558214      745.0869      -23.644553      721.44235    
    802000   305.39163      0.013605706    3.5188078      757.68505     -22.107492      735.57756    
    803000   307.18946      0.013605706    6.2868876      762.14551     -17.063646      745.08186    
    804000   303.03508      0.013605706    9.8528236      751.8384      -18.055499      733.7829     
    805000   299.83166      0.013605706    7.4158745      743.89061     -19.272704      724.61791    
    806000   313.49439      0.013605706    7.4543995      777.78822     -20.11954       757.66868    
    807000   297.76748      0.013605706    7.5680501      738.76932     -19.944884      718.82443    
    808000   284.66662      0.013605706    8.3340169      706.26574     -25.500168      680.76557    
    809000   305.07868      0.013605706    8.3850433      756.90863     -22.618063      734.29056    
    810000   310.45982      0.013605706    6.9242949      770.25936     -24.590228      745.66914    
    811000   290.01367      0.013605706    2.8592188      719.5319      -24.768006      694.76389    
    812000   289.27773      0.013605706    11.579833      717.70602     -25.316814      692.38921    
    813000   307.79401      0.013605706    7.9533666      763.64543     -23.429494      740.21594    
    814000   314.27728      0.013605706    5.2320523      779.73059     -23.898783      755.83181    
    815000   287.89907      0.013605706    5.8653599      714.28552     -22.427883      691.85764    
    816000   291.48473      0.013605706    10.955596      723.18166     -20.544228      702.63743    
    817000   304.78372      0.013605706    7.735965       756.1768      -20.286557      735.89025    
    818000   307.97194      0.013605706    4.3866196      764.08687     -20.360538      743.72633    
    819000   289.87334      0.013605706    0.057720129    719.18376     -18.487936      700.69582    
    820000   291.2152       0.013605706    8.7122592      722.51295     -15.355628      707.15732    
    821000   298.04126      0.013605706    7.2420329      739.44858     -15.686878      723.7617     
    822000   305.91711      0.013605706    11.52015       758.98877     -21.018295      737.97048    
    823000   295.07746      0.013605706   -6.7466181      732.09531     -23.145722      708.94959    
    824000   292.04204      0.013605706    8.0337747      724.56434     -21.799364      702.76498    
    825000   306.3911       0.013605706    9.9933819      760.16477     -18.721464      741.44331    
    826000   306.5859       0.013605706    11.742892      760.64807     -18.584622      742.06345    
    827000   295.81868      0.013605706   -2.8477777      733.9343      -18.147546      715.78675    
    828000   295.16202      0.013605706    12.59757       732.3051      -21.430516      710.87458    
    829000   307.80172      0.013605706    11.263671      763.66456     -20.215056      743.44951    
    830000   307.86474      0.013605706    7.487357       763.82092     -18.174044      745.64687    
    831000   278.62232      0.013605706    2.8524445      691.26966     -22.39502       668.87464    
    832000   297.27937      0.013605706    9.1653535      737.5583      -18.260863      719.29744    
    833000   316.65872      0.013605706    15.92749       785.63901     -20.315401      765.32361    
    834000   302.94988      0.013605706    4.837227       751.627       -19.293742      732.33326    
    835000   284.94031      0.013605706    6.7045346      706.94476     -18.061728      688.88303    
    836000   304.46073      0.013605706    10.741554      755.37546     -21.360294      734.01517    
    837000   309.89083      0.013605706    7.4525568      768.84769     -20.276324      748.57136    
    838000   296.45199      0.013605706    9.2143188      735.50557     -18.041572      717.46399    
    839000   296.71803      0.013605706    6.2469788      736.16562     -22.102064      714.06356    
    840000   293.13636      0.013605706    6.66461        727.27938     -20.949496      706.32988    
    841000   298.67869      0.013605706    7.9334059      741.03006     -21.760941      719.26911    
    842000   317.55303      0.013605706    8.158559       787.85783     -20.418558      767.43927    
    843000   294.42785      0.013605706    6.3209052      730.48362     -19.989358      710.49426    
    844000   300.82268      0.013605706    7.2217049      746.34936     -22.528067      723.82129    
    845000   296.47782      0.013605706    12.112222      735.56963     -25.433622      710.13601    
    846000   301.93457      0.013605706    7.9214007      749.10798     -20.836225      728.27175    
    847000   290.21698      0.013605706    5.0698942      720.03632     -22.983646      697.05267    
    848000   300.69993      0.013605706    7.363534       746.04481     -21.149119      724.89569    
    849000   298.17757      0.013605706    12.402596      739.78677     -18.207278      721.5795     
    850000   295.25492      0.013605706    7.7634777      732.53559     -19.291654      713.24394    
    851000   297.71192      0.013605706    7.1694906      738.63149     -14.639387      723.9921     
    852000   301.10823      0.013605706    7.1816667      747.05782     -20.251377      726.80644    
    853000   303.17569      0.013605706    6.9376         752.18724     -15.557518      736.62972    
    854000   299.28159      0.013605706    3.6158869      742.52586     -17.004407      725.52146    
    855000   304.4505       0.013605706    6.281032       755.35008     -18.369952      736.98013    
    856000   306.71441      0.013605706    9.354555       760.9669      -18.820193      742.14671    
    857000   301.85893      0.013605706    9.1342275      748.92032     -16.834982      732.08533    
    858000   293.94513      0.013605706    7.547607       729.28597     -20.148373      709.1376     
    859000   294.49432      0.013605706    3.922485       730.64853     -22.845179      707.80335    
    860000   303.04805      0.013605706    3.9420982      751.87057     -20.283217      731.58735    
    861000   300.4759       0.013605706    7.9535102      745.489       -18.091126      727.39787    
    862000   295.61186      0.013605706    6.5442744      733.42117     -18.928233      714.49294    
    863000   280.56769      0.013605706    5.6709355      696.09618     -23.303122      672.79306    
    864000   302.01278      0.013605706    7.030954       749.30202     -22.269772      727.03225    
    865000   314.58729      0.013605706    9.5165637      780.49975     -25.138896      755.36085    
    866000   280.52238      0.013605706    8.7332667      695.98376     -23.541491      672.44227    
    867000   288.37206      0.013605706    7.4958947      715.45904     -23.622169      691.83687    
    868000   290.22062      0.013605706    1.2741253      720.04537     -20.805412      699.23996    
    869000   313.36044      0.013605706    9.2997928      777.45589     -21.174569      756.28132    
    870000   307.80919      0.013605706    11.745996      763.68309     -20.221169      743.46192    
    871000   299.85777      0.013605706    8.2803075      743.9554      -19.909245      724.04616    
    872000   285.27522      0.013605706    5.2010892      707.77568     -21.478795      686.29689    
    873000   299.99444      0.013605706   -0.32556837     744.29447     -22.141715      722.15275    
    874000   316.57234      0.013605706    5.4978654      785.42471     -23.575496      761.84921    
    875000   300.39718      0.013605706    11.167642      745.29369     -21.894692      723.399      
    876000   296.29925      0.013605706    6.8870679      735.1266      -20.468547      714.65806    
    877000   300.01445      0.013605706    0.019958446    744.34413     -17.383292      726.96084    
    878000   298.73432      0.013605706    6.1483057      741.16807     -17.745627      723.42245    
    879000   307.65523      0.013605706    13.469371      763.30109     -19.242306      744.05879    
    880000   306.78103      0.013605706    10.076571      761.1322      -23.164748      737.96745    
    881000   299.2279       0.013605706    0.71817601     742.39267     -23.655418      718.73726    
    882000   296.8685       0.013605706    7.4533162      736.53894     -21.084228      715.45471    
    883000   297.53838      0.013605706    13.763754      738.20093     -22.28531       715.91562    
    884000   285.49276      0.013605706    5.8270774      708.3154      -18.662968      689.65243    
    885000   305.30202      0.013605706    7.4323892      757.46271     -15.635918      741.8268     
    886000   307.4133       0.013605706    16.913076      762.70086     -25.962589      736.73828    
    887000   295.27915      0.013605706    9.0963668      732.59572     -21.046431      711.54929    
    888000   302.08789      0.013605706    4.9118043      749.48838     -22.997221      726.49116    
    889000   316.52059      0.013605706    11.466282      785.29631     -26.41739       758.87892    
    890000   298.71995      0.013605706    10.807315      741.13243     -21.196937      719.9355     
    891000   303.56881      0.013605706   -0.76758211     753.16258     -26.124185      727.0384     
    892000   302.59467      0.013605706    6.2703484      750.74571     -26.016472      724.72923    
    893000   312.90905      0.013605706    9.794485       776.33597     -28.856764      747.47921    
    894000   314.00971      0.013605706    10.753626      779.06675     -29.546222      749.52052    
    895000   278.49593      0.013605706    10.173148      690.95609     -23.116164      667.83993    
    896000   295.24797      0.013605706    5.9984529      732.51836     -24.388265      708.13009    
    897000   310.15699      0.013605706    7.3391374      769.50805     -24.802151      744.7059     
    898000   309.20865      0.013605706    12.45131       767.15518     -24.506249      742.64893    
    899000   291.86868      0.013605706    7.2252584      724.13423     -24.056977      700.07726    
    900000   307.50759      0.013605706    6.9676452      762.93482     -25.566151      737.36866    
    901000   303.54512      0.013605706    10.454967      753.10382     -26.011926      727.09189    
    902000   289.29445      0.013605706    10.575748      717.7475      -28.830936      688.91657    
    903000   294.49643      0.013605706    6.8329667      730.65376     -25.208646      705.44512    
    904000   309.81019      0.013605706    6.3391471      768.64762     -28.108932      740.53869    
    905000   310.47774      0.013605706    9.2363304      770.30384     -26.555856      743.74799    
    906000   289.72148      0.013605706    7.2645993      718.80697     -22.826356      695.98061    
    907000   304.62154      0.013605706    5.4557725      755.77445     -27.634831      728.13961    
    908000   304.72563      0.013605706    8.0671625      756.03269     -24.06698       731.96571    
    909000   301.63261      0.013605706    10.018211      748.35881     -22.998454      725.36036    
    910000   301.67106      0.013605706    7.4440906      748.45421     -23.484784      724.96942    
    911000   306.18683      0.013605706    1.042598       759.65796     -25.034814      734.62315    
    912000   298.68338      0.013605706    10.133775      741.04169     -21.620895      719.42079    
    913000   292.9769       0.013605706    9.4282788      726.88377     -22.189869      704.6939     
    914000   319.27556      0.013605706    2.6148136      792.13147     -20.746389      771.38508    
    915000   308.29005      0.013605706    10.484697      764.87611     -19.306761      745.56935    
    916000   287.78198      0.013605706    5.2628073      713.99504     -18.359858      695.63518    
    917000   296.82262      0.013605706    6.3851926      736.42509     -21.185871      715.23922    
    918000   299.4573       0.013605706    15.520722      742.96181     -20.98036       721.98145    
    919000   298.43285      0.013605706    9.1732315      740.42013     -19.487596      720.93254    
    920000   308.49456      0.013605706   -1.9706329      765.3835      -24.455811      740.92769    
    921000   295.06697      0.013605706    10.043776      732.0693      -24.38952       707.67978    
    922000   297.41893      0.013605706    15.498702      737.90457     -20.154058      717.75051    
    923000   298.23616      0.013605706    3.8969609      739.93214     -16.092093      723.84005    
    924000   295.59776      0.013605706   -0.68983673     733.3862      -19.586719      713.79948    
    925000   300.67913      0.013605706    7.8359033      745.9932      -19.241933      726.75127    
    926000   300.66662      0.013605706    7.8340232      745.96218     -20.247734      725.71445    
    927000   303.10393      0.013605706    7.5099689      752.0092      -19.574318      732.43488    
    928000   306.16367      0.013605706    7.3606634      759.60051     -20.988912      738.61159    
    929000   308.32014      0.013605706    8.2387744      764.95077     -22.696121      742.25465    
    930000   296.77617      0.013605706    7.9229845      736.30987     -22.497186      713.81268    
    931000   299.93392      0.013605706    7.0027894      744.14433     -21.796146      722.34819    
    932000   297.23388      0.013605706    7.168174       737.44545     -23.461755      713.98369    
    933000   293.83316      0.013605706    8.286204       729.00817     -20.249535      708.75864    
    934000   306.42306      0.013605706    8.9592302      760.24405     -20.199904      740.04414    
    935000   322.85777      0.013605706    4.7080191      801.01902     -18.902962      782.11606    
    936000   287.88051      0.013605706    6.5722851      714.23948     -19.865247      694.37423    
    937000   303.61327      0.013605706    6.8121709      753.27289     -22.514376      730.75851    
    938000   321.12891      0.013605706    7.9721295      796.72967     -24.99603       771.73364    
    939000   290.32861      0.013605706    6.5909817      720.31328     -22.540979      697.7723     
    940000   285.56407      0.013605706    6.1320152      708.49233     -20.521666      687.97066    
    941000   300.5325       0.013605706    7.4052726      745.62942     -17.801046      727.82838    
    942000   317.8343       0.013605706    7.8839577      788.55567     -24.012225      764.54344    
    943000   301.91416      0.013605706    8.6724898      749.05735     -20.947472      728.10988    
    944000   286.97876      0.013605706    8.2876186      712.00222     -17.602563      694.39966    
    945000   303.62771      0.013605706    7.1767455      753.30872     -18.469945      734.83877    
    946000   299.60452      0.013605706    6.924818       743.32707     -17.679231      725.64784    
    947000   288.40785      0.013605706    6.1133841      715.54782     -17.646451      697.90137    
    948000   298.88417      0.013605706    7.389943       741.53987     -19.226703      722.31317    
    949000   312.14752      0.013605706    6.4629542      774.44661     -17.95276       756.49385    
    950000   309.57136      0.013605706    6.3617238      768.05507     -19.086745      748.96833    
    951000   304.92384      0.013605706    7.1615586      756.52444     -18.950194      737.57425    
    952000   294.89627      0.013605706    7.5969519      731.64577     -16.184268      715.46151    
    953000   299.01373      0.013605706    7.8445153      741.86132     -24.095036      717.76628    
    954000   316.12274      0.013605706    9.1284007      784.30924     -21.704845      762.6044     
    955000   297.52307      0.013605706   -0.98338135     738.16293     -22.686941      715.47599    
    956000   288.24388      0.013605706    6.8025336      715.14101     -22.299557      692.84145    
    957000   299.04324      0.013605706    10.021325      741.93453     -19.181892      722.75264    
    958000   323.71535      0.013605706    9.9790498      803.14671     -15.626683      787.52003    
    959000   301.41855      0.013605706    3.6402966      747.82772     -20.289942      727.53778    
    960000   295.46288      0.013605706    8.7818907      733.05154     -15.882245      717.1693     
    961000   308.51069      0.013605706    9.000443       765.42353     -15.861687      749.56184    
    962000   311.50559      0.013605706    11.07892       772.85396     -18.996159      753.85781    
    963000   294.62464      0.013605706    0.21594433     730.97185     -21.386767      709.58509    
    964000   294.41094      0.013605706    7.3042395      730.44166     -20.155895      710.28577    
    965000   305.26067      0.013605706    7.8550376      757.36014     -22.970793      734.38935    
    966000   298.16403      0.013605706    11.951679      739.75318     -20.34368       719.4095     
    967000   298.8548       0.013605706    6.5791998      741.46699     -22.698529      718.76846    
    968000   295.4881       0.013605706    7.3063256      733.11411     -17.836615      715.27749    
    969000   311.72479      0.013605706    8.9315193      773.39779     -18.833991      754.5638     
    970000   300.76824      0.013605706    8.3518298      746.21429     -18.860958      727.35333    
    971000   302.85535      0.013605706    8.0917296      751.39246     -19.337373      732.05509    
    972000   302.04651      0.013605706    2.4721203      749.38573     -21.893388      727.49234    
    973000   292.63691      0.013605706    8.1192534      726.04025     -21.575943      704.46431    
    974000   295.7256       0.013605706    12.440869      733.70336     -19.950831      713.75252    
    975000   308.85164      0.013605706   -0.093873788    766.26944     -19.516462      746.75298    
    976000   304.2931       0.013605706    6.3084912      754.95958     -22.431111      732.52847    
    977000   297.3286       0.013605706    8.5638958      737.68045     -21.685864      715.99459    
    978000   300.75606      0.013605706    7.815989       746.18407     -23.239706      722.94437    
    979000   303.20019      0.013605706    2.6621833      752.24804     -19.198595      733.04944    
    980000   303.4312       0.013605706    4.827762       752.82116     -15.386739      737.43442    
    981000   306.4483       0.013605706    6.1842965      760.30668     -13.259628      747.04705    
    982000   286.15536      0.013605706    10.867607      709.95932     -12.702339      697.25699    
    983000   292.52341      0.013605706    6.3351606      725.75863     -19.034904      706.72373    
    984000   285.37215      0.013605706    5.8608162      708.01617     -18.03455       689.98163    
    985000   301.37198      0.013605706    3.5633415      747.71219     -19.393597      728.3186     
    986000   302.34652      0.013605706    6.0778055      750.13005     -17.441772      732.68828    
    987000   302.5905       0.013605706    8.9185158      750.73536     -16.474607      734.26076    
    988000   304.13805      0.013605706    9.0006549      754.57489     -15.059098      739.5158     
    989000   299.13889      0.013605706    8.5505675      742.17184     -19.232138      722.9397     
    990000   292.92855      0.013605706    7.3238929      726.7638      -17.228503      709.53529    
    991000   302.0152       0.013605706    6.8904041      749.30803     -22.395678      726.91235    
    992000   312.12521      0.013605706    7.9703571      774.39126     -20.098069      754.29319    
    993000   294.74866      0.013605706    7.1779503      731.27956     -20.647402      710.63216    
    994000   299.83319      0.013605706    6.3235715      743.89441     -17.196898      726.69751    
    995000   308.5137       0.013605706    8.4019918      765.43099     -18.337752      747.09324    
    996000   299.37965      0.013605706    9.1675428      742.76915     -18.806395      723.96276    
    997000   295.56974      0.013605706    7.2439079      733.31668     -16.158089      717.15859    
    998000   299.67704      0.013605706    5.3338078      743.507       -18.735178      724.77182    
    999000   296.41601      0.013605706    6.5654708      735.41629     -19.019533      716.39675    
   1000000   310.52889      0.013605706    10.074093      770.43075     -18.900535      751.53021    
   1001000   291.16679      0.013605706    7.9946621      722.39284     -20.773043      701.61979    
   1002000   305.08895      0.013605706    6.8923889      756.93408     -19.058538      737.87554    
   1003000   307.74926      0.013605706    7.6662984      763.5344      -18.43301       745.10139    
   1004000   297.38885      0.013605706    7.46876        737.82993     -20.91044       716.91949    
   1005000   297.80446      0.013605706    7.0271822      738.86108     -21.507052      717.35403    
   1006000   291.71696      0.013605706    10.24587       723.75783     -22.231722      701.52611    
   1007000   309.76354      0.013605706    6.1618752      768.53188     -21.736623      746.79526    
   1008000   300.42685      0.013605706    5.1357269      745.3673      -25.049892      720.31741    
   1009000   291.09465      0.013605706    7.7277319      722.21385     -23.601051      698.6128     
   1010000   299.42613      0.013605706    8.441532       742.88448     -20.453826      722.43065    
   1011000   316.68154      0.013605706    7.6949635      785.69563     -18.385859      767.30977    
   1012000   288.36398      0.013605706    5.2874538      715.43899     -20.062269      695.37673    
   1013000   291.04192      0.013605706    6.4383209      722.08303     -24.44055       697.64248    
   1014000   300.17668      0.013605706    7.8703855      744.74661     -24.379491      720.36712    
   1015000   304.84637      0.013605706    8.0402316      756.33224     -24.344133      731.98811    
   1016000   295.81627      0.013605706    4.3888902      733.92833     -25.767477      708.16086    
   1017000   304.35288      0.013605706    6.7349294      755.10788     -25.301457      729.80643    
   1018000   321.22255      0.013605706    8.6168089      796.962       -24.488607      772.47339    
   1019000   306.90948      0.013605706    7.8025277      761.45088     -23.136696      738.31418    
   1020000   299.89417      0.013605706    9.9124972      744.04569     -25.272645      718.77305    
   1021000   297.16478      0.013605706    13.023539      737.27401     -24.972211      712.3018     
   1022000   304.94258      0.013605706    5.3578372      756.57096     -25.27341       731.29755    
   1023000   290.79107      0.013605706    1.6153767      721.46065     -26.88636       694.57429    
   1024000   291.54209      0.013605706    1.6699463      723.32397     -26.112509      697.21146    
   1025000   307.32769      0.013605706    0.75573629     762.48848     -25.572807      736.91567    
   1026000   309.96938      0.013605706    8.3299218      769.04258     -24.50571       744.53687    
   1027000   295.26303      0.013605706    7.3983918      732.55571     -25.074484      707.48123    
   1028000   293.20688      0.013605706    6.3518316      727.45436     -24.759247      702.69511    
   1029000   295.87565      0.013605706    7.5540024      734.07563     -24.759756      709.31588    
   1030000   307.18472      0.013605706    7.8697724      762.13375     -21.044309      741.08944    
   1031000   298.83569      0.013605706    8.0813932      741.41957     -18.699859      722.71971    
   1032000   304.0962       0.013605706    6.9778431      754.47105     -21.186819      733.28423    
   1033000   301.55932      0.013605706    5.1024478      748.17698     -22.738142      725.43883    
   1034000   313.82565      0.013605706    8.135587       778.61009     -23.965924      754.64416    
   1035000   302.86034      0.013605706    7.9161188      751.40486     -25.888833      725.51602    
   1036000   295.23506      0.013605706    4.1068591      732.48632     -24.579394      707.90692    
   1037000   299.16624      0.013605706    5.4071819      742.23969     -26.12642       716.11327    
   1038000   301.62074      0.013605706    9.9797325      748.32936     -29.681154      718.6482     
   1039000   302.83748      0.013605706    10.116591      751.34814     -24.018887      727.32926    
   1040000   297.95511      0.013605706    8.7839516      739.23485     -22.982026      716.25282    
   1041000   290.5533       0.013605706    4.7999331      720.87074     -17.635167      703.23557    
   1042000   302.436        0.013605706    7.8613259      750.35206     -20.976064      729.376      
   1043000   295.48611      0.013605706    7.0669021      733.10917     -23.008128      710.10104    
   1044000   311.17918      0.013605706    10.060892      772.04412     -22.943794      749.10033    
   1045000   300.79213      0.013605706    8.8864981      746.27356     -24.735847      721.53772    
   1046000   289.21795      0.013605706    10.810565      717.5577      -25.146847      692.41085    
   1047000   300.42345      0.013605706    4.13415        745.35887     -27.971934      717.38693    
   1048000   311.98548      0.013605706    7.5858475      774.04457     -23.32898       750.71559    
   1049000   302.1988       0.013605706    7.8051704      749.76355     -26.144049      723.6195     
   1050000   296.40825      0.013605706    5.7981346      735.39704     -22.256591      713.14045    
   1051000   299.51872      0.013605706    8.5424785      743.1142      -19.777561      723.33664    
   1052000   300.89868      0.013605706    6.5112781      746.53792     -18.40243       728.13549    
   1053000   308.14572      0.013605706    7.9209228      764.51803     -20.199025      744.319      
   1054000   291.88619      0.013605706    7.4295615      724.17767     -20.768331      703.40934    
   1055000   295.79854      0.013605706    6.4537949      733.88433     -20.651644      713.23268    
   1056000   328.34181      0.013605706    8.3588021      814.62508     -19.383513      795.24157    
   1057000   305.956        0.013605706    6.9600161      759.08528     -24.456644      734.62864    
   1058000   289.58994      0.013605706    6.7094193      718.48062     -22.265945      696.21468    
   1059000   299.08016      0.013605706    7.983878       742.02613     -24.627102      717.39903    
   1060000   299.82617      0.013605706    7.663482       743.877       -24.210033      719.66697    
   1061000   300.76322      0.013605706    3.2800282      746.20183     -19.368987      726.83284    
   1062000   291.22899      0.013605706    8.1710639      722.54716     -23.015611      699.53155    
   1063000   309.11749      0.013605706    9.5876127      766.929       -24.478179      742.45082    
   1064000   311.54833      0.013605706    7.2611737      772.95999     -18.314116      754.64588    
   1065000   301.15989      0.013605706    5.8261557      747.186       -17.873468      729.31253    
   1066000   301.79361      0.013605706    6.3924003      748.75826     -18.123138      730.63512    
   1067000   308.80996      0.013605706    6.5351453      766.16603     -16.81735       749.34868    
   1068000   294.59063      0.013605706    7.894821       730.88747     -16.343688      714.54378    
   1069000   307.22195      0.013605706    10.625409      762.22613     -17.214738      745.01139    
   1070000   301.22244      0.013605706    3.9748625      747.34118     -18.60171       728.73947    
   1071000   293.88465      0.013605706    6.7108426      729.13591     -17.306618      711.82929    
   1072000   300.9478       0.013605706    12.011924      746.65978     -18.74311       727.91667    
   1073000   309.26424      0.013605706    11.813069      767.29311     -22.946967      744.34615    
   1074000   295.39268      0.013605706    7.2528728      732.87738     -20.949952      711.92743    
   1075000   300.42406      0.013605706    6.439044       745.36037     -20.104141      725.25623    
   1076000   296.22074      0.013605706    6.8746818      734.93183     -22.527511      712.40432    
   1077000   304.63823      0.013605706    10.769231      755.81584     -21.104027      734.71181    
   1078000   290.87392      0.013605706    3.9075217      721.66622     -22.782729      698.88349    
   1079000   290.23808      0.013605706    8.64368        720.08868     -25.007041      695.08164    
   1080000   300.08549      0.013605706    6.7395257      744.52037     -21.84105       722.67932    
   1081000   295.73901      0.013605706    14.941675      733.73664     -19.496533      714.24011    
   1082000   311.04189      0.013605706    8.0464314      771.7035      -17.48559       754.21791    
   1083000   294.66948      0.013605706   -3.5830591      731.0831      -24.27413       706.80897    
   1084000   296.12541      0.013605706    1.9076274      734.69529     -20.719504      713.97579    
   1085000   298.18627      0.013605706    8.5068487      739.80836     -19.217337      720.59102    
   1086000   306.24151      0.013605706    15.091422      759.79363     -16.265616      743.52801    
   1087000   298.93499      0.013605706    3.0550782      741.66594     -20.315623      721.35032    
   1088000   290.3964       0.013605706    10.94894       720.48148     -16.644818      703.83666    
   1089000   300.84514      0.013605706    8.9409345      746.40509     -19.423572      726.98152    
   1090000   295.57333      0.013605706    4.2337892      733.32557     -20.386209      712.93936    
   1091000   291.66592      0.013605706    11.346945      723.63118     -18.755618      704.87557    
   1092000   299.51456      0.013605706    13.259114      743.10388     -19.517672      723.58621    
   1093000   291.17593      0.013605706    13.392679      722.41552     -17.480852      704.93466    
   1094000   301.2035       0.013605706   -2.7388006      747.29418     -17.700702      729.59348    
   1095000   299.20876      0.013605706    0.13845687     742.34518     -23.587172      718.75801    
   1096000   305.80209      0.013605706    12.939972      758.70342     -24.838772      733.86465    
   1097000   309.72908      0.013605706    5.0856464      768.44638     -24.045637      744.40074    
   1098000   279.83467      0.013605706    4.0820055      694.27754     -21.337925      672.93961    
   1099000   294.54163      0.013605706    12.994178      730.76591     -24.190939      706.57497    
   1100000   315.92555      0.013605706    10.022996      783.81999     -23.705515      760.11447    
   1101000   306.25609      0.013605706    5.6435877      759.8298      -25.630818      734.19898    
   1102000   297.02419      0.013605706    6.1116595      736.9252      -26.224264      710.70094    
   1103000   293.50374      0.013605706    15.592615      728.19087     -21.480516      706.71035    
   1104000   308.00325      0.013605706    7.4051476      764.16455     -22.056443      742.10811    
   1105000   299.55914      0.013605706    4.1589952      743.21448     -26.087621      717.12686    
   1106000   290.65225      0.013605706    17.425083      721.11624     -21.719449      699.39679    
   1107000   305.04872      0.013605706    9.1108274      756.83428     -25.723252      731.11103    
   1108000   298.62719      0.013605706    5.6955428      740.90229     -25.013388      715.88891    
   1109000   300.03799      0.013605706    6.0969722      744.40253     -29.24654       715.15599    
   1110000   292.35549      0.013605706    11.046876      725.34202     -25.921164      699.42086    
   1111000   297.79525      0.013605706    8.2190031      738.83823     -24.406902      714.43133    
   1112000   311.58925      0.013605706    10.007197      773.06153     -21.274658      751.78687    
   1113000   302.29644      0.013605706    4.6498516      750.00581     -23.096852      726.90896    
   1114000   296.32527      0.013605706    9.9427682      735.19116     -20.146381      715.04478    
   1115000   296.09056      0.013605706    13.519849      734.60885     -26.481013      708.12784    
   1116000   291.00694      0.013605706    7.9839326      721.99623     -18.100094      703.89614    
   1117000   302.6666       0.013605706    5.4516631      750.92419     -19.974671      730.94952    
   1118000   301.24534      0.013605706    5.243133       747.39798     -19.118435      728.27955    
   1119000   296.90702      0.013605706    9.338479       736.6345      -19.793504      716.841      
   1120000   295.7233       0.013605706    8.294512       733.69766     -15.015711      718.68195    
   1121000   298.06071      0.013605706    6.2026981      739.49684     -18.37578       721.12106    
   1122000   290.28184      0.013605706    5.9079732      720.19724     -19.654533      700.54271    
   1123000   296.55619      0.013605706    7.3637051      735.76409     -22.097865      713.66622    
   1124000   315.00371      0.013605706    9.3360712      781.53288     -20.542279      760.9906     
   1125000   297.16273      0.013605706    7.7196511      737.26892     -23.829088      713.43983    
   1126000   300.09758      0.013605706    7.7227284      744.55036     -23.473412      721.07695    
   1127000   306.90305      0.013605706    7.3803098      761.43493     -25.557465      735.87747    
   1128000   297.14542      0.013605706    6.9646807      737.22598     -24.23567       712.99031    
   1129000   309.40867      0.013605706    1.7441137      767.65144     -23.374164      744.27728    
   1130000   302.56169      0.013605706    10.824455      750.66389     -24.627368      726.03653    
   1131000   299.44777      0.013605706    11.580142      742.93818     -25.948347      716.98983    
   1132000   303.79056      0.013605706    4.0082374      753.71275     -26.993821      726.71893    
   1133000   301.69048      0.013605706    9.7145633      748.50239     -29.089741      719.41265    
   1134000   300.63473      0.013605706    8.2733325      745.88304     -24.333753      721.54929    
   1135000   297.67412      0.013605706    4.8618344      738.53769     -21.453514      717.08417    
   1136000   312.76793      0.013605706    6.652077       775.98585     -22.9704        753.01545    
   1137000   305.987        0.013605706    10.829459      759.16218     -22.996997      736.16518    
   1138000   283.73601      0.013605706    13.316201      703.95687     -20.718293      683.23858    
   1139000   285.4839       0.013605706    9.2722608      708.29342     -18.739054      689.55437    
   1140000   305.02305      0.013605706    3.2947479      756.77059     -18.642591      738.128      
   1141000   297.79623      0.013605706    7.3440135      738.84066     -18.88568       719.95498    
   1142000   307.01768      0.013605706    7.578672       761.71932     -20.499728      741.2196     
   1143000   319.86855      0.013605706    7.8595173      793.6027      -20.92902       772.67367    
   1144000   296.90196      0.013605706    7.8633532      736.62194     -26.697174      709.92476    
   1145000   285.34262      0.013605706    6.3439351      707.94291     -24.917003      683.02591    
   1146000   308.74906      0.013605706    8.56328        766.01494     -22.639459      743.37548    
   1147000   311.49793      0.013605706    7.3492478      772.83495     -21.613831      751.22112    
   1148000   293.59066      0.013605706    7.4777852      728.40651     -23.119147      705.28737    
   1149000   298.79439      0.013605706    4.8766613      741.31712     -22.196917      719.1202     
   1150000   316.5967       0.013605706    8.1249         785.48515     -24.97592       760.50923    
   1151000   299.43352      0.013605706    6.824819       742.90282     -22.974795      719.92803    
   1152000   294.50452      0.013605706    7.6577963      730.67384     -24.905036      705.7688     
   1153000   309.76692      0.013605706    7.423967       768.54027     -24.092687      744.44758    
   1154000   306.65178      0.013605706    9.5359865      760.81151     -22.048551      738.76296    
   1155000   285.61442      0.013605706    8.210679       708.61724     -21.319586      687.29766    
   1156000   309.486        0.013605706    7.5669363      767.84329     -18.814009      749.02928    
   1157000   309.94512      0.013605706    8.0942594      768.98239     -25.322478      743.65992    
   1158000   307.19793      0.013605706    10.795983      762.16653     -27.445765      734.72076    
   1159000   298.5871       0.013605706    10.579362      740.80282     -25.452631      715.35019    
   1160000   298.11199      0.013605706    8.1519054      739.62406     -23.711981      715.91208    
   1161000   286.28005      0.013605706    5.7525549      710.2687      -22.607243      687.66146    
   1162000   294.69587      0.013605706    6.3967465      731.14858     -24.959534      706.18904    
   1163000   298.01547      0.013605706    3.5121212      739.3846      -24.251501      715.13309    
   1164000   308.58724      0.013605706    10.444345      765.61344     -20.747836      744.8656     
   1165000   304.85419      0.013605706    11.964703      756.35164     -19.061528      737.29011    
   1166000   282.37349      0.013605706    10.549169      700.57642     -20.637022      679.9394     
   1167000   291.08641      0.013605706    5.5104509      722.19341     -19.996414      702.19699    
   1168000   308.53571      0.013605706    9.397872       765.4856      -20.278833      745.20677    
   1169000   307.74139      0.013605706    9.6716463      763.51487     -16.141264      747.3736     
   1170000   302.97565      0.013605706    8.1015273      751.69093     -17.359596      734.33133    
   1171000   295.04342      0.013605706    7.5113243      732.01086     -15.060997      716.94986    
   1172000   300.86285      0.013605706    6.2122683      746.44902     -15.269558      731.17946    
   1173000   311.99704      0.013605706    11.275242      774.07326     -16.775169      757.29809    
   1174000   294.49398      0.013605706    9.0513987      730.64768     -18.640742      712.00693    
   1175000   291.67719      0.013605706    5.0948544      723.65916     -22.460058      701.1991     
   1176000   305.14364      0.013605706    7.4981663      757.06979     -20.765937      736.30385    
   1177000   296.13093      0.013605706    8.3880392      734.70899     -22.308021      712.40097    
   1178000   289.24892      0.013605706    7.5725339      717.63454     -22.43741       695.19713    
   1179000   290.86084      0.013605706    7.5724523      721.63375     -25.88411       695.74964    
   1180000   300.28083      0.013605706    5.7719585      745.00501     -23.937672      721.06734    
   1181000   308.54494      0.013605706    7.2584467      765.50849     -20.081182      745.42731    
   1182000   302.99592      0.013605706    8.5769514      751.74124     -20.033057      731.70818    
   1183000   297.44278      0.013605706    8.8203176      737.96373     -19.52996       718.43377    
   1184000   291.62596      0.013605706    5.4151734      723.53205     -21.84966       701.68239    
   1185000   308.03557      0.013605706    6.3294642      764.24473     -24.049914      740.19482    
   1186000   305.14947      0.013605706    6.9804115      757.08426     -19.6305        737.45376    
   1187000   294.7294       0.013605706    8.2249438      731.23177     -21.253501      709.97827    
   1188000   295.95406      0.013605706    7.5093796      734.27018     -23.321748      710.94843    
   1189000   302.25153      0.013605706    5.3286698      749.89438     -22.275611      727.61877    
   1190000   297.82933      0.013605706    9.0707945      738.92279     -22.264182      716.6586     
   1191000   289.03535      0.013605706    6.5636044      717.10467     -23.179794      693.92487    
   1192000   312.96658      0.013605706    6.9468865      776.47871     -26.136156      750.34255    
   1193000   314.68386      0.013605706    8.6119773      780.73933     -25.5522        755.18713    
   1194000   288.68262      0.013605706    7.6172311      716.22954     -24.904392      691.32515    
   1195000   296.20439      0.013605706    6.3748667      734.89125     -25.713518      709.17773    
   1196000   320.53759      0.013605706    8.0098523      795.26259     -21.421553      773.84104    
   1197000   306.51509      0.013605706    6.1920632      760.47238     -25.761526      734.71085    
   1198000   294.3009       0.013605706    6.2338555      730.16864     -26.56998       703.59866    
   1199000   285.99402      0.013605706    10.063334      709.55904     -25.868881      683.69016    
   1200000   318.49236      0.013605706    8.5041003      790.18832     -21.714058      768.47426    
   1201000   308.05953      0.013605706    6.0694781      764.30418     -22.085762      742.21842    
   1202000   285.96334      0.013605706    4.215176       709.48293     -18.246402      691.23653    
   1203000   294.76933      0.013605706    7.1214231      731.33084     -16.947815      714.38302    
   1204000   302.62442      0.013605706    9.0126314      750.81952     -16.683527      734.136      
   1205000   304.14366      0.013605706    7.3796732      754.5888      -13.582114      741.00669    
   1206000   296.34825      0.013605706    6.1377602      735.24818     -15.745231      719.50295    
   1207000   299.34453      0.013605706    8.0233236      742.68203     -16.326194      726.35584    
   1208000   305.67571      0.013605706    9.5172295      758.38987     -16.380321      742.00955    
   1209000   298.24153      0.013605706    7.3028689      739.94545     -22.134399      717.81105    
   1210000   304.54958      0.013605706    7.2310713      755.59591     -21.356054      734.23985    
   1211000   312.31793      0.013605706    7.5881297      774.86941     -20.924115      753.94529    
   1212000   301.79461      0.013605706    1.6330477      748.76074     -17.128057      731.63269    
   1213000   292.8263       0.013605706    6.3289171      726.51011     -22.872769      703.63734    
   1214000   298.05523      0.013605706    8.7861278      739.48325     -21.895864      717.58738    
   1215000   311.34121      0.013605706    7.4675644      772.44613     -25.090848      747.35528    
   1216000   298.88801      0.013605706    4.0402578      741.5494      -26.910687      714.63871    
   1217000   291.55138      0.013605706    9.0449317      723.34701     -22.997412      700.3496     
   1218000   299.92229      0.013605706    7.1667378      744.11547     -20.052156      724.06331    
   1219000   296.10458      0.013605706    7.3957821      734.64364     -17.52359       717.12005    
   1220000   293.23852      0.013605706    6.3227197      727.53285     -20.420753      707.11209    
   1221000   296.49195      0.013605706    8.0503019      735.60469     -19.519916      716.08477    
   1222000   308.85001      0.013605706    7.5943647      766.26539     -21.009955      745.25543    
   1223000   307.00643      0.013605706    7.0415535      761.6914      -19.148338      742.54307    
   1224000   283.16016      0.013605706    3.2454648      702.52817     -25.781297      676.74688    
   1225000   294.54678      0.013605706    8.7924062      730.77868     -20.975067      709.80361    
   1226000   302.62993      0.013605706    9.4388111      750.8332      -24.748863      726.08434    
   1227000   320.73427      0.013605706    11.076451      795.75056     -25.347226      770.40333    
   1228000   295.36764      0.013605706    4.4384483      732.81526     -24.057128      708.75813    
   1229000   302.74704      0.013605706    9.8454028      751.12375     -21.94226       729.18149    
   1230000   301.74383      0.013605706    16.007954      748.63476     -21.666248      726.96851    
   1231000   299.77477      0.013605706    2.7926258      743.74948     -20.76301       722.98647    
   1232000   293.43558      0.013605706   -4.8149807      728.02175     -20.886468      707.13528    
   1233000   303.47049      0.013605706    3.1422564      752.91866     -24.496658      728.422      
   1234000   294.9507       0.013605706    11.372053      731.78081     -23.63828       708.14253    
   1235000   297.85081      0.013605706    11.589485      738.97606     -22.1772        716.79886    
   1236000   321.28644      0.013605706    9.0115416      797.12051     -24.423399      772.69711    
   1237000   308.48898      0.013605706    6.2740975      765.36965     -30.256641      735.11301    
   1238000   294.08004      0.013605706    7.4765826      729.62069     -26.610844      703.00985    
   1239000   295.36486      0.013605706    12.261247      732.80835     -32.206586      700.60176    
   1240000   307.4824       0.013605706    5.6892692      762.8723      -27.832927      735.03937    
   1241000   307.01101      0.013605706    6.2724701      761.70279     -25.890895      735.81189    
   1242000   285.93594      0.013605706    5.6528158      709.41495     -24.634228      684.78072    
   1243000   307.46046      0.013605706    8.2203831      762.81787     -29.827936      732.98993    
   1244000   308.95464      0.013605706    6.9360409      766.52498     -28.89999       737.62499    
   1245000   283.9004       0.013605706    5.7522504      704.36472     -26.280596      678.08412    
   1246000   288.27538      0.013605706    11.952325      715.21918     -27.706657      687.51252    
   1247000   303.24775      0.013605706    10.134092      752.36602     -23.294671      729.07135    
   1248000   311.75108      0.013605706   -3.1701708      773.46302     -27.317278      746.14575    
   1249000   287.5212       0.013605706    4.1409208      713.34801     -27.410316      685.9377     
   1250000   281.74566      0.013605706    6.8945094      699.01875     -27.864335      671.15441    
   1251000   297.83365      0.013605706    13.57367       738.9335      -29.401063      709.53244    
   1252000   314.12896      0.013605706    7.2599679      779.3626      -32.72351       746.63909    
   1253000   297.2097       0.013605706    3.088345       737.38546     -31.589246      705.79622    
   1254000   276.92513      0.013605706    7.9770133      687.05888     -33.248283      653.8106     
   1255000   299.09673      0.013605706    4.5322443      742.06724     -30.152338      711.9149     
   1256000   302.24284      0.013605706    8.7731341      749.87283     -27.473702      722.39912    
   1257000   304.73122      0.013605706    3.1730807      756.04656     -23.665017      732.38154    
   1258000   294.14192      0.013605706    7.0430123      729.77421     -21.364673      708.40954    
   1259000   303.9183       0.013605706    9.5229478      754.02968     -22.122519      731.90716    
   1260000   304.44412      0.013605706    7.1439519      755.33425     -20.853414      734.48083    
   1261000   294.04505      0.013605706    2.3725376      729.53387     -23.001984      706.53189    
   1262000   300.66447      0.013605706    5.3661698      745.95684     -20.861423      725.09542    
   1263000   316.24806      0.013605706    11.532222      784.62016     -23.505998      761.11416    
   1264000   308.60692      0.013605706    6.8633387      765.66228     -21.342905      744.31937    
   1265000   296.40665      0.013605706    4.5244109      735.39307     -26.537712      708.85535    
   1266000   293.32406      0.013605706    7.0059295      727.74507     -25.99769       701.74738    
   1267000   308.71921      0.013605706    12.050226      765.94088     -27.57057       738.37031    
   1268000   297.93465      0.013605706    13.90509       739.18408     -21.448078      717.73601    
   1269000   301.47649      0.013605706    8.5365843      747.97147     -20.192682      727.77879    
   1270000   308.72237      0.013605706    1.6319165      765.94872     -23.605943      742.34277    
   1271000   303.0477       0.013605706    6.7895577      751.8697      -20.929627      730.94007    
   1272000   304.45638      0.013605706    11.712784      755.36467     -18.99416       736.37051    
   1273000   299.23952      0.013605706    6.6657372      742.4215      -23.77153       718.64997    
   1274000   301.73661      0.013605706   -1.5761798      748.61686     -23.292273      725.32459    
   1275000   292.41582      0.013605706    6.3440124      725.4917      -23.688623      701.80307    
   1276000   300.9504       0.013605706    13.0613        746.66624     -24.26401       722.40223    
   1277000   294.00811      0.013605706   -1.0471352      729.44222     -24.17161       705.27061    
   1278000   288.02183      0.013605706    8.4048353      714.59009     -22.3995        692.19059    
   1279000   307.02472      0.013605706    8.5934633      761.73679     -20.632261      741.10453    
   1280000   320.65292      0.013605706    7.3197051      795.54873     -20.375633      775.1731     
   1281000   288.11651      0.013605706    2.9948736      714.82499     -25.542528      689.28247    
   1282000   293.53148      0.013605706    4.5445213      728.2597      -18.956072      709.30363    
   1283000   287.29397      0.013605706    6.7901788      712.78427     -17.887336      694.89693    
   1284000   296.91467      0.013605706    10.680027      736.65348     -20.257235      716.39624    
   1285000   295.94373      0.013605706    7.3211633      734.24455     -16.57166       717.67289    
   1286000   299.66576      0.013605706    4.7662608      743.47901     -17.917406      725.56161    
   1287000   305.64794      0.013605706    12.328273      758.32096     -19.90989       738.41107    
   1288000   297.76989      0.013605706    8.4490797      738.77531     -22.257075      716.51824    
   1289000   301.14447      0.013605706    6.1913453      747.14772     -23.146568      724.00115    
   1290000   293.8382       0.013605706    6.6978302      729.02068     -21.428784      707.5919     
   1291000   293.67845      0.013605706    7.9445297      728.62433     -21.296056      707.32827    
   1292000   304.46545      0.013605706    9.4892341      755.38716     -17.961666      737.4255     
   1293000   304.02267      0.013605706    4.6516266      754.28863     -15.33085       738.95778    
   1294000   290.06996      0.013605706    0.9524945      719.67157     -14.999813      704.67176    
   1295000   302.24957      0.013605706    12.563968      749.8895      -14.941014      734.94849    
   1296000   303.05833      0.013605706    3.1996788      751.89608     -16.196846      735.69923    
   1297000   290.64517      0.013605706    5.9043153      721.09868     -15.5683        705.53038    
   1298000   294.42928      0.013605706    9.2961362      730.48716     -21.028268      709.45889    
   1299000   317.85223      0.013605706    9.4314576      788.60014     -16.10609       772.49405    
   1300000   317.00716      0.013605706   -5.3471568      786.50349     -17.829937      768.67356    
   1301000   289.1155       0.013605706    4.8455649      717.30351     -20.242073      697.06144    
   1302000   298.16107      0.013605706    9.7847865      739.74584     -19.427806      720.31803    
   1303000   309.64568      0.013605706    13.255177      768.23947     -28.448771      739.7907     
   1304000   302.47102      0.013605706    6.5554704      750.43895     -25.057033      725.38192    
   1305000   287.11325      0.013605706    5.8620952      712.33588     -24.964214      687.37167    
   1306000   285.85546      0.013605706    8.4219862      709.21527     -23.13051       686.08476    
   1307000   304.21015      0.013605706    8.0243787      754.75376     -19.20822       735.54554    
   1308000   296.93166      0.013605706    4.2976865      736.69563     -17.7955        718.90013    
   1309000   303.63082      0.013605706    5.6429408      753.31643     -18.235876      735.08055    
   1310000   295.91724      0.013605706    7.6361175      734.17884     -17.19301       716.98583    
   1311000   304.86337      0.013605706    6.6534872      756.37442     -19.917598      736.45683    
   1312000   310.14181      0.013605706    10.874812      769.47038     -24.939236      744.53115    
   1313000   302.25431      0.013605706    8.3203802      749.90128     -24.316857      725.58442    
   1314000   291.66404      0.013605706    7.671476       723.62652     -25.955643      697.67087    
   1315000   299.25989      0.013605706    6.3630062      742.47204     -23.022794      719.44924    
   1316000   319.38453      0.013605706    6.9964823      792.40182     -20.575492      771.82633    
   1317000   295.74077      0.013605706    7.3388904      733.741       -18.039375      715.70163    
   1318000   307.25089      0.013605706    7.4699625      762.29792     -20.248162      742.04976    
   1319000   285.29378      0.013605706    7.2650149      707.82172     -18.085518      689.73621    
   1320000   297.7213       0.013605706    7.8945094      738.65475     -18.298395      720.35635    
   1321000   298.26695      0.013605706    7.0015966      740.00852     -19.797013      720.21151    
   1322000   308.34977      0.013605706    6.4904666      765.02427     -18.387894      746.63637    
   1323000   295.85584      0.013605706    7.3065901      734.0265      -23.417021      710.60948    
   1324000   306.9011       0.013605706    8.2587984      761.43008     -26.404712      735.02537    
   1325000   303.17142      0.013605706    6.4540074      752.17666     -24.343121      727.83354    
   1326000   287.09154      0.013605706    7.4472129      712.28203     -21.412487      690.86954    
   1327000   304.08138      0.013605706    8.8549739      754.43428     -22.170802      732.26347    
   1328000   315.1427       0.013605706    6.8275763      781.87773     -24.268178      757.60955    
   1329000   292.52848      0.013605706    6.9570529      725.77122     -22.575173      703.19605    
   1330000   287.97201      0.013605706    8.0919939      714.46649     -24.447929      690.01856    
   1331000   304.60551      0.013605706    7.4343121      755.73466     -24.372684      731.36197    
   1332000   306.04299      0.013605706    7.7158849      759.3011      -19.167974      740.13312    
   1333000   290.79413      0.013605706    6.6499911      721.46826     -19.615911      701.85235    
   1334000   291.23087      0.013605706    8.022544       722.55182     -17.359708      705.19211    
   1335000   297.59622      0.013605706    7.4164016      738.34442     -18.875296      719.46912    
   1336000   295.55841      0.013605706    5.6283806      733.28856     -16.869703      716.41886    
   1337000   302.28636      0.013605706    7.7693866      749.9808      -17.239266      732.74153    
   1338000   309.72676      0.013605706    9.3564623      768.44062     -14.219224      754.2214     
   1339000   305.69858      0.013605706    6.5071262      758.4466      -14.209878      744.23672    
   1340000   292.0986       0.013605706    7.0966645      724.70468     -19.229293      705.47538    
   1341000   303.43001      0.013605706    7.9359469      752.81822     -14.29473       738.52349    
   1342000   306.53097      0.013605706    7.3799188      760.51178     -21.222776      739.28901    
   1343000   302.43454      0.013605706    8.9429827      750.34843     -22.863914      727.48451    
   1344000   299.47984      0.013605706    5.9355228      743.01774     -21.996636      721.0211     
   1345000   297.25602      0.013605706    7.0513429      737.50038     -21.328794      716.17159    
   1346000   299.2664       0.013605706    9.5550942      742.4882      -23.100066      719.38813    
   1347000   305.36138      0.013605706    8.1969421      757.61001     -28.109528      729.50048    
   1348000   285.92261      0.013605706    7.1547088      709.38189     -21.771598      687.61029    
   1349000   293.7498       0.013605706    6.9276665      728.80135     -26.003901      702.79745    
   1350000   314.18838      0.013605706    8.8082426      779.51004     -30.700732      748.80931    
   1351000   307.46564      0.013605706    6.381461       762.83072     -21.769747      741.06097    
   1352000   301.18599      0.013605706    10.146275      747.25074     -21.303644      725.9471     
   1353000   289.23369      0.013605706    5.6684074      717.59676     -18.07004       699.52672    
   1354000   307.14432      0.013605706    5.4095844      762.03353     -21.146034      740.8875     
   1355000   319.41892      0.013605706    10.330411      792.48714     -16.396663      776.09048    
   1356000   294.70136      0.013605706    8.6790981      731.16219     -19.467768      711.69442    
   1357000   291.27581      0.013605706    6.6228614      722.66331     -17.21053       705.45278    
   1358000   315.03908      0.013605706    7.3932042      781.62064     -17.551324      764.06932    
   1359000   305.36446      0.013605706    8.5519848      757.61763     -19.219917      738.39771    
   1360000   294.26017      0.013605706    6.789827       730.0676      -22.303408      707.76419    
   1361000   307.20851      0.013605706    5.5158808      762.19279     -21.348298      740.84449    
   1362000   290.48576      0.013605706    10.328681      720.70318     -25.258283      695.44489    
   1363000   297.7479       0.013605706    8.441256       738.72074     -26.150782      712.56996    
   1364000   290.53941      0.013605706    7.509878       720.83628     -25.380278      695.456      
   1365000   308.62329      0.013605706    5.0695635      765.7029      -23.848582      741.85432    
   1366000   306.80433      0.013605706    10.453558      761.19        -24.829263      736.36074    
   1367000   298.02342      0.013605706    5.474506       739.40433     -25.626486      713.77785    
   1368000   293.0655       0.013605706    2.4359692      727.10359     -24.555022      702.54857    
   1369000   305.30983      0.013605706    7.9426011      757.48211     -25.723193      731.75892    
   1370000   311.08115      0.013605706    12.720857      771.80091     -23.469604      748.33131    
   1371000   286.95971      0.013605706    6.479215       711.95495     -23.089966      688.86499    
   1372000   303.15429      0.013605706    6.1116089      752.13416     -21.535331      730.59883    
   1373000   327.31463      0.013605706    7.8875723      812.07661     -21.787117      790.28949    
   1374000   297.80818      0.013605706    7.5333207      738.87031     -23.380181      715.49013    
   1375000   294.87806      0.013605706    7.0715744      731.60058     -20.919528      710.68106    
   1376000   299.03562      0.013605706    8.9917385      741.91561     -24.60437       717.31124    
   1377000   321.56962      0.013605706    6.3972573      797.82309     -25.238576      772.58451    
   1378000   305.13754      0.013605706    1.9639071      757.05465     -25.326309      731.72834    
   1379000   282.01058      0.013605706    8.3157206      699.67601     -22.170966      677.50505    
   1380000   307.53527      0.013605706    11.57028       763.00347     -23.712401      739.29107    
   1381000   308.67951      0.013605706    10.414185      765.84238     -21.155378      744.687      
   1382000   308.84968      0.013605706    10.266756      766.26457     -22.412512      743.85206    
   1383000   311.08419      0.013605706    7.7684982      771.80845     -17.743962      754.06449    
   1384000   300.37761      0.013605706    6.2719948      745.24512     -20.808043      724.43708    
   1385000   290.05957      0.013605706    7.2280272      719.6458      -21.482725      698.16307    
   1386000   284.22477      0.013605706    6.9200483      705.1695      -19.61355       685.55595    
   1387000   292.5946       0.013605706    6.4078172      725.93527     -24.347375      701.58789    
   1388000   309.61191      0.013605706    6.3772142      768.15568     -24.435485      743.7202     
   1389000   302.92519      0.013605706    10.301624      751.56574     -21.714964      729.85078    
   1390000   293.84421      0.013605706    6.8985128      729.03558     -17.744687      711.2909     
   1391000   305.88096      0.013605706    4.9454525      758.8991      -13.753003      745.1461     
   1392000   304.61317      0.013605706    12.486381      755.75366     -17.809714      737.94395    
   1393000   302.74839      0.013605706    11.13907       751.12709     -19.192305      731.93479    
   1394000   290.43744      0.013605706   -2.6236397      720.58328     -16.997027      703.58626    
   1395000   298.66734      0.013605706    6.3769625      741.00191     -18.380373      722.62153    
   1396000   315.5543       0.013605706    9.7746209      782.89892     -19.723847      763.17507    
   1397000   292.15321      0.013605706    13.457249      724.84017     -17.718732      707.12143    
   1398000   298.1736       0.013605706    1.4635371      739.77692     -14.954571      724.82235    
   1399000   299.7612       0.013605706    7.4363584      743.71581     -20.040361      723.67545    
   1400000   299.76413      0.013605706    11.778898      743.72308     -19.035049      724.68803    
   1401000   297.33448      0.013605706    5.0342419      737.69505     -18.48095       719.2141     
   1402000   273.17595      0.013605706    2.0083046      677.75706     -20.889029      656.86803    
   1403000   291.52245      0.013605706    2.1665214      723.27522     -17.809208      705.46602    
   1404000   308.52686      0.013605706    8.8620035      765.46364     -20.038524      745.42512    
   1405000   291.89914      0.013605706    11.883118      724.20981     -23.107885      701.10192    
   1406000   288.45416      0.013605706    8.4387063      715.66272     -24.60031       691.06241    
   1407000   297.37458      0.013605706   -2.9945762      737.79452     -22.132579      715.66194    
   1408000   318.35609      0.013605706    6.1873233      789.85025     -19.6362        770.21405    
   1409000   306.44883      0.013605706    13.626712      760.30799     -15.982042      744.32595    
   1410000   297.99345      0.013605706    15.266326      739.32998     -14.534291      724.79568    
   1411000   292.53542      0.013605706    9.1884781      725.78843     -12.144538      713.64389    
   1412000   306.55324      0.013605706    5.7599172      760.56705     -18.527257      742.03979    
   1413000   308.31586      0.013605706   -3.9386174      764.94014     -19.542698      745.39744    
   1414000   304.03183      0.013605706    9.0637895      754.31135     -20.240966      734.07039    
   1415000   300.82011      0.013605706    8.8417184      746.34299     -18.301729      728.04126    
   1416000   297.12267      0.013605706    5.9458427      737.16953     -17.351906      719.81763    
   1417000   298.59504      0.013605706    0.82696846     740.82251     -15.558464      725.26405    
   1418000   300.94219      0.013605706    3.7611765      746.64587     -17.716759      728.92911    
   1419000   305.68196      0.013605706    8.537373       758.40537     -21.399974      737.00539    
   1420000   303.8693       0.013605706    7.7602943      753.9081      -25.315634      728.59247    
   1421000   297.64511      0.013605706    7.306845       738.46572     -21.18314       717.28258    
   1422000   310.97864      0.013605706    7.3994592      771.54658     -27.137677      744.40891    
   1423000   302.64996      0.013605706    7.3793768      750.88289     -23.564877      727.31801    
   1424000   290.59036      0.013605706    7.4522121      720.9627      -22.200218      698.76248    
   1425000   292.67595      0.013605706    8.6244092      726.1371      -19.029894      707.1072     
   1426000   297.70137      0.013605706    11.875661      738.6053      -18.383668      720.22163    
   1427000   321.46033      0.013605706    8.996388       797.55195     -16.876624      780.67532    
   1428000   295.80365      0.013605706    6.6673532      733.89701     -17.031074      716.86593    
   1429000   285.3572       0.013605706    6.9004809      707.97907     -15.898882      692.08019    
   1430000   303.15538      0.013605706    4.4146264      752.13685     -15.105084      737.03177    
   1431000   308.81777      0.013605706    8.9397955      766.18541     -17.558413      748.62699    
   1432000   283.23899      0.013605706    3.6282048      702.72375     -16.144985      686.57876    
   1433000   311.38908      0.013605706   -0.8304708      772.56489     -17.781346      754.78355    
   1434000   314.6899       0.013605706    7.0600436      780.75432     -17.76214       762.99218    
   1435000   295.62971      0.013605706    8.7558147      733.46547     -20.907929      712.55754    
   1436000   287.26228      0.013605706    6.7484588      712.70563     -26.023472      686.68216    
   1437000   313.71019      0.013605706    4.1739203      778.32364     -24.674661      753.64898    
   1438000   305.32838      0.013605706    8.4132862      757.52812     -26.556602      730.97152    
   1439000   294.57492      0.013605706    10.065194      730.84849     -21.925112      708.92338    
   1440000   284.16946      0.013605706    7.4739366      705.03226     -18.95987       686.07239    
   1441000   296.10986      0.013605706    6.3044054      734.65672     -19.496993      715.15972    
   1442000   308.46123      0.013605706    3.3856095      765.30082     -18.708707      746.59211    
   1443000   300.91484      0.013605706    8.0771994      746.578       -22.247723      724.33028    
   1444000   288.10301      0.013605706    7.3961978      714.79152     -24.888088      689.90343    
   1445000   303.28646      0.013605706    1.4839388      752.46208     -19.116772      733.34531    
   1446000   315.79601      0.013605706    7.4865299      783.4986      -21.10431       762.39429    
   1447000   303.35908      0.013605706    8.9435615      752.64223     -22.471635      730.1706     
   1448000   293.72528      0.013605706    11.014019      728.74051     -17.84762       710.89289    
   1449000   292.11758      0.013605706    7.0705288      724.75177     -19.502283      705.24948    
   1450000   309.40568      0.013605706    6.7416502      767.64402     -21.819879      745.82415    
   1451000   299.86655      0.013605706    9.1681055      743.97717     -20.80548       723.17169    
   1452000   288.39589      0.013605706    6.4405399      715.51814     -22.928727      692.58942    
   1453000   291.72391      0.013605706    7.3658612      723.77505     -21.353021      702.42203    
   1454000   308.8302       0.013605706    7.9827034      766.21625     -24.744778      741.47147    
   1455000   301.37991      0.013605706    7.0999699      747.73187     -25.277204      722.45467    
   1456000   299.24874      0.013605706    6.8985409      742.44436     -24.297357      718.14701    
   1457000   302.82441      0.013605706    7.2327437      751.31572     -21.844168      729.47155    
   1458000   296.23315      0.013605706    7.3321968      734.96261     -24.545888      710.41672    
   1459000   300.07584      0.013605706    8.0991571      744.49644     -22.245589      722.25085    
   1460000   303.98974      0.013605706    7.2903551      754.20692     -24.040073      730.16684    
   1461000   294.00895      0.013605706    7.5410245      729.4443      -18.704852      710.73945    
   1462000   295.20519      0.013605706    7.9121329      732.41222     -22.387242      710.02497    
   1463000   324.03457      0.013605706    7.8854366      803.93869     -28.331977      775.60672    
   1464000   288.28974      0.013605706    7.5497388      715.25479     -22.033015      693.22178    
   1465000   299.15285      0.013605706    9.7929177      742.20645     -27.579823      714.62663    
   1466000   308.40936      0.013605706    6.9970916      765.17213     -25.546513      739.62561    
   1467000   314.05112      0.013605706    3.3797362      779.16948     -24.594563      754.57492    
   1468000   285.14657      0.013605706    7.5414227      707.45649     -24.4985        682.95799    
   1469000   300.49173      0.013605706    7.6188101      745.52827     -20.118777      725.40949    
   1470000   310.13345      0.013605706    7.4379649      769.44964     -22.753046      746.6966     
   1471000   298.8942       0.013605706    5.1921494      741.56475     -21.525078      720.03967    
   1472000   288.11078      0.013605706    7.4697841      714.81079     -22.202707      692.60809    
   1473000   288.23341      0.013605706    6.7973771      715.11505     -21.69443       693.42062    
   1474000   315.80165      0.013605706    8.0275801      783.51261     -16.150696      767.36191    
   1475000   303.81999      0.013605706    8.0352394      753.78577     -17.196568      736.5892     
   1476000   286.70114      0.013605706    7.07736        711.31342     -18.445711      692.86771    
   1477000   302.50821      0.013605706    8.1220462      750.53121     -21.0482        729.48301    
   1478000   309.50649      0.013605706    7.8244222      767.89413     -21.098497      746.79563    
   1479000   300.85984      0.013605706    7.3312129      746.44155     -19.373446      727.06811    
   1480000   292.76878      0.013605706    9.6688713      726.3674      -22.107033      704.26037    
   1481000   310.15703      0.013605706    7.2381486      769.50814     -20.800345      748.7078     
   1482000   306.56943      0.013605706    6.245186       760.60722     -19.272825      741.33439    
   1483000   291.20384      0.013605706    4.4354         722.48476     -19.706069      702.77869    
   1484000   283.59162      0.013605706    7.4708744      703.59863     -19.016861      684.58177    
   1485000   308.91719      0.013605706    7.7605057      766.43205     -19.526761      746.90529    
   1486000   301.6166       0.013605706    6.6183169      748.31909     -20.305204      728.01389    
   1487000   302.62624      0.013605706    7.7035873      750.82404     -18.57306       732.25098    
   1488000   295.3397       0.013605706    9.5511431      732.74595     -17.361075      715.38487    
   1489000   296.2601       0.013605706    16.073116      735.02948     -20.313446      714.71603    
   1490000   312.64717      0.013605706    4.7236108      775.68625     -19.870348      755.8159     
   1491000   277.65755      0.013605706   -0.51309667     688.87603     -19.297443      669.57859    
   1492000   292.74931      0.013605706    11.822018      726.31911     -22.6983        703.62081    
   1493000   314.35579      0.013605706    10.595888      779.92539     -22.505236      757.42015    
   1494000   296.16728      0.013605706    8.5812582      734.79919     -19.885957      714.91323    
   1495000   300.19247      0.013605706    6.3465881      744.78578     -24.622646      720.16314    
   1496000   303.52883      0.013605706    1.6809165      753.06338     -27.854405      725.20898    
   1497000   289.14717      0.013605706    16.355974      717.3821      -24.460791      692.92131    
   1498000   298.26443      0.013605706    14.131567      740.00227     -20.79345       719.20882    
   1499000   305.7273       0.013605706    5.5589171      758.51786     -22.237631      736.28023    
   1500000   298.91832      0.013605706    2.7631563      741.62458     -20.669288      720.95529    
   1501000   286.38138      0.013605706    11.015414      710.52011     -20.088074      690.43203    
   1502000   294.15015      0.013605706    9.0123524      729.79462     -19.085119      710.70951    
   1503000   308.07573      0.013605706    7.1319309      764.34438     -20.07008       744.2743     
   1504000   300.37603      0.013605706    5.8397704      745.24122     -22.595567      722.64565    
   1505000   294.0295       0.013605706    7.2234516      729.49529     -23.977603      705.51768    
   1506000   301.32381      0.013605706    6.4256856      747.59268     -24.703991      722.88869    
   1507000   312.88972      0.013605706    9.1005289      776.28802     -24.228285      752.05974    
   1508000   296.23964      0.013605706    9.494346       734.97872     -23.324178      711.65454    
   1509000   297.35074      0.013605706    1.2351377      737.73538     -20.863405      716.87198    
   1510000   318.35841      0.013605706    10.36351       789.85599     -22.561072      767.29491    
   1511000   301.20439      0.013605706    11.355356      747.29639     -24.877209      722.41918    
   1512000   289.80499      0.013605706    8.0720372      719.01417     -25.40742       693.60675    
   1513000   292.73395      0.013605706    4.2253823      726.281       -28.355505      697.92549    
   1514000   311.76181      0.013605706    3.5874415      773.48965     -21.804859      751.6848     
   1515000   308.08849      0.013605706    10.347782      764.37603     -23.991309      740.38472    
   1516000   290.28056      0.013605706    8.9437314      720.19408     -20.463658      699.73042    
   1517000   294.76765      0.013605706    7.9162732      731.32667     -20.441624      710.88504    
   1518000   308.23482      0.013605706    5.4462814      764.73908     -20.603232      744.13585    
   1519000   302.39101      0.013605706    9.2931413      750.24043     -18.554993      731.68544    
   1520000   285.99807      0.013605706    6.7511659      709.56911     -25.290389      684.27872    
   1521000   303.03777      0.013605706    5.6897411      751.84505     -27.401479      724.44357    
   1522000   302.20631      0.013605706    7.8430497      749.78219     -25.581787      724.2004     
   1523000   298.4572       0.013605706    7.2378677      740.48053     -28.355369      712.12516    
   1524000   289.00838      0.013605706    5.2991399      717.03776     -25.637842      691.39991    
   1525000   304.92038      0.013605706    6.6932607      756.51588     -20.696277      735.8196     
   1526000   312.68426      0.013605706    7.5081014      775.77827     -24.281546      751.49673    
   1527000   314.34668      0.013605706    7.8850697      779.90279     -24.591953      755.31084    
   1528000   296.78858      0.013605706    4.5998257      736.34064     -24.834967      711.50567    
   1529000   286.56915      0.013605706    6.5540527      710.98595     -24.743888      686.24206    
   1530000   299.80003      0.013605706    7.256214       743.81213     -21.199665      722.61247    
   1531000   305.4483       0.013605706    6.947052       757.82565     -21.666052      736.1596     
   1532000   299.62731      0.013605706    7.0146333      743.38361     -22.307164      721.07645    
   1533000   299.24878      0.013605706    6.3872981      742.44448     -21.792897      720.65158    
   1534000   290.93968      0.013605706    5.8984399      721.82936     -22.919314      698.91004    
   1535000   298.96244      0.013605706    7.4742403      741.73406     -24.516985      717.21708    
   1536000   301.31249      0.013605706    7.404982       747.56459     -24.547273      723.01732    
   1537000   299.78704      0.013605706    7.5287155      743.77992     -27.368945      716.41098    
   1538000   294.68157      0.013605706    8.0083691      731.11309     -26.269905      704.84318    
   1539000   300.30057      0.013605706    8.9349604      745.054       -24.147427      720.90657    
   1540000   288.62459      0.013605706    3.604716       716.08557     -20.687374      695.3982     
   1541000   292.16622      0.013605706    5.425539       724.87244     -19.3663        705.50614    
   1542000   313.64223      0.013605706   -3.1168041      778.15501     -18.961641      759.19337    
   1543000   307.81347      0.013605706    10.911695      763.69371     -22.945844      740.74787    
   1544000   302.52281      0.013605706    9.9130453      750.56744     -22.266901      728.30054    
   1545000   289.79761      0.013605706    8.5579674      718.99586     -22.659512      696.33635    
   1546000   298.27007      0.013605706    5.8330786      740.01626     -27.57172       712.44454    
   1547000   307.65525      0.013605706    2.4471094      763.30116     -24.883612      738.41755    
   1548000   296.63754      0.013605706    11.663373      735.96592     -23.339237      712.62669    
   1549000   291.414        0.013605706    5.9347797      723.00616     -23.258811      699.74735    
   1550000   297.4925       0.013605706    4.1136682      738.08708     -22.896424      715.19066    
   1551000   299.76355      0.013605706    1.2429574      743.72163     -21.26069       722.46094    
   1552000   295.50093      0.013605706    11.360434      733.14595     -18.878049      714.2679     
   1553000   296.61299      0.013605706    5.3406412      735.90499     -20.252974      715.65202    
   1554000   308.12146      0.013605706    6.932164       764.45784     -22.407509      742.05033    
   1555000   298.47539      0.013605706    7.5793959      740.52566     -24.74902       715.77664    
   1556000   296.1017       0.013605706    7.4596076      734.63647     -26.424734      708.21173    
   1557000   295.89656      0.013605706    9.0729548      734.12752     -23.693442      710.43408    
   1558000   298.19086      0.013605706    7.8882018      739.81974     -26.532912      713.28683    
   1559000   292.01001      0.013605706    5.4470514      724.48487     -23.779708      700.70516    
   1560000   303.94438      0.013605706    5.9501304      754.09438     -24.793377      729.30101    
   1561000   301.12906      0.013605706    8.8844084      747.10951     -22.203483      724.90603    
   1562000   296.91304      0.013605706    7.7582416      736.64945     -21.218336      715.43111    
   1563000   296.11567      0.013605706    6.0308818      734.67114     -18.08847       716.58267    
   1564000   311.9597       0.013605706    9.9896327      773.98062     -22.609759      751.37086    
   1565000   278.50397      0.013605706    8.4136369      690.97602     -21.571969      669.40405    
   1566000   304.23498      0.013605706    5.5191974      754.81536     -21.869561      732.9458     
   1567000   311.56334      0.013605706    8.3099526      772.99724     -21.107273      751.88997    
   1568000   301.83987      0.013605706    9.5001345      748.87305     -20.218374      728.65467    
   1569000   283.76941      0.013605706    8.4797809      704.03972     -23.217818      680.82191    
   1570000   289.31841      0.013605706    4.7960184      717.80696     -22.787655      695.0193     
   1571000   283.44122      0.013605706    8.0871007      703.22549     -20.589859      682.63563    
   1572000   299.27357      0.013605706    7.3520731      742.50599     -18.753284      723.7527     
   1573000   294.45448      0.013605706    7.93869        730.54968     -20.132665      710.41701    
   1574000   287.02025      0.013605706    5.4708762      712.10514     -19.469406      692.63574    
   1575000   302.56363      0.013605706    8.2633375      750.66872     -18.513761      732.15495    
   1576000   299.69448      0.013605706    6.885473       743.55025     -20.398679      723.15158    
   1577000   298.35907      0.013605706    6.4269022      740.23707     -20.456847      719.78022    
   1578000   294.68604      0.013605706    8.3585326      731.1242      -24.443232      706.68096    
   1579000   293.97238      0.013605706    7.0400057      729.35357     -24.728729      704.62484    
   1580000   304.62397      0.013605706    5.8586254      755.78047     -23.105197      732.67528    
   1581000   294.0961       0.013605706    7.8828152      729.66054     -20.76997       708.89057    
   1582000   296.83339      0.013605706    6.9248778      736.45182     -22.985716      713.4661     
   1583000   305.10036      0.013605706    6.7871691      756.96239     -22.282302      734.68009    
   1584000   300.84702      0.013605706    6.6550039      746.40974     -19.2632        727.14654    
   1585000   300.46366      0.013605706    5.756916       745.45862     -19.387479      726.07114    
   1586000   311.99224      0.013605706    7.5106199      774.06134     -18.753654      755.30769    
   1587000   296.21128      0.013605706    8.6773566      734.90834     -21.343992      713.56435    
   1588000   296.41528      0.013605706    9.5468323      735.41449     -21.038971      714.37552    
   1589000   310.99821      0.013605706    9.9488918      771.59513     -21.813153      749.78198    
   1590000   305.54146      0.013605706    4.7428761      758.05678     -19.377484      738.6793     
   1591000   305.27897      0.013605706    6.3621629      757.40554     -18.586971      738.81857    
   1592000   304.53003      0.013605706    11.924308      755.54739     -20.310028      735.23736    
   1593000   301.96458      0.013605706    10.188233      749.18245     -20.936418      728.24604    
   1594000   302.75405      0.013605706    2.7847726      751.14115     -23.149643      727.99151    
   1595000   306.52031      0.013605706    7.4256711      760.48533     -22.841806      737.64353    
   1596000   303.89555      0.013605706    8.4789481      753.97323     -21.14067       732.83256    
   1597000   299.73895      0.013605706    6.9052505      743.6606      -21.631111      722.02949    
   1598000   294.04678      0.013605706    3.4729146      729.53817     -22.695753      706.84242    
   1599000   301.18342      0.013605706    10.523636      747.24438     -24.07309       723.17129    
   1600000   312.2443       0.013605706    4.6502406      774.68672     -21.844214      752.84251    
   1601000   293.15573      0.013605706    6.3806477      727.32744     -20.403393      706.92404    
   1602000   292.59833      0.013605706    7.0362997      725.94452     -20.992516      704.95201    
   1603000   313.80819      0.013605706    8.596735       778.56677     -24.04904       754.51773    
   1604000   307.12437      0.013605706    7.6726937      761.98402     -21.275912      740.70811    
   1605000   298.05352      0.013605706    6.6477418      739.47899     -19.747639      719.73135    
   1606000   285.30131      0.013605706    9.2690082      707.84043     -22.681335      685.15909    
   1607000   313.80844      0.013605706    7.2535382      778.56738     -21.07671       757.49067    
   1608000   303.2133       0.013605706    5.7200586      752.28056     -24.688948      727.59161    
   1609000   304.49932      0.013605706    7.4563847      755.47121     -19.287047      736.18416    
   1610000   299.48988      0.013605706    10.383609      743.04264     -20.724566      722.31807    
   1611000   301.03312      0.013605706    7.5141565      746.87146     -16.365322      730.50614    
   1612000   305.11962      0.013605706    6.8990361      757.01019     -17.516337      739.49385    
   1613000   290.26918      0.013605706    8.0271538      720.16584     -20.050823      700.11502    
   1614000   299.31649      0.013605706    10.99619       742.61246     -20.596084      722.01638    
   1615000   301.65504      0.013605706    8.1625223      748.41446     -23.525664      724.8888     
   1616000   294.85324      0.013605706    7.6560038      731.53902     -22.234376      709.30465    
   1617000   308.26295      0.013605706    7.2636305      764.80887     -20.203394      744.60548    
   1618000   292.37388      0.013605706    7.2973693      725.38765     -19.365275      706.02237    
   1619000   294.22468      0.013605706    4.9498078      729.97954     -22.056318      707.92322    
   1620000   313.34896      0.013605706    8.3473464      777.42741     -20.498414      756.929      
   1621000   311.00943      0.013605706    9.0165584      771.62297     -23.015583      748.60738    
   1622000   287.28393      0.013605706    8.3412625      712.75935     -19.771986      692.98736    
   1623000   290.68234      0.013605706    6.9398264      721.1909      -21.138029      700.05287    
   1624000   307.07113      0.013605706    8.158746       761.85193     -27.551346      734.30059    
   1625000   297.0491       0.013605706    7.3896487      736.987       -22.155154      714.83185    
   1626000   288.83407      0.013605706    7.2956697      716.6053      -23.866524      692.73877    
   1627000   306.79756      0.013605706    7.5018522      761.1732      -22.138344      739.03486    
   1628000   310.03438      0.013605706    6.8878866      769.20383     -24.212238      744.99159    
   1629000   300.65719      0.013605706    9.4926509      745.93878     -25.565571      720.37321    
   1630000   299.4317       0.013605706    7.6612487      742.89829     -25.854075      717.04422    
   1631000   303.68304      0.013605706    7.8431224      753.44599     -23.627909      729.81808    
   1632000   306.30924      0.013605706    7.1402385      759.96167     -28.638807      731.32286    
   1633000   305.68356      0.013605706    5.8448223      758.40935     -24.49817       733.91118    
   1634000   299.3404       0.013605706    6.2931352      742.67178     -26.709418      715.96236    
   1635000   298.6202       0.013605706    12.992142      740.88494     -23.553292      717.33165    
   1636000   298.56959      0.013605706    6.3162906      740.75939     -26.27279       714.4866     
   1637000   293.70999      0.013605706    7.332045       728.70258     -26.654159      702.04842    
   1638000   294.60868      0.013605706    6.7470314      730.93225     -25.828058      705.10419    
   1639000   306.89855      0.013605706    5.9759846      761.42376     -27.907452      733.5163     
   1640000   293.33337      0.013605706    6.7340248      727.76817     -24.332207      703.43596    
   1641000   301.58037      0.013605706    8.2382163      748.22921     -24.736828      723.49238    
   1642000   299.64337      0.013605706    7.1509955      743.42346     -29.429625      713.99383    
   1643000   294.97615      0.013605706    7.2585852      731.84396     -29.376729      702.46723    
   1644000   305.8657       0.013605706    6.7261994      758.86124     -28.891756      729.96948    
   1645000   304.71333      0.013605706    11.886355      756.00218     -27.658622      728.34356    
   1646000   303.73922      0.013605706    7.0692382      753.58538     -32.893174      720.6922     
   1647000   299.75184      0.013605706    5.4496875      743.69258     -28.440181      715.2524     
   1648000   291.51059      0.013605706    9.3358058      723.24582     -26.413502      696.83232    
   1649000   288.4867       0.013605706    8.6501256      715.74345     -26.531913      689.21154    
   1650000   302.03404      0.013605706    6.3465759      749.35478     -32.070802      717.28398    
   1651000   320.86979      0.013605706    7.7215455      796.0868      -27.413901      768.6729     
   1652000   299.16299      0.013605706    8.2959421      742.23163     -24.973916      717.25771    
   1653000   292.96304      0.013605706    8.0127521      726.84939     -24.043866      702.80552    
   1654000   296.27433      0.013605706    6.4152357      735.06478     -24.137867      710.92691    
   1655000   320.77572      0.013605706    7.8602113      795.8534      -26.987231      768.86617    
   1656000   300.7844       0.013605706    8.9696899      746.2544      -29.290884      716.96351    
   1657000   293.79187      0.013605706    9.9441875      728.90573     -28.504164      700.40156    
   1658000   298.64179      0.013605706    7.3002032      740.9385      -28.425702      712.5128     
   1659000   298.13706      0.013605706    5.8229122      739.68627     -28.025146      711.66112    
   1660000   305.68067      0.013605706    7.3340329      758.40217     -27.32431       731.07786    
   1661000   311.09213      0.013605706    7.0552245      771.82814     -27.92645       743.90169    
   1662000   316.75402      0.013605706    5.2048808      785.87544     -23.148467      762.72698    
   1663000   291.66218      0.013605706    7.0391466      723.6219      -25.783722      697.83818    
   1664000   290.97821      0.013605706    7.8991193      721.92496     -20.954982      700.96998    
   1665000   298.76383      0.013605706    7.2310121      741.24129     -23.20626       718.03503    
   1666000   304.8029       0.013605706    10.641165      756.22441     -18.491402      737.73301    
   1667000   296.56575      0.013605706    10.267156      735.7878      -19.893205      715.89459    
   1668000   293.6494       0.013605706    0.37595333     728.55225     -20.585012      707.96724    
   1669000   308.88943      0.013605706    9.6507607      766.36318     -22.499645      743.86354    
   1670000   301.62067      0.013605706    18.692585      748.32919     -20.632579      727.69662    
   1671000   285.39777      0.013605706    12.731907      708.07972     -16.397688      691.68204    
   1672000   285.77496      0.013605706    6.2288742      709.01555     -19.275886      689.73966    
   1673000   305.82657      0.013605706    7.6451978      758.76415     -23.401803      735.36235    
   1674000   294.44781      0.013605706    7.3037094      730.53312     -20.878368      709.65475    
   1675000   293.78422      0.013605706    4.2301787      728.88674     -20.417415      708.46932    
   1676000   311.37316      0.013605706    7.3861886      772.52538     -21.179393      751.34599    
   1677000   306.25874      0.013605706    9.0985672      759.83638     -22.587242      737.24914    
   1678000   288.39831      0.013605706    7.5762581      715.52415     -21.21836       694.30579    
   1679000   287.99786      0.013605706    5.5148763      714.53064     -22.580307      691.95033    
   1680000   301.43874      0.013605706    3.0270944      747.87783     -20.063994      727.81383    
   1681000   298.65612      0.013605706    6.4059376      740.97408     -18.294948      722.67913    
   1682000   299.2788       0.013605706    12.652142      742.51895     -18.250942      724.26801    
   1683000   295.99677      0.013605706    6.6145773      734.37614     -21.580528      712.79561    
   1684000   296.74047      0.013605706    6.2123572      736.22129     -20.925103      715.29619    
   1685000   277.60213      0.013605706    7.2091064      688.73854     -17.80201       670.93653    
   1686000   283.71165      0.013605706    5.4157569      703.89642     -24.273522      679.6229     
   1687000   298.37617      0.013605706    7.5960794      740.2795      -24.082478      716.19702    
   1688000   318.9377       0.013605706    6.4810118      791.29323     -21.410281      769.88295    
   1689000   307.11766      0.013605706    8.04589        761.96739     -22.220717      739.74667    
   1690000   294.91241      0.013605706    6.84339        731.68582     -21.027999      710.65782    
   1691000   297.88085      0.013605706    7.5354859      739.0506      -17.719195      721.3314     
   1692000   320.19607      0.013605706    8.4167472      794.41528     -21.997469      772.41781    
   1693000   308.20465      0.013605706    6.9575637      764.66423     -21.932404      742.73183    
   1694000   287.1797       0.013605706    6.546704       712.50075     -23.962245      688.5385     
   1695000   287.75802      0.013605706    6.1307188      713.93559     -25.948202      687.98739    
   1696000   292.38137      0.013605706    8.4398398      725.40625     -22.313586      703.09266    
   1697000   308.26453      0.013605706    7.179281       764.81279     -21.619662      743.19313    
   1698000   309.55723      0.013605706    6.1582251      768.02001     -19.977584      748.04243    
   1699000   288.38671      0.013605706    6.5851358      715.49537     -19.90605       695.58933    
   1700000   292.77751      0.013605706    6.5618163      726.38908     -22.588039      703.80104    
   1701000   307.563        0.013605706    8.2048771      763.07229     -20.305952      742.76634    
   1702000   292.13394      0.013605706    7.0580061      724.79236     -22.383128      702.40923    
   1703000   295.19206      0.013605706    5.9901777      732.37965     -30.600947      701.7787     
   1704000   298.10464      0.013605706    5.5937263      739.60583     -27.106774      712.49905    
   1705000   308.00357      0.013605706    7.6721183      764.16535     -27.083364      737.08198    
   1706000   301.10448      0.013605706    9.2784902      747.04851     -28.401379      718.64713    
   1707000   294.52173      0.013605706    10.644611      730.71653     -30.247537      700.46899    
   1708000   273.20528      0.013605706    2.3816399      677.82984     -27.272278      650.55756    
   1709000   305.1903       0.013605706    0.52680712     757.18556     -23.652133      733.53342    
   1710000   305.15176      0.013605706    12.538931      757.08993     -18.920399      738.16953    
   1711000   284.7967       0.013605706    10.896205      706.58845     -22.164634      684.42382    
   1712000   299.10935      0.013605706    5.6808802      742.09855     -24.783575      717.31498    
   1713000   298.71309      0.013605706    3.7175886      741.11542     -21.648309      719.46711    
   1714000   289.94236      0.013605706    11.347892      719.35499     -26.507314      692.84767    
   1715000   300.99581      0.013605706    7.4135187      746.7789      -30.882351      715.89655    
   1716000   300.96016      0.013605706    6.3199888      746.69045     -29.140583      717.54987    
   1717000   304.14682      0.013605706    8.0749941      754.59664     -24.257614      730.33903    
   1718000   303.33357      0.013605706    13.062312      752.57896     -26.58685       725.99211    
   1719000   299.71276      0.013605706    7.1060554      743.59563     -24.094845      719.50079    
   1720000   304.6937       0.013605706    4.5364354      755.95348     -22.229729      733.72375    
   1721000   299.40156      0.013605706    8.3175229      742.82353     -28.504948      714.31858    
   1722000   293.53024      0.013605706    6.2114988      728.25662     -26.007973      702.24864    
   1723000   292.22867      0.013605706    7.3712486      725.02739     -26.406751      698.62063    
   1724000   310.68207      0.013605706    8.6568966      770.81078     -25.05341       745.75737    
   1725000   299.53877      0.013605706    10.985328      743.16393     -27.611254      715.55268    
   1726000   293.22361      0.013605706    7.3629261      727.49587     -27.267896      700.22797    
   1727000   306.7579       0.013605706    1.5406535      761.07481     -25.377704      735.6971     
   1728000   312.24179      0.013605706    5.1029779      774.6805      -21.687828      752.99267    
   1729000   301.73026      0.013605706    13.307675      748.60108     -22.12905       726.47203    
   1730000   291.3355       0.013605706    4.3090038      722.81141     -22.153384      700.65803    
   1731000   307.80076      0.013605706    2.9571534      763.66217     -20.707519      742.95465    
   1732000   309.66792      0.013605706    12.524899      768.29465     -24.23872       744.05593    
   1733000   299.11582      0.013605706    8.082766       742.1146      -20.790647      721.32396    
   1734000   293.16108      0.013605706    1.5122389      727.34073     -22.801783      704.53894    
   1735000   301.25386      0.013605706    8.6296907      747.41914     -24.033143      723.38599    
   1736000   303.44871      0.013605706    12.048671      752.86462     -26.761245      726.10338    
   1737000   280.43759      0.013605706    8.1416339      695.7734      -22.615667      673.15773    
   1738000   292.57688      0.013605706    4.8599719      725.89131     -21.468149      704.42317    
   1739000   297.80778      0.013605706    5.6167079      738.8693      -23.310352      715.55895    
   1740000   308.02049      0.013605706    7.7724615      764.20733     -23.644209      740.56312    
   1741000   292.86954      0.013605706    7.873683       726.61741     -19.403927      707.21348    
   1742000   289.13503      0.013605706    6.9139976      717.35199     -20.491977      696.86001    
   1743000   306.54333      0.013605706    7.5049879      760.54245     -23.304742      737.23771    
   1744000   319.55241      0.013605706    8.7938695      792.81834     -23.702012      769.11633    
   1745000   291.09018      0.013605706    8.0600908      722.20276     -22.282005      699.92075    
   1746000   301.01875      0.013605706    7.0751734      746.83581     -22.042346      724.79346    
   1747000   304.16467      0.013605706    7.4654198      754.64093     -23.100811      731.54012    
   1748000   311.55454      0.013605706    8.0243323      772.97541     -27.470641      745.50477    
   1749000   287.67374      0.013605706    9.5781089      713.72647     -22.443941      691.28253    
   1750000   295.21085      0.013605706    3.7019744      732.42625     -20.31975       712.1065     
   1751000   305.43991      0.013605706    5.6601426      757.80484     -25.879906      731.92493    
   1752000   303.23352      0.013605706    7.6661546      752.33072     -22.077811      730.25291    
   1753000   296.51823      0.013605706    8.8410115      735.6699      -21.419085      714.25082    
   1754000   290.05307      0.013605706    5.5895222      719.62967     -21.275451      698.35422    
   1755000   283.71056      0.013605706    4.9611714      703.89372     -19.680639      684.21308    
   1756000   310.49215      0.013605706    7.6174173      770.33958     -20.575931      749.76365    
   1757000   298.50442      0.013605706    7.5654685      740.59769     -20.460915      720.13678    
   1758000   286.11631      0.013605706    3.1156324      709.86245     -23.393971      686.46848    
   1759000   297.51802      0.013605706    5.4900831      738.15042     -20.553898      717.59652    
   1760000   306.5286       0.013605706    8.0830963      760.50591     -20.590708      739.9152     
   1761000   298.84728      0.013605706    10.280272      741.44833     -24.705392      716.74294    
   1762000   287.47682      0.013605706    7.1445172      713.23792     -18.95089       694.28703    
   1763000   294.53254      0.013605706    8.4960225      730.74336     -19.736625      711.00674    
   1764000   322.31958      0.013605706    8.658          799.68375     -20.628733      779.05502    
   1765000   298.87328      0.013605706    5.9462501      741.51284     -22.345486      719.16735    
   1766000   283.31695      0.013605706    7.9701597      702.91717     -21.365085      681.55209    
   1767000   295.42704      0.013605706    9.6984219      732.96263     -22.63676       710.32587    
   1768000   304.86786      0.013605706    7.3161642      756.38557     -22.669801      733.71577    
   1769000   312.70492      0.013605706    3.9431245      775.82954     -22.965101      752.86443    
   1770000   306.29297      0.013605706   -1.1548313      759.92131     -23.908793      736.01251    
   1771000   293.46708      0.013605706    10.800194      728.09991     -18.371617      709.72829    
   1772000   306.54087      0.013605706    11.893954      760.53634     -21.626667      738.90967    
   1773000   301.80392      0.013605706    5.943767       748.78384     -20.166816      728.61703    
   1774000   298.04355      0.013605706    2.9970565      739.45427     -19.259395      720.19488    
   1775000   294.34269      0.013605706    7.6984654      730.27234     -20.731058      709.54128    
   1776000   310.30658      0.013605706    22.3426        769.87918     -20.647792      749.23139    
   1777000   307.20361      0.013605706    15.667998      762.18063     -17.20556       744.97507    
   1778000   294.73055      0.013605706   -7.710788       731.23461     -18.382437      712.85217    
   1779000   300.33717      0.013605706    8.1532412      745.1448      -17.916488      727.22831    
   1780000   306.467        0.013605706    8.5835056      760.35309     -20.443179      739.90991    
   1781000   290.72791      0.013605706   -4.291621       721.30396     -17.660503      703.64346    
   1782000   290.19299      0.013605706    11.903592      719.97681     -15.736645      704.24017    
   1783000   319.17747      0.013605706    18.524254      791.8881      -17.486782      774.40132    
   1784000   306.82541      0.013605706    5.7288377      761.24229     -16.517234      744.72505    
   1785000   286.57203      0.013605706    0.96985746     710.9931      -19.737997      691.25511    
   1786000   291.08223      0.013605706    15.912158      722.18304     -17.650549      704.53249    
   1787000   312.45712      0.013605706    14.597999      775.21472     -17.79124       757.42348    
   1788000   314.21366      0.013605706    0.59877669     779.57274     -22.125737      757.447      
   1789000   296.71777      0.013605706    3.6331593      736.16496     -17.577185      718.58777    
   1790000   299.69841      0.013605706    18.67164       743.56002     -19.202108      724.35792    
   1791000   311.18921      0.013605706   -6.9373499      772.06902     -22.899003      749.17001    
   1792000   299.70832      0.013605706   -22.326029      743.5846      -23.400641      720.18396    
   1793000   286.50373      0.013605706    3.4460131      710.82365     -21.47507       689.34858    
   1794000   302.42251      0.013605706    10.508462      750.31858     -24.028313      726.29026    
   1795000   301.9872       0.013605706    6.1420592      749.23857     -24.709286      724.52928    
   1796000   306.44273      0.013605706    8.3092912      760.29287     -22.781031      737.51184    
   1797000   297.60668      0.013605706    13.561519      738.37038     -19.645528      718.72485    
   1798000   296.33898      0.013605706    7.7479567      735.22518     -21.048355      714.17682    
   1799000   292.60292      0.013605706   -1.0721444      725.95591     -18.842353      707.11356    
   1800000   287.62761      0.013605706   -4.617775       713.61203     -16.002354      697.60967    
   1801000   297.20971      0.013605706    9.1880138      737.38549     -18.713708      718.67178    
   1802000   316.25642      0.013605706    14.350034      784.6409      -18.31836       766.32254    
   1803000   304.09736      0.013605706    2.3582635      754.47392     -20.844171      733.62975    
   1804000   285.59552      0.013605706   -1.6692283      708.57035     -24.453278      684.11707    
   1805000   300.32632      0.013605706    14.914665      745.11788     -25.332952      719.78493    
   1806000   309.54915      0.013605706    8.3780102      767.99997     -22.975385      745.02459    
   1807000   313.20456      0.013605706   -4.3408147      777.06916     -25.639959      751.4292     
   1808000   285.81042      0.013605706    2.4037742      709.10354     -23.94447       685.15907    
   1809000   294.4376       0.013605706    9.4951953      730.50779     -22.115121      708.39267    
   1810000   325.15146      0.013605706    8.9721562      806.70974     -21.314522      785.39522    
   1811000   288.71576      0.013605706    3.5004986      716.31176     -20.113661      696.1981     
   1812000   289.56701      0.013605706    8.0078801      718.42374     -17.911926      700.51181    
   1813000   307.79732      0.013605706    8.0056908      763.65364     -18.26203       745.39161    
   1814000   314.49432      0.013605706    6.4685234      780.26907     -21.966559      758.30251    
   1815000   301.58344      0.013605706    6.7314766      748.23682     -22.959507      725.27731    
   1816000   288.51977      0.013605706    6.3354948      715.8255      -22.589634      693.23587    
   1817000   304.67537      0.013605706    9.0684814      755.90799     -21.849458      734.05853    
   1818000   310.80347      0.013605706    7.2233474      771.11197     -23.217306      747.89466    
   1819000   303.72121      0.013605706    6.742323       753.54069     -25.161734      728.37895    
   1820000   290.13505      0.013605706    9.5225422      719.83305     -22.550504      697.28255    
   1821000   302.40378      0.013605706    9.3116341      750.2721      -23.379854      726.89225    
   1822000   304.23082      0.013605706    6.3883591      754.80504     -18.966078      735.83897    
   1823000   314.31083      0.013605706    3.2938272      779.81384     -24.868042      754.9458     
   1824000   302.36741      0.013605706    6.6814224      750.18188     -22.439421      727.74245    
   1825000   284.76004      0.013605706    10.600052      706.49752     -26.667417      679.8301     
   1826000   312.16792      0.013605706    7.3990183      774.4972      -25.830578      748.66663    
   1827000   295.56505      0.013605706    5.5223173      733.30503     -23.507572      709.79746    
   1828000   299.46549      0.013605706    11.321288      742.98212     -21.366941      721.61518    
   1829000   305.70006      0.013605706    6.6160324      758.45027     -16.903859      741.54641    
   1830000   301.54218      0.013605706    1.8060221      748.13445     -19.520073      728.61438    
   1831000   294.16639      0.013605706    7.547378       729.83493     -17.033272      712.80166    
   1832000   286.75373      0.013605706    7.0662554      711.44392     -15.97715       695.46677    
   1833000   291.16789      0.013605706    9.0572286      722.39556     -18.295891      704.09967    
   1834000   316.34498      0.013605706    7.3023012      784.86061     -21.63488       763.22573    
   1835000   293.89594      0.013605706    5.8537306      729.16392     -24.061505      705.10241    
   1836000   291.84253      0.013605706    7.8456963      724.06936     -27.231376      696.83799    
   1837000   303.88229      0.013605706    7.6639862      753.94033     -22.165575      731.77476    
   1838000   303.58364      0.013605706    7.9319876      753.19937     -14.55545       738.64393    
   1839000   303.35129      0.013605706    7.8651612      752.62292     -16.841569      735.78135    
   1840000   309.37439      0.013605706    7.5222454      767.5664      -17.101841      750.46456    
   1841000   286.27277      0.013605706    4.0603402      710.25063     -17.044143      693.20649    
   1842000   296.82906      0.013605706    7.8710154      736.44107     -19.335125      717.10595    
   1843000   303.20913      0.013605706    7.9382333      752.27021     -19.89009       732.38012    
   1844000   290.9655       0.013605706    6.1433978      721.89343     -22.361895      699.53153    
   1845000   307.92716      0.013605706    8.122538       763.97578     -18.730761      745.24502    
   1846000   301.25261      0.013605706    7.4219907      747.41602     -22.057159      725.35886    
   1847000   296.91337      0.013605706    7.7457238      736.65027     -20.554906      716.09536    
   1848000   298.28791      0.013605706    7.0227236      740.06052     -24.1708        715.88972    
   1849000   313.85423      0.013605706    8.1480277      778.68098     -24.346561      754.33442    
   1850000   313.05182      0.013605706    8.5836154      776.69021     -25.304619      751.38559    
   1851000   288.68893      0.013605706    6.6893645      716.2452      -23.184452      693.06075    
   1852000   292.69229      0.013605706    7.0568818      726.17763     -21.525733      704.6519     
   1853000   304.36052      0.013605706    7.9105173      755.12684     -20.555556      734.57128    
   1854000   307.1806       0.013605706    6.9419872      762.12354     -23.684494      738.43904    
   1855000   283.63199      0.013605706    8.8320879      703.69879     -20.167649      683.53114    
   1856000   301.86657      0.013605706    7.3575092      748.93929     -20.135755      728.80353    
   1857000   299.22722      0.013605706    4.8680714      742.39098     -19.890572      722.50041    
   1858000   297.5546       0.013605706    9.3084972      738.24115     -19.679899      718.56125    
   1859000   298.39664      0.013605706    7.4411952      740.33028     -20.417935      719.91235    
   1860000   299.6349       0.013605706    7.6071827      743.40244     -19.280708      724.12173    
   1861000   308.35208      0.013605706    7.2078248      765.03001     -18.419593      746.61042    
   1862000   302.02427      0.013605706    6.7146137      749.33054     -17.339004      731.99154    
   1863000   293.00144      0.013605706    16.273478      726.94465     -18.486646      708.45801    
   1864000   303.50746      0.013605706    8.0682218      753.01038     -19.107697      733.90268    
   1865000   293.87216      0.013605706    7.4617709      729.10493     -21.685395      707.41953    
   1866000   297.01796      0.013605706    7.141999       736.90975     -17.396746      719.513      
   1867000   302.77129      0.013605706    6.3197107      751.18391     -20.578829      730.60508    
   1868000   299.92935      0.013605706    6.6087205      744.13299     -21.549056      722.58393    
   1869000   302.58797      0.013605706    9.7414556      750.72909     -22.784709      727.94438    
   1870000   300.8189       0.013605706    6.555427       746.33999     -20.270871      726.06912    
   1871000   296.82423      0.013605706    5.0600638      736.42908     -21.569767      714.85932    
   1872000   302.26168      0.013605706    8.1878711      749.91956     -24.38533       725.53423    
   1873000   294.52687      0.013605706    7.5600693      730.72929     -23.557848      707.17144    
   1874000   298.08814      0.013605706    7.6961702      739.5649      -24.463255      715.10164    
   1875000   304.22008      0.013605706    8.877502       754.7784      -20.834335      733.94407    
   1876000   303.12573      0.013605706    8.2136169      752.06329     -21.233256      730.83003    
   1877000   303.27809      0.013605706    6.9186676      752.44131     -21.328971      731.11234    
   1878000   291.2978       0.013605706    7.1984715      722.71788     -22.712086      700.00579    
   1879000   298.03047      0.013605706    8.9463272      739.4218      -20.064368      719.35743    
   1880000   318.27594      0.013605706    5.5076125      789.65139     -21.241291      768.4101     
   1881000   293.25478      0.013605706    7.2144166      727.5732      -22.270497      705.3027     
   1882000   287.80957      0.013605706    11.723547      714.06348     -25.373381      688.6901     
   1883000   301.17825      0.013605706    8.5392887      747.23155     -24.357029      722.87452    
   1884000   322.90954      0.013605706    7.0239606      801.14746     -23.906277      777.24118    
   1885000   286.58415      0.013605706    5.5204636      711.02316     -22.979107      688.04406    
   1886000   284.78203      0.013605706    9.495134       706.55207     -20.750287      685.80178    
   1887000   310.58929      0.013605706    7.9223818      770.5806      -22.876693      747.7039     
   1888000   297.75594      0.013605706    1.7496973      738.74071     -21.546217      717.19449    
   1889000   286.99039      0.013605706    7.631498       712.03107     -24.56802       687.46305    
   1890000   286.08138      0.013605706    11.710015      709.77579     -18.375301      691.40049    
   1891000   306.52345      0.013605706    10.054456      760.49313     -22.44044       738.05269    
   1892000   314.62516      0.013605706    5.7991126      780.5937      -21.779321      758.81438    
   1893000   298.46861      0.013605706    6.7975326      740.50886     -22.770617      717.73824    
   1894000   283.75573      0.013605706    6.659408       704.00578     -21.763635      682.24215    
   1895000   308.04422      0.013605706    9.2344822      764.26621     -23.976563      740.28965    
   1896000   303.21223      0.013605706    5.602862       752.27791     -24.408584      727.86933    
   1897000   293.57938      0.013605706    6.0296696      728.37854     -21.241658      707.13688    
   1898000   300.30034      0.013605706    10.789173      745.05342     -24.066695      720.98672    
   1899000   308.41875      0.013605706    6.4982429      765.19543     -19.725927      745.4695     
   1900000   306.85965      0.013605706   -0.2203656      761.32725     -21.066755      740.26049    
   1901000   290.888        0.013605706    9.0571479      721.70114     -20.066197      701.63494    
   1902000   307.47169      0.013605706    8.4126212      762.84573     -21.271337      741.57439    
   1903000   309.70038      0.013605706    6.5903619      768.37519     -19.012294      749.36289    
   1904000   300.32095      0.013605706    1.1031731      745.10455     -18.739522      726.36502    
   1905000   276.53598      0.013605706    4.5296203      686.09338     -22.20252       663.89086    
   1906000   313.53787      0.013605706    11.189704      777.89611     -19.524667      758.37144    
   1907000   311.88816      0.013605706    10.080488      773.80313     -20.547022      753.25611    
   1908000   293.08329      0.013605706    4.3953108      727.14773     -21.802323      705.34541    
   1909000   298.84843      0.013605706    12.400106      741.4512      -26.820974      714.63023    
   1910000   312.31191      0.013605706    8.6159508      774.85445     -22.828437      752.02601    
   1911000   292.93741      0.013605706    7.4535735      726.7858      -22.945539      703.84026    
   1912000   305.77472      0.013605706    11.043209      758.63552     -23.817673      734.81784    
   1913000   316.72892      0.013605706    12.7357        785.81319     -18.341186      767.472      
   1914000   307.15404      0.013605706    3.0147918      762.05764     -19.895633      742.162      
   1915000   302.99639      0.013605706    4.9768701      751.7424      -22.982845      728.75956    
   1916000   288.29427      0.013605706    6.1096451      715.26604     -22.919447      692.34659    
   1917000   304.55277      0.013605706    8.9409695      755.60381     -24.201578      731.40223    
   1918000   302.76444      0.013605706    12.749705      751.16692     -18.25199       732.91493    
   1919000   300.60569      0.013605706    5.4375595      745.81101     -21.131589      724.67942    
   1920000   305.67317      0.013605706    3.8002444      758.38357     -23.01097       735.3726     
   1921000   309.59488      0.013605706    5.4353467      768.11343     -24.019902      744.09353    
   1922000   308.50399      0.013605706    9.4601973      765.4069      -26.938909      738.46799    
   1923000   299.12757      0.013605706    7.761764       742.14376     -26.560817      715.58294    
   1924000   291.96239      0.013605706    0.87280591     724.36674     -22.330333      702.03641    
   1925000   308.92515      0.013605706    0.42538668     766.4518      -30.19068       736.26112    
   1926000   306.83038      0.013605706    6.7027751      761.25462     -28.047658      733.20697    
   1927000   298.31537      0.013605706    9.9682806      740.12866     -25.756709      714.37195    
   1928000   284.16692      0.013605706    5.6182388      705.02597     -21.34288       683.68309    
   1929000   296.08701      0.013605706    7.0141796      734.60004     -17.014093      717.58594    
   1930000   307.885        0.013605706    6.5449561      763.87117     -19.186567      744.6846     
   1931000   296.05185      0.013605706    7.4317393      734.51281     -18.806518      715.70629    
   1932000   292.90355      0.013605706    9.0351762      726.70178     -22.425258      704.27652    
   1933000   302.98758      0.013605706    7.6434289      751.72053     -23.70277       728.01776    
   1934000   299.38428      0.013605706    7.6545403      742.78066     -20.246039      722.53462    
   1935000   311.03755      0.013605706    8.5230012      771.69273     -22.225101      749.46763    
   1936000   300.65295      0.013605706    7.1746394      745.92826     -21.673223      724.25504    
   1937000   298.36268      0.013605706    6.6021287      740.24603     -22.04304       718.20299    
   1938000   292.12799      0.013605706    7.2398572      724.77759     -22.741984      702.0356     
   1939000   305.39456      0.013605706    8.0524847      757.69233     -21.819448      735.87288    
   1940000   293.39027      0.013605706    6.3917202      727.90936     -21.84906       706.0603     
   1941000   291.23275      0.013605706    7.5642685      722.55648     -20.603468      701.95301    
   1942000   296.87343      0.013605706    6.5603442      736.55116     -20.285675      716.26548    
   1943000   313.33567      0.013605706    5.1933741      777.39443     -23.301136      754.09329    
   1944000   300.67952      0.013605706    9.5183569      745.99417     -24.657803      721.33637    
   1945000   300.95694      0.013605706    7.6841406      746.68247     -24.698459      721.98401    
   1946000   291.43561      0.013605706    6.9622835      723.05977     -24.151386      698.90839    
   1947000   290.50033      0.013605706    5.7710973      720.73932     -20.90983       699.82949    
   1948000   308.66665      0.013605706    7.482849       765.81048     -23.867829      741.94265    
   1949000   305.80012      0.013605706    8.1102348      758.69853     -23.735725      734.96281    
   1950000   288.44618      0.013605706    6.6501517      715.64291     -19.944716      695.6982     
   1951000   304.6065       0.013605706    4.0081318      755.73713     -21.992462      733.74467    
   1952000   315.24399      0.013605706    8.6182085      782.12903     -19.150663      762.97836    
   1953000   289.74064      0.013605706    7.4337537      718.85451     -22.400968      696.45354    
   1954000   299.07858      0.013605706    7.8620776      742.02221     -18.87238       723.14983    
   1955000   301.22029      0.013605706    7.7040918      747.33585     -21.72979       725.60606    
   1956000   306.00831      0.013605706    8.1849878      759.21506     -21.371183      737.84388    
   1957000   297.27306      0.013605706    7.6761337      737.54265     -19.096588      718.44606    
   1958000   304.27055      0.013605706    4.5215786      754.90363     -26.591998      728.31163    
   1959000   300.94116      0.013605706    9.6749065      746.6433      -21.725913      724.91739    
   1960000   288.21218      0.013605706    7.2860002      715.06236     -19.393868      695.66849    
   1961000   307.9142       0.013605706    5.4383197      763.94362     -20.384752      743.55887    
   1962000   300.95661      0.013605706    16.853307      746.68163     -17.772176      728.90946    
   1963000   292.51882      0.013605706    6.1561856      725.74725     -20.360859      705.38639    
   1964000   299.61281      0.013605706    6.5805177      743.34765     -22.511536      720.83612    
   1965000   301.56812      0.013605706    7.0818033      748.19881     -21.154161      727.04465    
   1966000   303.12206      0.013605706    6.9436215      752.05418     -18.502855      733.55133    
   1967000   294.92447      0.013605706    8.6029067      731.71573     -15.378611      716.33712    
   1968000   301.13086      0.013605706    4.0046616      747.11395     -15.63384       731.48011    
   1969000   311.41461      0.013605706    7.45751        772.62823     -18.811472      753.81676    
   1970000   289.84139      0.013605706    13.248194      719.10447     -19.487307      699.61716    
   1971000   289.53994      0.013605706    9.0993477      718.35657     -19.966169      698.3904     
   1972000   286.17988      0.013605706    5.5149841      710.02018     -19.339829      690.68035    
   1973000   307.31823      0.013605706    6.6657554      762.46499     -19.537063      742.92792    
   1974000   297.24562      0.013605706    8.7231581      737.47458     -18.026511      719.44806    
   1975000   300.19697      0.013605706    7.8103309      744.79696     -16.926106      727.87085    
   1976000   299.25208      0.013605706    6.8056189      742.45267     -19.205927      723.24674    
   1977000   296.91577      0.013605706    4.319451       736.65621     -15.518807      721.1374     
   1978000   304.78831      0.013605706    6.3206037      756.18819     -17.810799      738.37739    
   1979000   302.84817      0.013605706    10.639528      751.37466     -21.698011      729.67665    
   1980000   303.23022      0.013605706    7.9125442      752.32254     -20.767567      731.55498    
   1981000   285.03102      0.013605706    6.5245752      707.16982     -17.840421      689.3294     
   1982000   295.15979      0.013605706    7.4280383      732.29958     -17.755283      714.5443     
   1983000   318.752        0.013605706    9.8739589      790.83249     -18.637673      772.19482    
   1984000   309.07989      0.013605706    6.8520637      766.83572     -22.257596      744.57812    
   1985000   290.10691      0.013605706    6.482538       719.76324     -19.179719      700.58353    
   1986000   290.53306      0.013605706    8.1520785      720.82054     -23.830832      696.98971    
   1987000   310.98725      0.013605706    8.1267441      771.56795     -24.666969      746.90098    
   1988000   310.56447      0.013605706    5.6746129      770.51902     -27.211417      743.30761    
   1989000   287.14443      0.013605706    3.8049047      712.41325     -24.490377      687.92287    
   1990000   294.44921      0.013605706    2.3713642      730.5366      -24.163884      706.37271    
   1991000   305.75862      0.013605706    8.3227439      758.59556     -20.393546      738.20202    
   1992000   313.87413      0.013605706    9.0347129      778.73036     -22.49144       756.23892    
   1993000   302.7609       0.013605706    3.0465719      751.15814     -23.704144      727.45399    
   1994000   283.04951      0.013605706    10.23604       702.25363     -26.685861      675.56777    
   1995000   300.08875      0.013605706    8.7574079      744.52845     -22.949158      721.57929    
   1996000   307.95159      0.013605706    7.6255087      764.03638     -20.361685      743.67469    
   1997000   306.59162      0.013605706    7.4187628      760.66226     -21.668526      738.99373    
   1998000   300.52373      0.013605706    7.8865843      745.60767     -24.398917      721.20875    
   1999000   283.30247      0.013605706    7.1464877      702.88123     -21.582575      681.29866    
   2000000   308.10391      0.013605706    7.8883095      764.4143      -22.369164      742.04514    
   2001000   306.24241      0.013605706    7.5727408      759.79585     -21.464461      738.33139    
   2002000   302.1331       0.013605706    6.7067555      749.60056     -22.131493      727.46906    
   2003000   298.57995      0.013605706    6.4362089      740.78509     -20.744028      720.04106    
   2004000   302.07226      0.013605706    7.2122555      749.4496      -19.603562      729.84604    
   2005000   308.87503      0.013605706    7.4752643      766.32746     -24.616943      741.71051    
   2006000   289.61437      0.013605706    6.2496569      718.54124     -22.488812      696.05243    
   2007000   291.30878      0.013605706    6.1419753      722.7451      -18.604364      704.14074    
   2008000   301.45225      0.013605706    7.6750737      747.91133     -17.954917      729.95641    
   2009000   314.70308      0.013605706    7.8286267      780.78701     -16.750433      764.03658    
   2010000   315.244        0.013605706    6.4646077      782.12905     -18.642072      763.48697    
   2011000   294.92114      0.013605706    7.3711569      731.70749     -21.176112      710.53137    
   2012000   303.9526       0.013605706    7.8791445      754.11478     -24.472573      729.6422     
   2013000   323.68475      0.013605706    5.8668807      803.0708      -23.58162       779.48917    
   2014000   310.80431      0.013605706    6.512301       771.11406     -19.92867       751.18539    
   2015000   290.77619      0.013605706    11.143035      721.42374     -19.929854      701.49389    
   2016000   309.627        0.013605706    8.396311       768.19312     -20.673336      747.51978    
   2017000   309.14319      0.013605706    7.3628575      766.99278     -20.317783      746.67499    
   2018000   284.90429      0.013605706    4.9272251      706.85539     -20.103383      686.752      
   2019000   292.06131      0.013605706    9.1318632      724.61216     -18.670488      705.94167    
   2020000   322.07498      0.013605706    4.9572943      799.0769      -19.974618      779.10228    
   2021000   300.14213      0.013605706    6.3128955      744.66089     -18.890389      725.77051    
   2022000   289.75816      0.013605706    8.4544842      718.89798     -22.713446      696.18454    
   2023000   304.22654      0.013605706    8.5581853      754.79444     -18.542661      736.25178    
   2024000   298.67746      0.013605706    4.5653241      741.02701     -20.222398      720.80461    
   2025000   289.61061      0.013605706    11.061369      718.53191     -20.13246       698.39945    
   2026000   300.73045      0.013605706    10.190871      746.12053     -20.069605      726.05092    
   2027000   299.44716      0.013605706   -4.8229293      742.93667     -18.53752       724.39915    
   2028000   294.60572      0.013605706    8.8919069      730.92491     -18.901611      712.0233     
   2029000   301.91248      0.013605706    10.494628      749.05317     -23.508525      725.54465    
   2030000   305.50736      0.013605706    11.316588      757.97217     -22.234256      735.73791    
   2031000   304.12755      0.013605706    4.9334383      754.54883     -21.567975      732.98085    
   2032000   290.06171      0.013605706    4.6899263      719.6511      -22.849887      696.80122    
   2033000   298.59184      0.013605706    7.7237402      740.81458     -22.886051      717.92853    
   2034000   293.19065      0.013605706    8.1591075      727.41408     -20.056519      707.35756    
   2035000   312.97725      0.013605706    7.5407167      776.50519     -19.320756      757.18444    
   2036000   299.41242      0.013605706    6.883316       742.85047     -17.307611      725.54286    
   2037000   295.44225      0.013605706    6.88108        733.00036     -18.760478      714.23989    
   2038000   290.75128      0.013605706    7.0104316      721.36193     -15.95161       705.41032    
   2039000   308.12781      0.013605706    7.9683457      764.4736      -14.141496      750.3321     
   2040000   293.43277      0.013605706    6.495244       728.01479     -23.502724      704.51206    
   2041000   309.4333       0.013605706    7.5344134      767.71256     -22.390861      745.3217     
   2042000   296.77895      0.013605706    7.7941345      736.31675     -23.5663        712.75045    
   2043000   281.37115      0.013605706    6.3179464      698.08957     -22.11664       675.97293    
   2044000   311.5694       0.013605706    5.5436351      773.01227     -19.89112       753.12115    
   2045000   308.79649      0.013605706    13.43103       766.1326      -18.642558      747.49004    
   2046000   288.20509      0.013605706    10.781035      715.04476     -18.279471      696.76529    
   2047000   295.5714       0.013605706    4.1729786      733.3208      -19.746141      713.57466    
   2048000   313.99224      0.013605706    2.9203122      779.02341     -19.869428      759.15399    
   2049000   302.1973       0.013605706    11.330791      749.75984     -19.256084      730.50376    
   2050000   277.77503      0.013605706    5.4974583      689.16751     -18.76065       670.40686    
   2051000   303.87879      0.013605706    6.3462018      753.93165     -21.689903      732.24175    
   2052000   308.04072      0.013605706    9.40681        764.25752     -20.327403      743.93012    
   2053000   290.06431      0.013605706    9.3187641      719.65754     -20.271382      699.38615    
   2054000   300.63033      0.013605706    0.55515461     745.87215     -19.402541      726.46961    
   2055000   314.35832      0.013605706    6.7502505      779.93165     -18.960813      760.97084    
   2056000   291.01503      0.013605706    10.763123      722.01631     -20.745144      701.27117    
   2057000   286.31333      0.013605706    6.3551478      710.35128     -22.191611      688.15966    
   2058000   309.16872      0.013605706    6.2492136      767.05612     -19.414519      747.6416     
   2059000   299.98894      0.013605706    12.252537      744.28082     -18.407318      725.8735     
   2060000   287.66748      0.013605706    4.5601353      713.71094     -21.892498      691.81845    
   2061000   304.65969      0.013605706    7.3625261      755.86908     -17.89148       737.9776     
   2062000   316.02748      0.013605706    11.114443      784.07289     -21.409318      762.66357    
   2063000   292.24625      0.013605706    8.542584       725.07101     -25.798483      699.27253    
   2064000   296.94713      0.013605706    5.3648839      736.73401     -24.055632      712.67837    
   2065000   301.37793      0.013605706    7.8435792      747.72696     -24.319897      723.40706    
   2066000   303.76664      0.013605706    8.4523421      753.65341     -17.929624      735.72379    
   2067000   286.67418      0.013605706    6.8334854      711.24655     -19.462934      691.78362    
   2068000   300.61879      0.013605706    7.3691843      745.84351     -18.238312      727.6052     
   2069000   302.81533      0.013605706    10.304329      751.29319     -19.659401      731.63378    
   2070000   305.53794      0.013605706    8.3155464      758.04804     -16.360062      741.68798    
   2071000   300.03152      0.013605706    7.9030262      744.38647     -19.161844      725.22463    
   2072000   303.14917      0.013605706    7.2874492      752.12145     -16.699426      735.42203    
   2073000   311.38072      0.013605706    6.0344375      772.54414     -16.22865       756.31549    
   2074000   304.98363      0.013605706    6.6919945      756.6728      -14.764971      741.90783    
   2075000   290.3732       0.013605706    7.9169149      720.42392     -16.769534      703.65438    
   2076000   302.69534      0.013605706    7.3388718      750.99549     -17.932908      733.06258    
   2077000   298.75884      0.013605706    9.3850453      741.22892     -17.791569      723.43735    
   2078000   306.93617      0.013605706    8.2020368      761.5171      -18.432933      743.08417    
   2079000   303.17618      0.013605706    1.3506618      752.18847     -17.165385      735.02308    
   2080000   296.20362      0.013605706    6.625071       734.88935     -16.966422      717.92293    
   2081000   298.34546      0.013605706    12.521209      740.2033      -19.321709      720.88159    
   2082000   302.35683      0.013605706    8.2979638      750.15563     -15.780368      734.37526    
   2083000   292.28543      0.013605706    0.96464999     725.16821     -14.750251      710.41796    
   2084000   310.38161      0.013605706    8.716196       770.06533     -15.109392      754.95594    
   2085000   302.41695      0.013605706    10.528181      750.3048      -17.523619      732.78118    
   2086000   294.85846      0.013605706    7.1452889      731.55198     -16.979866      714.57211    
   2087000   292.70102      0.013605706    3.066676       726.1993      -17.01408       709.18521    
   2088000   309.35579      0.013605706    6.8378991      767.52025     -16.379914      751.14033    
   2089000   307.17501      0.013605706    9.2796827      762.10966     -21.200763      740.9089     
   2090000   298.1103       0.013605706    7.0104373      739.61988     -22.902678      716.71721    
   2091000   287.40613      0.013605706    7.70234        713.06254     -22.508349      690.55419    
   2092000   301.59084      0.013605706    8.3769733      748.2552      -20.97339       727.28181    
   2093000   303.41301      0.013605706    6.7206729      752.77605     -23.334388      729.44166    
   2094000   296.28533      0.013605706    5.955523       735.09206     -24.4164        710.67566    
   2095000   298.04366      0.013605706    9.6837719      739.45453     -23.087148      716.36739    
   2096000   299.36144      0.013605706    7.8005444      742.72399     -25.481152      717.24284    
   2097000   289.92571      0.013605706    4.9009786      719.31367     -23.668268      695.6454     
   2098000   296.82495      0.013605706    8.0465209      736.43089     -21.667024      714.76387    
   2099000   312.49459      0.013605706    9.1207925      775.30768     -21.935998      753.37168    
   2100000   287.60566      0.013605706    4.3465992      713.55756     -19.000765      694.5568     
   2101000   292.88505      0.013605706    7.7874358      726.65589     -20.130088      706.52581    
   2102000   309.27053      0.013605706    7.46004        767.30871     -21.425852      745.88286    
   2103000   306.30561      0.013605706    7.7792906      759.95265     -23.169176      736.78348    
   2104000   311.28132      0.013605706    8.0691036      772.29753     -19.03055       753.26698    
   2105000   299.92664      0.013605706    7.0317916      744.12626     -18.992173      725.13408    
   2106000   295.20943      0.013605706    7.0640387      732.42274     -18.215351      714.20739    
   2107000   300.77561      0.013605706    9.697806       746.23259     -15.135555      731.09704    
   2108000   299.38006      0.013605706    7.9556789      742.77018     -15.828211      726.94197    
   2109000   287.8393       0.013605706    6.0715669      714.13725     -19.288056      694.84919    
   2110000   301.10814      0.013605706    8.7533872      747.05758     -18.5778        728.47978    
   2111000   316.19771      0.013605706    8.5369938      784.49523     -17.845931      766.6493     
   2112000   286.14541      0.013605706    4.7720204      709.93465     -17.991985      691.94266    
   2113000   285.45224      0.013605706    8.0581407      708.21488     -17.779183      690.43569    
   2114000   304.07138      0.013605706    8.5088217      754.40947     -15.438304      738.97117    
   2115000   308.84315      0.013605706    8.1835125      766.24837     -18.362793      747.88557    
   2116000   298.36558      0.013605706    6.0042333      740.25323     -16.806989      723.44624    
   2117000   282.35444      0.013605706    9.2825467      700.52914     -17.540016      682.98912    
   2118000   308.08214      0.013605706    8.4751824      764.36028     -16.857339      747.50294    
   2119000   308.03882      0.013605706    7.6414792      764.2528      -23.40858       740.84422    
   2120000   308.07335      0.013605706    7.701561       764.33848     -24.907466      739.43101    
   2121000   293.09234      0.013605706    5.4408884      727.17017     -24.325461      702.84471    
   2122000   291.12539      0.013605706    6.2125031      722.29011     -20.64069       701.64942    
   2123000   305.88601      0.013605706    9.3311036      758.91163     -20.527204      738.38442    
   2124000   300.00319      0.013605706    7.889882       744.31619     -16.519005      727.79719    
   2125000   305.81641      0.013605706    3.9737831      758.73895     -18.574988      740.16396    
   2126000   295.08295      0.013605706    3.6019072      732.10893     -17.211471      714.89746    
   2127000   300.7389       0.013605706    8.2069403      746.14149     -15.099002      731.04249    
   2128000   298.14705      0.013605706    8.1731918      739.71104     -16.554689      723.15635    
   2129000   292.33983      0.013605706    9.3040454      725.30318     -21.71873       703.58445    
   2130000   301.77073      0.013605706    9.2005507      748.7015      -21.738171      726.96333    
   2131000   303.96361      0.013605706    9.1409067      754.1421      -23.388585      730.75352    
   2132000   293.30094      0.013605706    7.3038876      727.68772     -25.97574       701.71198    
   2133000   308.42608      0.013605706    5.2655705      765.21361     -24.87281       740.3408     
   2134000   296.33871      0.013605706    7.284278       735.22451     -17.866716      717.35779    
   2135000   282.25429      0.013605706    7.6872614      700.28068     -15.976764      684.30392    
   2136000   290.37281      0.013605706    7.0535619      720.42295     -22.478186      697.94476    
   2137000   294.51266      0.013605706    7.0692288      730.69404     -18.987086      711.70695    
   2138000   303.56596      0.013605706    7.2605306      753.15552     -21.979285      731.17623    
   2139000   291.18162      0.013605706    7.6424907      722.42963     -22.452652      699.97698    
   2140000   309.80035      0.013605706    8.0021634      768.62322     -25.693462      742.92975    
   2141000   312.0871       0.013605706    7.8459327      774.29669     -24.191667      750.10503    
   2142000   291.81334      0.013605706    6.9941392      723.99693     -27.832381      696.16455    
   2143000   289.37981      0.013605706    7.9663475      717.95929     -24.166399      693.79289    
   2144000   300.44253      0.013605706    7.0375586      745.40621     -24.815876      720.59033    
   2145000   297.65933      0.013605706    8.1444569      738.501       -27.572647      710.92835    
   2146000   298.26487      0.013605706    6.9976008      740.00337     -23.193438      716.80994    
   2147000   308.26952      0.013605706    6.1023296      764.82517     -22.312231      742.51294    
   2148000   302.81119      0.013605706    7.4164851      751.2829      -19.931004      731.3519     
   2149000   302.3266       0.013605706    6.8267726      750.08062     -19.608535      730.47209    
   2150000   302.45688      0.013605706    8.6279693      750.40385     -15.892053      734.5118     
   2151000   300.52238      0.013605706    8.1152035      745.60431     -14.153522      731.45078    
   2152000   314.08479      0.013605706    6.6574547      779.25302     -19.328421      759.9246     
   2153000   313.49288      0.013605706    8.8406661      777.78447     -13.093901      764.69057    
   2154000   296.38953      0.013605706    7.7060908      735.35059     -19.184997      716.1656     
   2155000   291.25249      0.013605706    8.044379       722.60546     -20.766355      701.8391     
   2156000   311.41409      0.013605706    8.5344151      772.62695     -19.726273      752.90067    
   2157000   300.61618      0.013605706    4.1519768      745.83703     -20.202976      725.63406    
   2158000   292.62742      0.013605706    5.9920237      726.0167      -18.509598      707.50711    
   2159000   295.19146      0.013605706    5.4532982      732.37814     -18.372844      714.0053     
   2160000   300.34329      0.013605706    7.0466404      745.15997     -21.355496      723.80447    
   2161000   302.46878      0.013605706    4.5602301      750.43339     -20.822991      729.6104     
   2162000   297.63659      0.013605706    7.6140464      738.44458     -19.378949      719.06563    
   2163000   291.45158      0.013605706    7.7625336      723.0994      -16.941242      706.15816    
   2164000   294.4661       0.013605706    6.2130024      730.5785      -17.566937      713.01156    
   2165000   312.71728      0.013605706    6.7378856      775.8602      -14.96962       760.89058    
   2166000   300.29989      0.013605706    9.2864298      745.0523      -18.049788      727.00251    
   2167000   292.58331      0.013605706    6.6826533      725.90727     -18.241352      707.66592    
   2168000   301.92252      0.013605706    5.8371607      749.07809     -21.111824      727.96627    
   2169000   313.77402      0.013605706    7.5627457      778.482       -20.753503      757.7285     
   2170000   294.55456      0.013605706    6.9807452      730.79798     -21.422338      709.37564    
   2171000   300.303        0.013605706    7.513147       745.06001     -20.969733      724.09028    
   2172000   294.44135      0.013605706    8.0332523      730.51711     -23.830395      706.68672    
   2173000   304.09218      0.013605706    6.0732651      754.46108     -20.695309      733.76577    
   2174000   302.87448      0.013605706    12.655444      751.43993     -18.649848      732.79008    
   2175000   301.55995      0.013605706    6.8325711      748.17854     -18.230215      729.94832    
   2176000   300.47488      0.013605706    6.2028344      745.48646     -18.885473      726.60099    
   2177000   299.23053      0.013605706    6.9046003      742.39918     -21.282984      721.1162     
   2178000   299.46435      0.013605706    6.3712208      742.9793      -18.838693      724.1406     
   2179000   302.28051      0.013605706    7.7135106      749.96627     -22.010567      727.95571    
   2180000   299.28562      0.013605706    8.1243075      742.53588     -22.954823      719.58106    
   2181000   304.65466      0.013605706    7.5804419      755.85662     -19.221598      736.63502    
   2182000   312.81746      0.013605706    4.4041293      776.10875     -20.680935      755.42782    
   2183000   291.0956       0.013605706    6.7465258      722.21622     -22.850052      699.36617    
   2184000   294.61618      0.013605706    8.2177059      730.95087     -19.540243      711.41063    
   2185000   300.53638      0.013605706    7.7837268      745.63905     -22.268615      723.37043    
   2186000   296.31403      0.013605706    7.6891516      735.16328     -20.119721      715.04356    
   2187000   313.78542      0.013605706    6.3303274      778.51028     -23.520596      754.98968    
   2188000   295.77875      0.013605706    7.4538972      733.83523     -24.330716      709.50451    
   2189000   296.85197      0.013605706    9.5135815      736.49793     -25.288005      711.20993    
   2190000   288.64705      0.013605706    7.2460461      716.14129     -24.508177      691.63311    
   2191000   288.12759      0.013605706    4.1595827      714.8525      -19.808396      695.04411    
   2192000   311.34343      0.013605706    7.390434       772.45163     -19.280191      753.17144    
   2193000   295.36023      0.013605706    8.1255011      732.79687     -18.969749      713.82712    
   2194000   296.92614      0.013605706    7.8053477      736.68194     -16.269981      720.41196    
   2195000   304.90728      0.013605706    6.9143617      756.48337     -14.129851      742.35352    
   2196000   303.14716      0.013605706    8.1111922      752.11645     -16.705951      735.4105     
   2197000   298.76931      0.013605706    4.2525243      741.25489     -18.320955      722.93393    
   2198000   301.54185      0.013605706    6.7768042      748.13363     -21.294398      726.83923    
   2199000   305.16066      0.013605706    6.7884644      757.11201     -18.502463      738.60955    
   2200000   301.4584       0.013605706    7.6565083      747.92659     -19.971607      727.95498    
   2201000   299.12691      0.013605706    9.5057468      742.1421      -17.915498      724.2266     
   2202000   306.29513      0.013605706    9.3131084      759.92666     -19.882282      740.04438    
   2203000   299.33685      0.013605706    6.4728418      742.66297     -19.629854      723.03311    
   2204000   296.35896      0.013605706    6.7171423      735.27476     -18.371127      716.90363    
   2205000   309.19399      0.013605706    6.7419915      767.11882     -22.65883       744.45999    
   2206000   315.51966      0.013605706    8.4518941      782.81298     -22.469832      760.34315    
   2207000   288.0103       0.013605706    4.1952048      714.5615      -24.800672      689.76083    
   2208000   293.69575      0.013605706    6.6662968      728.66724     -24.143067      704.52418    
   2209000   298.20261      0.013605706    8.1251173      739.8489      -23.359306      716.48959    
   2210000   304.34519      0.013605706    7.748095       755.0888      -27.412239      727.67656    
   2211000   290.89773      0.013605706    8.6566938      721.7253      -23.075603      698.64969    
   2212000   298.31374      0.013605706    3.9781712      740.1246      -21.930131      718.19447    
   2213000   303.22956      0.013605706    4.7306281      752.3209      -23.977841      728.34306    
   2214000   309.09864      0.013605706    7.9127131      766.88223     -22.090969      744.79127    
   2215000   300.6592       0.013605706    9.7343596      745.94376     -22.071989      723.87177    
   2216000   287.81136      0.013605706    7.7383957      714.06793     -22.712346      691.35558    
   2217000   302.91128      0.013605706    6.4151157      751.53124     -20.74069       730.79055    
   2218000   309.44778      0.013605706    8.0218976      767.74848     -21.783173      745.9653     
   2219000   303.9069       0.013605706    4.7247941      754.0014      -23.233686      730.76771    
   2220000   292.20162      0.013605706    7.1671819      724.96028     -24.186637      700.77364    
   2221000   291.11918      0.013605706    2.5534348      722.27471     -21.274192      701.00052    
   2222000   308.75705      0.013605706    8.5410303      766.03476     -22.713734      743.32103    
   2223000   301.47553      0.013605706    8.9301949      747.9691      -21.979075      725.99003    
   2224000   295.7449       0.013605706    9.2940115      733.75125     -19.509097      714.24215    
   2225000   297.48602      0.013605706    6.7801951      738.07102     -19.182004      718.88902    
   2226000   305.96622      0.013605706    7.1080254      759.11062     -21.12265       737.98797    
   2227000   308.04712      0.013605706    7.6820139      764.2734      -22.233034      742.04037    
   2228000   295.18668      0.013605706    5.0286181      732.36629     -20.91469       711.4516     
   2229000   313.05117      0.013605706    10.705701      776.68858     -24.51191       752.17667    
   2230000   308.70436      0.013605706    8.1492032      765.90402     -24.864981      741.03904    
   2231000   296.1832       0.013605706    7.2030247      734.83869     -19.720378      715.11832    
   2232000   298.25859      0.013605706   -0.0403859      739.98777     -20.522962      719.46481    
   2233000   305.15097      0.013605706    4.85218        757.08796     -19.215555      737.87241    
   2234000   303.34571      0.013605706    10.172268      752.60906     -21.947244      730.66182    
   2235000   289.84504      0.013605706    5.9319588      719.11353     -21.086334      698.0272     
   2236000   300.54815      0.013605706    6.1658574      745.66825     -23.061269      722.60698    
   2237000   297.12838      0.013605706    8.7001965      737.1837      -19.820936      717.36276    
   2238000   283.82149      0.013605706    7.2858518      704.16894     -19.583161      684.58577    
   2239000   304.14465      0.013605706    6.2763709      754.59126     -19.189084      735.40218    
   2240000   318.27261      0.013605706    8.3528642      789.64312     -23.62326       766.01986    
   2241000   300.37921      0.013605706    7.3573365      745.24909     -24.061472      721.18762    
   2242000   286.70712      0.013605706    7.2100493      711.32828     -23.395576      687.9327     
   2243000   304.03104      0.013605706    7.2629156      754.30939     -24.995485      729.3139     
   2244000   305.39704      0.013605706    7.8198275      757.69848     -23.638367      734.06011    
   2245000   307.30381      0.013605706    7.2726836      762.42923     -23.776815      738.65242    
   2246000   304.84262      0.013605706    7.2579211      756.32295     -27.740447      728.5825     
   2247000   297.47274      0.013605706    8.3304391      738.03806     -25.908928      712.12913    
   2248000   290.78014      0.013605706    8.8695406      721.43354     -22.575414      698.85813    
   2249000   314.57424      0.013605706    8.9507497      780.46737     -23.463028      757.00434    
   2250000   306.42948      0.013605706    6.2102001      760.25998     -23.408235      736.85175    
   2251000   305.47232      0.013605706    8.7276016      757.88524     -25.172843      732.71239    
   2252000   319.05484      0.013605706    11.520488      791.58386     -21.711158      769.8727     
   2253000   294.84139      0.013605706    3.4441486      731.50961     -19.865944      711.64367    
   2254000   294.17938      0.013605706    9.8451294      729.86714     -18.441501      711.42564    
   2255000   320.08142      0.013605706    8.5485813      794.13082     -15.420684      778.71013    
   2256000   290.93334      0.013605706    3.8103832      721.81363     -23.085941      698.72769    
   2257000   289.73172      0.013605706    10.544694      718.83237     -18.676877      700.1555     
   2258000   312.98415      0.013605706    7.1632504      776.52229     -20.651518      755.87077    
   2259000   316.24894      0.013605706    8.1454827      784.62234     -19.447681      765.17466    
   2260000   295.49189      0.013605706    3.4534844      733.12351     -21.639452      711.48406    
   2261000   295.8025       0.013605706    7.7153575      733.89417     -18.630831      715.26334    
   2262000   301.04345      0.013605706    10.719139      746.89711     -21.38584       725.51127    
   2263000   305.55126      0.013605706    4.7530566      758.08109     -21.688825      736.39226    
   2264000   299.841        0.013605706    5.5186635      743.91378     -20.698223      723.21556    
   2265000   297.03842      0.013605706    7.5629746      736.96051     -21.473999      715.48652    
   2266000   302.27046      0.013605706    8.4037365      749.94134     -20.782674      729.15866    
   2267000   300.38677      0.013605706    11.148369      745.26786     -22.254064      723.01379    
   2268000   304.41007      0.013605706    8.5964422      755.24977     -17.640704      737.60907    
   2269000   300.87049      0.013605706    0.10885966     746.46798     -19.4319        727.03608    
   2270000   308.32609      0.013605706    6.8263434      764.96554     -19.377404      745.58814    
   2271000   291.79042      0.013605706    9.8865807      723.94008     -21.788771      702.1513     
   2272000   299.26102      0.013605706    7.70273        742.47484     -23.729219      718.74562    
   2273000   311.54903      0.013605706    8.637713       772.96173     -22.373084      750.58865    
   2274000   313.50581      0.013605706    7.0693491      777.81655     -23.285139      754.53141    
   2275000   295.40413      0.013605706    7.6030149      732.90578     -18.383664      714.52212    
   2276000   286.51219      0.013605706    7.593607       710.84463     -20.006574      690.83806    
   2277000   317.18255      0.013605706    9.3081072      786.93866     -24.133304      762.80536    
   2278000   295.50536      0.013605706    6.1671103      733.15695     -24.501496      708.65546    
   2279000   293.41473      0.013605706    12.295337      727.97004     -21.401554      706.56849    
   2280000   306.49817      0.013605706    7.4659392      760.4304      -22.914598      737.5158     
   2281000   305.07452      0.013605706    6.5611752      756.89829     -19.252087      737.6462     
   2282000   303.5452       0.013605706   -1.1822061      753.10401     -22.340383      730.76363    
   2283000   282.06114      0.013605706    5.8066746      699.80147     -22.897256      676.90422    
   2284000   289.96978      0.013605706    7.0539596      719.42301     -18.635208      700.7878     
   2285000   303.05205      0.013605706    13.035213      751.88049     -23.991034      727.88946    
   2286000   325.31805      0.013605706    3.4603452      807.12304     -26.139047      780.984      
   2287000   299.42845      0.013605706    4.9612017      742.89024     -22.630274      720.25996    
   2288000   286.10169      0.013605706    5.9582627      709.82619     -22.01602       687.81017    
   2289000   288.05873      0.013605706    4.9303803      714.68165     -22.202673      692.47897    
   2290000   305.01569      0.013605706    9.6419944      756.75233     -23.450187      733.30214    
   2291000   296.0591       0.013605706    9.6140397      734.53078     -20.407834      714.12295    
   2292000   305.77348      0.013605706    2.7873631      758.63244     -22.792521      735.83992    
   2293000   291.28272      0.013605706    3.8029478      722.68046     -20.008342      702.67212    
   2294000   293.08012      0.013605706    8.4170815      727.13985     -19.709133      707.43072    
   2295000   304.65434      0.013605706    8.4645814      755.85582     -18.568482      737.28734    
   2296000   308.16879      0.013605706    3.4148809      764.57527     -19.845064      744.73021    
   2297000   291.20179      0.013605706    6.0487589      722.47966     -18.932353      703.54731    
   2298000   292.47903      0.013605706    8.4456942      725.64854     -17.692398      707.95614    
   2299000   300.68121      0.013605706    9.024225       745.99837     -19.02311       726.97526    
   2300000   322.09844      0.013605706    8.0476683      799.1351      -20.878932      778.25617    
   2301000   304.55441      0.013605706    10.520911      755.60788     -19.677016      735.93087    
   2302000   286.75237      0.013605706    8.6096621      711.44054     -20.927414      690.51313    
   2303000   299.66988      0.013605706    6.3428614      743.48924     -19.415463      724.07377    
   2304000   305.18371      0.013605706    7.0656207      757.16919     -16.920743      740.24845    
   2305000   308.59285      0.013605706    8.434717       765.62737     -15.345859      750.28151    
   2306000   290.10269      0.013605706    9.4587451      719.75277     -21.020676      698.73209    
   2307000   299.52631      0.013605706    5.4023053      743.13304     -19.878541      723.2545     
   2308000   306.2622       0.013605706    3.720174       759.84497     -20.300116      739.54485    
   2309000   296.21668      0.013605706    8.4929085      734.92175     -18.812458      716.10929    
   2310000   290.67567      0.013605706    10.87548       721.17434     -20.895775      700.27857    
   2311000   285.09747      0.013605706   -0.062246212    707.33468     -20.906325      686.42835    
   2312000   309.15564      0.013605706    6.166408       767.02366     -19.117005      747.90665    
   2313000   311.71826      0.013605706    12.02843       773.38159     -22.765401      750.61619    
   2314000   297.73568      0.013605706    10.074653      738.69044     -22.411441      716.279      
   2315000   297.52558      0.013605706    4.9236349      738.16917     -21.174921      716.99425    
   2316000   314.5779       0.013605706    7.7081287      780.47645     -22.325533      758.15092    
   2317000   294.98354      0.013605706    7.648714       731.86229     -18.905569      712.95672    
   2318000   295.55235      0.013605706    6.9018941      733.27353     -16.29283       716.9807     
   2319000   308.76545      0.013605706    8.1527947      766.05559     -19.788302      746.26729    
   2320000   306.9856       0.013605706    11.343386      761.63973     -21.910367      739.72936    
   2321000   295.89061      0.013605706    4.7490512      734.11275     -21.39357       712.71918    
   2322000   302.12505      0.013605706    7.055191       749.58058     -20.625687      728.95489    
   2323000   307.49886      0.013605706    7.1538615      762.91314     -22.199358      740.71378    
   2324000   306.97212      0.013605706    8.08516        761.60628     -23.486848      738.11943    
   2325000   295.02305      0.013605706    7.1490194      731.96031     -23.12999       708.83032    
   2326000   290.8158       0.013605706    6.9354129      721.52202     -20.22169       701.30033    
   2327000   305.66347      0.013605706    8.0272589      758.3595      -18.677466      739.68203    
   2328000   302.37412      0.013605706    9.0504922      750.19854     -17.511095      732.68744    
   2329000   298.49313      0.013605706    7.1203708      740.56968     -22.366892      718.20278    
   2330000   285.37027      0.013605706    4.8700958      708.01151     -21.231946      686.77956    
   2331000   300.15246      0.013605706    8.3132114      744.68652     -21.339257      723.34726    
   2332000   292.20729      0.013605706    11.222394      724.97433     -23.381646      701.59269    
   2333000   312.65279      0.013605706    7.2468008      775.70019     -23.092342      752.60784    
   2334000   301.57124      0.013605706    5.6436939      748.20657     -20.929595      727.27697    
   2335000   296.45679      0.013605706    5.9470089      735.51746     -24.87592       710.64154    
   2336000   289.43302      0.013605706    6.4174937      718.0913      -21.647948      696.44336    
   2337000   296.52884      0.013605706    7.6024326      735.69624     -22.821288      712.87495    
   2338000   317.35497      0.013605706    7.763838       787.36642     -22.547332      764.81909    
   2339000   296.0769       0.013605706    7.2923456      734.57495     -18.143461      716.43149    
   2340000   289.93786      0.013605706    7.3962216      719.34383     -15.357455      703.98637    
   2341000   306.48812      0.013605706    8.0987506      760.40548     -15.733912      744.67157    
   2342000   310.91054      0.013605706    7.8724303      771.37763     -16.598813      754.77881    
   2343000   285.40496      0.013605706    3.1446893      708.09758     -19.954425      688.14315    
   2344000   284.35196      0.013605706    14.031086      705.48504     -18.962441      686.5226     
   2345000   305.34187      0.013605706    2.1871471      757.56161     -19.323047      738.23856    
   2346000   299.56724      0.013605706    6.8913333      743.23457     -17.638586      725.59598    
   2347000   299.53918      0.013605706    8.3028383      743.16495     -16.829551      726.3354     
   2348000   298.31724      0.013605706    11.332435      740.1333      -15.288521      724.84478    
   2349000   314.96231      0.013605706    8.0863528      781.43017     -17.681345      763.74883    
   2350000   309.25533      0.013605706    6.4641082      767.271       -19.278143      747.99286    
   2351000   301.12489      0.013605706    3.4493175      747.09916     -21.642437      725.45672    
   2352000   289.61405      0.013605706    6.5390411      718.54044     -25.223158      693.31729    
   2353000   310.77496      0.013605706    8.3481968      771.04124     -26.669654      744.37159    
   2354000   306.96903      0.013605706    7.8202919      761.59864     -23.838813      737.75982    
   2355000   308.82329      0.013605706    6.5068476      766.1991      -21.467954      744.73115    
   2356000   290.85147      0.013605706    7.4219988      721.61052     -24.285602      697.32491    
   2357000   292.31746      0.013605706    7.2789004      725.24768     -26.406117      698.84157    
   2358000   318.10773      0.013605706    10.75985       789.23405     -28.330589      760.90347    
   2359000   313.54596      0.013605706    7.2736367      777.91618     -22.756215      755.15996    
   2360000   290.68641      0.013605706    7.7696639      721.201       -20.482497      700.7185     
   2361000   280.83167      0.013605706    10.022955      696.75112     -19.339662      677.41145    
   2362000   306.63196      0.013605706    7.9706026      760.76234     -20.392742      740.3696     
   2363000   311.24904      0.013605706    7.0796917      772.21744     -19.722127      752.49531    
   2364000   286.48669      0.013605706    9.0726893      710.78138     -18.753621      692.02776    
   2365000   302.16076      0.013605706    6.8728217      749.66917     -18.991081      730.67809    
   2366000   314.33634      0.013605706    6.4262602      779.87714     -20.126075      759.75106    
   2367000   302.35182      0.013605706    7.3836751      750.14319     -16.430034      733.71316    
   2368000   284.78477      0.013605706    7.2709656      706.55885     -16.610528      689.94832    
   2369000   305.96446      0.013605706    9.4016191      759.10626     -17.086879      742.01938    
   2370000   311.73046      0.013605706    7.4433565      773.41186     -20.452158      752.9597     
   2371000   292.19307      0.013605706    6.7678359      724.93906     -18.709999      706.22906    
   2372000   292.87474      0.013605706    8.0718294      726.6303      -19.129831      707.50047    
   2373000   302.86115      0.013605706    9.1386535      751.40687     -19.173246      732.23362    
   2374000   309.55987      0.013605706    4.296117       768.02656     -21.271827      746.75474    
   2375000   294.20284      0.013605706    6.1075288      729.92536     -19.885539      710.03982    
   2376000   291.92771      0.013605706    11.016838      724.28069     -22.391199      701.88949    
   2377000   307.19643      0.013605706    9.2312937      762.16282     -21.698389      740.46443    
   2378000   304.29748      0.013605706   -0.012868854    754.97045     -19.561207      735.40924    
   2379000   290.62819      0.013605706    6.1435281      721.05656     -23.818516      697.23804    
   2380000   295.14653      0.013605706    6.7451024      732.26667     -24.773052      707.49362    
   2381000   287.78028      0.013605706    4.9354715      713.99082     -25.725212      688.2656     
   2382000   304.07995      0.013605706    5.8722073      754.43075     -26.047822      728.38293    
   2383000   315.10698      0.013605706    6.4495838      781.7891      -25.946544      755.84255    
   2384000   303.18528      0.013605706    8.0424514      752.21103     -21.453513      730.75752    
   2385000   285.20273      0.013605706    7.7577578      707.59584     -22.832467      684.76337    
   2386000   299.07055      0.013605706    7.0621469      742.00228     -21.789277      720.213      
   2387000   303.9624       0.013605706    6.8718408      754.13909     -22.146051      731.99304    
   2388000   315.39614      0.013605706    7.2920939      782.50652     -22.571998      759.93452    
   2389000   292.23442      0.013605706    6.8950293      725.04165     -23.6141        701.42755    
   2390000   298.80705      0.013605706    7.6383337      741.34854     -22.44648       718.90206    
   2391000   307.72741      0.013605706    7.7106953      763.48019     -22.361435      741.11875    
   2392000   284.55748      0.013605706    6.249465       705.99495     -25.722278      680.27267    
   2393000   288.32692      0.013605706    6.1988253      715.34703     -25.119675      690.22735    
   2394000   305.07851      0.013605706    8.8731652      756.90819     -20.325509      736.58268    
   2395000   297.22893      0.013605706    6.879249       737.43317     -22.392564      715.04061    
   2396000   300.43673      0.013605706    7.2553862      745.3918      -24.088189      721.30361    
   2397000   312.45293      0.013605706    7.857819       775.20434     -24.607244      750.5971     
   2398000   302.55481      0.013605706    8.7408144      750.64682     -20.712626      729.93419    
   2399000   294.636        0.013605706    7.0203383      731.00004     -23.1083        707.89174    
   2400000   308.51383      0.013605706    6.3072877      765.43132     -21.84683       743.58449    
   2401000   307.74053      0.013605706    8.4783364      763.51274     -23.820934      739.69181    
   2402000   295.44532      0.013605706    6.6973048      733.00799     -24.926178      708.08182    
   2403000   291.4048       0.013605706    8.711305       722.98335     -22.512658      700.47069    
   2404000   306.9585       0.013605706    7.7488306      761.57249     -23.716501      737.85599    
   2405000   311.57726      0.013605706    7.4723318      773.03177     -21.582707      751.44906    
   2406000   301.2287       0.013605706    6.9683177      747.3567      -23.647725      723.70898    
   2407000   285.22362      0.013605706    7.1224121      707.64766     -25.740006      681.90766    
   2408000   305.46274      0.013605706    6.4404503      757.86149     -25.071052      732.79043    
   2409000   305.78144      0.013605706    7.0684023      758.65217     -23.83591       734.81626    
   2410000   285.68087      0.013605706    6.8403427      708.78211     -24.563563      684.21855    
   2411000   302.02496      0.013605706    7.6979565      749.33224     -29.418866      719.91338    
   2412000   309.6472       0.013605706    8.3454867      768.24324     -27.751278      740.49196    
   2413000   295.94803      0.013605706    12.296448      734.25523     -28.469214      705.78601    
   2414000   292.49551      0.013605706    6.3817617      725.68943     -22.282399      703.40704    
   2415000   311.94661      0.013605706    5.3912246      773.94813     -27.969612      745.97852    
   2416000   301.68384      0.013605706    13.851405      748.48591     -23.661489      724.82442    
   2417000   294.81686      0.013605706    10.341136      731.44875     -21.459658      709.98909    
   2418000   300.74683      0.013605706    1.0633445      746.16117     -24.239315      721.92185    
   2419000   309.07924      0.013605706    7.6388534      766.83412     -24.169409      742.66471    
   2420000   289.85373      0.013605706    9.3250067      719.13509     -22.845896      696.2892     
   2421000   297.40402      0.013605706    6.7272562      737.86758     -24.761588      713.10599    
   2422000   309.58251      0.013605706    4.6143141      768.08274     -22.312269      745.77047    
   2423000   311.65467      0.013605706    9.3308915      773.22384     -24.064139      749.1597     
   2424000   296.03264      0.013605706    14.330777      734.46513     -22.518035      711.9471     
   2425000   294.32476      0.013605706    6.213685       730.22785     -25.155544      705.0723     
   2426000   314.95273      0.013605706   -2.0613564      781.40642     -20.719904      760.68651    
   2427000   307.2363       0.013605706    13.290745      762.26172     -16.243521      746.0182     
   2428000   290.93118      0.013605706    12.650693      721.80828     -18.954477      702.8538     
   2429000   294.57262      0.013605706    2.4634513      730.84279     -19.136245      711.70654    
   2430000   315.70347      0.013605706   -9.6727978      783.26901     -21.170552      762.09846    
   2431000   305.07014      0.013605706    11.105749      756.88742     -21.663877      735.22354    
   2432000   289.69699      0.013605706    12.59421       718.74622     -20.684241      698.06198    
   2433000   300.48942      0.013605706    6.2245533      745.52253     -20.37514       725.14739    
   2434000   304.1098       0.013605706   -1.9387216      754.50479     -24.941128      729.56366    
   2435000   299.12141      0.013605706    2.0369692      742.12847     -26.34252       715.78595    
   2436000   298.60832      0.013605706    10.262634      740.85546     -26.472595      714.38287    
   2437000   298.94284      0.013605706    16.235788      741.68543     -29.507962      712.17746    
   2438000   302.80093      0.013605706    7.3678109      751.25746     -26.084231      725.17323    
   2439000   288.9767       0.013605706    1.2194314      716.95916     -26.726126      690.23304    
   2440000   303.0795       0.013605706    2.8515817      751.94858     -22.104085      729.8445     
   2441000   302.55578      0.013605706    8.7400118      750.64924     -21.398062      729.25118    
   2442000   303.19393      0.013605706    9.2286911      752.2325      -20.404875      731.82762    
   2443000   291.2872       0.013605706    6.5025395      722.69156     -20.183328      702.50823    
   2444000   305.08729      0.013605706    7.6581362      756.92999     -23.915464      733.01452    
   2445000   303.85981      0.013605706    11.003067      753.88458     -20.621314      733.26326    
   2446000   298.50371      0.013605706    7.3405264      740.59594     -24.830391      715.76555    
   2447000   302.35332      0.013605706    6.8392582      750.14691     -22.572843      727.57407    
   2448000   300.40834      0.013605706    6.9882361      745.32138     -22.017448      723.30393    
   2449000   290.58023      0.013605706    7.6975261      720.93756     -17.292297      703.64526    
   2450000   311.6998       0.013605706    9.1536507      773.33579     -18.309068      755.02672    
   2451000   300.9321       0.013605706    6.4086987      746.62083     -18.9943        727.62653    
   2452000   286.15337      0.013605706    6.0759138      709.95441     -21.307989      688.64642    
   2453000   305.33169      0.013605706    8.2877396      757.53634     -20.735615      736.80072    
   2454000   311.01295      0.013605706    9.1631409      771.63169     -24.8453        746.78639    
   2455000   289.61825      0.013605706    5.5460796      718.55085     -22.840596      695.71026    
   2456000   289.38036      0.013605706    9.4852606      717.96064     -22.743999      695.21664    
   2457000   321.36114      0.013605706    9.9759697      797.30585     -17.803449      779.5024     
   2458000   305.84571      0.013605706    4.448058       758.81165     -18.932202      739.87944    
   2459000   297.39814      0.013605706    4.429074       737.85299     -16.663239      721.18975    
   2460000   295.19563      0.013605706    7.5979557      732.3885      -21.04631       711.34219    
   2461000   312.89979      0.013605706    7.9023539      776.31302     -21.489852      754.82316    
   2462000   301.50987      0.013605706    4.3251018      748.0543      -23.207475      724.84682    
   2463000   288.92444      0.013605706    9.681162       716.8295      -19.557089      697.27241    
   2464000   295.24866      0.013605706    11.189676      732.52007     -21.791742      710.72833    
   2465000   319.02842      0.013605706    8.0805761      791.5183      -18.057744      773.46055    
   2466000   294.37879      0.013605706    5.0870367      730.3619      -23.103151      707.25875    
   2467000   291.57227      0.013605706    10.765608      723.39884     -21.047536      702.3513     
   2468000   294.75614      0.013605706    9.0689614      731.29811     -18.06364       713.23447    
   2469000   321.89334      0.013605706    4.5900255      798.62626     -21.106028      777.52023    
   2470000   300.012        0.013605706    5.6578581      744.33805     -21.115873      723.22218    
   2471000   288.78267      0.013605706    8.2911814      716.47775     -25.477004      691.00075    
   2472000   294.87578      0.013605706    8.9183483      731.59493     -26.551902      705.04302    
   2473000   308.31988      0.013605706    8.6053849      764.95012     -26.077072      738.87305    
   2474000   316.55863      0.013605706    3.7731942      785.39068     -24.827342      760.56334    
   2475000   286.94886      0.013605706    2.4752169      711.92803     -20.782633      691.1454     
   2476000   297.86409      0.013605706    10.451507      739.00903     -21.310491      717.69854    
   2477000   319.40552      0.013605706    8.3782353      792.45391     -26.091187      766.36272    
   2478000   296.0201       0.013605706    2.7542693      734.43403     -26.551145      707.88288    
   2479000   292.77337      0.013605706    6.255866       726.37879     -23.279061      703.09973    
   2480000   306.45862      0.013605706    16.312541      760.3323      -24.296395      736.0359     
   2481000   312.48187      0.013605706    6.2081632      775.27614     -21.972435      753.3037     
   2482000   314.71021      0.013605706    3.4001141      780.80471     -23.124475      757.68023    
   2483000   293.20911      0.013605706    3.7282813      727.45989     -20.988804      706.47109    
   2484000   293.2002       0.013605706    8.3156154      727.43777     -27.555238      699.88254    
   2485000   312.82308      0.013605706    10.455635      776.12269     -25.819202      750.30349    
   2486000   297.94126      0.013605706    7.4360901      739.20047     -28.988588      710.21188    
   2487000   289.35915      0.013605706    5.6013529      717.90804     -28.283482      689.62455    
   2488000   289.87509      0.013605706    7.0202228      719.18808     -21.881882      697.3062     
   2489000   297.67466      0.013605706    9.138038       738.53902     -21.174298      717.36473    
   2490000   298.78944      0.013605706    7.0013691      741.30484     -19.270595      722.03425    
   2491000   303.58882      0.013605706    7.2207817      753.21222     -21.683885      731.52834    
   2492000   306.58025      0.013605706    7.8980852      760.63404     -25.95167       734.68238    
   2493000   305.72138      0.013605706    5.8742973      758.50318     -28.186387      730.31679    
   2494000   302.67245      0.013605706    8.8683577      750.93868     -21.220628      729.71806    
   2495000   296.78797      0.013605706    13.442895      736.33913     -20.208854      716.13028    
   2496000   304.27044      0.013605706    3.768114       754.90334     -18.592636      736.31071    
   2497000   304.01263      0.013605706    6.5149208      754.26371     -19.372292      734.89142    
   2498000   302.14823      0.013605706    8.1032339      749.63809     -19.5871        730.05099    
   2499000   292.03058      0.013605706    8.775351       724.53592     -18.171356      706.36456    
   2500000   297.55091      0.013605706    6.8962397      738.232       -18.393078      719.83892    
   2501000   319.63945      0.013605706    8.2932938      793.03428     -22.87312       770.16116    
   2502000   300.19696      0.013605706    7.8731994      744.79692     -24.028078      720.76885    
   2503000   286.62498      0.013605706    7.6309222      711.12448     -21.142973      689.9815     
   2504000   300.75663      0.013605706    7.9806315      746.18548     -22.782843      723.40264    
   2505000   317.21716      0.013605706    4.9537167      787.02452     -18.444877      768.57965    
   2506000   292.96715      0.013605706    7.213172       726.85957     -19.668579      707.19099    
   2507000   307.75082      0.013605706    7.6959155      763.53826     -24.862019      738.67624    
   2508000   298.46391      0.013605706    6.2920417      740.49719     -24.974162      715.52303    
   2509000   294.85012      0.013605706    7.1879012      731.53128     -27.792461      703.73882    
   2510000   284.63794      0.013605706    5.8838137      706.19458     -27.85426       678.34032    
   2511000   305.88711      0.013605706    6.5233719      758.91436     -23.472165      735.44219    
   2512000   303.49356      0.013605706    12.445025      752.97589     -23.269918      729.70597    
   2513000   298.5446       0.013605706    7.0187577      740.69737     -25.048592      715.64878    
   2514000   288.53076      0.013605706    6.4119857      715.85277     -24.008938      691.84383    
   2515000   313.51133      0.013605706    7.390554       777.83025     -24.604407      753.22584    
   2516000   307.75659      0.013605706    7.0310095      763.5526      -27.489724      736.06287    
   2517000   293.82352      0.013605706    7.2174919      728.98426     -23.132344      705.85191    
   2518000   303.61143      0.013605706    6.9632957      753.26833     -24.616293      728.65203    
   2519000   316.32156      0.013605706    7.7586803      784.80251     -21.176659      763.62585    
   2520000   294.77568      0.013605706    6.2413646      731.34659     -20.672514      710.67408    
   2521000   292.73535      0.013605706    7.0757942      726.28447     -23.941919      702.34255    
   2522000   294.1757       0.013605706    6.948071       729.85802     -23.65372       706.2043     
   2523000   306.88356      0.013605706    9.865491       761.38658     -20.192004      741.19458    
   2524000   312.71285      0.013605706    10.05724       775.84921     -21.074502      754.7747     
   2525000   295.23472      0.013605706    5.4139557      732.48549     -18.465974      714.01951    
   2526000   280.66674      0.013605706    2.4119957      696.34193     -19.27873       677.0632     
   2527000   293.28709      0.013605706    9.3784947      727.65335     -14.32665       713.3267     
   2528000   304.16092      0.013605706    8.4567305      754.63162     -14.709879      739.92174    
   2529000   316.21331      0.013605706    6.9935316      784.53393     -20.368539      764.1654     
   2530000   301.85587      0.013605706    3.2446031      748.91274     -21.925063      726.98768    
   2531000   295.1422       0.013605706    7.8318427      732.25593     -17.613357      714.64257    
   2532000   293.99782      0.013605706    8.2412112      729.4167      -19.582569      709.83413    
   2533000   300.37658      0.013605706    7.0232224      745.24258     -18.503013      726.73957    
   2534000   285.74397      0.013605706    6.6907182      708.93866     -15.775041      693.16362    
   2535000   307.35517      0.013605706    6.6699057      762.55666     -16.509532      746.04713    
   2536000   301.433        0.013605706    7.0890558      747.86359     -16.468219      731.39537    
   2537000   297.05958      0.013605706    7.2265308      737.013       -20.321477      716.69152    
   2538000   298.30063      0.013605706    9.1213657      740.09209     -18.821248      721.27084    
   2539000   293.94489      0.013605706    6.533504       729.28537     -16.418485      712.86689    
   2540000   300.3971       0.013605706    5.8218681      745.29349     -16.458758      728.83473    
   2541000   311.33131      0.013605706    7.2081476      772.42155     -15.79182       756.62973    
   2542000   301.34848      0.013605706    5.8168248      747.65388     -20.256008      727.39787    
   2543000   292.9462       0.013605706    7.4981956      726.80759     -17.005117      709.80247    
   2544000   306.33892      0.013605706    7.2694249      760.0353      -17.750887      742.28441    
   2545000   309.76204      0.013605706    6.2013066      768.52817     -17.372406      751.15576    
   2546000   293.92657      0.013605706    6.2987766      729.23993     -13.651793      715.58814    
   2547000   293.42989      0.013605706    7.1253463      728.00765     -15.541028      712.46662    
   2548000   318.83558      0.013605706    9.1760436      791.03986     -15.668019      775.37185    
   2549000   297.33787      0.013605706    6.5833257      737.70344     -18.996974      718.70647    
   2550000   287.97597      0.013605706    7.1884525      714.47633     -17.785758      696.69057    
   2551000   309.82974      0.013605706    7.9315635      768.69613     -23.52383       745.1723     
   2552000   303.86509      0.013605706    6.0669686      753.89768     -24.800508      729.09717    
   2553000   277.06551      0.013605706    6.7658257      687.40718     -20.71026       666.69692    
   2554000   297.21711      0.013605706    7.3302124      737.40384     -21.796105      715.60774    
   2555000   305.94433      0.013605706    7.3438784      759.05631     -21.436583      737.61973    
   2556000   304.66241      0.013605706    6.0081573      755.87584     -25.254508      730.62133    
   2557000   292.71337      0.013605706    8.8937652      726.22993     -23.666283      702.56365    
   2558000   304.44068      0.013605706    8.8421834      755.32571     -23.585152      731.74056    
   2559000   289.21407      0.013605706    4.7345418      717.54808     -27.14988       690.3982     
   2560000   301.58367      0.013605706    8.7905414      748.2374      -25.719098      722.51831    
   2561000   316.35819      0.013605706    7.7045269      784.89339     -21.644573      763.24881    
   2562000   293.03735      0.013605706    7.1116554      727.03373     -19.748429      707.28531    
   2563000   305.19223      0.013605706    9.601753       757.19034     -18.843305      738.34704    
   2564000   307.60105      0.013605706    6.9412337      763.1667      -21.237487      741.92921    
   2565000   289.61265      0.013605706    7.2921399      718.53698     -19.9451        698.59188    
   2566000   298.99749      0.013605706    6.4288473      741.82102     -18.937739      722.88328    
   2567000   310.367        0.013605706    8.088213       770.02907     -16.687688      753.34138    
   2568000   309.10299      0.013605706    5.1737061      766.89304     -18.156631      748.73641    
   2569000   305.05205      0.013605706    7.1347993      756.84254     -20.928391      735.91415    
   2570000   293.2575       0.013605706    9.2081939      727.57994     -19.953838      707.6261     
   2571000   308.12319      0.013605706    9.76051        764.46214     -21.780422      742.68172    
   2572000   303.72082      0.013605706    2.2582496      753.53972     -21.319495      732.22022    
   2573000   300.01192      0.013605706    8.6025597      744.33783     -21.868306      722.46953    
   2574000   305.58283      0.013605706    10.911265      758.15942     -21.943628      736.21579    
   2575000   301.05766      0.013605706    5.2941843      746.93236     -20.479703      726.45266    
   2576000   299.53251      0.013605706    4.3900537      743.14841     -15.986786      727.16163    
   2577000   301.33245      0.013605706    18.083394      747.61412     -22.895299      724.71882    
   2578000   312.33738      0.013605706    17.412634      774.91765     -23.000715      751.91694    
   2579000   295.79912      0.013605706    3.7067055      733.88577     -22.95329       710.93248    
   2580000   292.96233      0.013605706    6.6848465      726.84761     -24.397617      702.44999    
   2581000   303.62498      0.013605706    8.6202697      753.30195     -24.367011      728.93494    
   2582000   308.12679      0.013605706    8.9809759      764.47106     -22.934014      741.53704    
   2583000   314.19027      0.013605706   -0.2391921      779.51471     -26.47827       753.03644    
   2584000   285.00616      0.013605706    8.2355228      707.10813     -17.69094       689.41719    
   2585000   314.22055      0.013605706    10.497282      779.58984     -20.128129      759.46171    
   2586000   295.33615      0.013605706   -2.5491736      732.73712     -21.373885      711.36323    
   2587000   285.74734      0.013605706    8.2468043      708.94702     -22.341049      686.60597    
   2588000   311.39202      0.013605706    9.9039894      772.57219     -23.321173      749.25102    
   2589000   308.239        0.013605706    0.014694208    764.74944     -26.170946      738.5785     
   2590000   293.93267      0.013605706    2.5969424      729.25507     -21.857887      707.39718    
   2591000   288.64244      0.013605706    6.4421941      716.12984     -22.576509      693.55333    
   2592000   295.52136      0.013605706    8.5348291      733.19665     -22.955179      710.24147    
   2593000   311.45342      0.013605706    7.7773496      772.72451     -24.546968      748.17755    
   2594000   307.89675      0.013605706    6.6217258      763.90033     -18.282959      745.61737    
   2595000   286.30316      0.013605706    6.353567       710.32602     -19.647128      690.6789     
   2596000   298.10462      0.013605706    7.6505948      739.60577     -21.444827      718.16095    
   2597000   313.71868      0.013605706    4.4113992      778.34468     -20.790458      757.55423    
   2598000   298.22187      0.013605706    2.1017268      739.89669     -19.603188      720.2935     
   2599000   293.59528      0.013605706    8.0296452      728.41798     -21.707064      706.71091    
   2600000   293.25733      0.013605706    8.4736564      727.57951     -23.3469        704.23261    
   2601000   312.33652      0.013605706    12.285187      774.91552     -18.306862      756.60866    
   2602000   298.5829       0.013605706    7.6514629      740.79241     -20.827602      719.96481    
   2603000   287.0916       0.013605706    5.3646198      712.28218     -21.641179      690.641      
   2604000   293.8218       0.013605706    8.0474194      728.97997     -22.55393       706.42604    
   2605000   314.77099      0.013605706    10.212357      780.95551     -23.3035        757.65201    
   2606000   306.02666      0.013605706    4.2359645      759.26057     -22.950874      736.30969    
   2607000   288.90365      0.013605706    6.5375342      716.77792     -25.165944      691.61198    
   2608000   300.92188      0.013605706    5.8752051      746.59547     -23.314335      723.28114    
   2609000   307.30666      0.013605706    7.2006039      762.43629     -22.329967      740.10632    
   2610000   296.51842      0.013605706    8.5751787      735.67037     -20.637876      715.03249    
   2611000   300.47194      0.013605706    7.0541434      745.47917     -19.579397      725.89977    
   2612000   308.07276      0.013605706    7.3897733      764.33702     -22.286268      742.05075    
   2613000   291.33082      0.013605706    8.7413687      722.7998      -19.19811       703.60169    
   2614000   299.39812      0.013605706    8.4122794      742.81498     -17.078761      725.73622    
   2615000   306.18082      0.013605706    7.8742334      759.64306     -18.220379      741.42269    
   2616000   299.22604      0.013605706    4.9228127      742.38804     -17.929245      724.4588     
   2617000   287.60212      0.013605706    4.4741135      713.54878     -21.116013      692.43277    
   2618000   297.159        0.013605706    8.7453862      737.25967     -21.249453      716.01022    
   2619000   319.8789       0.013605706    9.9001005      793.62836     -25.609436      768.01893    
   2620000   306.52787      0.013605706    4.3374007      760.50409     -18.630042      741.87405    
   2621000   302.74935      0.013605706    4.5679724      751.12949     -22.159482      728.97001    
   2622000   282.59682      0.013605706    7.2685862      701.1305      -21.565382      679.56512    
   2623000   310.81605      0.013605706    12.227552      771.1432      -20.344349      750.79885    
   2624000   306.10637      0.013605706    6.4970921      759.45833     -18.674978      740.78335    
   2625000   296.77345      0.013605706    6.8279392      736.30311     -15.447451      720.85566    
   2626000   293.39621      0.013605706    6.3659729      727.92409     -17.866803      710.05729    
   2627000   303.22076      0.013605706    8.1296842      752.29906     -21.30563       730.99343    
   2628000   301.76588      0.013605706    7.3455438      748.68947     -20.932566      727.7569     
   2629000   282.80912      0.013605706    6.5594781      701.65723     -26.246509      675.41072    
   2630000   299.12926      0.013605706    6.1281758      742.14794     -21.531978      720.61596    
   2631000   305.45106      0.013605706    7.1552706      757.8325      -19.952992      737.87951    
   2632000   290.47524      0.013605706    9.0632927      720.67708     -18.342638      702.33445    
   2633000   293.91728      0.013605706    6.5720498      729.21687     -17.328754      711.88811    
   2634000   304.84204      0.013605706    6.9194131      756.32152     -18.420312      737.9012     
   2635000   322.37847      0.013605706    9.3169573      799.82986     -15.230062      784.5998     
   2636000   285.90054      0.013605706    6.5713524      709.32712     -15.300376      694.02674    
   2637000   289.59824      0.013605706    7.6160285      718.50121     -14.41627       704.08494    
   2638000   299.23084      0.013605706    6.5422397      742.39996     -13.720078      728.67988    
   2639000   308.19347      0.013605706    9.0276133      764.63649     -9.8729962      754.76349    
   2640000   304.38506      0.013605706    8.6015011      755.18771     -10.402023      744.78569    
   2641000   295.22776      0.013605706    6.1276344      732.46822     -13.824082      718.64414    
   2642000   303.59434      0.013605706    5.325567       753.22592     -12.03748       741.18844    
   2643000   300.75489      0.013605706    8.1628492      746.18118     -15.061854      731.11933    
   2644000   302.69725      0.013605706    10.175136      751.00022     -16.6842        734.31602    
   2645000   326.69478      0.013605706    8.1569599      810.53876     -19.323494      791.21527    
   2646000   304.70268      0.013605706    8.8053466      755.97575     -19.856835      736.11891    
   2647000   300.76509      0.013605706    9.2752788      746.20647     -17.732646      728.47383    
   2648000   292.08117      0.013605706    7.7244783      724.66143     -16.105441      708.55599    
   2649000   295.91149      0.013605706    6.1667271      734.16455     -17.449269      716.71528    
   2650000   305.74512      0.013605706    6.6947947      758.56207     -17.674223      740.88785    
   2651000   304.97049      0.013605706    7.2782034      756.6402      -19.053457      737.58675    
   2652000   293.80722      0.013605706    8.7399427      728.94382     -23.59707       705.34675    
   2653000   292.76634      0.013605706    8.1195748      726.36136     -22.207154      704.1542     
   2654000   308.88903      0.013605706    5.4200576      766.36219     -22.151242      744.21094    
   2655000   307.98299      0.013605706    7.8131361      764.11429     -21.836304      742.27799    
   2656000   310.68162      0.013605706    8.0193745      770.80967     -18.193947      752.61572    
   2657000   302.49376      0.013605706    6.899709       750.49535     -21.300327      729.19503    
   2658000   297.73557      0.013605706    7.9720814      738.69015     -18.754571      719.93558    
   2659000   300.60359      0.013605706    7.7752687      745.80579     -15.965774      729.84001    
   2660000   303.00677      0.013605706    12.4697        751.76815     -15.659717      736.10844    
   2661000   308.2998       0.013605706    5.9048271      764.9003      -18.749155      746.15115    
   2662000   308.41189      0.013605706    7.2721679      765.17841     -20.75472       744.42369    
   2663000   296.01755      0.013605706    13.586832      734.4277      -16.494085      717.93361    
   2664000   296.40088      0.013605706    6.4289719      735.37875     -21.272375      714.10637    
   2665000   305.55612      0.013605706    5.7071206      758.09317     -20.202467      737.8907     
   2666000   306.37046      0.013605706    8.2223658      760.11356     -20.313107      739.80045    
   2667000   293.46814      0.013605706    7.1570835      728.10256     -18.648001      709.45456    
   2668000   299.70534      0.013605706    8.0763549      743.57722     -19.924999      723.65222    
   2669000   297.19676      0.013605706    6.5086548      737.35336     -19.410014      717.94334    
   2670000   293.89297      0.013605706    6.0173422      729.15656     -22.227402      706.92916    
   2671000   301.99992      0.013605706    7.2357041      749.27012     -17.780693      731.48943    
   2672000   309.8805       0.013605706    7.5879557      768.82205     -20.495667      748.32639    
   2673000   298.56263      0.013605706    7.6316188      740.74213     -17.376699      723.36543    
   2674000   295.99816      0.013605706    7.231209       734.37959     -19.887434      714.49216    
   2675000   300.42912      0.013605706    7.4660997      745.37292     -17.490859      727.88207    
   2676000   311.56714      0.013605706    7.6471185      773.00665     -19.962706      753.04395    
   2677000   303.29065      0.013605706    7.6994603      752.47247     -18.093479      734.37899    
   2678000   289.68671      0.013605706    7.8708406      718.72071     -19.086606      699.63411    
   2679000   307.38597      0.013605706    8.5135802      762.63305     -23.641873      738.99118    
   2680000   307.35462      0.013605706    10.662016      762.55527     -22.579283      739.97599    
   2681000   298.75591      0.013605706    7.6129507      741.22165     -25.032355      716.18929    
   2682000   294.29023      0.013605706    7.2227491      730.14218     -23.597841      706.54434    
   2683000   306.332        0.013605706    7.8086467      760.01812     -24.129148      735.88898    
   2684000   305.01553      0.013605706    6.4684932      756.75194     -17.795967      738.95597    
   2685000   288.89122      0.013605706    7.262347       716.74708     -16.710557      700.03652    
   2686000   300.70765      0.013605706    4.7253036      746.06397     -14.206634      731.85734    
   2687000   317.39428      0.013605706    6.5729673      787.46395     -17.432465      770.03148    
   2688000   299.552        0.013605706    8.2714736      743.19676     -15.898574      727.29818    
   2689000   300.46434      0.013605706    8.2109079      745.4603      -21.704316      723.75599    
   2690000   297.16976      0.013605706    6.6736384      737.28637     -19.168636      718.11773    
   2691000   314.32026      0.013605706    0.49135403     779.83722     -18.90286       760.93436    
   2692000   309.51272      0.013605706    12.121754      767.9096      -22.480567      745.42903    
   2693000   287.94312      0.013605706    3.1377206      714.39482     -20.178239      694.21658    
   2694000   306.6166       0.013605706    7.1687034      760.72424     -23.915852      736.80839    
   2695000   311.49664      0.013605706    11.477787      772.83175     -24.588402      748.24334    
   2696000   284.79591      0.013605706    2.5655294      706.5865      -21.173141      685.41336    
   2697000   297.18667      0.013605706    3.8467987      737.32831     -19.464682      717.86363    
   2698000   305.33512      0.013605706    6.9994052      757.54485     -21.839518      735.70533    
   2699000   294.76807      0.013605706    11.071341      731.3277      -19.061814      712.26589    
   2700000   308.36288      0.013605706    8.136908       765.05679     -17.017393      748.0394     
   2701000   299.33306      0.013605706    7.8011404      742.65356     -19.541698      723.11187    
   2702000   272.55989      0.013605706    7.3207506      676.22861     -18.532636      657.69597    
   2703000   313.7981       0.013605706    7.7629451      778.54174     -23.150237      755.3915     
   2704000   312.87518      0.013605706    4.4232495      776.25196     -21.906788      754.34517    
   2705000   292.08764      0.013605706    4.2282675      724.67747     -20.937422      703.74005    
   2706000   298.80222      0.013605706    8.9994451      741.33654     -22.33029       719.00625    
   2707000   307.76914      0.013605706    8.9742506      763.58372     -21.727622      741.8561     
   2708000   306.4761       0.013605706    7.7341411      760.37565     -22.565319      737.81033    
   2709000   307.90076      0.013605706    1.3153565      763.91027     -22.81773       741.09254    
   2710000   294.52898      0.013605706    5.4071791      730.73453     -26.454072      704.28045    
   2711000   299.89649      0.013605706    10.477938      744.05146     -26.484152      717.56731    
   2712000   309.36992      0.013605706    6.0453112      767.55529     -23.845761      743.70953    
   2713000   305.61965      0.013605706    6.7131534      758.25078     -25.473579      732.7772     
   2714000   287.31561      0.013605706    7.6576114      712.83795     -27.6845        685.15345    
   2715000   297.33056      0.013605706    10.954142      737.68532     -26.647699      711.03762    
   2716000   317.803        0.013605706    2.7959475      788.47799     -27.305485      761.17251    
   2717000   309.8056       0.013605706   -0.76456426     768.63624     -29.656049      738.98019    
   2718000   301.41523      0.013605706    2.6232868      747.81949     -24.789018      723.03047    
   2719000   301.57409      0.013605706    10.878455      748.21363     -25.638093      722.57553    
   2720000   293.75624      0.013605706    10.000368      728.81734     -22.964056      705.85328    
   2721000   313.03525      0.013605706    8.3809163      776.64908     -19.931899      756.71718    
   2722000   317.57701      0.013605706    4.7065379      787.91732     -22.396884      765.52044    
   2723000   287.21089      0.013605706    4.0611801      712.57812     -21.785427      690.7927     
   2724000   298.32172      0.013605706    11.460298      740.1444      -21.632069      718.51233    
   2725000   310.73327      0.013605706    9.0758291      770.93781     -21.557089      749.38072    
   2726000   301.59734      0.013605706    3.4861747      748.27132     -20.393229      727.87809    
   2727000   292.07462      0.013605706    1.9341351      724.64519     -19.11044       705.53475    
   2728000   295.59619      0.013605706    7.327184       733.38231     -20.345641      713.03667    
   2729000   301.00322      0.013605706    15.497595      746.79729     -19.025723      727.77157    
   2730000   301.21521      0.013605706    7.6911793      747.32324     -17.738555      729.58468    
   2731000   295.90696      0.013605706    4.8739164      734.15333     -19.394726      714.7586     
   2732000   280.41122      0.013605706    7.3384072      695.70796     -21.640823      674.06714    
   2733000   302.52732      0.013605706    11.6264        750.57862     -23.05296       727.52566    
   2734000   309.93523      0.013605706    10.176725      768.95784     -26.440749      742.51709    
   2735000   307.82611      0.013605706    4.9371108      763.72507     -25.738187      737.98688    
   2736000   292.06342      0.013605706    1.9954923      724.61739     -24.775851      699.84154    
   2737000   292.88759      0.013605706    6.5938965      726.66219     -25.509362      701.15283    
   2738000   300.66818      0.013605706    9.0449175      745.96604     -21.35336       724.61268    
   2739000   306.31326      0.013605706    6.9962567      759.97165     -25.426584      734.54506    
   2740000   294.2648       0.013605706    6.310236       730.07908     -27.237671      702.84141    
   2741000   291.47228      0.013605706    6.9078919      723.15075     -22.55115       700.5996     
   2742000   312.42188      0.013605706    7.3451203      775.12731     -22.519502      752.60781    
   2743000   312.62877      0.013605706    7.8751663      775.64061     -22.676015      752.96459    
   2744000   295.14776      0.013605706    7.6338137      732.26973     -22.486278      709.78345    
   2745000   302.55769      0.013605706    8.6395841      750.65396     -22.007875      728.64609    
   2746000   312.97808      0.013605706    7.4167558      776.50725     -19.286959      757.22029    
   2747000   293.13091      0.013605706    6.589953       727.26588     -21.394272      705.8716     
   2748000   286.19748      0.013605706    6.7902423      710.06383     -22.469566      687.59427    
   2749000   301.22072      0.013605706    7.560437       747.3369      -20.513207      726.8237     
   2750000   304.17245      0.013605706    7.6921118      754.66022     -22.013696      732.64653    
   2751000   300.08076      0.013605706    8.1884989      744.50863     -18.838145      725.67049    
   2752000   295.42086      0.013605706    7.4758278      732.9473      -18.67068       714.27662    
   2753000   299.80137      0.013605706    7.6196999      743.81546     -16.769467      727.04599    
   2754000   305.85655      0.013605706    7.8212221      758.83853     -18.091514      740.74701    
   2755000   286.61676      0.013605706    6.6395872      711.10408     -16.273527      694.83056    
   2756000   294.55862      0.013605706    7.7330831      730.80805     -19.509881      711.29817    
   2757000   315.56293      0.013605706    8.9601331      782.92032     -20.842658      762.07766    
   2758000   307.91834      0.013605706    7.8197596      763.95389     -20.379423      743.57447    
   2759000   291.62658      0.013605706    7.2351983      723.53357     -18.71862       704.81495    
   2760000   302.34058      0.013605706    6.7347184      750.11532     -16.541922      733.5734     
   2761000   308.91348      0.013605706    7.1906455      766.42285     -23.060962      743.36189    
   2762000   302.79419      0.013605706    10.662347      751.24073     -20.862401      730.37833    
   2763000   292.53288      0.013605706    7.055803       725.78214     -20.125641      705.6565     
   2764000   291.37823      0.013605706    7.5511585      722.91742     -20.931057      701.98636    
   2765000   306.19374      0.013605706    6.6336052      759.67511     -19.863545      739.81157    
   2766000   299.18155      0.013605706    6.642073       742.27768     -20.735061      721.54262    
   2767000   273.58016      0.013605706    7.2743806      678.75991     -17.970486      660.78942    
   2768000   297.45117      0.013605706    7.8835057      737.98456     -19.210493      718.77407    
   2769000   311.09172      0.013605706    7.6533828      771.82713     -21.13285       750.69428    
   2770000   302.86545      0.013605706    7.0073093      751.41752     -20.789458      730.62806    
   2771000   296.54421      0.013605706    6.2811993      735.73436     -23.227789      712.50657    
   2772000   294.99776      0.013605706    7.3693334      731.89756     -18.965111      712.93245    
   2773000   303.63371      0.013605706    9.6435796      753.3236      -16.975863      736.34774    
   2774000   308.45434      0.013605706    7.6971282      765.28373     -22.720858      742.56287    
   2775000   299.10134      0.013605706    7.0453887      742.07868     -19.616438      722.46224    
   2776000   294.0458       0.013605706    6.0526468      729.53573     -22.555178      706.98055    
   2777000   296.84963      0.013605706    6.9242332      736.49212     -20.362347      716.12977    
   2778000   303.45774      0.013605706    8.2117633      752.88701     -22.279738      730.60727    
   2779000   285.63651      0.013605706    7.7892306      708.67206     -20.078076      688.59398    
   2780000   298.27114      0.013605706    7.433924       740.01893     -19.309566      720.70936    
   2781000   302.23638      0.013605706    6.1577555      749.85679     -21.275505      728.58129    
   2782000   296.77541      0.013605706    8.0979704      736.30797     -21.658896      714.64907    
   2783000   292.8175       0.013605706    7.9735375      726.48829     -22.539611      703.94868    
   2784000   300.94138      0.013605706    6.6572978      746.64386     -19.35393       727.28993    
   2785000   301.73962      0.013605706    4.2395638      748.62432     -20.472948      728.15137    
   2786000   294.26512      0.013605706    10.657363      730.07988     -17.588843      712.49104    
   2787000   304.83594      0.013605706    6.5096687      756.30637     -18.866696      737.43967    
   2788000   304.39991      0.013605706    4.9744528      755.22456     -18.110392      737.11417    
   2789000   303.66684      0.013605706    10.345994      753.40581     -20.19314       733.21267    
   2790000   290.12627      0.013605706    7.2818899      719.81127     -23.948863      695.86241    
   2791000   304.95216      0.013605706    5.4147518      756.59472     -20.079451      736.51527    
   2792000   307.48521      0.013605706    7.3969718      762.87928     -24.016058      738.86322    
   2793000   280.99423      0.013605706    6.3452961      697.15443     -22.665204      674.48923    
   2794000   301.2092       0.013605706    7.8302433      747.30834     -19.156053      728.15228    
   2795000   318.63006      0.013605706    8.0752491      790.52996     -20.355477      770.17448    
   2796000   304.19278      0.013605706    7.3209153      754.71067     -20.609372      734.1013     
   2797000   286.12094      0.013605706    8.3878354      709.87393     -21.637432      688.2365     
   2798000   299.72148      0.013605706    7.4864438      743.61727     -22.570667      721.0466     
   2799000   312.2563       0.013605706    9.4852649      774.71649     -24.223815      750.49268    
   2800000   295.61582      0.013605706    7.03417        733.431       -24.498415      708.93259    
   2801000   297.77295      0.013605706    7.1187127      738.7829      -27.348395      711.43451    
   2802000   309.34432      0.013605706    7.83714        767.49177     -24.734408      742.75737    
   2803000   303.70033      0.013605706    7.8929325      753.4889      -20.790574      732.69832    
   2804000   296.29688      0.013605706    7.1003053      735.12072     -25.837645      709.28308    
   2805000   294.85751      0.013605706    6.8312828      731.54961     -26.706512      704.8431     
   2806000   304.81122      0.013605706    10.902521      756.24505     -29.641912      726.60314    
   2807000   303.24197      0.013605706    5.546524       752.35168     -26.481058      725.87063    
   2808000   305.20312      0.013605706    6.8792179      757.21734     -23.19618       734.02116    
   2809000   313.79297      0.013605706    15.295241      778.52902     -30.644974      747.88404    
   2810000   297.24313      0.013605706    14.448905      737.46841     -27.584357      709.88405    
   2811000   289.48346      0.013605706    6.7368968      718.21645     -28.910609      689.30585    
   2812000   303.46008      0.013605706    3.6189639      752.89282     -26.399641      726.49318    
   2813000   302.36455      0.013605706    9.5225426      750.17479     -23.765541      726.40925    
   2814000   278.99687      0.013605706    16.238046      692.19893     -22.666108      669.53282    
   2815000   297.80866      0.013605706    6.1928786      738.87149     -25.297095      713.57439    
   2816000   305.42211      0.013605706    2.4543896      757.76068     -27.553125      730.20756    
   2817000   301.19691      0.013605706    5.8174278      747.27784     -25.940074      721.33777    
   2818000   311.66636      0.013605706    6.1142151      773.25282     -25.46584       747.78698    
   2819000   306.53376      0.013605706    8.5052821      760.51871     -23.953767      736.56494    
   2820000   297.93089      0.013605706    7.9088265      739.17474     -25.553724      713.62102    
   2821000   284.20147      0.013605706    7.7158556      705.11167     -21.809742      683.30193    
   2822000   303.68236      0.013605706    5.3711667      753.4443      -22.761309      730.68299    
   2823000   309.72686      0.013605706    7.5424936      768.44088     -21.773757      746.66712    
   2824000   284.28631      0.013605706    9.4093417      705.32217     -19.199552      686.12262    
   2825000   306.60861      0.013605706    3.1551535      760.70441     -18.340967      742.36344    
   2826000   302.50048      0.013605706    8.0230772      750.51203     -20.136795      730.37524    
   2827000   299.94274      0.013605706    7.3152343      744.16622     -21.670049      722.49617    
   2828000   298.33315      0.013605706    8.5990218      740.17276     -17.468618      722.70414    
   2829000   304.78423      0.013605706    8.4758191      756.17807     -17.585096      738.59297    
   2830000   297.34656      0.013605706    16.193012      737.72502     -21.134403      716.59062    
   2831000   295.44998      0.013605706    6.2582301      733.01955     -23.276413      709.74313    
   2832000   306.19109      0.013605706   -1.0280325      759.66852     -22.301171      737.36735    
   2833000   308.4512       0.013605706    7.57079        765.27594     -24.026404      741.24953    
   2834000   297.24956      0.013605706    11.264834      737.48434     -23.821099      713.66324    
   2835000   301.80589      0.013605706    7.4448512      748.78874     -20.000311      728.78843    
   2836000   292.80468      0.013605706    4.1332201      726.45647     -14.70738       711.74909    
   2837000   292.20178      0.013605706    6.428583       724.96068     -17.624728      707.33595    
   2838000   308.22557      0.013605706    7.5668085      764.71613     -19.42875       745.28738    
   2839000   306.48866      0.013605706    6.7022427      760.40683     -21.591567      738.81526    
   2840000   286.04117      0.013605706    6.4588737      709.67604     -18.239117      691.43692    
   2841000   289.84232      0.013605706    5.9441204      719.10678     -16.724234      702.38255    
   2842000   305.37758      0.013605706    6.9809512      757.65019     -18.055692      739.5945     
   2843000   304.70488      0.013605706    8.539617       755.9812      -20.904552      735.07665    
   2844000   288.61735      0.013605706    7.0006536      716.0676      -17.200135      698.86746    
   2845000   288.55944      0.013605706    7.5960133      715.92393     -15.760012      700.16392    
   2846000   312.09819      0.013605706    6.5981804      774.3242      -13.937984      760.38622    
   2847000   302.71266      0.013605706    8.2471452      751.03846     -15.912347      735.12612    
   2848000   288.6568       0.013605706    7.4658789      716.16547     -17.36899       698.79648    
   2849000   303.15099      0.013605706    7.640968       752.12597     -19.768974      732.35699    
   2850000   307.15675      0.013605706    7.5280953      762.06437     -20.902639      741.16173    
   2851000   298.49614      0.013605706    7.2965926      740.57716     -20.949574      719.62759    
   2852000   292.64288      0.013605706    7.5568898      726.05504     -18.987783      707.06726    
   2853000   296.25763      0.013605706    7.2768002      735.02334     -18.234988      716.78835    
   2854000   308.41229      0.013605706    7.0907003      765.1794      -19.866186      745.31322    
   2855000   315.08802      0.013605706    7.5551671      781.74206     -22.110966      759.6311     
   2856000   294.6513       0.013605706    7.5398761      731.038       -21.686118      709.35188    
   2857000   299.09529      0.013605706    3.5569728      742.06365     -21.520472      720.54317    
   2858000   317.34446      0.013605706    5.8713873      787.34035     -21.284315      766.05603    
   2859000   315.05375      0.013605706    9.9778154      781.65704     -21.153553      760.50349    
   2860000   283.06416      0.013605706    10.877897      702.28997     -19.346432      682.94354    
   2861000   296.85625      0.013605706    6.1597949      736.50855     -23.815543      712.69301    
   2862000   296.9547       0.013605706    5.4660159      736.75279     -24.235885      712.51691    
   2863000   308.08834      0.013605706    6.1238039      764.37567     -26.099816      738.27586    
   2864000   301.19244      0.013605706    8.6851965      747.26674     -24.90779       722.35895    
   2865000   298.88887      0.013605706    8.0806978      741.55152     -24.553867      716.99765    
   2866000   288.68801      0.013605706    7.0770965      716.2429      -25.102302      691.1406     
   2867000   306.20391      0.013605706    5.6998386      759.70034     -22.752584      736.94776    
   2868000   315.00261      0.013605706    7.5461687      781.53015     -27.309152      754.22099    
   2869000   286.2534       0.013605706    10.317349      710.20258     -23.983074      686.21951    
   2870000   289.45682      0.013605706    6.1440193      718.15035     -21.14228       697.00807    
   2871000   299.35389      0.013605706    6.6129905      742.70525     -20.06166       722.64359    
   2872000   328.9415       0.013605706    8.0267166      816.11294     -20.52612       795.58682    
   2873000   301.69784      0.013605706    6.8236184      748.52065     -21.012046      727.5086     
   2874000   282.93811      0.013605706    6.8735102      701.97724     -20.621161      681.35608    
   2875000   308.85047      0.013605706    10.719755      766.26653     -21.320262      744.94627    
   2876000   302.14478      0.013605706    5.2090637      749.62953     -20.838564      728.79097    
   2877000   295.76085      0.013605706    4.6259312      733.79081     -21.398806      712.392      
   2878000   306.08337      0.013605706    6.7405083      759.40128     -22.885009      736.51627    
   2879000   303.27358      0.013605706    18.828633      752.43012     -19.268464      733.16165    
   2880000   302.26174      0.013605706    10.913281      749.91972     -23.62784       726.29188    
   2881000   300.44485      0.013605706    5.8103613      745.41195     -26.485174      718.92678    
   2882000   296.52618      0.013605706    9.7375839      735.68963     -19.217502      716.47213    
   2883000   309.63467      0.013605706    8.5699687      768.21215     -20.266953      747.94519    
   2884000   296.18199      0.013605706    4.6331576      734.83567     -23.060336      711.77534    
   2885000   292.76908      0.013605706    8.3120648      726.36815     -22.53768       703.83047    
   2886000   319.36813      0.013605706    8.4083595      792.36113     -26.113499      766.24763    
   2887000   298.20538      0.013605706    4.8945093      739.85577     -27.497232      712.35854    
   2888000   283.73096      0.013605706    6.811805       703.94434     -25.068144      678.87619    
   2889000   292.65703      0.013605706    8.5455748      726.09017     -24.495535      701.59463    
   2890000   314.91407      0.013605706    7.4611835      781.31048     -27.096027      754.21445    
   2891000   300.46679      0.013605706    7.4023996      745.46638     -24.782827      720.68356    
   2892000   293.59568      0.013605706    7.1217624      728.41898     -22.480455      705.93853    
   2893000   290.87717      0.013605706    8.55264        721.67427     -24.047213      697.62706    
   2894000   310.78088      0.013605706    8.8869833      771.05592     -21.959644      749.09628    
   2895000   306.71238      0.013605706    17.167347      760.96187     -22.906378      738.05549    
   2896000   298.64902      0.013605706    12.861691      740.95646     -25.103916      715.85255    
   2897000   291.90258      0.013605706    2.3601702      724.21835     -24.55676       699.66159    
   2898000   292.32222      0.013605706   -1.4419587      725.25949     -22.66992       702.58957    
   2899000   309.15539      0.013605706    5.7207813      767.02305     -24.603525      742.41952    
   2900000   304.92663      0.013605706    20.021519      756.53138     -22.196379      734.335      
   2901000   302.40693      0.013605706    4.3022694      750.27993     -24.172955      726.10697    
   2902000   303.85637      0.013605706    2.3551063      753.87602     -26.07136       727.80466    
   2903000   309.53329      0.013605706    18.270725      767.96062     -22.616829      745.34379    
   2904000   306.42689      0.013605706    8.5355286      760.25356     -23.543891      736.70967    
   2905000   297.81078      0.013605706    4.2809373      738.87674     -24.276204      714.60054    
   2906000   297.90691      0.013605706    7.6633895      739.11524     -22.758415      716.35683    
   2907000   296.47679      0.013605706    15.134437      735.56708     -22.5372        713.02988    
   2908000   299.69626      0.013605706    4.6049987      743.55467     -24.629254      718.92542    
   2909000   305.92083      0.013605706    0.42040015     758.998       -22.232204      736.7658     
   2910000   294.93929      0.013605706    6.9231454      731.75251     -21.539803      710.21271    
   2911000   301.55167      0.013605706    8.2104928      748.15799     -22.675362      725.48263    
   2912000   306.55801      0.013605706    8.1781122      760.57888     -25.414869      735.16402    
   2913000   294.05323      0.013605706    4.6276603      729.55417     -23.508222      706.04595    
   2914000   306.12754      0.013605706    6.2287965      759.51086     -24.236829      735.27403    
   2915000   307.325        0.013605706    7.2486964      762.48181     -27.574218      734.90759    
   2916000   313.95561      0.013605706    12.072126      778.93253     -21.919536      757.01299    
   2917000   280.09838      0.013605706    9.685817       694.93181     -24.64682       670.28499    
   2918000   293.78479      0.013605706    6.8396346      728.88817     -23.432075      705.45609    
   2919000   308.06626      0.013605706    6.2159934      764.32089     -25.236074      739.08482    
   2920000   313.24261      0.013605706    17.825341      777.16354     -22.684275      754.47927    
   2921000   286.53529      0.013605706    10.007856      710.90196     -23.370139      687.53182    
   2922000   302.01213      0.013605706    5.6542284      749.30043     -22.772128      726.5283     
   2923000   306.66955      0.013605706    6.0188438      760.85561     -22.365651      738.48996    
   2924000   304.41056      0.013605706    8.5391984      755.251       -22.686251      732.56474    
   2925000   292.95213      0.013605706    6.7958718      726.82232     -24.083652      702.73867    
   2926000   282.66985      0.013605706    7.2567117      701.31169     -24.538117      676.77358    
   2927000   306.50795      0.013605706    10.196589      760.45467     -22.015478      738.43919    
   2928000   315.51353      0.013605706    4.4017         782.79777     -26.138745      756.65902    
   2929000   285.62691      0.013605706    7.693439       708.64825     -24.686193      683.96205    
   2930000   306.85953      0.013605706    9.2620409      761.32696     -23.387592      737.93937    
   2931000   305.25523      0.013605706    7.0711862      757.34663     -17.918006      739.42862    
   2932000   300.77377      0.013605706    6.363864       746.228       -21.942728      724.28528    
   2933000   289.6481       0.013605706    7.3147333      718.62492     -20.205487      698.41943    
   2934000   302.84522      0.013605706    7.5202189      751.36734     -23.113797      728.25354    
   2935000   322.22572      0.013605706    9.7868764      799.45089     -19.722292      779.7286     
   2936000   298.34503      0.013605706    8.5780594      740.20225     -18.211973      721.99027    
   2937000   294.10664      0.013605706    7.658792       729.68668     -17.584919      712.10176    
   2938000   305.12453      0.013605706    7.6739341      757.02238     -19.04552       737.97686    
   2939000   301.74642      0.013605706    8.1713417      748.64118     -20.022621      728.61856    
   2940000   296.05056      0.013605706    7.0487896      734.50961     -18.69124       715.81837    
   2941000   303.15207      0.013605706    7.7506784      752.12864     -17.8058        734.32284    
   2942000   292.06941      0.013605706    6.305529       724.63227     -22.099792      702.53247    
   2943000   294.83048      0.013605706    7.2160605      731.48255     -21.314615      710.16793    
   2944000   304.19186      0.013605706    7.9683009      754.70838     -22.964532      731.74385    
   2945000   304.43542      0.013605706    8.0558441      755.31267     -24.568418      730.74426    
   2946000   300.88154      0.013605706    6.3693947      746.49539     -22.11538       724.38001    
   2947000   290.5218       0.013605706    7.0608074      720.7926      -24.567623      696.22498    
   2948000   289.64968      0.013605706    7.7105454      718.62884     -25.868791      692.76005    
   2949000   310.3773       0.013605706    7.1265168      770.05464     -23.575451      746.47919    
   2950000   301.50119      0.013605706    9.493984       748.03277     -23.415988      724.61678    
   2951000   299.42884      0.013605706    7.3871817      742.8912      -20.982306      721.90889    
   2952000   292.36608      0.013605706    6.9033008      725.36831     -19.144265      706.22404    
   2953000   304.34408      0.013605706    8.6677858      755.08604     -21.372634      733.71341    
   2954000   297.87718      0.013605706    6.0726572      739.04149     -21.890047      717.15144    
   2955000   306.17294      0.013605706    6.7460833      759.62351     -22.279815      737.34369    
   2956000   297.17471      0.013605706    3.9750716      737.29865     -21.902403      715.39624    
   2957000   315.9163       0.013605706    7.4371399      783.79705     -21.526714      762.27034    
   2958000   302.31289      0.013605706    9.8883548      750.04662     -22.994584      727.05204    
   2959000   296.77739      0.013605706    8.0672182      736.31289     -19.226397      717.08649    
   2960000   290.93177      0.013605706    7.5077765      721.80974     -21.09628       700.71346    
   2961000   304.93121      0.013605706    7.5911305      756.54273     -21.994691      734.54804    
   2962000   301.65549      0.013605706    9.0297703      748.41558     -23.825343      724.59024    
   2963000   290.87925      0.013605706    6.8314307      721.67944     -26.315971      695.36347    
   2964000   311.41138      0.013605706    8.2210817      772.62022     -23.003614      749.61661    
   2965000   308.16833      0.013605706    8.3129701      764.57411     -20.459315      744.11479    
   2966000   290.8671       0.013605706    7.1971126      721.6493      -21.325123      700.32418    
   2967000   297.72359      0.013605706    8.2276556      738.66044     -22.132214      716.52823    
   2968000   312.84846      0.013605706    9.1144863      776.18566     -24.045961      752.13969    
   2969000   297.5079       0.013605706    5.6836325      738.1253      -26.574471      711.55083    
   2970000   283.01624      0.013605706    6.9011694      702.17109     -28.445714      673.72537    
   2971000   302.34961      0.013605706    7.8110032      750.13771     -29.276926      720.86078    
   2972000   301.65133      0.013605706    9.2005741      748.40527     -28.55798       719.84729    
   2973000   314.57323      0.013605706    6.6965078      780.46484     -28.886287      751.57856    
   2974000   293.9904       0.013605706    5.9921439      729.39827     -24.533751      704.86452    
   2975000   293.35042      0.013605706    7.5299357      727.81047     -19.015629      708.79484    
   2976000   312.21929      0.013605706    8.9973348      774.62466     -23.531852      751.09281    
   2977000   297.56691      0.013605706    3.9115221      738.27171     -21.162463      717.10925    
   2978000   278.12572      0.013605706    7.1358862      690.03757     -21.417063      668.6205     
   2979000   296.62641      0.013605706    10.593728      735.9383      -19.254257      716.68404    
   2980000   314.51612      0.013605706    8.940624       780.32317     -23.812715      756.51045    
   2981000   322.18079      0.013605706    6.520128       799.33943     -21.386451      777.95298    
   2982000   301.6092       0.013605706    4.7246557      748.30074     -20.691924      727.60882    
   2983000   285.98707      0.013605706    8.4891226      709.54179     -25.398193      684.1436     
   2984000   301.11091      0.013605706    10.005682      747.06446     -25.176528      721.88793    
   2985000   316.64747      0.013605706    4.2428655      785.61111     -20.419517      765.19159    
   2986000   300.70375      0.013605706    1.7789194      746.0543      -20.803997      725.2503     
   2987000   297.04455      0.013605706   -1.9437369      736.97571     -20.063111      716.9126     
   2988000   298.07454      0.013605706    10.790349      739.53116     -22.552336      716.97882    
   2989000   317.69109      0.013605706    8.378651       788.20036     -24.56595       763.6344     
   2990000   299.38696      0.013605706    7.3074736      742.7873      -25.310943      717.47636    
   2991000   299.42132      0.013605706    4.9116453      742.87256     -21.670507      721.20205    
   2992000   288.87771      0.013605706    5.8921057      716.71355     -23.691295      693.02225    
   2993000   311.38301      0.013605706    7.9192342      772.54983     -23.192595      749.35723    
   2994000   320.15325      0.013605706    8.928883       794.30904     -21.617516      772.69153    
   2995000   295.62198      0.013605706    7.5914955      733.44627     -23.355724      710.09055    
   2996000   305.07747      0.013605706    8.3942408      756.90562     -22.098486      734.80714    
   2997000   297.18132      0.013605706    7.176428       737.31504     -26.122454      711.19259    
   2998000   306.1827       0.013605706    3.9029073      759.64772     -23.794836      735.85288    
   2999000   299.29319      0.013605706    6.0718229      742.55465     -22.27416       720.28049    
   3000000   297.3757       0.013605706    10.256769      737.79732     -21.913119      715.8842     
   3001000   292.34026      0.013605706    9.3655385      725.30423     -19.643636      705.6606     
   3002000   300.76467      0.013605706    6.3795374      746.20543     -22.931391      723.27404    
   3003000   296.0601       0.013605706    9.3241839      734.53328     -21.410233      713.12304    
   3004000   300.99391      0.013605706    7.4924044      746.77419     -20.669181      726.10501    
   3005000   320.13413      0.013605706    2.9280379      794.2616      -26.573568      767.68803    
   3006000   290.52         0.013605706    4.8950358      720.78812     -23.822235      696.96589    
   3007000   288.31669      0.013605706    8.6234886      715.32165     -26.54553       688.77612    
   3008000   309.40262      0.013605706    8.4190895      767.63643     -24.697635      742.93879    
   3009000   306.61334      0.013605706    7.0763261      760.71614     -23.169598      737.54655    
   3010000   296.14063      0.013605706    6.4862238      734.73308     -24.171177      710.5619     
   3011000   297.1906       0.013605706    10.080805      737.33807     -24.868331      712.46974    
   3012000   309.31574      0.013605706    9.304016       767.42087     -25.154453      742.26642    
   3013000   309.57389      0.013605706    9.4741944      768.06135     -26.591983      741.46937    
   3014000   311.16788      0.013605706    6.6540519      772.01609     -25.827501      746.18858    
   3015000   294.01188      0.013605706    7.5555949      729.45159     -26.398556      703.05303    
   3016000   278.53113      0.013605706    9.3337997      691.04342     -27.869208      663.17421    
   3017000   303.90671      0.013605706    8.0628462      754.00092     -24.502043      729.49887    
   3018000   306.50844      0.013605706    7.1083343      760.45589     -24.892658      735.56323    
   3019000   305.43845      0.013605706    7.201301       757.80122     -23.864891      733.93633    
   3020000   297.35213      0.013605706    5.9642593      737.73883     -25.237881      712.50095    
   3021000   293.80919      0.013605706    5.3882551      728.94871     -22.352431      706.59628    
   3022000   297.51706      0.013605706    7.5351761      738.14804     -25.723758      712.42428    
   3023000   306.00636      0.013605706    10.84477       759.21021     -22.25689       736.95332    
   3024000   300.25242      0.013605706    6.3542594      744.93454     -25.942824      718.99172    
   3025000   281.19638      0.013605706    6.1713296      697.65597     -24.721942      672.93402    
   3026000   302.67137      0.013605706    13.802967      750.93602     -23.91317       727.02285    
   3027000   310.87136      0.013605706    9.6983932      771.28042     -25.26479       746.01563    
   3028000   308.34252      0.013605706    1.842305       765.0063      -27.424802      737.5815     
   3029000   284.51813      0.013605706    7.8381736      705.89732     -29.534199      676.36312    
   3030000   291.48235      0.013605706    12.205345      723.17575     -30.498189      692.67757    
   3031000   306.2564       0.013605706    13.561213      759.83058     -29.0727        730.75788    
   3032000   303.6398       0.013605706    6.3807672      753.3387      -29.369302      723.9694     
   3033000   301.64496      0.013605706    8.0736737      748.38945     -27.796028      720.59343    
   3034000   291.12026      0.013605706    6.5992996      722.27739     -28.29938       693.97801    
   3035000   289.25145      0.013605706    6.7911228      717.64081     -26.286121      691.35469    
   3036000   304.10113      0.013605706    8.2906051      754.48329     -28.911217      725.57208    
   3037000   304.187        0.013605706    9.5810201      754.69634     -24.979006      729.71734    
   3038000   304.58089      0.013605706    10.719775      755.67358     -28.118797      727.55479    
   3039000   305.69961      0.013605706   -7.1205266      758.44916     -28.132143      730.31702    
   3040000   292.15768      0.013605706    2.0860072      724.85125     -24.530414      700.32084    
   3041000   300.15356      0.013605706    18.993585      744.68926     -21.141484      723.54777    
   3042000   300.3242       0.013605706    11.005615      745.11261     -23.041253      722.07136    
   3043000   303.69254      0.013605706   -8.2230074      753.46956     -21.470944      731.99861    
   3044000   303.36939      0.013605706    9.9762512      752.66782     -21.583461      731.08436    
   3045000   312.07212      0.013605706    9.589192       774.25953     -24.507465      749.75206    
   3046000   307.45794      0.013605706    6.0962658      762.81162     -21.513884      741.29774    
   3047000   304.58643      0.013605706    6.4117733      755.68734     -25.186087      730.50125    
   3048000   293.37896      0.013605706    8.1338604      727.8813      -25.187809      702.69349    
   3049000   304.04279      0.013605706    19.181605      754.33854     -21.543059      732.79548    
   3050000   319.03648      0.013605706    11.048165      791.53831     -23.888556      767.64975    
   3051000   299.4914       0.013605706    3.2913906      743.04641     -22.771233      720.27517    
   3052000   280.06672      0.013605706    4.1626075      694.85325     -24.899308      669.95395    
   3053000   303.0995       0.013605706    13.721158      751.99822     -21.768122      730.2301     
   3054000   316.64897      0.013605706    5.1025595      785.61483     -26.291881      759.32295    
   3055000   303.2701       0.013605706    6.8550176      752.42149     -20.284525      732.13696    
   3056000   309.01461      0.013605706    21.264987      766.67376     -20.435007      746.23876    
   3057000   310.30585      0.013605706    2.4523941      769.87738     -17.416982      752.4604     
   3058000   299.9794       0.013605706   -0.067082544    744.25715     -18.943995      725.31316    
   3059000   293.04178      0.013605706    12.023433      727.04474     -17.915505      709.12924    
   3060000   306.36954      0.013605706    7.7288463      760.11128     -19.109671      741.00161    
   3061000   304.9491       0.013605706    6.5141826      756.58712     -16.988476      739.59864    
   3062000   300.50724      0.013605706    5.6359439      745.56676     -17.90492       727.66184    
   3063000   296.46779      0.013605706    7.4985573      735.54475     -18.384354      717.1604     
   3064000   296.70947      0.013605706    8.4925231      736.14437     -20.654034      715.49034    
   3065000   303.56273      0.013605706    8.3635732      753.14751     -19.323086      733.82442    
   3066000   305.1049       0.013605706    4.1763856      756.97366     -18.726505      738.24716    
   3067000   289.78412      0.013605706    5.6848084      718.96239     -21.315251      697.64714    
   3068000   292.0265       0.013605706    8.6912674      724.52581     -19.794808      704.731      
   3069000   295.63034      0.013605706    8.889725       733.46702     -18.833813      714.6332     
   3070000   305.45173      0.013605706    7.0537393      757.83415     -22.06942       735.76473    
   3071000   302.27931      0.013605706    6.9285224      749.96331     -20.295102      729.66821    
   3072000   296.33903      0.013605706    6.6200869      735.2253      -24.833173      710.39213    
   3073000   313.29591      0.013605706    7.820901       777.2958      -27.071602      750.22419    
   3074000   307.97123      0.013605706    9.5040308      764.0851      -24.854592      739.23051    
   3075000   289.95796      0.013605706    4.9862575      719.39369     -24.452335      694.94135    
   3076000   283.2961       0.013605706    11.36005       702.86544     -25.402614      677.46282    
   3077000   312.37755      0.013605706    8.2598781      775.01732     -25.510804      749.50651    
   3078000   302.24347      0.013605706    6.5780528      749.87438     -23.19276       726.68162    
   3079000   291.75042      0.013605706    6.7812076      723.84082     -23.48876       700.35206    
   3080000   307.29817      0.013605706    7.9063684      762.41522     -21.756069      740.65915    
   3081000   319.95543      0.013605706    4.6855087      793.81824     -18.180835      775.63741    
   3082000   305.9428       0.013605706    6.4980623      759.05253     -20.554174      738.49835    
   3083000   290.12528      0.013605706    6.4517316      719.8088      -25.920093      693.88871    
   3084000   293.76067      0.013605706    7.1424496      728.82833     -24.756748      704.07158    
   3085000   317.44678      0.013605706    7.8190409      787.5942      -28.211293      759.38291    
   3086000   308.07131      0.013605706    7.4950206      764.33341     -28.126193      736.20722    
   3087000   304.26048      0.013605706    4.9788752      754.87863     -26.39992       728.47871    
   3088000   302.05183      0.013605706    6.763066       749.39892     -25.557031      723.84189    
   3089000   307.28632      0.013605706    7.8571453      762.38582     -24.94176       737.44406    
   3090000   299.60012      0.013605706    7.7860469      743.31616     -20.265186      723.05097    
   3091000   294.76408      0.013605706    7.7556098      731.3178      -22.486915      708.83088    
   3092000   311.84045      0.013605706    7.6212772      773.68476     -21.624391      752.06037    
   3093000   303.79591      0.013605706    7.8701675      753.72603     -18.203621      735.52241    
   3094000   296.12238      0.013605706    1.9291972      734.68778     -21.175629      713.51215    
   3095000   286.50095      0.013605706    5.2985567      710.81676     -21.621417      689.19534    
   3096000   281.52376      0.013605706    8.3284718      698.46822     -19.20154       679.26668    
   3097000   306.62605      0.013605706    8.0121401      760.74769     -25.184065      735.56362    
   3098000   299.80138      0.013605706    6.5867217      743.81548     -28.314386      715.50109    
   3099000   293.18868      0.013605706    6.7362125      727.4092      -30.50086       696.90834    
   3100000   291.75552      0.013605706    5.3978644      723.85349     -30.580792      693.27269    
   3101000   302.4669       0.013605706    8.9799514      750.42872     -28.442711      721.98601    
   3102000   298.30117      0.013605706    7.5139728      740.09341     -28.265437      711.82798    
   3103000   299.66669      0.013605706    6.059478       743.48131     -25.928171      717.55314    
   3104000   293.02683      0.013605706    9.0241206      727.00765     -26.291023      700.71662    
   3105000   309.357        0.013605706    9.4297474      767.52324     -27.411555      740.11168    
   3106000   302.84177      0.013605706    7.5577934      751.35877     -26.973891      724.38488    
   3107000   291.02068      0.013605706    7.3169581      722.03033     -23.465903      698.56442    
   3108000   311.73994      0.013605706    7.7645751      773.43538     -27.564188      745.87119    
   3109000   308.86638      0.013605706    6.7577389      766.30601     -28.466135      737.83987    
   3110000   299.67798      0.013605706    8.7976369      743.50934     -27.468416      716.04092    
   3111000   305.01073      0.013605706    7.2033178      756.74002     -25.844138      730.89589    
   3112000   309.41119      0.013605706    7.226531       767.6577      -30.14926       737.50844    
   3113000   292.13184      0.013605706    6.8197489      724.78715     -32.714832      692.07232    
   3114000   303.38984      0.013605706    7.1482258      752.71855     -28.566833      724.15172    
   3115000   313.60948      0.013605706    8.5264004      778.07377     -24.631424      753.44234    
   3116000   297.75228      0.013605706    5.9320698      738.73161     -25.08212       713.64949    
   3117000   287.19734      0.013605706    7.7060705      712.54453     -25.309524      687.23501    
   3118000   306.63953      0.013605706    8.1994454      760.78113     -23.942028      736.8391     
   3119000   318.44617      0.013605706    10.136507      790.07372     -25.734302      764.33942    
   3120000   296.02834      0.013605706    6.0043224      734.45446     -27.499086      706.95538    
   3121000   291.04507      0.013605706    7.3382959      722.09083     -31.540786      690.55005    
   3122000   290.08073      0.013605706    6.6652804      719.69829     -30.650639      689.04765    
   3123000   297.71672      0.013605706    6.9841201      738.64339     -23.802719      714.84067    
   3124000   308.47291      0.013605706    5.1865696      765.32979     -23.516646      741.81314    
   3125000   306.66512      0.013605706    7.1824448      760.84461     -25.176935      735.66767    
   3126000   295.31374      0.013605706    6.9831808      732.68154     -23.184943      709.49659    
   3127000   311.33841      0.013605706    7.0299447      772.43918     -21.633357      750.80582    
   3128000   294.8146       0.013605706    8.3615792      731.44316     -21.044679      710.39848    
   3129000   311.93029      0.013605706    7.6074698      773.90765     -23.204386      750.70327    
   3130000   297.67574      0.013605706    4.9910713      738.54172     -21.193824      717.3479     
   3131000   297.95723      0.013605706    8.8781556      739.24009     -20.717497      718.5226     
   3132000   301.39473      0.013605706    7.8127525      747.76863     -19.138888      728.62974    
   3133000   294.41933      0.013605706    5.5255462      730.46247     -21.553704      708.90877    
   3134000   298.17863      0.013605706    11.217156      739.78939     -17.533355      722.25604    
   3135000   296.57553      0.013605706    10.302969      735.81206     -15.846765      719.96529    
   3136000   300.09626      0.013605706    7.1518111      744.5471      -17.796088      726.75101    
   3137000   301.46467      0.013605706    7.0265234      747.94216     -19.665676      728.27648    
   3138000   307.56606      0.013605706    7.4792497      763.07988     -20.613627      742.46625    
   3139000   288.80072      0.013605706    9.0645797      716.52255     -19.710123      696.81243    
   3140000   292.27836      0.013605706    6.5405161      725.15067     -23.578528      701.57215    
   3141000   307.37864      0.013605706    7.4608527      762.61488     -24.030291      738.58459    
   3142000   297.02547      0.013605706    7.8689897      736.92838     -27.339341      709.58903    
   3143000   289.39449      0.013605706    6.7341136      717.99571     -25.739071      692.25664    
   3144000   316.72675      0.013605706    7.2948581      785.80779     -23.392061      762.41573    
   3145000   315.4122       0.013605706    6.708616       782.54635     -26.725365      755.82099    
   3146000   302.12886      0.013605706    8.1343061      749.59004     -25.14549       724.44455    
   3147000   286.77993      0.013605706    7.1412896      711.50892     -21.844091      689.66483    
   3148000   293.92712      0.013605706    7.1613126      729.2413      -22.256432      706.98486    
   3149000   312.28273      0.013605706    6.5048741      774.78205     -22.216411      752.56564    
   3150000   321.50747      0.013605706    7.042864       797.66891     -20.818823      776.85008    
   3151000   293.42668      0.013605706    6.631445       727.99968     -20.417865      707.58182    
   3152000   294.6248       0.013605706    7.7737053      730.97226     -22.254846      708.71742    
   3153000   311.80033      0.013605706    8.2062608      773.5852      -22.632944      750.95226    
   3154000   303.60094      0.013605706    6.9131884      753.24231     -24.623076      728.61924    
   3155000   285.31401      0.013605706    7.1339516      707.87193     -21.759236      686.11269    
   3156000   293.82062      0.013605706    7.6095221      728.97707     -20.561149      708.41592    
   3157000   304.47214      0.013605706    8.1650146      755.40377     -15.911396      739.49237    
   3158000   302.02384      0.013605706    7.3607204      749.32947     -20.848977      728.4805     
   3159000   295.48645      0.013605706    7.0800776      733.11002     -21.994608      711.11541    
   3160000   299.06107      0.013605706    4.9664814      741.97876     -23.2037        718.77506    
   3161000   287.79363      0.013605706    4.7688233      714.02393     -23.699505      690.32443    
   3162000   303.78037      0.013605706    7.0491105      753.68746     -24.48303       729.20443    
   3163000   310.7788       0.013605706    8.9163217      771.05078     -26.899763      744.15102    
   3164000   300.75737      0.013605706    7.8001008      746.18732     -21.518597      724.66873    
   3165000   297.43545      0.013605706    6.8493327      737.94555     -20.156917      717.78864    
   3166000   296.44824      0.013605706    7.2272799      735.49626     -20.308365      715.18789    
   3167000   298.45403      0.013605706    8.1071951      740.47267     -20.567142      719.90553    
   3168000   298.58231      0.013605706    7.5504868      740.79095     -23.303958      717.48699    
   3169000   302.31201      0.013605706    7.1610492      750.04443     -23.036453      727.00798    
   3170000   294.93765      0.013605706    8.3109826      731.74845     -23.426419      708.32203    
   3171000   301.8223       0.013605706    8.0921597      748.82944     -23.88493       724.94451    
   3172000   288.75116      0.013605706    7.8094415      716.3996      -25.747859      690.65174    
   3173000   294.06507      0.013605706    5.6366214      729.58353     -23.307214      706.27632    
   3174000   314.35956      0.013605706    3.1899483      779.93472     -25.980931      753.95379    
   3175000   301.28157      0.013605706    8.8790739      747.48789     -20.699938      726.78795    
   3176000   291.635        0.013605706    9.6475872      723.55447     -26.289887      697.26458    
   3177000   293.86003      0.013605706    5.2568371      729.07484     -24.940487      704.13435    
   3178000   303.50908      0.013605706    6.6744609      753.01439     -29.228747      723.78564    
   3179000   296.20643      0.013605706    6.0506074      734.89631     -30.547651      704.34866    
   3180000   309.73484      0.013605706    8.2150946      768.46067     -26.925935      741.53473    
   3181000   284.0932       0.013605706    7.3393209      704.84305     -28.15937       676.68368    
   3182000   287.29997      0.013605706    6.064931       712.79913     -23.268312      689.53082    
   3183000   301.609        0.013605706    6.6585584      748.30024     -25.67505       722.62519    
   3184000   317.69473      0.013605706    7.791082       788.20939     -25.311299      762.89809    
   3185000   297.61592      0.013605706    7.1975094      738.39329     -23.764755      714.62854    
   3186000   309.16439      0.013605706    8.4505079      767.04538     -24.484367      742.56101    
   3187000   291.755        0.013605706    7.0011865      723.85221     -21.603156      702.24905    
   3188000   294.06955      0.013605706    8.0425363      729.59465     -20.385616      709.20903    
   3189000   298.8887       0.013605706    7.9017285      741.55111     -21.412771      720.13834    
   3190000   306.14592      0.013605706    6.1703803      759.55647     -21.516771      738.0397     
   3191000   300.16147      0.013605706    6.8936765      744.70887     -23.332508      721.37637    
   3192000   306.09153      0.013605706    9.5351313      759.42152     -22.03359       737.38793    
   3193000   300.37937      0.013605706    7.6080083      745.24949     -22.798986      722.45051    
   3194000   305.29758      0.013605706    7.2809488      757.45171     -24.866064      732.58565    
   3195000   302.19502      0.013605706    5.4367537      749.75418     -22.630521      727.12366    
   3196000   298.98912      0.013605706    6.9146808      741.80026     -23.675637      718.12462    
   3197000   295.64181      0.013605706    14.604735      733.49548     -22.57138       710.9241     
   3198000   315.40875      0.013605706    9.0766818      782.53781     -19.539699      762.99812    
   3199000   309.25744      0.013605706    7.3420902      767.27625     -20.718729      746.55752    
   3200000   296.47735      0.013605706    7.0398585      735.56847     -21.996048      713.57242    
   3201000   296.79819      0.013605706    6.6513603      736.3645      -20.255991      716.10851    
   3202000   303.7209       0.013605706    6.9963476      753.53993     -22.14598       731.39395    
   3203000   306.61926      0.013605706    7.2882168      760.73083     -19.236875      741.49396    
   3204000   298.99791      0.013605706    7.854834       741.82206     -21.834138      719.98792    
   3205000   299.1779       0.013605706    7.8177015      742.26862     -19.887989      722.38063    
   3206000   293.73993      0.013605706    9.1241325      728.77686     -21.61444       707.16242    
   3207000   298.29958      0.013605706    5.4821626      740.08948     -21.509743      718.57974    
   3208000   311.73449      0.013605706    8.6287127      773.42187     -20.386836      753.03504    
   3209000   316.1992       0.013605706    8.0760546      784.49892     -19.276065      765.22286    
   3210000   299.14498      0.013605706    6.4388384      742.18694     -20.251114      721.93582    
   3211000   302.09162      0.013605706    7.3098292      749.49762     -22.331372      727.16625    
   3212000   303.07661      0.013605706    7.8698838      751.94142     -21.212997      730.72843    
   3213000   293.34455      0.013605706    8.4997343      727.79591     -19.150912      708.645      
   3214000   295.30715      0.013605706    7.4320071      732.66518     -21.181791      711.48338    
   3215000   301.32158      0.013605706    7.841047       747.58715     -22.442462      725.14469    
   3216000   297.10763      0.013605706    9.5600618      737.13223     -21.030749      716.10148    
   3217000   287.58461      0.013605706    6.9724691      713.50534     -21.352903      692.15244    
   3218000   299.15583      0.013605706    6.9149854      742.21386     -20.499479      721.71438    
   3219000   311.88224      0.013605706    7.1951415      773.78842     -23.025559      750.76287    
   3220000   289.29577      0.013605706    6.5095358      717.75078     -28.395937      689.35484    
   3221000   298.38313      0.013605706    8.344372       740.29676     -26.622277      713.67448    
   3222000   322.68088      0.013605706    7.0844034      800.58016     -26.423467      774.15669    
   3223000   310.66562      0.013605706    8.1963721      770.76998     -19.427061      751.34291    
   3224000   290.46025      0.013605706    6.5236372      720.63988     -22.516698      698.12318    
   3225000   298.96782      0.013605706    7.1435865      741.7474      -25.659476      716.08792    
   3226000   303.08056      0.013605706    6.9617251      751.95123     -20.61399       731.33724    
   3227000   298.25993      0.013605706    7.4126807      739.99111     -23.557611      716.4335     
   3228000   291.37191      0.013605706    9.4723337      722.90173     -20.727271      702.17446    
   3229000   297.67626      0.013605706    6.819633       738.54302     -22.941852      715.60116    
   3230000   310.09808      0.013605706    0.83883999     769.36188     -23.430609      745.93127    
   3231000   297.91831      0.013605706    8.7722271      739.14354     -18.948715      720.19483    
   3232000   303.58822      0.013605706    8.3352088      753.21074     -20.834104      732.37664    
   3233000   293.84577      0.013605706    7.3148312      729.03946     -21.082636      707.95683    
   3234000   299.08099      0.013605706    6.6469019      742.02819     -19.349551      722.67864    
   3235000   300.48781      0.013605706    7.5614055      745.51854     -18.967177      726.55136    
   3236000   280.68927      0.013605706    6.6811626      696.39783     -21.47516       674.92267    
   3237000   295.73722      0.013605706    7.0473936      733.73218     -18.740969      714.99121    
   3238000   306.16602      0.013605706    6.737116       759.60635     -21.258006      738.34834    
   3239000   311.66475      0.013605706    7.7486544      773.24884     -21.241134      752.00771    
   3240000   291.93891      0.013605706    6.7782364      724.30848     -20.479481      703.829      
   3241000   297.29815      0.013605706    8.2232711      737.60492     -24.273973      713.33094    
   3242000   303.94097      0.013605706    7.2296076      754.08593     -27.801115      726.28482    
   3243000   291.16426      0.013605706    5.09328        722.38655     -23.593306      698.79324    
   3244000   303.26319      0.013605706    8.3786077      752.40434     -25.149189      727.25515    
   3245000   317.15717      0.013605706    9.2005946      786.87568     -33.198855      753.67682    
   3246000   299.19896      0.013605706    7.4136653      742.32086     -30.956691      711.36417    
   3247000   283.56878      0.013605706    6.0322524      703.54197     -29.027495      674.51447    
   3248000   307.20947      0.013605706    7.4011546      762.19517     -24.671567      737.52361    
   3249000   314.8571       0.013605706    8.5898044      781.16916     -25.983388      755.18577    
   3250000   294.62625      0.013605706    11.186724      730.97584     -27.397181      703.57866    
   3251000   293.71023      0.013605706    6.1973888      728.70319     -24.092411      704.61077    
   3252000   311.72793      0.013605706    2.7533384      773.40558     -23.817619      749.58796    
   3253000   307.97183      0.013605706    11.117464      764.0866      -26.208457      737.87814    
   3254000   280.97416      0.013605706    8.1040158      697.10464     -22.87492       674.22972    
   3255000   296.90171      0.013605706    4.9337437      736.62133     -21.837602      714.78372    
   3256000   315.13991      0.013605706   -1.2988703      781.87081     -25.567189      756.30362    
   3257000   301.79696      0.013605706    5.1998659      748.76658     -26.332979      722.4336     
   3258000   293.45054      0.013605706    7.3122612      728.05888     -25.547222      702.51166    
   3259000   296.21183      0.013605706    9.315979       734.90972     -26.843994      708.06572    
   3260000   307.49265      0.013605706    6.9424766      762.89774     -29.577692      733.32005    
   3261000   301.59583      0.013605706    3.7245883      748.26757     -27.623946      720.64363    
   3262000   303.7941       0.013605706    7.4981619      753.72154     -24.891692      728.82985    
   3263000   285.66034      0.013605706    7.9356796      708.73117     -22.142086      686.58908    
   3264000   308.51444      0.013605706    6.4227455      765.43283     -25.387007      740.04582    
   3265000   300.33675      0.013605706    7.3606757      745.14376     -20.474663      724.66909    
   3266000   297.42102      0.013605706    5.9481644      737.90976     -21.328856      716.58091    
   3267000   301.17449      0.013605706    8.2469356      747.22221     -22.367253      724.85496    
   3268000   301.4648       0.013605706    7.8819969      747.94249     -23.308602      724.63389    
   3269000   289.65244      0.013605706    5.9295552      718.6357      -23.204912      695.43078    
   3270000   298.82694      0.013605706    7.3227011      741.39788     -23.86616       717.53172    
   3271000   312.04045      0.013605706    5.2957783      774.18096     -25.553351      748.62761    
   3272000   297.30669      0.013605706    6.8037997      737.62608     -26.890752      710.73533    
   3273000   294.53729      0.013605706    7.9186478      730.75514     -27.885239      702.8699     
   3274000   300.07155      0.013605706    7.8678954      744.4858      -28.785447      715.70035    
   3275000   320.68887      0.013605706    5.8826903      795.63793     -27.856447      767.78148    
   3276000   298.16635      0.013605706    3.6959623      739.75893     -25.844796      713.91413    
   3277000   285.83086      0.013605706    10.711001      709.15424     -21.016758      688.13749    
   3278000   324.073        0.013605706    15.344784      804.03405     -25.492208      778.54184    
   3279000   310.26888      0.013605706    6.8287917      769.78564     -26.894379      742.89126    
   3280000   284.62427      0.013605706    5.0011345      706.16066     -27.275506      678.88515    
   3281000   297.84134      0.013605706    8.5598798      738.95258     -24.322303      714.63028    
   3282000   301.00533      0.013605706    11.172128      746.80251     -25.879087      720.92343    
   3283000   311.23417      0.013605706    13.56621       772.18056     -25.398013      746.78255    
   3284000   310.72675      0.013605706    7.4038288      770.92163     -23.967833      746.9538     
   3285000   294.99915      0.013605706    2.0805751      731.90102     -21.493879      710.40714    
   3286000   283.6456       0.013605706    7.3962396      703.73255     -23.836453      679.8961     
   3287000   304.26601      0.013605706    9.0772299      754.89237     -28.839047      726.05332    
   3288000   309.61535      0.013605706    6.0336661      768.16422     -24.276693      743.88753    
   3289000   290.45769      0.013605706    7.4637786      720.63353     -23.055732      697.5778     
   3290000   293.72149      0.013605706    7.342251       728.73111     -21.450942      707.28017    
   3291000   304.23519      0.013605706    7.50097        754.81589     -20.650903      734.16498    
   3292000   301.18859      0.013605706    11.212479      747.25719     -25.294113      721.96308    
   3293000   303.30421      0.013605706    7.8536837      752.5061      -23.384415      729.12169    
   3294000   295.41185      0.013605706    7.3872223      732.92495     -22.46171       710.46325    
   3295000   298.84298      0.013605706    5.1868925      741.43766     -20.773155      720.66451    
   3296000   301.75434      0.013605706    8.4536471      748.66084     -22.398331      726.26251    
   3297000   304.53642      0.013605706    13.054805      755.56324     -24.034782      731.52846    
   3298000   305.15198      0.013605706    4.1620897      757.09048     -21.874402      735.21608    
   3299000   300.1267       0.013605706    2.1588563      744.62261     -22.796262      721.82635    
   3300000   299.91847      0.013605706    6.9408558      744.106       -23.273468      720.83253    
   3301000   291.73266      0.013605706    10.478558      723.79678     -25.259944      698.53683    
   3302000   306.81328      0.013605706    9.2572073      761.2122      -28.312723      732.89948    
   3303000   292.30648      0.013605706   -0.014222705    725.22043     -26.242794      698.97764    
   3304000   302.87596      0.013605706    7.6133178      751.44362     -31.613822      719.82979    
   3305000   295.29665      0.013605706    9.1943247      732.63913     -26.107627      706.5315     
   3306000   305.70664      0.013605706    7.8315326      758.46659     -23.016136      735.45045    
   3307000   311.26386      0.013605706    7.3946489      772.25421     -25.016541      747.23767    
   3308000   304.40042      0.013605706    7.5164411      755.22583     -25.847138      729.37869    
   3309000   307.92081      0.013605706   -1.0321506      763.96002     -23.451451      740.50857    
   3310000   300.82076      0.013605706    8.2898249      746.34459     -22.966942      723.37765    
   3311000   290.39006      0.013605706    10.472406      720.46574     -24.843927      695.62182    
   3312000   294.00289      0.013605706    4.7473479      729.42927     -27.35792       702.07135    
   3313000   301.37445      0.013605706    3.6446279      747.71831     -24.16752       723.55079    
   3314000   310.16346      0.013605706    8.6691302      769.52409     -24.033635      745.49045    
   3315000   295.72439      0.013605706    10.861743      733.70036     -23.035637      710.66472    
   3316000   281.4146       0.013605706    7.1919379      698.19738     -24.516226      673.68116    
   3317000   307.92737      0.013605706    3.7815024      763.9763      -22.226562      741.74974    
   3318000   309.84217      0.013605706    7.4792572      768.72697     -23.713174      745.01379    
   3319000   301.28476      0.013605706    12.874522      747.4958      -27.335807      720.15999    
   3320000   287.00668      0.013605706    6.3333636      712.07149     -23.999765      688.07173    
   3321000   296.07882      0.013605706    7.1609265      734.57972     -25.800821      708.7789     
   3322000   297.61343      0.013605706    7.9693002      738.38711     -25.699168      712.68795    
   3323000   319.02242      0.013605706    8.618836       791.50341     -24.43384       767.06957    
   3324000   305.73559      0.013605706    7.4220879      758.53843     -26.72221       731.81622    
   3325000   296.42573      0.013605706    7.0602331      735.4404      -24.638996      710.80141    
   3326000   297.97411      0.013605706    11.374805      739.28198     -23.601387      715.68059    
   3327000   314.77637      0.013605706    3.3963067      780.96886     -20.229896      760.73897    
   3328000   306.36201      0.013605706    6.6527111      760.09258     -16.297145      743.79544    
   3329000   292.89987      0.013605706    10.793748      726.69266     -20.195741      706.49691    
   3330000   297.63048      0.013605706    11.061562      738.42944     -24.262079      714.16736    
   3331000   303.78784      0.013605706    9.5402659      753.70599     -19.711825      733.99417    
   3332000   310.03467      0.013605706    3.4449109      769.20455     -23.879098      745.32545    
   3333000   302.73579      0.013605706    6.4999405      751.09584     -25.218909      725.87693    
   3334000   306.53253      0.013605706    14.985654      760.51566     -22.64007       737.87559    
   3335000   312.99462      0.013605706    8.7362909      776.54829     -24.845023      751.70327    
   3336000   307.35971      0.013605706    4.1077781      762.5679      -23.921952      738.64595    
   3337000   278.78193      0.013605706    9.3310384      691.66564     -22.721255      668.94439    
   3338000   296.11826      0.013605706    13.43977       734.67756     -27.324612      707.35295    
   3339000   305.17738      0.013605706    5.1672633      757.1535      -25.968884      731.18461    
   3340000   290.05332      0.013605706    6.1931412      719.63028     -26.520021      693.11025    
   3341000   294.5707       0.013605706    9.6547565      730.83802     -29.940359      700.89766    
   3342000   304.19045      0.013605706    1.7519005      754.70488     -26.423448      728.28143    
   3343000   306.53297      0.013605706    5.9093175      760.51674     -26.802822      733.71392    
   3344000   292.60253      0.013605706    6.5920697      725.95493     -27.647935      698.307      
   3345000   306.56109      0.013605706    9.3954751      760.58651     -25.824319      734.76219    
   3346000   307.78062      0.013605706    5.7849763      763.61219     -20.965738      742.64645    
   3347000   300.09228      0.013605706    7.2791789      744.53721     -21.970488      722.56672    
   3348000   311.34251      0.013605706    10.608659      772.44935     -22.702072      749.74728    
   3349000   299.84733      0.013605706    7.9611972      743.92948     -23.142296      720.78718    
   3350000   300.96973      0.013605706    7.7962926      746.71421     -23.343586      723.37062    
   3351000   299.84854      0.013605706    7.79359        743.93249     -24.803634      719.12886    
   3352000   301.52388      0.013605706    4.9476474      748.08906     -25.90886       722.1802     
   3353000   292.65001      0.013605706    12.058936      726.07274     -29.087163      696.98558    
   3354000   298.64411      0.013605706    7.554856       740.94427     -29.755177      711.18909    
   3355000   299.59083      0.013605706    6.9634435      743.29311     -29.444769      713.84834    
   3356000   300.04061      0.013605706    6.3703079      744.40903     -28.629395      715.77963    
   3357000   297.38384      0.013605706    7.7821246      737.81751     -27.105281      710.71223    
   3358000   296.42002      0.013605706    14.098031      735.42624     -27.957589      707.46865    
   3359000   306.51814      0.013605706    6.9582956      760.47995     -24.35163       736.12832    
   3360000   304.1698       0.013605706    1.9990751      754.65366     -22.409183      732.24448    
   3361000   298.84632      0.013605706    3.7608031      741.44595     -24.893526      716.55242    
   3362000   297.57154      0.013605706    12.267546      738.28318     -24.943696      713.33949    
   3363000   301.43813      0.013605706    8.0143455      747.87631     -20.982832      726.89348    
   3364000   299.20971      0.013605706    4.2215019      742.34753     -23.765765      718.58177    
   3365000   301.1572       0.013605706    1.0814768      747.17932     -22.925691      724.25363    
   3366000   308.49875      0.013605706    5.983177       765.3939      -23.231846      742.16205    
   3367000   318.89747      0.013605706    18.168993      791.19341     -26.248332      764.94508    
   3368000   297.96561      0.013605706    6.6692592      739.26089     -27.019718      712.24117    
   3369000   289.24245      0.013605706    5.4327661      717.6185      -22.575348      695.04315    
   3370000   308.9228       0.013605706    6.4068527      766.44597     -23.16977       743.27621    
   3371000   301.22641      0.013605706    14.65545       747.35103     -22.15985       725.19118    
   3372000   282.34336      0.013605706    5.1365322      700.50165     -23.9329        676.56875    
   3373000   310.36758      0.013605706   -1.3448542      770.03053     -24.827707      745.20282    
   3374000   316.407        0.013605706    11.497291      785.01448     -24.146963      760.86751    
   3375000   286.68795      0.013605706    11.99502       711.2807      -24.357352      686.92335    
   3376000   278.49343      0.013605706    6.0186693      690.94988     -25.405344      665.54454    
   3377000   295.41445      0.013605706    2.733488       732.9314      -27.810757      705.12065    
   3378000   303.36965      0.013605706    6.3134208      752.66847     -25.581059      727.08741    
   3379000   307.85229      0.013605706    12.799286      763.79001     -26.309092      737.48092    
   3380000   292.80451      0.013605706    6.7766949      726.45606     -28.659086      697.79698    
   3381000   292.0213       0.013605706    4.542202       724.51291     -29.266143      695.24676    
   3382000   301.24532      0.013605706    7.7749088      747.39795     -26.438784      720.95917    
   3383000   306.99291      0.013605706    7.2654929      761.65788     -23.768606      737.88928    
   3384000   296.25089      0.013605706    6.772783       735.00662     -28.152465      706.85415    
   3385000   296.07757      0.013605706    5.6150549      734.57661     -33.704418      700.87219    
   3386000   306.36967      0.013605706    7.0943758      760.1116      -29.656393      730.45521    
   3387000   306.31615      0.013605706    8.0707028      759.97881     -29.622635      730.35617    
   3388000   290.71031      0.013605706    5.2953369      721.2603      -35.427456      685.83285    
   3389000   305.05068      0.013605706    6.3258786      756.83914     -32.328852      724.51029    
   3390000   299.1048       0.013605706    7.8189216      742.08725     -32.906238      709.18101    
   3391000   296.68065      0.013605706    9.9173121      736.07287     -34.786027      701.28685    
   3392000   300.37557      0.013605706    7.4918382      745.24007     -30.038626      715.20144    
   3393000   298.55716      0.013605706    7.4276854      740.72855     -32.882205      707.84635    
   3394000   290.50949      0.013605706    7.8184017      720.76206     -28.940076      691.82198    
   3395000   290.13444      0.013605706    6.8657667      719.83153     -28.739447      691.09209    
   3396000   304.94379      0.013605706    8.4247202      756.57394     -29.301441      727.2725     
   3397000   315.28677      0.013605706    7.5141487      782.23516     -28.698919      753.53624    
   3398000   286.81107      0.013605706    6.4763757      711.58617     -28.873406      682.71276    
   3399000   291.20696      0.013605706    7.7298226      722.4925      -26.962596      695.52991    
   3400000   314.01489      0.013605706    7.579797       779.07961     -28.451722      750.62789    
   3401000   297.51012      0.013605706    3.9301215      738.13082     -23.922258      714.20856    
   3402000   293.43233      0.013605706    8.0684395      728.01371     -29.75067       698.26304    
   3403000   308.74589      0.013605706    7.6380821      766.00706     -30.656078      735.35098    
   3404000   312.75286      0.013605706    6.7761511      775.94848     -27.724949      748.22353    
   3405000   299.68693      0.013605706    6.0606858      743.53152     -31.267514      712.26401    
   3406000   288.32727      0.013605706    7.6522067      715.3479      -29.877557      685.47035    
   3407000   291.76268      0.013605706    9.1922291      723.87126     -25.256147      698.61511    
   3408000   307.79814      0.013605706    13.807238      763.65568     -28.540594      735.11508    
   3409000   305.75831      0.013605706    7.1642764      758.59479     -30.588578      728.00621    
   3410000   302.48186      0.013605706    3.6552785      750.46584     -32.473055      717.99278    
   3411000   302.58733      0.013605706    6.3653386      750.72751     -28.353988      722.37352    
   3412000   301.54872      0.013605706    6.612136       748.15069     -25.202951      722.94774    
   3413000   305.45476      0.013605706    8.3622726      757.84169     -24.944719      732.89697    
   3414000   318.92346      0.013605706    6.7841528      791.25789     -25.477784      765.7801     
   3415000   303.43054      0.013605706    4.8340701      752.81953     -22.822013      729.99752    
   3416000   303.65054      0.013605706    5.6631489      753.36536     -21.651796      731.71357    
   3417000   312.4837       0.013605706    15.610541      775.28066     -23.110502      752.17016    
   3418000   298.95128      0.013605706    4.7179521      741.70637     -23.112594      718.59378    
   3419000   298.82192      0.013605706    1.8303669      741.38542     -24.668724      716.7167     
   3420000   298.67001      0.013605706    11.446791      741.00853     -25.866994      715.14154    
   3421000   302.51091      0.013605706    9.9085628      750.53792     -23.353287      727.18463    
   3422000   298.75881      0.013605706    6.4626462      741.22885     -26.307155      714.92169    
   3423000   295.93598      0.013605706   -3.4396334      734.22533     -27.772242      706.45309    
   3424000   289.56228      0.013605706    11.750769      718.412       -25.24105       693.17095    
   3425000   307.36166      0.013605706    19.485425      762.57275     -27.927718      734.64504    
   3426000   303.73826      0.013605706    2.8859349      753.58299     -30.27602       723.30697    
   3427000   294.86798      0.013605706    18.495338      731.57559     -33.447449      698.12814    
   3428000   299.42335      0.013605706    10.737368      742.87759     -32.910519      709.96707    
   3429000   299.53403      0.013605706    3.3385959      743.15218     -26.627932      716.52424    
   3430000   287.68529      0.013605706    7.9017784      713.75512     -25.589363      688.16576    
   3431000   311.13312      0.013605706    13.795884      771.92984     -26.101239      745.8286     
   3432000   295.58984      0.013605706    3.6641007      733.36654     -27.134458      706.23208    
   3433000   286.3763       0.013605706   -2.8314201      710.50749     -24.947467      685.56002    
   3434000   323.30847      0.013605706    12.177412      802.13723     -29.254088      772.88314    
   3435000   310.03761      0.013605706    12.609824      769.21185     -29.64474       739.56711    
   3436000   309.34708      0.013605706   -1.3617856      767.49864     -30.207564      737.29107    
   3437000   301.25748      0.013605706    7.3856081      747.42812     -32.398269      715.02985    
   3438000   295.76876      0.013605706    4.4647563      733.81045     -30.67709       703.13336    
   3439000   292.69577      0.013605706    4.802988       726.18628     -24.76439       701.42189    
   3440000   311.26591      0.013605706    12.403198      772.25932     -27.458807      744.80051    
   3441000   306.66155      0.013605706    18.643783      760.83576     -26.985839      733.84993    
   3442000   291.65348      0.013605706    4.7880013      723.60033     -28.229302      695.37103    
   3443000   290.81877      0.013605706    5.7214826      721.52938     -27.068391      694.46098    
   3444000   307.23332      0.013605706    11.091964      762.25433     -28.120358      734.13398    
   3445000   318.71086      0.013605706    9.7271294      790.73044     -20.525706      770.20473    
   3446000   301.36071      0.013605706    5.1758506      747.68424     -29.354734      718.3295     
   3447000   292.31675      0.013605706    7.3401742      725.24593     -28.288626      696.9573     
   3448000   289.95724      0.013605706    6.7730748      719.39191     -31.678649      687.71326    
   3449000   307.12192      0.013605706    8.8932395      761.97795     -30.20463       731.77332    
   3450000   303.13736      0.013605706    7.7211609      752.09215     -29.614342      722.4778     
   3451000   296.51117      0.013605706    5.434419       735.65239     -26.392853      709.25954    
   3452000   292.61788      0.013605706    10.443941      725.99303     -24.394807      701.59822    
   3453000   305.31185      0.013605706    8.2269012      757.48711     -24.730741      732.75637    
   3454000   308.33277      0.013605706    5.7785114      764.9821      -24.904595      740.07751    
   3455000   294.42377      0.013605706    2.3171519      730.47348     -26.460025      704.01346    
   3456000   296.37913      0.013605706    7.0339123      735.32479     -23.522638      711.80215    
   3457000   302.28575      0.013605706    10.741872      749.97929     -26.2213        723.75799    
   3458000   299.7139       0.013605706    6.0976044      743.59844     -23.179863      720.41857    
   3459000   300.38954      0.013605706    4.3200787      745.27472     -23.283825      721.9909     
   3460000   299.77464      0.013605706    7.4585356      743.74915     -23.986464      719.76268    
   3461000   297.58915      0.013605706    8.0415941      738.3269      -21.263603      717.06329    
   3462000   305.93045      0.013605706    7.8860036      759.02189     -22.409551      736.61234    
   3463000   308.90385      0.013605706    10.438712      766.39897     -24.139421      742.25955    
   3464000   285.23781      0.013605706    8.7395071      707.68286     -18.599731      689.08313    
   3465000   295.33916      0.013605706    4.910174       732.74459     -20.523239      712.22135    
   3466000   316.60298      0.013605706    5.5151003      785.50071     -17.683542      767.81717    
   3467000   307.32726      0.013605706    11.643678      762.48741     -20.854172      741.63323    
   3468000   284.0367       0.013605706    10.372273      704.70288     -19.556266      685.14661    
   3469000   301.40226      0.013605706    3.2703636      747.78733     -19.77679       728.01054    
   3470000   309.72244      0.013605706    5.7799481      768.42991     -18.490218      749.93969    
   3471000   308.49787      0.013605706    10.824666      765.39171     -19.667465      745.72424    
   3472000   287.595        0.013605706    11.401606      713.53113     -19.229177      694.30195    
   3473000   294.68054      0.013605706    6.9902979      731.11055     -19.392499      711.71805    
   3474000   318.03784      0.013605706   -1.2642715      789.06064     -21.194173      767.86647    
   3475000   308.07702      0.013605706    9.3717352      764.34758     -23.503034      740.84455    
   3476000   293.96249      0.013605706    14.551949      729.32904     -22.178591      707.15044    
   3477000   294.13024      0.013605706    9.0410533      729.74523     -26.226307      703.51892    
   3478000   298.54985      0.013605706    1.1223351      740.71041     -24.244685      716.46573    
   3479000   300.95343      0.013605706    4.818299       746.67375     -26.749219      719.92453    
   3480000   297.28084      0.013605706    13.051619      737.56196     -26.530057      711.03191    
   3481000   295.70395      0.013605706    1.4903941      733.64966     -22.201804      711.44786    
   3482000   301.57698      0.013605706    3.6685403      748.22079     -20.075006      728.14579    
   3483000   300.0114       0.013605706    7.2768639      744.33654     -20.764292      723.57225    
   3484000   299.82723      0.013605706    23.497973      743.87962     -22.712269      721.16735    
   3485000   282.68609      0.013605706    6.9259709      701.35198     -23.039456      678.31252    
   3486000   299.90826      0.013605706   -6.7245272      744.08067     -24.173261      719.90741    
   3487000   311.95247      0.013605706    8.5764459      773.96267     -25.333128      748.62955    
   3488000   305.00856      0.013605706    10.108974      756.73464     -25.203716      731.53092    
   3489000   295.53073      0.013605706    9.6812957      733.21988     -24.170488      709.04939    
   3490000   293.87516      0.013605706    15.927335      729.11238     -22.436291      706.67609    
   3491000   294.40258      0.013605706    6.7033058      730.42093     -20.179388      710.24154    
   3492000   306.27992      0.013605706   -3.2879995      759.88891     -22.672842      737.21607    
   3493000   309.38687      0.013605706    14.135553      767.59734     -19.88083       747.71651    
   3494000   303.19966      0.013605706    8.2804823      752.24672     -19.831585      732.41513    
   3495000   296.76009      0.013605706    6.3338848      736.26997     -19.373224      716.89675    
   3496000   293.65127      0.013605706    6.4647242      728.5569      -22.698808      705.85809    
   3497000   302.08391      0.013605706    9.3296612      749.47851     -22.267304      727.2112     
   3498000   299.93839      0.013605706    10.267101      744.15542     -19.65801       724.49741    
   3499000   289.35573      0.013605706    3.1112912      717.89955     -19.980068      697.91948    
   3500000   302.33412      0.013605706    3.6034148      750.09928     -16.942914      733.15636    
   3501000   306.66931      0.013605706    15.5362        760.85502     -17.753503      743.10151    
   3502000   309.95592      0.013605706    10.191876      769.00918     -18.712645      750.29654    
   3503000   305.02005      0.013605706    3.4038081      756.76315     -15.13658       741.62657    
   3504000   296.62567      0.013605706    5.5031557      735.93648     -16.764983      719.17149    
   3505000   304.55725      0.013605706    14.914762      755.61494     -13.357576      742.25737    
   3506000   291.94843      0.013605706    10.292789      724.3321      -17.70254       706.62956    
   3507000   298.01888      0.013605706    10.31259       739.39306     -17.657866      721.7352     
   3508000   280.55339      0.013605706    10.110764      696.06069     -17.823139      678.23755    
   3509000   303.84787      0.013605706    2.6525851      753.85494     -19.020352      734.83459    
   3510000   309.90566      0.013605706    14.546118      768.88448     -19.320182      749.56429    
   3511000   293.37239      0.013605706    11.560077      727.86498     -16.729751      711.13523    
   3512000   273.928        0.013605706    5.0292284      679.62292     -21.87837       657.74455    
   3513000   294.43932      0.013605706   -2.3731319      730.51207     -20.079155      710.43292    
   3514000   316.52531      0.013605706    5.2634084      785.30803     -14.292286      771.01574    
   3515000   311.27357      0.013605706    18.660365      772.27832     -13.833159      758.44516    
   3516000   282.53342      0.013605706    10.1234        700.9732      -13.347669      687.62554    
   3517000   299.25917      0.013605706    4.956106       742.47025     -16.802577      725.66767    
   3518000   317.20443      0.013605706    8.5755924      786.99294     -18.474275      768.51867    
   3519000   293.92476      0.013605706    10.559371      729.23542     -16.172902      713.06252    
   3520000   291.47478      0.013605706    5.6247209      723.15697     -16.17815       706.97882    
   3521000   294.21349      0.013605706    2.0919963      729.95178     -18.078528      711.87325    
   3522000   310.91974      0.013605706    6.5763789      771.40045     -19.033571      752.36688    
   3523000   304.36491      0.013605706    7.6382169      755.13772     -18.734819      736.4029     
   3524000   288.87681      0.013605706    8.4194772      716.71133     -22.19655       694.51478    
   3525000   305.05248      0.013605706    8.875482       756.84361     -22.763698      734.07991    
   3526000   320.97603      0.013605706    8.515599       796.35039     -19.416754      776.93363    
   3527000   298.49359      0.013605706    6.8437541      740.57081     -19.052396      721.51842    
   3528000   292.15497      0.013605706    7.9737166      724.84454     -17.010635      707.8339     
   3529000   298.23763      0.013605706    7.5641933      739.93577     -16.802706      723.13307    
   3530000   308.92843      0.013605706    7.6935495      766.45995     -18.504027      747.95592    
   3531000   289.34211      0.013605706    4.5042756      717.86575     -13.63479       704.23096    
   3532000   296.97421      0.013605706    9.2602798      736.8012      -16.047744      720.75346    
   3533000   306.59037      0.013605706    10.363718      760.65917     -14.135399      746.52377    
   3534000   312.37572      0.013605706    7.0484678      775.01277     -16.704635      758.30814    
   3535000   297.37695      0.013605706    7.3927107      737.80041     -18.358881      719.44153    
   3536000   285.91949      0.013605706    7.540721       709.37413     -20.137432      689.2367     
   3537000   304.528        0.013605706    9.8350444      755.54236     -18.968327      736.57403    
   3538000   304.00514      0.013605706    7.9590555      754.24513     -20.25249       733.99264    
   3539000   300.86137      0.013605706    7.7106229      746.44536     -22.774789      723.67057    
   3540000   298.63637      0.013605706    5.3540788      740.92508     -23.57332       717.35176    
   3541000   298.60533      0.013605706    7.7965549      740.84806     -22.457158      718.39091    
   3542000   296.57531      0.013605706    11.924591      735.81151     -20.485284      715.32623    
   3543000   300.53218      0.013605706    15.573388      745.62862     -21.062468      724.56616    
   3544000   297.22969      0.013605706    3.3259806      737.43505     -18.469665      718.96539    
   3545000   302.93658      0.013605706   -2.6537577      751.594       -19.942309      731.6517     
   3546000   278.57247      0.013605706    10.380803      691.14598     -20.556045      670.58993    
   3547000   301.82197      0.013605706    9.0482056      748.82863     -20.434967      728.39367    
   3548000   308.87685      0.013605706    8.3728671      766.33198     -18.37332       747.95866    
   3549000   302.24675      0.013605706    3.9241687      749.88251     -20.992464      728.89005    
   3550000   285.46131      0.013605706    6.4857935      708.23739     -24.446947      683.79044    
   3551000   305.20263      0.013605706    10.320193      757.21613     -22.127509      735.08862    
   3552000   300.96107      0.013605706   -0.021453815    746.69272     -17.923971      728.76875    
   3553000   292.86619      0.013605706    5.4775411      726.60909     -19.285329      707.32376    
   3554000   297.19462      0.013605706    15.274832      737.34804     -20.01299       717.33505    
   3555000   298.52297      0.013605706    10.758993      740.64372     -19.015511      721.62821    
   3556000   305.69058      0.013605706    1.1685001      758.42676     -21.545734      736.88103    
   3557000   300.85834      0.013605706    4.8532925      746.43785     -28.46333       717.97452    
   3558000   305.7495       0.013605706    11.946582      758.57294     -25.444759      733.12819    
   3559000   304.81875      0.013605706    8.5373283      756.26371     -26.719646      729.54407    
   3560000   291.45846      0.013605706    0.14120921     723.11648     -26.775534      696.34094    
   3561000   294.76674      0.013605706    6.8981387      731.32441     -26.513464      704.81095    
   3562000   307.78763      0.013605706    12.08482       763.6296      -24.04852       739.58108    
   3563000   304.53788      0.013605706   -1.5209325      755.56687     -26.721138      728.84573    
   3564000   297.10077      0.013605706    6.3007666      737.11521     -26.274776      710.84044    
   3565000   299.13679      0.013605706    4.3342175      742.16663     -22.688416      719.47822    
   3566000   298.53731      0.013605706    7.8988214      740.6793      -23.206968      717.47233    
   3567000   309.58828      0.013605706    10.944093      768.09705     -24.148628      743.94842    
   3568000   306.20101      0.013605706    0.32096202     759.69315     -24.331482      735.36167    
   3569000   286.8492       0.013605706    1.6789227      711.68078     -23.88175       687.79903    
   3570000   286.09478      0.013605706    11.896417      709.80903     -25.532276      684.27676    
   3571000   301.69191      0.013605706    10.552796      748.50594     -23.612233      724.89371    
   3572000   311.31845      0.013605706    5.8813014      772.38965     -21.924835      750.46481    
   3573000   299.14022      0.013605706    5.8588876      742.17512     -21.640581      720.53454    
   3574000   301.5289       0.013605706    14.139618      748.10152     -23.21249       724.88903    
   3575000   297.45395      0.013605706    16.574995      737.99145     -23.841756      714.14969    
   3576000   307.99999      0.013605706    0.5837757      764.15647     -21.911654      742.24481    
   3577000   298.75223      0.013605706    6.7957378      741.21252     -22.744428      718.46809    
   3578000   296.01377      0.013605706    11.607541      734.41833     -27.736602      706.68173    
   3579000   303.77762      0.013605706    6.1503574      753.68064     -23.047338      730.6333     
   3580000   298.88273      0.013605706    4.6442783      741.5363      -21.219606      720.31669    
   3581000   298.62727      0.013605706    2.5423689      740.90248     -20.531027      720.37145    
   3582000   294.68472      0.013605706    20.294576      731.12092     -21.244019      709.8769     
   3583000   306.31153      0.013605706   -1.2959623      759.96735     -19.893714      740.07363    
   3584000   302.45534      0.013605706    3.9034416      750.40004     -19.095265      731.30478    
   3585000   306.51245      0.013605706    15.664336      760.46584     -20.455403      740.01044    
   3586000   299.78489      0.013605706    2.450486       743.77458     -21.077254      722.69733    
   3587000   291.93153      0.013605706    3.3504626      724.29017     -20.00529       704.28488    
   3588000   296.10017      0.013605706    9.3954508      734.63268     -21.611526      713.02116    
   3589000   319.91702      0.013605706    9.2418487      793.72295     -20.879911      772.84304    
   3590000   305.09408      0.013605706    3.3793479      756.94683     -24.187609      732.75922    
   3591000   294.36165      0.013605706    7.8729246      730.31936     -25.123589      705.19577    
   3592000   293.03932      0.013605706    7.5777304      727.03864     -21.217727      705.82091    
   3593000   312.03783      0.013605706    10.617313      774.17446     -21.118942      753.05552    
   3594000   302.54178      0.013605706    4.8313869      750.6145      -22.249409      728.36509    
   3595000   298.43084      0.013605706    7.3065051      740.41514     -22.247732      718.16741    
   3596000   298.6856       0.013605706    5.7853856      741.0472      -23.090386      717.95681    
   3597000   308.56736      0.013605706    4.7887574      765.56413     -26.02897       739.53516    
   3598000   300.94914      0.013605706    12.083466      746.66311     -23.058046      723.60506    
   3599000   301.38089      0.013605706    6.4937991      747.7343      -23.476651      724.25765    
   3600000   295.46686      0.013605706    6.4165273      733.06142     -23.628721      709.4327     
   3601000   290.24548      0.013605706    7.3769404      720.10703     -21.970458      698.13657    
   3602000   310.89041      0.013605706    11.425278      771.32768     -18.481468      752.84621    
   3603000   305.08607      0.013605706    6.7083896      756.92696     -18.538715      738.38824    
   3604000   294.30421      0.013605706    5.8838705      730.17687     -21.379257      708.79761    
   3605000   294.68352      0.013605706    7.641121       731.11793     -23.586087      707.53184    
   3606000   299.75195      0.013605706    6.8225435      743.69286     -27.467656      716.2252     
   3607000   328.81936      0.013605706    7.5217654      815.80989     -29.114488      786.69541    
   3608000   300.08331      0.013605706    13.087479      744.51496     -23.865803      720.64916    
   3609000   293.02609      0.013605706    9.3575468      727.00579     -23.457356      703.54844    
   3610000   302.1724       0.013605706    1.5366817      749.69806     -22.11751       727.58055    
   3611000   315.9977       0.013605706    7.3137438      783.999       -21.571548      762.42745    
   3612000   309.12175      0.013605706    8.8826547      766.93959     -21.690587      745.249      
   3613000   301.35834      0.013605706    12.943059      747.67835     -22.996587      724.68176    
   3614000   310.67494      0.013605706    9.7998528      770.79308     -24.152869      746.64021    
   3615000   293.11827      0.013605706    5.4858789      727.2345      -22.788455      704.44605    
   3616000   304.27371      0.013605706    4.8928663      754.91146     -21.989303      732.92216    
   3617000   310.49203      0.013605706    7.4557226      770.33929     -26.423036      743.91626    
   3618000   297.52821      0.013605706    14.491327      738.17568     -24.838911      713.33677    
   3619000   282.53072      0.013605706    5.461699       700.9665      -23.122971      677.84352    
   3620000   302.82709      0.013605706    6.7501218      751.32235     -23.204723      728.11763    
   3621000   303.01613      0.013605706    17.734894      751.79136     -26.967507      724.82385    
   3622000   299.42771      0.013605706    3.9805714      742.8884      -26.234096      716.6543     
   3623000   304.52838      0.013605706   -0.60813343     755.54329     -26.59263       728.95066    
   3624000   293.02923      0.013605706    9.202496       727.01359     -28.230615      698.78298    
   3625000   291.82495      0.013605706    11.410506      724.02575     -27.721445      696.30431    
   3626000   301.56867      0.013605706   -1.8963221      748.20018     -21.307716      726.89247    
   3627000   305.58153      0.013605706    4.4013901      758.1562      -29.404863      728.75134    
   3628000   292.13232      0.013605706    19.356742      724.78833     -32.613505      692.17482    
   3629000   294.44556      0.013605706    6.4241891      730.52756     -29.191349      701.33621    
   3630000   311.1148       0.013605706   -20.384881      771.88441     -30.193795      741.69061    
   3631000   309.52027      0.013605706    15.855067      767.92833     -28.718525      739.20981    
   3632000   291.14563      0.013605706    14.227611      722.34035     -25.935908      696.40444    
   3633000   297.22749      0.013605706   -7.5510857      737.42958     -19.666606      717.76298    
   3634000   315.08427      0.013605706   -0.67064265     781.73276     -23.593617      758.13915    
   3635000   305.52281      0.013605706    7.479179       758.01051     -26.87204       731.13847    
   3636000   295.03533      0.013605706    20.868911      731.99078     -24.260218      707.73056    
   3637000   300.14126      0.013605706   -3.2168038      744.65873     -27.175128      717.4836     
   3638000   308.68103      0.013605706    0.56506764     765.84615     -24.572678      741.27347    
   3639000   304.65673      0.013605706    3.6056274      755.86176     -21.077916      734.78384    
   3640000   293.7414       0.013605706    19.704483      728.7805      -21.596659      707.18384    
   3641000   300.65696      0.013605706    8.521207       745.9382      -22.489865      723.44833    
   3642000   301.8067       0.013605706    6.061723       748.79073     -23.682272      725.10846    
   3643000   294.25027      0.013605706    6.8379607      730.04302     -19.704729      710.33829    
   3644000   300.72138      0.013605706    8.0038111      746.09803     -17.151141      728.94689    
   3645000   304.85589      0.013605706    8.5957257      756.35586     -19.597044      736.75882    
   3646000   302.85552      0.013605706    1.1663242      751.39288     -17.327472      734.06541    
   3647000   312.33207      0.013605706    25.082602      774.90448     -18.229532      756.67494    
   3648000   298.32703      0.013605706    8.2411138      740.15758     -17.314124      722.84345    
   3649000   306.5127       0.013605706    1.8922249      760.46645     -19.154056      741.3124     
   3650000   308.1011       0.013605706    5.8356905      764.40731     -19.424066      744.98325    
   3651000   299.22062      0.013605706    9.0884756      742.37461     -19.105214      723.2694     
   3652000   286.53719      0.013605706    8.8011237      710.90666     -18.462867      692.44379    
   3653000   310.55602      0.013605706    5.5153095      770.49805     -19.52991       750.96814    
   3654000   316.5856       0.013605706    12.68839       785.45759     -17.400155      768.05744    
   3655000   289.74522      0.013605706    9.415235       718.86587     -15.127049      703.73882    
   3656000   281.35126      0.013605706    1.305957       698.04023     -16.045258      681.99497    
   3657000   304.13416      0.013605706    3.0181665      754.56522     -20.450955      734.11427    
   3658000   313.81087      0.013605706    9.0740052      778.57341     -23.413459      755.15995    
   3659000   287.53531      0.013605706    6.6199817      713.38304     -20.406928      692.97611    
   3660000   288.41568      0.013605706    6.1315562      715.56725     -17.987033      697.58022    
   3661000   289.66453      0.013605706    4.22439        718.66568     -21.331845      697.33384    
   3662000   310.00024      0.013605706    6.6094143      769.11913     -19.260274      749.85886    
   3663000   314.39631      0.013605706    8.0742786      780.02591     -22.227696      757.79821    
   3664000   286.6184       0.013605706    6.8996324      711.10815     -22.412472      688.69568    
   3665000   295.37048      0.013605706    6.3810028      732.8223      -25.135054      707.68725    
   3666000   313.35417      0.013605706    8.0841582      777.44034     -21.765647      755.67469    
   3667000   304.32467      0.013605706    6.529846       755.03791     -24.211947      730.82596    
   3668000   284.32131      0.013605706    5.465338       705.40902     -21.942581      683.46644    
   3669000   298.36483      0.013605706    10.011526      740.25137     -20.921313      719.33006    
   3670000   317.58665      0.013605706    8.7144526      787.94124     -17.340027      770.60121    
   3671000   294.34276      0.013605706    4.7326491      730.2725      -20.929994      709.34251    
   3672000   294.78765      0.013605706    15.436964      731.3763      -22.183969      709.19233    
   3673000   310.05764      0.013605706    9.3690741      769.26154     -21.471888      747.78965    
   3674000   311.66074      0.013605706    3.5219574      773.23889     -24.805367      748.43353    
   3675000   295.95573      0.013605706    6.9479816      734.27432     -22.990353      711.28397    
   3676000   300.43655      0.013605706    7.8686891      745.39137     -20.02637       725.365      
   3677000   313.12967      0.013605706    7.9940052      776.88335     -20.13049       756.75286    
   3678000   314.31969      0.013605706    5.5766312      779.83581     -19.514194      760.32162    
   3679000   288.35583      0.013605706    6.8393043      715.41876     -20.082956      695.33581    
   3680000   302.15793      0.013605706    7.6884048      749.66216     -21.829289      727.83287    
   3681000   305.79249      0.013605706    8.0353239      758.67958     -18.568356      740.11123    
   3682000   300.88088      0.013605706    11.223958      746.49376     -20.384591      726.10917    
   3683000   299.02171      0.013605706    6.4225389      741.88111     -20.471012      721.4101     
   3684000   302.34015      0.013605706    6.3297561      750.11425     -21.408534      728.70572    
   3685000   306.64203      0.013605706    14.46416       760.78733     -20.990661      739.79667    
   3686000   296.72892      0.013605706    5.8142793      736.19263     -20.50291       715.68972    
   3687000   287.06623      0.013605706    4.8567665      712.21923     -20.984281      691.23495    
   3688000   303.14114      0.013605706    9.1741732      752.10152     -20.485264      731.61625    
   3689000   317.54303      0.013605706    4.8245141      787.83301     -21.987594      765.84542    
   3690000   298.82302      0.013605706    5.3429318      741.38814     -19.330395      722.05774    
   3691000   291.50867      0.013605706    9.2009812      723.24104     -20.927652      702.31339    
   3692000   309.05189      0.013605706    12.339278      766.76626     -27.999451      738.76681    
   3693000   319.07096      0.013605706    6.7487823      791.62386     -29.47964       762.14422    
   3694000   302.62006      0.013605706    1.1358339      750.80872     -30.28317       720.52555    
   3695000   296.33872      0.013605706   -4.0546202      735.22452     -22.825471      712.39905    
   3696000   306.11214      0.013605706    6.4526704      759.47265     -26.134239      733.33842    
   3697000   289.70473      0.013605706    3.2663574      718.76541     -25.512558      693.25285    
   3698000   278.51641      0.013605706    7.6919658      691.0069      -21.654388      669.35251    
   3699000   291.02208      0.013605706    13.125791      722.0338      -23.289291      698.7445     
   3700000   321.7319       0.013605706    11.93557       798.22572     -20.293868      777.93185    
   3701000   304.86583      0.013605706    2.9031828      756.38052     -19.583075      736.79744    
   3702000   285.66595      0.013605706   -1.4311269      708.74509     -19.94824       688.79685    
   3703000   296.08251      0.013605706    11.053697      734.58886     -16.154293      718.43457    
   3704000   300.94982      0.013605706    8.1375741      746.6648      -19.052093      727.61271    
   3705000   314.98583      0.013605706    6.2225297      781.48853     -19.394396      762.09414    
   3706000   299.39421      0.013605706    4.5485798      742.80529     -18.663718      724.14157    
   3707000   289.62582      0.013605706    7.7551015      718.56964     -19.810254      698.75938    
   3708000   302.38411      0.013605706    10.88468       750.22332     -17.945987      732.27733    
   3709000   306.23377      0.013605706   -1.8851781      759.77441     -17.426486      742.34793    
   3710000   288.24038      0.013605706    5.5821294      715.13234     -21.053136      694.0792     
   3711000   292.80935      0.013605706    12.504082      726.46808     -19.923596      706.54448    
   3712000   303.41447      0.013605706    9.7650493      752.77967     -23.899388      728.88028    
   3713000   302.71625      0.013605706   -0.27747676     751.04737     -23.167667      727.8797     
   3714000   297.32461      0.013605706    6.6361634      737.67056     -24.080225      713.59033    
   3715000   293.98903      0.013605706    24.117133      729.3949      -20.625754      708.76915    
   3716000   294.5847       0.013605706    9.1977663      730.87276     -22.895361      707.9774     
   3717000   316.45953      0.013605706    7.776608       785.14481     -20.974038      764.17077    
   3718000   310.52901      0.013605706    1.1929995      770.43102     -21.777884      748.65314    
   3719000   289.02958      0.013605706    2.0171354      717.09035     -23.892341      693.19801    
   3720000   296.1758       0.013605706    12.658394      734.82032     -22.685469      712.13486    
   3721000   308.13023      0.013605706    15.404463      764.47959     -24.562342      739.91724    
   3722000   306.15317      0.013605706    5.9736967      759.57445     -19.512602      740.06184    
   3723000   294.29646      0.013605706    3.0820718      730.15762     -21.025015      709.13261    
   3724000   294.43295      0.013605706    4.6649419      730.49627     -22.751754      707.74452    
   3725000   303.60921      0.013605706    16.724704      753.26283     -23.350412      729.91241    
   3726000   303.74472      0.013605706    3.4026759      753.59901     -21.835712      731.7633     
   3727000   292.09573      0.013605706    4.0764436      724.69755     -25.13325       699.5643     
   3728000   288.72862      0.013605706    4.4956187      716.34367     -24.009898      692.33377    
   3729000   304.54799      0.013605706    8.2563346      755.59195     -20.957836      734.63411    
   3730000   300.11839      0.013605706    8.7053807      744.60199     -19.010521      725.59147    
   3731000   297.18682      0.013605706    7.4819922      737.32869     -15.684761      721.64393    
   3732000   297.5803       0.013605706    6.4371603      738.30493     -17.727631      720.5773     
   3733000   296.58549      0.013605706    10.813446      735.83677     -19.169723      716.66705    
   3734000   302.50317      0.013605706    7.387147       750.51871     -20.516031      730.00268    
   3735000   305.38869      0.013605706    5.6349786      757.67775     -17.535271      740.14248    
   3736000   301.58934      0.013605706    11.993042      748.25146     -19.817057      728.4344     
   3737000   305.70966      0.013605706    7.0020912      758.47409     -19.450541      739.02355    
   3738000   292.0759       0.013605706    5.4013799      724.64836     -17.771896      706.87646    
   3739000   295.90905      0.013605706    10.978494      734.15852     -20.884525      713.274      
   3740000   298.13724      0.013605706    15.609819      739.68671     -17.544384      722.14232    
   3741000   328.49964      0.013605706    11.373913      815.01665     -20.04692       794.96973    
   3742000   302.6073       0.013605706    5.9406268      750.77705     -21.157535      729.61951    
   3743000   300.04139      0.013605706    5.9010204      744.41097     -16.702056      727.70891    
   3744000   291.57705      0.013605706    3.8787344      723.4107      -19.287461      704.12324    
   3745000   307.65541      0.013605706    9.514947       763.30156     -18.530858      744.7707     
   3746000   316.77262      0.013605706    10.068063      785.9216      -21.272286      764.64931    
   3747000   297.78737      0.013605706    6.0372739      738.81868     -21.415926      717.40275    
   3748000   291.70712      0.013605706    7.2246603      723.73341     -22.456544      701.27687    
   3749000   300.83435      0.013605706    8.6790879      746.37831     -21.806029      724.57228    
   3750000   314.18065      0.013605706    7.7708873      779.49085     -17.449201      762.04165    
   3751000   301.86644      0.013605706    3.5443937      748.93895     -19.040576      729.89837    
   3752000   296.24489      0.013605706    5.5855754      734.99173     -20.700706      714.29103    
   3753000   303.0609       0.013605706    7.6955309      751.90245     -20.974778      730.92767    
   3754000   300.09813      0.013605706    8.2018037      744.55172     -19.479875      725.07185    
   3755000   292.59629      0.013605706    8.3546467      725.93946     -20.880223      705.05924    
   3756000   303.47856      0.013605706    6.0819716      752.93868     -19.024633      733.91405    
   3757000   318.69954      0.013605706    10.653536      790.70233     -20.312535      770.3898     
   3758000   310.08552      0.013605706    9.3229657      769.33072     -19.19519       750.13553    
   3759000   298.44183      0.013605706    7.8212345      740.44241     -21.635151      718.80725    
   3760000   301.71355      0.013605706    7.6013587      748.55964     -18.440793      730.11884    
   3761000   296.83645      0.013605706    6.9971211      736.45942     -16.689601      719.76982    
   3762000   310.60391      0.013605706    6.2471922      770.61687     -20.000233      750.61664    
   3763000   314.60987      0.013605706    10.066113      780.55576     -19.932803      760.62296    
   3764000   284.32884      0.013605706    10.576334      705.4277      -20.745841      684.68186    
   3765000   298.00579      0.013605706    5.5891842      739.36058     -20.962389      718.39819    
   3766000   298.2883       0.013605706    6.3550237      740.06148     -18.519023      721.54246    
   3767000   306.45219      0.013605706    9.6963458      760.31634     -19.998242      740.3181     
   3768000   300.37415      0.013605706    7.7862323      745.23654     -22.31548       722.92106    
   3769000   302.37847      0.013605706    7.5141289      750.20932     -19.551205      730.65812    
   3770000   310.01483      0.013605706    7.2641395      769.15533     -21.86308       747.29225    
   3771000   294.73847      0.013605706    9.2458062      731.25426     -22.850043      708.40422    
   3772000   302.79767      0.013605706    4.2426676      751.24936     -18.072424      733.17694    
   3773000   304.00476      0.013605706    6.9007611      754.24419     -17.078271      737.16591    
   3774000   297.2295       0.013605706    8.8455585      737.43458     -20.091631      717.34295    
   3775000   299.69433      0.013605706    6.8850264      743.5499      -18.587327      724.96257    
   3776000   313.65063      0.013605706    7.6571845      778.17586     -19.233346      758.94251    
   3777000   305.67401      0.013605706    7.646131       758.38564     -21.297853      737.08778    
   3778000   295.91296      0.013605706    7.1548009      734.16822     -21.958902      712.20932    
   3779000   286.3231       0.013605706    11.653547      710.3755      -19.760464      690.61503    
   3780000   302.52765      0.013605706    4.1039543      750.57943     -20.860732      729.7187     
   3781000   300.18924      0.013605706    7.8852985      744.77778     -20.076268      724.70151    
   3782000   291.35158      0.013605706    9.273013       722.85129     -23.66133       699.18996    
   3783000   311.18874      0.013605706    3.2809044      772.06785     -20.258553      751.8093     
   3784000   308.80563      0.013605706    13.245345      766.15529     -19.364245      746.79105    
   3785000   284.54045      0.013605706    5.3683935      705.9527      -21.983065      683.96964    
   3786000   298.32816      0.013605706    6.0913562      740.1604      -23.845279      716.31512    
   3787000   308.20686      0.013605706    6.3503876      764.66972     -25.383497      739.28622    
   3788000   302.73546      0.013605706    9.2898671      751.09503     -22.971292      728.12373    
   3789000   287.99555      0.013605706    7.7882891      714.52489     -22.988002      691.53688    
   3790000   292.90765      0.013605706    4.7157225      726.71196     -25.287118      701.42484    
   3791000   309.28028      0.013605706    7.3712356      767.3329      -25.218556      742.11435    
   3792000   298.03693      0.013605706    7.6759656      739.43785     -24.99028       714.44757    
   3793000   283.70542      0.013605706    6.8625837      703.88096     -25.832058      678.0489     
   3794000   313.04914      0.013605706    7.2767074      776.68355     -24.592425      752.09113    
   3795000   313.39014      0.013605706    7.9543973      777.52959     -24.136977      753.39261    
   3796000   290.7555       0.013605706    7.2999792      721.37241     -27.241854      694.13055    
   3797000   289.08681      0.013605706    6.6491691      717.23235     -22.862039      694.37031    
   3798000   303.64569      0.013605706    7.8077757      753.35333     -20.220738      733.13259    
   3799000   307.03983      0.013605706    7.6785503      761.77427     -22.341923      739.43235    
   3800000   295.48733      0.013605706    11.561758      733.11222     -23.924192      709.18803    
   3801000   298.35553      0.013605706    6.5171557      740.2283      -25.903617      714.32469    
   3802000   304.13722      0.013605706    6.2476721      754.57282     -25.988977      728.58385    
   3803000   307.89432      0.013605706    8.6340988      763.89429     -21.989774      741.90451    
   3804000   291.26598      0.013605706    9.1111116      722.63891     -21.637918      701.001      
   3805000   315.28231      0.013605706    6.9448124      782.2241      -21.96211       760.26199    
   3806000   312.70656      0.013605706    9.7387064      775.83359     -24.782589      751.05101    
   3807000   307.85391      0.013605706    11.210481      763.79404     -23.732931      740.06111    
   3808000   310.0039       0.013605706    7.0327804      769.12823     -25.982099      743.14613    
   3809000   305.26821      0.013605706    4.7140262      757.37885     -21.593416      735.78543    
   3810000   316.81407      0.013605706    7.9415084      786.02445     -25.882087      760.14236    
   3811000   297.67141      0.013605706    9.1380646      738.53098     -20.770447      717.76053    
   3812000   292.26651      0.013605706    6.3164546      725.12126     -22.32933       702.79193    
   3813000   304.19816      0.013605706    4.5332602      754.72401     -23.993605      730.73041    
   3814000   303.68105      0.013605706    11.906701      753.44106     -21.429697      732.01136    
   3815000   297.1884       0.013605706    8.7110961      737.33262     -20.587054      716.74556    
   3816000   304.55329      0.013605706    7.1506892      755.60512     -23.648837      731.95628    
   3817000   294.85462      0.013605706    5.7236661      731.54244     -19.955247      711.58719    
   3818000   309.93385      0.013605706    5.973741       768.95443     -20.5573        748.39713    
   3819000   301.12445      0.013605706    7.6174708      747.09805     -21.406535      725.69152    
   3820000   302.05768      0.013605706    7.3509834      749.41343     -23.205086      726.20835    
   3821000   310.47438      0.013605706    9.2313121      770.29548     -22.249022      748.04646    
   3822000   301.23911      0.013605706    7.648369       747.38253     -27.589098      719.79344    
   3823000   298.51682      0.013605706    6.4769129      740.62845     -25.405269      715.22318    
   3824000   307.04913      0.013605706    7.4400424      761.79734     -30.245515      731.55183    
   3825000   293.20621      0.013605706    8.9212954      727.4527      -28.134208      699.31849    
   3826000   277.12954      0.013605706    6.9842548      687.56602     -28.944373      658.62164    
   3827000   293.04022      0.013605706    6.5879828      727.04085     -25.965721      701.07513    
   3828000   309.93752      0.013605706    6.8495439      768.96353     -29.841942      739.12159    
   3829000   302.68969      0.013605706    8.2752356      750.98147     -27.269341      723.71213    
   3830000   292.50493      0.013605706    8.458087       725.7128      -22.954065      702.75874    
   3831000   308.43391      0.013605706    7.2712801      765.23303     -22.150671      743.08236    
   3832000   299.83783      0.013605706    5.6578834      743.90592     -23.554048      720.35187    
   3833000   300.94833      0.013605706    6.8857769      746.66111     -26.262022      720.39909    
   3834000   308.70849      0.013605706    10.0071        765.91427     -28.111044      737.80323    
   3835000   297.84372      0.013605706    5.4293095      738.95847     -25.481384      713.47709    
   3836000   296.16859      0.013605706    1.3069736      734.80244     -26.060203      708.74224    
   3837000   303.49867      0.013605706    7.146831       752.98857     -27.234282      725.75429    
   3838000   305.64821      0.013605706    11.977669      758.32163     -23.965806      734.35583    
   3839000   280.44332      0.013605706    6.0487463      695.7876      -23.244901      672.5427     
   3840000   297.88922      0.013605706    5.4553143      739.07137     -24.55867       714.5127     
   3841000   314.65243      0.013605706    2.9484259      780.66135     -24.955625      755.70572    
   3842000   297.99492      0.013605706    13.457414      739.3336      -25.328494      714.00511    
   3843000   288.25852      0.013605706    3.6057747      715.17734     -25.489607      689.68773    
   3844000   305.89376      0.013605706    6.678909       758.93085     -22.682559      736.24829    
   3845000   302.19814      0.013605706    17.522848      749.76193     -23.465938      726.29599    
   3846000   293.72208      0.013605706    10.18143       728.73257     -22.573915      706.15866    
   3847000   291.10248      0.013605706    4.1578477      722.23327     -27.868305      694.36497    
   3848000   308.09125      0.013605706   -0.29792331     764.38288     -23.629585      740.75329    
   3849000   306.21133      0.013605706    9.1109094      759.71876     -27.027821      732.69094    
   3850000   294.24387      0.013605706    10.071697      730.02715     -22.453755      707.5734     
   3851000   295.21806      0.013605706    0.099585304    732.44415     -25.169844      707.27431    
   3852000   317.52244      0.013605706    8.4049734      787.78192     -23.966915      763.81501    
   3853000   291.20582      0.013605706    9.9247543      722.48967     -23.934507      698.55516    
   3854000   284.94944      0.013605706    11.427165      706.96741     -22.825909      684.1415     
   3855000   303.36841      0.013605706    6.0247318      752.6654      -19.277401      733.388      
   3856000   301.4481       0.013605706    6.7024414      747.90104     -21.828414      726.07263    
   3857000   290.06497      0.013605706    14.2711        719.65918     -21.127522      698.53165    
   3858000   296.17561      0.013605706    9.6652344      734.81986     -20.26006       714.5598     
   3859000   313.67562      0.013605706    4.8506735      778.23785     -18.94363       759.29422    
   3860000   303.41542      0.013605706    5.3917356      752.78203     -20.989858      731.79217    
   3861000   300.00016      0.013605706    10.438952      744.30866     -22.807112      721.50155    
   3862000   299.46052      0.013605706    11.823305      742.9698      -23.312321      719.65748    
   3863000   283.41095      0.013605706    9.9169646      703.15037     -20.748189      682.40218    
   3864000   296.63977      0.013605706    6.3504783      735.97144     -22.296464      713.67498    
   3865000   301.56737      0.013605706    11.014006      748.19696     -19.036439      729.16052    
   3866000   294.97818      0.013605706    7.1471798      731.849       -21.361706      710.48729    
   3867000   303.99943      0.013605706    0.77935231     754.23097     -21.315529      732.91544    
   3868000   299.07163      0.013605706    7.7019242      742.00496     -25.37447       716.63049    
   3869000   301.46555      0.013605706    7.8181785      747.94433     -21.844862      726.09947    
   3870000   308.44996      0.013605706    6.7537898      765.27286     -23.646418      741.62644    
   3871000   313.41574      0.013605706    4.8677659      777.5931      -20.026471      757.56663    
   3872000   321.86037      0.013605706    12.539347      798.54445     -19.552741      778.99171    
   3873000   296.8214       0.013605706    8.6987908      736.42207     -19.388059      717.03401    
   3874000   303.6557       0.013605706    6.5243116      753.37815     -19.069162      734.30899    
   3875000   299.03969      0.013605706    0.18662367     741.9257      -19.621523      722.30418    
   3876000   291.45318      0.013605706    7.8704259      723.10338     -16.772921      706.33046    
   3877000   300.56612      0.013605706    9.7049982      745.71283     -13.866137      731.84669    
   3878000   292.46268      0.013605706    7.7598807      725.60796     -18.665738      706.94223    
   3879000   302.60179      0.013605706    4.2354691      750.76337     -18.009533      732.75384    
   3880000   297.72002      0.013605706    7.3153498      738.65158     -19.871275      718.78031    
   3881000   307.25319      0.013605706    13.028837      762.30363     -19.152611      743.15102    
   3882000   292.79629      0.013605706    8.3336184      726.43566     -18.571952      707.86371    
   3883000   295.59783      0.013605706    5.4367086      733.38636     -23.557309      709.82905    
   3884000   305.26906      0.013605706    7.7363554      757.38096     -22.98654       734.39442    
   3885000   305.738        0.013605706    7.284523       758.54441     -21.624104      736.92031    
   3886000   305.59049      0.013605706    2.9063472      758.17842     -21.813476      736.36494    
   3887000   300.23693      0.013605706    7.5024058      744.89611     -18.857514      726.0386     
   3888000   300.11804      0.013605706    6.7930664      744.60113     -17.250504      727.35062    
   3889000   299.15704      0.013605706    8.1411868      742.21687     -18.896688      723.32019    
   3890000   299.01006      0.013605706    7.4955996      741.85219     -18.550979      723.30121    
   3891000   304.98216      0.013605706    7.9696073      756.66914     -16.250149      740.41899    
   3892000   313.90534      0.013605706    6.9812698      778.8078      -19.638403      759.1694     
   3893000   290.87631      0.013605706    6.3799574      721.67213     -16.335274      705.33686    
   3894000   294.09264      0.013605706    8.5485644      729.65196     -16.884998      712.76696    
   3895000   297.86845      0.013605706    10.318512      739.01984     -16.220909      722.79893    
   3896000   307.03298      0.013605706    8.6348333      761.75729     -22.122363      739.63493    
   3897000   306.5415       0.013605706    5.1381815      760.53791     -23.018541      737.51937    
   3898000   296.48074      0.013605706    6.4278237      735.57688     -25.656338      709.92054    
   3899000   298.92987      0.013605706    10.006014      741.65324     -28.582269      713.07097    
   3900000   299.4932       0.013605706    9.1776731      743.05087     -26.775732      716.27514    
   3901000   299.63825      0.013605706    4.173592       743.41077     -27.235096      716.17567    
   3902000   289.13119      0.013605706    7.7744672      717.34245     -29.613406      687.72904    
   3903000   304.20453      0.013605706    7.9931869      754.73982     -30.534931      724.20489    
   3904000   308.2845       0.013605706    6.6758772      764.86234     -30.37432       734.48802    
   3905000   287.52861      0.013605706    5.8819695      713.3664      -27.670112      685.69629    
   3906000   304.31635      0.013605706    8.9201955      755.01726     -26.988253      728.02901    
   3907000   321.43168      0.013605706    11.215924      797.48087     -24.894791      772.58608    
   3908000   305.43006      0.013605706    5.7315825      757.78039     -27.797826      729.98256    
   3909000   291.31336      0.013605706    6.1182145      722.75648     -23.066036      699.69045    
   3910000   298.21101      0.013605706    14.058372      739.86974     -23.464948      716.40479    
   3911000   320.78464      0.013605706    9.9105292      795.87553     -24.679297      771.19623    
   3912000   297.70056      0.013605706   -1.0367828      738.60329     -22.52636       716.07693    
   3913000   278.20824      0.013605706    12.598441      690.24231     -22.598401      667.64391    
   3914000   304.06632      0.013605706    8.9995524      754.39691     -22.760179      731.63673    
   3915000   306.49845      0.013605706   -4.524908       760.4311      -22.61494       737.81616    
   3916000   300.60064      0.013605706    7.975531       745.79847     -22.756645      723.04182    
   3917000   297.03157      0.013605706    17.344035      736.94352     -21.249079      715.69445    
   3918000   304.19287      0.013605706   -3.5036625      754.71089     -26.955119      727.75577    
   3919000   306.57646      0.013605706    3.2568778      760.62465     -28.279873      732.34477    
   3920000   299.89863      0.013605706    6.4354879      744.05677     -29.387746      714.66902    
   3921000   292.16865      0.013605706    13.85625       724.87848     -25.368508      699.50997    
   3922000   298.7896       0.013605706    17.877501      741.30523     -24.039734      717.2655     
   3923000   293.23835      0.013605706    2.4410862      727.53242     -23.297722      704.2347     
   3924000   294.3915       0.013605706    13.495763      730.39343     -20.392926      710.0005     
   3925000   309.26181      0.013605706    19.250451      767.28707     -19.237545      748.04952    
   3926000   299.72792      0.013605706    3.7184472      743.63322     -23.95015       719.68307    
   3927000   284.33366      0.013605706    6.5254189      705.43965     -24.051821      681.38783    
   3928000   309.45455      0.013605706    9.6435655      767.76526     -24.36243       743.40284    
   3929000   309.98389      0.013605706    0.45313077     769.07858     -21.367739      747.71084    
   3930000   296.14415      0.013605706    3.3655101      734.74181     -24.132706      710.60911    
   3931000   294.52923      0.013605706    17.171113      730.73513     -22.479821      708.25531    
   3932000   300.38773      0.013605706    12.145129      745.27023     -24.595169      720.67506    
   3933000   298.59185      0.013605706   -2.6891367      740.81461     -22.922362      717.89225    
   3934000   303.21511      0.013605706    6.8354699      752.28504     -20.18195       732.10309    
   3935000   302.06131      0.013605706    10.194409      749.42244     -25.781333      723.64111    
   3936000   305.63312      0.013605706    5.6022164      758.28419     -24.591879      733.69231    
   3937000   297.4324       0.013605706    0.57342023     737.93799     -25.882447      712.05554    
   3938000   298.35384      0.013605706    3.6380485      740.22411     -23.419807      716.8043     
   3939000   309.37988      0.013605706    9.6513691      767.58001     -19.190223      748.38978    
   3940000   301.39285      0.013605706    6.7940953      747.76397     -19.335659      728.42831    
   3941000   280.24191      0.013605706    7.3099134      695.28791     -16.27429       679.01362    
   3942000   291.20812      0.013605706    7.100592       722.49538     -18.129046      704.36634    
   3943000   308.77534      0.013605706    9.680624       766.08014     -18.690834      747.38931    
   3944000   313.32363      0.013605706    6.0742941      777.36455     -20.953787      756.41077    
   3945000   290.39664      0.013605706    7.5024437      720.48207     -19.320296      701.16177    
   3946000   315.49737      0.013605706    9.4195614      782.75767     -19.429094      763.32858    
   3947000   310.54633      0.013605706    7.8648792      770.47402     -17.162156      753.31186    
   3948000   295.13137      0.013605706    6.7153827      732.22907     -18.323963      713.90511    
   3949000   286.59327      0.013605706    9.0805312      711.0458      -19.862137      691.18366    
   3950000   298.03144      0.013605706    6.9568301      739.42421     -22.727535      716.69668    
   3951000   295.49883      0.013605706    6.4376467      733.14073     -21.464518      711.67621    
   3952000   294.19491      0.013605706    7.4556448      729.90569     -24.853862      705.05183    
   3953000   314.62319      0.013605706    10.202783      780.58882     -28.809423      751.77939    
   3954000   295.15788      0.013605706    7.0483309      732.29484     -25.266034      707.0288     
   3955000   289.98668      0.013605706    6.5270954      719.46495     -20.403917      699.06103    
   3956000   301.16761      0.013605706    7.8022664      747.20515     -18.313708      728.89144    
   3957000   303.75431      0.013605706    7.5811581      753.62281     -17.404211      736.2186     
   3958000   313.18606      0.013605706    5.7011397      777.02326     -19.811284      757.21197    
   3959000   286.28539      0.013605706    6.3739391      710.28193     -15.725076      694.55686    
   3960000   295.61776      0.013605706    11.304077      733.43582     -18.716343      714.71948    
   3961000   320.79987      0.013605706    8.3063957      795.91332     -19.567916      776.3454     
   3962000   296.1818       0.013605706    6.2504091      734.83521     -23.575606      711.2596     
   3963000   281.65049      0.013605706    6.1208486      698.78264     -23.66949       675.11315    
   3964000   298.71219      0.013605706    6.7327055      741.11318     -23.112824      718.00035    
   3965000   306.65791      0.013605706    6.4852242      760.82672     -22.86738       737.95934    
   3966000   292.81045      0.013605706    10.668918      726.47079     -25.824509      700.64628    
   3967000   291.69884      0.013605706    7.0351394      723.71286     -20.904481      702.80838    
   3968000   313.67249      0.013605706    7.1007098      778.23009     -17.859391      760.3707     
   3969000   319.48525      0.013605706    7.4944221      792.65172     -18.472045      774.17967    
   3970000   311.41587      0.013605706    8.1743799      772.63137     -21.163146      751.46822    
   3971000   298.3942       0.013605706    7.7193548      740.32423     -20.965458      719.35878    
   3972000   287.29823      0.013605706    1.8180046      712.79483     -21.513098      691.28173    
   3973000   306.28917      0.013605706    8.0651914      759.91187     -23.626404      736.28547    
   3974000   288.86319      0.013605706    6.3830538      716.67753     -21.532566      695.14496    
   3975000   289.22719      0.013605706    6.4874695      717.58064     -22.121226      695.45941    
   3976000   306.55526      0.013605706    8.0781077      760.57206     -21.736781      738.83528    
   3977000   307.42267      0.013605706    7.4861121      762.72412     -23.932124      738.79199    
   3978000   297.86443      0.013605706    7.0493807      739.00987     -27.883849      711.12602    
   3979000   290.43115      0.013605706    7.4668141      720.56768     -22.507503      698.06018    
   3980000   295.91818      0.013605706    8.0185575      734.18116     -22.160397      712.02076    
   3981000   319.31558      0.013605706    6.9879053      792.23077     -19.23959       772.99118    
   3982000   303.67126      0.013605706    6.2950802      753.41677     -20.544768      732.872      
   3983000   304.05532      0.013605706    7.4177393      754.36962     -23.107023      731.2626     
   3984000   299.24139      0.013605706    8.5574767      742.42615     -21.204363      721.22178    
   3985000   294.35853      0.013605706    7.3328204      730.31162     -20.086949      710.22467    
   3986000   299.3187       0.013605706    8.4621525      742.61795     -20.787332      721.83062    
   3987000   301.36668      0.013605706    4.6472512      747.69904     -20.132305      727.56674    
   3988000   300.98164      0.013605706    8.2600611      746.74375     -16.072603      730.67115    
   3989000   298.05807      0.013605706    8.8144385      739.49028     -17.510418      721.97986    
   3990000   303.63961      0.013605706    6.9510945      753.33825     -20.325114      733.01314    
   3991000   291.00425      0.013605706    7.2904924      721.98956     -22.300103      699.68946    
   3992000   303.52042      0.013605706    11.268602      753.04252     -20.145517      732.89701    
   3993000   296.06487      0.013605706    7.1522862      734.54511     -18.444438      716.10067    
   3994000   304.4373       0.013605706    6.3131993      755.31733     -22.925644      732.39169    
   3995000   300.04559      0.013605706    7.4020569      744.42137     -24.572179      719.84919    
   3996000   305.87039      0.013605706    8.0351006      758.87288     -22.84955       736.02332    
   3997000   291.83343      0.013605706    6.8899522      724.04679     -27.335059      696.71174    
   3998000   286.88045      0.013605706    6.4587614      711.7583      -23.242924      688.51537    
   3999000   300.13921      0.013605706    5.6992604      744.65366     -23.034259      721.6194     
   4000000   289.99007      0.013605706    13.270409      719.47335     -23.042316      696.43104    
Loop time of 12402.9 on 1 procs for 4000000 steps with 1500 atoms

Performance: 6.966 ns/day, 3.445 hours/ns, 322.504 timesteps/s, 483.757 katom-step/s
99.3% CPU use with 1 MPI tasks x 1 OpenMP threads

MPI task timing breakdown:
Section |  min time  |  avg time  |  max time  |%varavg| %total
---------------------------------------------------------------
Pair    | 814.57     | 814.57     | 814.57     |   0.0 |  6.57
Bond    | 184.41     | 184.41     | 184.41     |   0.0 |  1.49
Kspace  | 10523      | 10523      | 10523      |   0.0 | 84.85
Neigh   | 0.045741   | 0.045741   | 0.045741   |   0.0 |  0.00
Comm    | 34.037     | 34.037     | 34.037     |   0.0 |  0.27
Output  | 0.13245    | 0.13245    | 0.13245    |   0.0 |  0.00
Modify  | 824.05     | 824.05     | 824.05     |   0.0 |  6.64
Other   |            | 22.35      |            |       |  0.18

Nlocal:           1500 ave        1500 max        1500 min
Histogram: 1 0 0 0 0 0 0 0 0 0
Nghost:           1056 ave        1056 max        1056 min
Histogram: 1 0 0 0 0 0 0 0 0 0
Neighs:              0 ave           0 max           0 min
Histogram: 1 0 0 0 0 0 0 0 0 0

Total # of neighbors = 0
Ave neighs/atom = 0
Ave special neighs/atom = 2
Neighbor list builds = 17833
Dangerous builds = 0
write_data	last_conf.data pair ij
System init for write_data ...
PPPM initialization ...
  using 12-bit tables for long-range coulomb (src/kspace.cpp:342)
  G vector (1/distance) = 0.16705332
  grid = 30 30 30
  stencil order = 5
  estimated absolute RMS force accuracy = 0.028224335
  estimated relative force accuracy = 8.4996747e-05
  using double precision FFTW3
  3d grid and FFT values/proc = 42875 27000
Generated 1 of 1 mixed pair_coeff terms from arithmetic mixing rule
Total wall time: 3:26:43
