LAMMPS (29 Aug 2024 - Update 1)
  using 1 OpenMP thread(s) per MPI task
package gpu 1 gpuID 0
# GCMC for CO2 molecular fluid, rigid/small/nvt dynamics
# Rigid CO2 TraPPE model
# [Potoff and J.I. Siepmann, Vapor-liquid equilibria of
# mixtures containing alkanes, carbon dioxide and
# nitrogen AIChE J., 47,1676-1682 (2001)].

# global model settings

units           real
atom_style      full
boundary        p p p
pair_style      lj/cut/coul/long  12
pair_modify     mix arithmetic shift yes
kspace_style    pppm 1.0e-4
bond_style      harmonic
angle_style     harmonic
neigh_modify    one 4000

# box, start molecules on simple cubic lattice
region          mbox block 0 ${lbox} 0 ${lbox} 0 ${lbox} units box
region          mbox block 0 148 0 ${lbox} 0 ${lbox} units box
region          mbox block 0 148 0 148 0 ${lbox} units box
region          mbox block 0 148 0 148 0 148 units box
create_box      2 mbox                                       bond/types 1                                angle/types 1                               extra/bond/per/atom 2                       extra/angle/per/atom 1                      extra/special/per/atom 2
Created orthogonal box = (0 0 0) to (148 148 148)
  1 by 1 by 1 MPI processor grid
molecule        co2mol ../CO2.txt
Read molecule template co2mol:
# CO2 molecule file. TraPPE model.
  1 molecules
  0 fragments
  3 atoms with max type 2
  2 bonds with max type 1
  1 angles with max type 1
  0 dihedrals with max type 0
  0 impropers with max type 0
create_atoms   	0 random ${nmols} 34578 mbox mol co2mol 464563 overlap 1.2
create_atoms   	0 random 500 34578 mbox mol co2mol 464563 overlap 1.2
Created 1500 atoms
  using lattice units in orthogonal box = (0 0 0) to (148 148 148)
  create_atoms CPU = 0.013 seconds

# rigid CO2 TraPPE model

pair_coeff      1   1  0.053649   2.800
pair_coeff      2   2  0.156973   3.050
bond_coeff      1       0       1.16
angle_coeff     1       0       180

# masses

mass 1 12.0107
mass 2 15.9994

write_data init_conf.data  pair ij
System init for write_data ...
PPPM initialization ...
  using 12-bit tables for long-range coulomb (src/kspace.cpp:342)
  G vector (1/distance) = 0.16201075
  grid = 30 30 30
  stencil order = 5
  estimated absolute RMS force accuracy = 0.032622673
  estimated relative force accuracy = 9.8242209e-05
  using double precision FFTW3
  3d grid and FFT values/proc = 42875 27000
Generated 1 of 1 mixed pair_coeff terms from arithmetic mixing rule

# MD settings

group           co2 type 1 2
1500 atoms in group co2
velocity       	all create 300 54654
timestep        0.25

# rigid constraints with thermostat
fix             myrigidnvt co2 rigid/nvt molecule temp 300 300 $(100*dt)
fix             myrigidnvt co2 rigid/nvt molecule temp 300 300 25
  500 rigid bodies with 1500 atoms

thermo 1000
thermo_style custom step temp density press ke pe etotal


variable    mvol equal vol
variable    mden equal density
variable	mtmp equal temp
variable    mpre equal press

fix mydat all ave/time 1 4000 4000 v_mtmp v_mden v_mpre file statistics.dat ## every 1ps

run 4000000 ## 1ns

CITE-CITE-CITE-CITE-CITE-CITE-CITE-CITE-CITE-CITE-CITE-CITE-CITE

Your simulation uses code contributions which should be cited:

- GPU package (short-range, long-range and three-body potentials): doi:10.1016/j.cpc.2010.12.021, doi:10.1016/j.cpc.2011.10.012, doi:10.1016/j.cpc.2013.08.002, doi:10.1016/j.commatsci.2014.10.068, doi:10.1016/j.cpc.2016.10.020, doi:10.3233/APC200086

@Article{Brown11,
 author = {W. M. Brown and P. Wang and S. J. Plimpton and A. N. Tharrington},
 title = {Implementing Molecular Dynamics on Hybrid High Performance Computers---Short Range Forces},
 journal = {Comput.\ Phys.\ Commun.},
 year =    2011,
 volume =  182,
 pages =   {898--911},
 doi =     {10.1016/j.cpc.2010.12.021}
}

@Article{Brown12,
 author = {W. M. Brown and A. Kohlmeyer and S. J. Plimpton and A. N. Tharrington},
 title = {Implementing Molecular Dynamics on Hybrid High Performance Computers - Particle-Particle Particle-Mesh},
 journal = {Comput.\ Phys.\ Commun.},
 year =    2012,
 volume =  183,
 doi =     {10.1016/j.cpc.2011.10.012},
 pages =   {449--459}
}

@Article{Brown13,
 author = {W. M. Brown and Y. Masako},
 title = {Implementing Molecular Dynamics on Hybrid High Performance Computers---Three-Body Potentials},
 journal = {Comput.\ Phys.\ Commun.},
 year =    2013,
 volume =  184,
 pages =   {2785--2793},
 doi =     {10.1016/j.cpc.2013.08.002},
}

@Article{Trung15,
 author = {T. D. Nguyen and S. J. Plimpton},
 title = {Accelerating Dissipative Particle Dynamics Simulations for Soft Matter Systems},
 journal = {Comput.\ Mater.\ Sci.},
 year =    2015,
 doi =     {10.1016/j.commatsci.2014.10.068},
 volume =  100,
 pages =   {173--180}
}

@Article{Trung17,
 author = {T. D. Nguyen},
 title = {{GPU}-Accelerated {T}ersoff Potentials for Massively Parallel
    Molecular Dynamics Simulations},
 journal = {Comput.\ Phys.\ Commun.},
 year =    2017,
 doi =     {10.1016/j.cpc.2016.10.020},
 volume =  212,
 pages =   {113--122}
}

@inproceedings{Nikolskiy19,
 author = {V. Nikolskiy and V. Stegailov},
 title = {{GPU} Acceleration of Four-Site Water Models in {LAMMPS}},
 booktitle = {Proceedings of the International Conference on Parallel
    Computing (ParCo 2019), Prague, Czech Republic},
 doi =     {10.3233/APC200086},
 year =    2019
}

CITE-CITE-CITE-CITE-CITE-CITE-CITE-CITE-CITE-CITE-CITE-CITE-CITE

PPPM initialization ...
  using 12-bit tables for long-range coulomb (src/kspace.cpp:342)
  G vector (1/distance) = 0.16201075
  grid = 30 30 30
  stencil order = 5
  estimated absolute RMS force accuracy = 0.032622673
  estimated relative force accuracy = 9.8242209e-05
  using double precision FFTW3
  3d grid and FFT values/proc = 42875 27000
Generated 1 of 1 mixed pair_coeff terms from arithmetic mixing rule
Per MPI rank memory allocation (min/avg/max) = 11.38 | 11.38 | 11.38 Mbytes
   Step          Temp         Density         Press          KinEng         PotEng         TotEng    
         0   307.41471      0.011271465   -131.40286      762.70438      2218.1472      2980.8516    
      1000   316.83939      0.011271465   -2.807131       786.08726     -12.933931      773.15333    
      2000   295.62753      0.011271465    5.3373232      733.46005     -16.470318      716.98973    
      3000   292.52561      0.011271465    7.5938577      725.7641      -18.517269      707.24683    
      4000   300.16328      0.011271465    5.4286923      744.71336     -19.329478      725.38388    
      5000   312.47766      0.011271465    3.740564       775.26568     -21.886942      753.37874    
      6000   291.72706      0.011271465    4.8563521      723.78287     -24.615991      699.16688    
      7000   297.7422       0.011271465    15.062716      738.70661     -28.428721      710.27789    
      8000   314.072        0.011271465    5.4003257      779.22128     -26.852854      752.36842    
      9000   300.81869      0.011271465    5.9463148      746.33947     -26.70334       719.63613    
     10000   291.83166      0.011271465    5.9246055      724.0424      -25.711123      698.33128    
     11000   312.78551      0.011271465    6.4301719      776.02947     -31.944029      744.08544    
     12000   302.14224      0.011271465    5.7347583      749.62324     -31.993717      717.62952    
     13000   276.58078      0.011271465    5.3801505      686.20454     -29.240464      656.96407    
     14000   295.77579      0.011271465    8.5184761      733.82789     -32.711352      701.11654    
     15000   316.8279       0.011271465    5.9580442      786.05874     -30.835271      755.22347    
     16000   300.67369      0.011271465    0.78082829     745.97971     -32.543495      713.43622    
     17000   304.76771      0.011271465    10.369082      756.13709     -36.811916      719.32518    
     18000   306.94735      0.011271465    11.820715      761.54484     -41.49135       720.05349    
     19000   304.60732      0.011271465    8.1123962      755.73917     -42.562899      713.17627    
     20000   298.30862      0.011271465    6.2172065      740.11192     -46.029919      694.082      
     21000   298.55185      0.011271465    5.8672346      740.71537     -42.840426      697.87494    
     22000   301.38262      0.011271465    6.5774848      747.73859     -43.668269      704.07032    
     23000   296.33995      0.011271465    6.3166315      735.22758     -43.853363      691.37422    
     24000   276.6716       0.011271465    5.7229237      686.42988     -42.34864       644.08124    
     25000   293.37907      0.011271465    6.7535223      727.88157     -39.480602      688.40097    
     26000   299.65031      0.011271465    4.9694853      743.44067     -31.525844      711.91483    
     27000   295.99449      0.011271465    3.0576358      734.37048     -43.020008      691.35047    
     28000   298.57683      0.011271465    12.242865      740.77734     -45.833324      694.94402    
     29000   308.09403      0.011271465    3.882729       764.38978     -46.279137      718.11064    
     30000   287.03426      0.011271465   -0.66987806     712.13992     -45.875454      666.26447    
     31000   294.86651      0.011271465    7.5432614      731.57193     -49.116401      682.45553    
     32000   298.61281      0.011271465    10.446826      740.86661     -51.957567      688.90904    
     33000   307.43316      0.011271465    1.4951645      762.75014     -53.817824      708.93231    
     34000   289.52183      0.011271465    3.6309709      718.31164     -52.518777      665.79286    
     35000   285.76339      0.011271465    5.960856       708.98684     -46.829032      662.15781    
     36000   300.89569      0.011271465    6.0694608      746.5305      -51.686561      694.84394    
     37000   303.67365      0.011271465    2.6894542      753.4227      -51.978014      701.44468    
     38000   302.91111      0.011271465    5.942097       751.53081     -50.865109      700.6657     
     39000   308.18281      0.011271465    4.8902062      764.61004     -49.325666      715.28437    
     40000   303.50178      0.011271465    7.6024904      752.99627     -49.613488      703.38278    
     41000   289.97369      0.011271465    9.6463303      719.43271     -47.198844      672.23387    
     42000   307.24769      0.011271465   -2.890765       762.28998     -42.190048      720.09994    
     43000   307.30034      0.011271465    7.9842743      762.42061     -42.497453      719.92315    
     44000   281.54559      0.011271465    7.3675518      698.52238     -46.330948      652.19143    
     45000   292.86737      0.011271465    3.780943       726.61201     -47.930646      678.68137    
     46000   303.6966       0.011271465    5.6400936      753.47963     -46.592126      706.8875     
     47000   306.52708      0.011271465    3.9504795      760.50212     -47.202263      713.29986    
     48000   294.74505      0.011271465    7.4691913      731.2706      -46.255458      685.01514    
     49000   300.20916      0.011271465    3.7278953      744.82719     -44.556728      700.27046    
     50000   312.0787       0.011271465    3.1220848      774.27585     -44.380828      729.89502    
     51000   294.18776      0.011271465    9.0601463      729.88795     -45.888998      683.99895    
     52000   290.99158      0.011271465   -10.405018      721.95814     -47.466947      674.4912     
     53000   305.21612      0.011271465    9.889137       757.24961     -54.05839       703.19122    
     54000   299.29066      0.011271465    12.783465      742.54838     -53.074053      689.47433    
     55000   310.17615      0.011271465    2.2457468      769.55557     -51.792991      717.76258    
     56000   308.42327      0.011271465    2.6487843      765.20664     -51.966578      713.24006    
     57000   296.32291      0.011271465    7.3958771      735.18531     -51.708396      683.47691    
     58000   292.89455      0.011271465    6.0059066      726.67945     -51.13238       675.54707    
     59000   299.12684      0.011271465    2.3180648      742.14194     -51.38976       690.75218    
     60000   301.51496      0.011271465    3.9051615      748.06693     -49.302452      698.76448    
     61000   301.537        0.011271465    7.2248783      748.12161     -49.425469      698.69614    
     62000   313.18933      0.011271465    5.2783416      777.03137     -51.084298      725.94707    
     63000   311.31008      0.011271465    6.7376633      772.36888     -52.563846      719.80503    
     64000   292.53249      0.011271465    6.5109092      725.78118     -48.339855      677.44133    
     65000   300.6961       0.011271465    1.324257       746.03532     -57.062942      688.97238    
     66000   298.97739      0.011271465    4.196619       741.77114     -56.440224      685.33092    
     67000   307.11067      0.011271465    5.9074783      761.95003     -54.180073      707.76995    
     68000   292.50998      0.011271465    4.688026       725.72533     -53.510019      672.21532    
     69000   283.75621      0.011271465    3.7329554      704.00699     -53.73372       650.27327    
     70000   302.91972      0.011271465    1.4539959      751.55216     -48.964436      702.58773    
     71000   319.29678      0.011271465    6.4134548      792.18411     -49.296868      742.88724    
     72000   298.95243      0.011271465    6.1641251      741.70922     -47.422477      694.28674    
     73000   276.68988      0.011271465    5.5128137      686.47521     -52.279238      634.19598    
     74000   299.81282      0.011271465    5.9516391      743.84387     -53.632517      690.21135    
     75000   313.96428      0.011271465    7.6898782      778.95404     -56.812341      722.1417     
     76000   306.85904      0.011271465    5.1916919      761.32573     -50.401113      710.92461    
     77000   272.33419      0.011271465    1.6070732      675.66862     -51.769185      623.89944    
     78000   304.18303      0.011271465    7.974723       754.68649     -55.000236      699.68625    
     79000   313.28652      0.011271465    4.475299       777.27248     -54.609325      722.66316    
     80000   292.1781       0.011271465    5.3153417      724.90192     -51.723105      673.17882    
     81000   297.65119      0.011271465    7.0341645      738.48081     -51.191284      687.28953    
     82000   310.23398      0.011271465    6.3994357      769.69905     -49.858154      719.8409     
     83000   307.66506      0.011271465    4.7389375      763.32551     -52.823384      710.50212    
     84000   298.53756      0.011271465    6.4917801      740.67992     -46.992654      693.68727    
     85000   307.82762      0.011271465    8.1242107      763.72881     -50.916083      712.81273    
     86000   296.21136      0.011271465    7.8004521      734.90855     -51.929722      682.97882    
     87000   310.73444      0.011271465   -3.666076       770.9407      -51.856186      719.08451    
     88000   309.18228      0.011271465    3.6649208      767.08975     -49.527167      717.56258    
     89000   298.6317       0.011271465    8.7515432      740.91349     -52.894775      688.01872    
     90000   308.74429      0.011271465    6.3624993      766.00309     -55.882535      710.12056    
     91000   297.11583      0.011271465    8.4639091      737.15255     -51.874353      685.2782     
     92000   292.24561      0.011271465    6.2052175      725.06941     -50.862713      674.20669    
     93000   305.3031       0.011271465    4.0715147      757.4654      -50.822745      706.64265    
     94000   306.7724       0.011271465    5.7621983      761.11079     -55.928701      705.18209    
     95000   296.78031      0.011271465    11.986156      736.32014     -57.471696      678.84844    
     96000   297.22767      0.011271465    9.9651798      737.43004     -51.357792      686.07225    
     97000   306.27429      0.011271465   -4.7047363      759.87495     -55.973254      703.9017     
     98000   307.65962      0.011271465    9.4243119      763.312       -52.954049      710.35795    
     99000   297.97321      0.011271465    9.5693519      739.27975     -51.797398      687.48235    
    100000   280.0379       0.011271465    2.4164437      694.78174     -52.995939      641.7858     
    101000   300.54487      0.011271465   -0.44366345     745.6601      -50.388398      695.2717     
    102000   298.07773      0.011271465    7.2046544      739.53906     -53.038386      686.50068    
    103000   285.67467      0.011271465    6.2150975      708.76674     -48.023779      660.74296    
    104000   300.03758      0.011271465    4.2996691      744.4015      -48.35481       696.04669    
    105000   299.99344      0.011271465    3.3076026      744.292       -50.145198      694.14681    
    106000   313.25145      0.011271465    7.1392635      777.18548     -50.275096      726.91038    
    107000   301.3389       0.011271465    9.0515245      747.63011     -45.966218      701.66389    
    108000   295.23673      0.011271465    3.0652315      732.49045     -46.017262      686.47319    
    109000   309.50077      0.011271465    6.0150345      767.87994     -45.923769      721.95618    
    110000   295.5176       0.011271465    7.0638164      733.1873      -47.968834      685.21847    
    111000   296.47712      0.011271465    5.9458908      735.56791     -47.859041      687.70887    
    112000   316.31002      0.011271465    6.6322846      784.77388     -44.654899      740.11899    
    113000   296.57353      0.011271465    5.929981       735.80709     -47.179057      688.62804    
    114000   287.06239      0.011271465    7.1478588      712.2097      -47.258592      664.9511     
    115000   318.20964      0.011271465    5.9201754      789.4869      -46.316532      743.17037    
    116000   304.51076      0.011271465    6.9373279      755.4996      -42.486932      713.01267    
    117000   295.07539      0.011271465    7.7039087      732.09017     -47.815706      684.27447    
    118000   287.71572      0.011271465   -1.7667736      713.83064     -47.996024      665.83461    
    119000   324.18447      0.011271465    0.36591799     804.31061     -49.084172      755.22644    
    120000   319.56021      0.011271465    8.543928       792.83769     -50.017717      742.81997    
    121000   290.46597      0.011271465    10.297934      720.65407     -46.812748      673.84132    
    122000   298.23233      0.011271465    3.1611512      739.92263     -48.570668      691.35196    
    123000   313.59488      0.011271465    7.0490273      778.03754     -48.070533      729.967      
    124000   292.83661      0.011271465    6.5119764      726.53569     -49.104152      677.43154    
    125000   294.47515      0.011271465    2.1423778      730.60097     -53.451628      677.14934    
    126000   322.2056       0.011271465    2.2741733      799.40096     -53.446083      745.95488    
    127000   304.55969      0.011271465    8.1639176      755.62099     -50.01079       705.6102     
    128000   295.98409      0.011271465    10.786515      734.34468     -51.39564       682.94904    
    129000   300.12711      0.011271465    7.2944986      744.62364     -50.62405       693.99959    
    130000   302.66032      0.011271465    5.130134       750.9086      -50.24596       700.66264    
    131000   301.87121      0.011271465    6.5254652      748.95081     -48.827662      700.12314    
    132000   307.41126      0.011271465    10.02185       762.6958      -50.020104      712.67569    
    133000   295.00231      0.011271465    6.3093353      731.90886     -46.225568      685.68329    
    134000   310.07544      0.011271465    0.5458702      769.30573     -44.646431      724.65929    
    135000   317.39138      0.011271465    6.856241       787.45675     -46.112433      741.34432    
    136000   301.34882      0.011271465    7.2823909      747.65473     -47.079202      700.57552    
    137000   304.35296      0.011271465    2.2120398      755.10809     -45.271741      709.83635    
    138000   307.32421      0.011271465    7.2774364      762.47983     -41.418605      721.06122    
    139000   302.2033       0.011271465    4.9691751      749.77472     -42.877978      706.89675    
    140000   296.44293      0.011271465    3.3834805      735.48309     -42.96429       692.5188     
    141000   293.81586      0.011271465    6.9869205      728.96524     -40.008787      688.95645    
    142000   308.49474      0.011271465    5.5302768      765.38395     -44.868762      720.51519    
    143000   302.5425       0.011271465    5.9155896      750.61628     -46.490156      704.12612    
    144000   305.50131      0.011271465    5.6031645      757.95717     -46.738924      711.21825    
    145000   299.71731      0.011271465    6.2437344      743.6069      -40.170628      703.43627    
    146000   298.69348      0.011271465    6.812874       741.06675     -42.224531      698.84222    
    147000   303.25707      0.011271465    6.9859507      752.38915     -46.313144      706.07601    
    148000   298.37625      0.011271465    6.0430958      740.27971     -41.908412      698.37129    
    149000   284.67259      0.011271465    5.0399226      706.28055     -46.33593       659.94462    
    150000   304.31747      0.011271465    0.7557841      755.02003     -43.902144      711.11788    
    151000   301.2355       0.011271465    8.2015774      747.37358     -40.753716      706.61986    
    152000   299.73322      0.011271465    9.4268975      743.64637     -38.455537      705.19084    
    153000   295.27005      0.011271465    5.481894       732.57312     -41.339831      691.23329    
    154000   310.57813      0.011271465   -1.6702876      770.55291     -41.410967      729.14194    
    155000   301.85201      0.011271465    10.111936      748.90315     -44.364157      704.53899    
    156000   295.65663      0.011271465    9.1782861      733.53225     -43.083727      690.44852    
    157000   286.33452      0.011271465   -0.90436597     710.40384     -41.375374      669.02847    
    158000   301.70291      0.011271465    5.8523991      748.53323     -42.847748      705.68548    
    159000   298.80972      0.011271465    16.606232      741.35515     -45.318512      696.03664    
    160000   295.75743      0.011271465    12.427996      733.78234     -40.498941      693.2834     
    161000   298.14016      0.011271465    2.8239841      739.69396     -45.494277      694.19968    
    162000   304.02208      0.011271465    10.650103      754.28717     -48.865495      705.42168    
    163000   294.79709      0.011271465    8.6266913      731.39971     -49.034435      682.36528    
    164000   296.54341      0.011271465   -0.78497112     735.73237     -47.078381      688.65399    
    165000   301.37703      0.011271465    2.3530178      747.72473     -47.222407      700.50232    
    166000   304.87758      0.011271465    13.129023      756.40968     -47.081482      709.3282     
    167000   297.84551      0.011271465    9.4250742      738.96293     -46.317937      692.64499    
    168000   304.88303      0.011271465    1.4144296      756.4232      -49.622623      706.80058    
    169000   298.26138      0.011271465    2.7446626      739.99469     -47.562943      692.43175    
    170000   308.9292       0.011271465    11.19671       766.46186     -47.901607      718.56025    
    171000   294.02692      0.011271465    6.4303111      729.4889      -45.594136      683.89476    
    172000   304.57081      0.011271465    4.9569091      755.64857     -43.922373      711.7262     
    173000   310.45424      0.011271465    1.651561       770.24552     -45.672926      724.5726     
    174000   301.46482      0.011271465    6.5624281      747.94252     -44.80252       703.14       
    175000   294.05916      0.011271465    8.0170964      729.56888     -41.993129      687.57575    
    176000   301.32868      0.011271465    5.2292826      747.60475     -38.521304      709.08345    
    177000   301.39382      0.011271465    6.7660351      747.76638     -35.435117      712.33126    
    178000   318.87845      0.011271465    6.7681262      791.14621     -40.629026      750.51719    
    179000   296.34965      0.011271465    5.9169624      735.25165     -39.61919       695.63246    
    180000   287.26252      0.011271465    5.5810267      712.70622     -38.880407      673.82582    
    181000   305.16741      0.011271465    6.7444933      757.12876     -40.548295      716.58046    
    182000   307.72621      0.011271465    7.9248105      763.4772      -41.421904      722.05529    
    183000   300.88219      0.011271465   -1.4605161      746.49701     -41.361642      705.13537    
    184000   299.09773      0.011271465    3.2949269      742.06972     -42.400383      699.66933    
    185000   311.98722      0.011271465    8.4465763      774.04888     -40.874792      733.17409    
    186000   297.59633      0.011271465    6.2342322      738.34469     -45.866713      692.47798    
    187000   286.39184      0.011271465    4.3789229      710.54606     -49.232472      661.31359    
    188000   307.20511      0.011271465    6.1286965      762.18434     -44.649811      717.53452    
    189000   301.12249      0.011271465    7.6655375      747.09319     -39.257001      707.83619    
    190000   312.27199      0.011271465    3.2172119      774.75541     -43.144966      731.61044    
    191000   300.95314      0.011271465    6.6344294      746.67303     -41.102884      705.57015    
    192000   301.22047      0.011271465    10.213244      747.33629     -45.755856      701.58043    
    193000   307.77889      0.011271465    4.9530536      763.60791     -44.258331      719.34957    
    194000   304.90251      0.011271465    1.02412        756.47153     -46.569955      709.90157    
    195000   322.63001      0.011271465    5.7673346      800.45395     -47.577344      752.87661    
    196000   297.89164      0.011271465    6.3427873      739.07736     -47.387361      691.69       
    197000   294.10707      0.011271465    9.9612265      729.68776     -47.206737      682.48102    
    198000   300.39581      0.011271465    5.5983144      745.29028     -43.758834      701.53145    
    199000   299.74198      0.011271465    2.4622638      743.66811     -44.117943      699.55017    
    200000   298.5895       0.011271465    4.5349505      740.80879     -44.736984      696.07181    
    201000   309.69548      0.011271465    8.8791601      768.36302     -45.246875      723.11614    
    202000   289.1982       0.011271465    7.4713594      717.50871     -48.452697      669.05601    
    203000   283.52416      0.011271465    5.0036883      703.43126     -45.920766      657.5105     
    204000   309.3396       0.011271465    4.7350304      767.48007     -50.073408      717.40666    
    205000   308.35863      0.011271465    7.3058237      765.04626     -46.823729      718.22253    
    206000   304.76962      0.011271465    5.4803985      756.14182     -51.277714      704.86411    
    207000   293.62275      0.011271465    9.1016376      728.48615     -51.073568      677.41258    
    208000   304.07266      0.011271465    5.9040505      754.41264     -45.79619       708.61645    
    209000   308.56181      0.011271465    4.9531711      765.55037     -46.887798      718.66257    
    210000   297.85335      0.011271465    6.047342       738.98237     -47.475311      691.50706    
    211000   292.95841      0.011271465    5.5262499      726.83788     -44.626599      682.21128    
    212000   304.74797      0.011271465    3.4857335      756.08812     -44.209396      711.87872    
    213000   309.08673      0.011271465    3.8385388      766.8527      -46.170732      720.68197    
    214000   301.92507      0.011271465    6.4758186      749.08443     -42.676039      706.40839    
    215000   289.15899      0.011271465    7.0616077      717.41142     -47.378211      670.03321    
    216000   295.12266      0.011271465    6.3416814      732.20745     -42.570554      689.63689    
    217000   308.25241      0.011271465    5.687938       764.78272     -41.559926      723.22279    
    218000   297.18469      0.011271465    5.9292532      737.32341     -41.932161      695.39124    
    219000   293.0379       0.011271465    6.357382       727.0351      -40.098339      686.93676    
    220000   297.5761       0.011271465    5.3712451      738.29451     -40.894732      697.39977    
    221000   305.54393      0.011271465    5.5177849      758.06292     -41.608011      716.45491    
    222000   308.19475      0.011271465    5.8105399      764.63967     -45.133862      719.50581    
    223000   294.74652      0.011271465    7.0254427      731.27424     -45.007459      686.26678    
    224000   286.88404      0.011271465    5.3060798      711.76722     -42.445576      669.32164    
    225000   310.59897      0.011271465    5.6657076      770.60461     -43.339368      727.26525    
    226000   311.66896      0.011271465    6.304407       773.25929     -44.451676      728.80761    
    227000   301.4779       0.011271465    5.7424693      747.97499     -42.652841      705.32215    
    228000   296.51982      0.011271465    4.7483845      735.67385     -44.261615      691.41224    
    229000   317.84624      0.011271465    8.1770458      788.58527     -44.448287      744.13699    
    230000   299.82912      0.011271465    9.8613663      743.88432     -39.833776      704.05055    
    231000   295.37058      0.011271465    4.9603722      732.82256     -39.005072      693.81749    
    232000   309.34096      0.011271465    6.5287669      767.48346     -40.162719      727.32074    
    233000   313.92747      0.011271465    4.8280474      778.8627      -37.420577      741.44212    
    234000   289.04228      0.011271465    5.7993759      717.12186     -35.392396      681.72946    
    235000   299.93341      0.011271465    5.7252047      744.14306     -39.917932      704.22513    
    236000   306.74956      0.011271465    7.3769043      761.05412     -36.46168       724.59244    
    237000   303.05555      0.011271465    6.6648165      751.88917     -38.911547      712.97762    
    238000   292.72888      0.011271465    4.7375432      726.26842     -37.614034      688.65439    
    239000   306.66216      0.011271465    6.3462966      760.83728     -42.796724      718.04055    
    240000   302.38893      0.011271465    5.5527814      750.23528     -43.7692        706.46608    
    241000   295.06925      0.011271465    5.9798371      732.07494     -37.469042      694.6059     
    242000   285.71289      0.011271465    5.376405       708.86157     -42.191209      666.67036    
    243000   288.61298      0.011271465    6.8403538      716.05677     -40.417905      675.63887    
    244000   312.2679       0.011271465    6.8351195      774.74527     -41.649809      733.09547    
    245000   301.19412      0.011271465    5.1552347      747.27091     -40.266828      707.00408    
    246000   284.80183      0.011271465    8.3777147      706.60118     -40.941085      665.66009    
    247000   306.36611      0.011271465    7.4123337      760.10276     -39.079728      721.02303    
    248000   311.79701      0.011271465    5.4730984      773.57697     -38.138102      735.43887    
    249000   291.66682      0.011271465    3.8285783      723.63342     -41.176715      682.4567     
    250000   289.12454      0.011271465    8.2650971      717.32595     -36.934468      680.39148    
    251000   282.6836       0.011271465    9.4279772      701.3458      -38.294984      663.05082    
    252000   307.14414      0.011271465    6.4159343      762.03308     -41.319841      720.71324    
    253000   295.63936      0.011271465    3.5030987      733.48941     -34.061667      699.42775    
    254000   298.80352      0.011271465    7.7989259      741.33977     -34.849448      706.49032    
    255000   301.11661      0.011271465    8.5799095      747.07861     -35.497575      711.58104    
    256000   300.30474      0.011271465    6.3280595      745.06435     -32.148937      712.91541    
    257000   299.56406      0.011271465    5.5795188      743.2267      -37.016994      706.2097     
    258000   313.90297      0.011271465    7.2753156      778.80193     -35.745462      743.05646    
    259000   300.80916      0.011271465    7.1940264      746.31583     -37.261884      709.05394    
    260000   300.88893      0.011271465    6.4739947      746.51372     -34.415302      712.09842    
    261000   302.47578      0.011271465    5.3602987      750.45076     -35.897305      714.55346    
    262000   305.7142       0.011271465    4.0716374      758.48535     -38.355181      720.13017    
    263000   289.35317      0.011271465    6.9384636      717.8932      -38.576412      679.31679    
    264000   295.59647      0.011271465    8.6246387      733.38298     -39.018104      694.36488    
    265000   314.74496      0.011271465    7.8404252      780.89091     -36.907068      743.98384    
    266000   297.15428      0.011271465    4.9157894      737.24796     -38.406268      698.84169    
    267000   292.97972      0.011271465    7.192889       726.89076     -40.326551      686.56421    
    268000   307.63515      0.011271465    1.9861497      763.25129     -39.722105      723.52919    
    269000   312.05742      0.011271465   -6.3487789      774.22307     -33.634654      740.58842    
    270000   295.70978      0.011271465    6.9847644      733.66411     -33.466426      700.19769    
    271000   274.71058      0.011271465    10.802472      681.56452     -32.211805      649.35272    
    272000   300.82037      0.011271465    15.01767       746.34363     -33.521286      712.82234    
    273000   314.58143      0.011271465    5.8635618      780.4852      -29.949643      750.53556    
    274000   297.66438      0.011271465    1.741541       738.51352     -30.370159      708.14336    
    275000   291.91007      0.011271465    9.2094286      724.23693     -29.574623      694.6623     
    276000   306.80507      0.011271465    8.8367006      761.19184     -38.406879      722.78496    
    277000   306.85207      0.011271465    1.9013724      761.30845     -35.079521      726.22893    
    278000   295.71506      0.011271465    5.6078324      733.67721     -31.600769      702.07645    
    279000   308.39069      0.011271465    6.0980299      765.12581     -36.498214      728.6276     
    280000   293.12621      0.011271465    6.0887315      727.2542      -33.518865      693.73534    
    281000   295.49803      0.011271465    5.5889322      733.13876     -31.224306      701.91445    
    282000   291.12672      0.011271465    6.8447665      722.29341     -35.634787      686.65863    
    283000   300.14697      0.011271465    6.1096602      744.6729      -38.050176      706.62272    
    284000   295.65096      0.011271465    5.7111365      733.51819     -35.335719      698.18247    
    285000   299.62396      0.011271465    5.9413616      743.37531     -37.566811      705.8085     
    286000   306.53858      0.011271465    8.8288603      760.53067     -39.825697      720.70497    
    287000   297.19265      0.011271465    5.1261819      737.34315     -40.957133      696.38602    
    288000   298.86752      0.011271465    5.9830189      741.49854     -37.27773       704.22081    
    289000   302.95617      0.011271465    4.7664781      751.64261     -33.392691      718.24992    
    290000   293.28011      0.011271465    5.5133373      727.63603     -34.997445      692.63858    
    291000   290.85625      0.011271465    5.7727817      721.62237     -35.707531      685.91483    
    292000   288.94582      0.011271465   -0.50502718     716.88254     -34.537775      682.34476    
    293000   298.35879      0.011271465    5.201089       740.23638     -34.332466      705.90392    
    294000   307.085        0.011271465    8.8062566      761.88636     -35.126616      726.75974    
    295000   292.12048      0.011271465   -1.592648       724.75897     -32.769187      691.98978    
    296000   301.16303      0.011271465    7.6592919      747.19378     -36.616053      710.57773    
    297000   305.22561      0.011271465    7.9125613      757.27316     -33.450185      723.82298    
    298000   329.66194      0.011271465    8.4196578      817.90037     -35.54967       782.3507     
    299000   299.24805      0.011271465    1.9350927      742.44267     -36.078298      706.36437    
    300000   281.93455      0.011271465    6.5356894      699.48739     -37.352438      662.13495    
    301000   304.0786       0.011271465    7.5002172      754.42738     -33.561744      720.86564    
    302000   307.30371      0.011271465    5.9238834      762.42898     -37.95271       724.47627    
    303000   291.70419      0.011271465    5.8287795      723.72613     -34.344324      689.3818     
    304000   296.65085      0.011271465    7.5684959      735.99894     -36.943145      699.0558     
    305000   309.81471      0.011271465    9.2574263      768.65884     -36.693089      731.96576    
    306000   310.97813      0.011271465   -1.5627766      771.54532     -33.675432      737.86989    
    307000   299.57679      0.011271465   -0.76430565     743.25827     -36.316383      706.94189    
    308000   302.12146      0.011271465    8.5097593      749.57167     -37.080141      712.49153    
    309000   305.39502      0.011271465    13.931014      757.69347     -36.046785      721.64668    
    310000   296.42986      0.011271465    9.5299172      735.45066     -34.2369        701.21376    
    311000   299.47111      0.011271465    0.77286988     742.99608     -38.890538      704.10554    
    312000   295.12025      0.011271465    14.545146      732.20147     -38.357353      693.84411    
    313000   290.86746      0.011271465    11.940142      721.65018     -43.70342       677.94676    
    314000   300.76316      0.011271465    10.612153      746.20169     -39.035422      707.16627    
    315000   309.35721      0.011271465    1.2990752      767.52377     -40.33344       727.19033    
    316000   289.96034      0.011271465    4.5114721      719.39961     -30.817336      688.58227    
    317000   304.77161      0.011271465    9.6781091      756.14676     -41.343254      714.80351    
    318000   306.11229      0.011271465    5.9848043      759.47302     -42.51162       716.9614     
    319000   301.17541      0.011271465   -3.0435916      747.22449     -37.628906      709.59558    
    320000   298.32192      0.011271465    2.2491335      740.1449      -45.137878      695.00702    
    321000   292.12627      0.011271465    9.9315207      724.77333     -42.945953      681.82738    
    322000   299.74914      0.011271465    6.9556545      743.68587     -35.496105      708.18977    
    323000   299.41268      0.011271465    3.215398       742.85112     -38.75003       704.10109    
    324000   297.81058      0.011271465    6.6829317      738.87626     -34.717338      704.15892    
    325000   302.69635      0.011271465    9.7312125      750.99798     -38.745139      712.25284    
    326000   303.24056      0.011271465    9.7957268      752.34819     -40.672164      711.67603    
    327000   305.38282      0.011271465    1.7259329      757.66319     -36.374864      721.28832    
    328000   305.18851      0.011271465    4.8861313      757.18111     -40.794745      716.38637    
    329000   300.37161      0.011271465    8.3644319      745.23025     -36.351457      708.87879    
    330000   301.1398       0.011271465    5.9186899      747.13615     -36.522927      710.61322    
    331000   302.12083      0.011271465    4.9423008      749.57009     -35.19425       714.37584    
    332000   301.1544       0.011271465    4.7471464      747.17237     -38.102717      709.06965    
    333000   288.19526      0.011271465    7.3158577      715.02039     -36.358842      678.66155    
    334000   292.75348      0.011271465    8.6475255      726.32946     -35.90984       690.41962    
    335000   312.73219      0.011271465    5.8163292      775.89719     -34.39293       741.50426    
    336000   309.36607      0.011271465    5.9143299      767.54575     -35.145656      732.40009    
    337000   297.22343      0.011271465    6.9984828      737.41952     -34.322602      703.09692    
    338000   297.55066      0.011271465    5.6227497      738.23139     -29.3582        708.87319    
    339000   303.99203      0.011271465    6.6994521      754.21261     -31.278053      722.93455    
    340000   295.543        0.011271465    3.660842       733.25033     -28.986119      704.26422    
    341000   308.26852      0.011271465    9.2388593      764.82269     -32.940036      731.88265    
    342000   304.53928      0.011271465    6.8089681      755.57035     -32.665165      722.90518    
    343000   291.55769      0.011271465    2.8916263      723.36266     -30.732095      692.63057    
    344000   297.96162      0.011271465    7.2529093      739.25099     -34.900856      704.35013    
    345000   308.8768       0.011271465    9.2320001      766.33186     -27.866244      738.46561    
    346000   299.61351      0.011271465    3.5328168      743.34937     -29.565673      713.7837     
    347000   288.51829      0.011271465    6.793356       715.82183     -31.353363      684.46847    
    348000   289.28712      0.011271465    7.6996214      717.72933     -30.339713      687.38961    
    349000   307.66615      0.011271465    4.8756654      763.32819     -29.963785      733.36441    
    350000   301.52609      0.011271465    5.0565589      748.09454     -27.056033      721.0385     
    351000   294.31239      0.011271465    9.6639964      730.19715     -30.462078      699.73507    
    352000   302.96547      0.011271465    6.258355       751.66569     -31.887678      719.77801    
    353000   292.58964      0.011271465    5.5101839      725.92297     -31.179122      694.74385    
    354000   307.72058      0.011271465    10.619514      763.46324     -27.871039      735.5922     
    355000   310.31233      0.011271465    5.1401972      769.89343     -27.904234      741.9892     
    356000   296.75532      0.011271465    3.1067772      736.25812     -26.791641      709.46648    
    357000   303.69689      0.011271465    4.2816124      753.48036     -28.237666      725.24269    
    358000   293.10421      0.011271465    5.7267158      727.19962     -31.61773       695.58189    
    359000   291.96306      0.011271465    7.0192433      724.36839     -32.105056      692.26333    
    360000   291.69996      0.011271465    7.8680534      723.71564     -29.583315      694.13232    
    361000   312.2861       0.011271465    6.3549926      774.79043     -33.937308      740.85312    
    362000   297.78068      0.011271465    3.5643366      738.80208     -34.188018      704.61406    
    363000   295.75995      0.011271465    6.6426632      733.78858     -28.039738      705.74884    
    364000   311.91508      0.011271465    7.978427       773.86991     -30.834688      743.03522    
    365000   299.08903      0.011271465    5.3679569      742.04812     -28.463539      713.58458    
    366000   293.4339       0.011271465    5.7595833      728.01759     -29.327828      698.68976    
    367000   287.36854      0.011271465    10.314522      712.96928     -29.641277      683.328      
    368000   311.84095      0.011271465    7.0245971      773.68598     -29.417699      744.26828    
    369000   295.37229      0.011271465    0.75283192     732.82678     -31.149912      701.67687    
    370000   303.54072      0.011271465    3.4715922      753.09288     -34.725433      718.36745    
    371000   298.63996      0.011271465    6.9256286      740.93397     -35.945805      704.98816    
    372000   302.87481      0.011271465    6.589069       751.44076     -33.449719      717.99104    
    373000   311.88206      0.011271465    8.4960635      773.78799     -30.422992      743.365      
    374000   307.31739      0.011271465    3.0660289      762.46291     -30.922834      731.54008    
    375000   296.18767      0.011271465    4.6280063      734.84978     -34.200814      700.64896    
    376000   291.63699      0.011271465    5.7529477      723.55941     -32.808634      690.75078    
    377000   307.19602      0.011271465    9.6845655      762.16181     -32.36696       729.79485    
    378000   304.037        0.011271465    7.2751995      754.32417     -29.339228      724.98495    
    379000   307.22158      0.011271465    5.9516412      762.22522     -30.38442       731.8408     
    380000   296.59803      0.011271465    1.9541067      735.86789     -26.851054      709.01683    
    381000   297.59034      0.011271465    6.2604102      738.32982     -25.686997      712.64283    
    382000   296.80496      0.011271465    5.9982175      736.3813      -25.765057      710.61624    
    383000   301.4423       0.011271465    5.9053236      747.88664     -26.474234      721.41241    
    384000   307.89064      0.011271465    5.6536612      763.88516     -23.798553      740.08661    
    385000   304.46635      0.011271465    6.5251607      755.3894      -25.507152      729.88224    
    386000   311.58525      0.011271465    7.2546421      773.0516      -23.90456       749.14704    
    387000   305.0964       0.011271465    6.2655107      756.95259     -24.74146       732.21113    
    388000   292.62655      0.011271465    5.8002508      726.01454     -27.222006      698.79254    
    389000   291.06832      0.011271465    4.0647247      722.14853     -27.394943      694.75358    
    390000   299.85944      0.011271465    5.8260659      743.95954     -29.081575      714.87796    
    391000   299.86387      0.011271465    6.3704612      743.97054     -26.155548      717.81499    
    392000   295.59309      0.011271465    4.4909408      733.37461     -27.659728      705.71488    
    393000   305.78795      0.011271465    6.1574432      758.66835     -29.088391      729.57995    
    394000   322.42302      0.011271465    7.7801565      799.94041     -30.494593      769.44581    
    395000   306.00882      0.011271465    6.6543119      759.21631     -29.775728      729.44058    
    396000   292.80539      0.011271465    5.9068933      726.45824     -29.899768      696.55847    
    397000   292.7577       0.011271465    5.4999446      726.33992     -31.204177      695.13574    
    398000   312.39353      0.011271465    6.5734403      775.05696     -30.952604      744.10435    
    399000   294.88652      0.011271465    6.4732235      731.62159     -25.648116      705.97347    
    400000   280.73504      0.011271465    5.2680065      696.51136     -30.864684      665.64668    
    401000   298.6091       0.011271465    6.158161       740.85742     -31.083857      709.77356    
    402000   296.30536      0.011271465    6.6726545      735.14176     -26.266807      708.87495    
    403000   302.99823      0.011271465    5.2722379      751.74697     -29.248581      722.49839    
    404000   308.42462      0.011271465    6.0460077      765.20999     -29.378965      735.83103    
    405000   288.37211      0.011271465    6.813304       715.45916     -30.421414      685.03774    
    406000   290.88104      0.011271465    6.764836       721.68388     -33.576591      688.10729    
    407000   310.62799      0.011271465    5.7226707      770.67661     -32.539773      738.13684    
    408000   303.08026      0.011271465    5.1561579      751.95047     -32.017206      719.93327    
    409000   291.61479      0.011271465    5.5585016      723.50434     -29.40732       694.09702    
    410000   301.84954      0.011271465    6.4500573      748.89703     -26.018149      722.87888    
    411000   298.76612      0.011271465    6.2458475      741.24699     -26.82418       714.42281    
    412000   294.82743      0.011271465    5.3663299      731.47498     -24.637938      706.83705    
    413000   306.27455      0.011271465    9.2623795      759.87561     -25.06128       734.81433    
    414000   294.23192      0.011271465    7.3121389      729.99751     -25.299295      704.69822    
    415000   307.31545      0.011271465    3.7544418      762.4581      -25.389243      737.06886    
    416000   297.88056      0.011271465    9.4610445      739.04987     -20.624943      718.42493    
    417000   294.73125      0.011271465    9.4195892      731.23635     -20.725869      710.51049    
    418000   294.29162      0.011271465    5.4113153      730.14563     -23.394362      706.75127    
    419000   312.04663      0.011271465    2.5577279      774.19629     -26.94465       747.25164    
    420000   298.94615      0.011271465    5.9808075      741.69363     -25.92549       715.76814    
    421000   297.81129      0.011271465    7.5034688      738.87802     -25.499489      713.37853    
    422000   295.54625      0.011271465    4.3805717      733.2584      -25.059694      708.19871    
    423000   298.22811      0.011271465    3.9790536      739.91216     -22.624472      717.28769    
    424000   304.59279      0.011271465    6.091717       755.70311     -22.390834      733.31228    
    425000   307.38305      0.011271465    9.2257477      762.62582     -23.10235       739.52347    
    426000   302.73147      0.011271465    5.4735934      751.08513     -27.04053       724.0446     
    427000   298.64525      0.011271465    6.0683657      740.9471      -28.739903      712.2072     
    428000   303.02438      0.011271465    6.046865       751.81184     -31.289792      720.52205    
    429000   293.15609      0.011271465    6.5323842      727.32835     -25.973645      701.3547     
    430000   290.88019      0.011271465    4.2225763      721.68178     -26.50506       695.17672    
    431000   313.66955      0.011271465    5.6418082      778.22281     -26.36866       751.85415    
    432000   311.71056      0.011271465    12.294406      773.3625      -27.580349      745.78215    
    433000   290.49671      0.011271465    3.9593837      720.73034     -23.26047       697.46987    
    434000   294.95045      0.011271465    4.0341866      731.78019     -23.517423      708.26277    
    435000   307.1913       0.011271465    7.5506957      762.15008     -20.124675      742.0254     
    436000   300.13708      0.011271465    10.773683      744.64837     -20.198682      724.44969    
    437000   301.37856      0.011271465    4.8787654      747.72851     -21.453348      726.27517    
    438000   291.69209      0.011271465    5.126124       723.69611     -25.053274      698.64284    
    439000   306.39963      0.011271465    3.4627595      760.18592     -26.624246      733.56168    
    440000   321.29026      0.011271465    9.2779473      797.12999     -26.345885      770.7841     
    441000   298.28655      0.011271465    8.1678999      740.05715     -28.106046      711.95111    
    442000   279.59095      0.011271465    10.795883      693.67286     -26.090425      667.58243    
    443000   299.74115      0.011271465    1.8611034      743.66607     -21.620161      722.0459     
    444000   315.47496      0.011271465   -0.13835175     782.70208     -22.576415      760.12567    
    445000   296.93995      0.011271465    7.8773447      736.7162      -25.074311      711.64189    
    446000   294.11478      0.011271465    6.5911952      729.70687     -24.888361      704.81851    
    447000   306.45004      0.011271465   -4.8983378      760.311       -23.79998       736.51102    
    448000   302.43209      0.011271465    0.35686406     750.34234     -22.354273      727.98807    
    449000   298.14825      0.011271465    5.9546701      739.71402     -19.311636      720.40238    
    450000   301.18166      0.011271465    8.5696986      747.24001     -21.915416      725.3246     
    451000   306.9441       0.011271465    7.7592947      761.53677     -21.299842      740.23693    
    452000   284.07612      0.011271465    1.8241093      704.80069     -21.651343      683.14935    
    453000   307.16374      0.011271465    4.1760692      762.08171     -22.956923      739.12479    
    454000   308.15996      0.011271465    6.3994089      764.55337     -24.954946      739.59842    
    455000   306.00112      0.011271465    7.8188249      759.19722     -29.305334      729.89188    
    456000   300.75169      0.011271465    5.1216609      746.17324     -26.832084      719.34116    
    457000   308.19247      0.011271465    6.1612265      764.634       -25.203589      739.43041    
    458000   302.15366      0.011271465    7.387413       749.65157     -24.615853      725.03572    
    459000   299.40393      0.011271465    7.4248887      742.82939     -23.259255      719.57014    
    460000   294.85682      0.011271465    3.5553311      731.5479      -24.730275      706.81762    
    461000   326.1798       0.011271465    5.159948       809.26107     -23.11293       786.14814    
    462000   304.11201      0.011271465    6.4481765      754.51028     -24.283749      730.22654    
    463000   293.64691      0.011271465    5.8996471      728.54608     -24.05356       704.49252    
    464000   285.00467      0.011271465    5.8036864      707.10444     -24.437552      682.66688    
    465000   296.00269      0.011271465    4.2386681      734.39083     -26.497321      707.8935     
    466000   312.91738      0.011271465    6.1700736      776.35664     -25.237424      751.11921    
    467000   292.28891      0.011271465    10.405979      725.17684     -28.443558      696.73328    
    468000   294.48466      0.011271465    5.7120728      730.62457     -31.084649      699.53992    
    469000   296.30283      0.011271465    2.9225439      735.1355      -24.219659      710.91584    
    470000   300.81298      0.011271465    5.9797752      746.3253      -24.855876      721.46943    
    471000   301.60647      0.011271465    6.1320603      748.29396     -24.067657      724.22631    
    472000   314.49761      0.011271465    9.0215576      780.27725     -21.901445      758.37581    
    473000   298.0544       0.011271465    7.7043835      739.48118     -23.177609      716.30357    
    474000   289.27606      0.011271465    2.8539379      717.70187     -23.968532      693.73334    
    475000   313.45231      0.011271465    10.475851      777.68383     -23.525286      754.15854    
    476000   302.80959      0.011271465    9.0929376      751.27895     -31.200976      720.07797    
    477000   294.07837      0.011271465    6.438576       729.61653     -31.176342      698.44019    
    478000   297.95529      0.011271465    2.7954129      739.23529     -27.354177      711.88111    
    479000   310.37425      0.011271465    6.6212644      770.04707     -27.903541      742.14353    
    480000   296.69181      0.011271465    7.2817298      736.10057     -30.151863      705.94871    
    481000   294.48027      0.011271465    5.7802414      730.61366     -24.250186      706.36348    
    482000   298.18446      0.011271465    6.2535839      739.80388     -26.823293      712.98058    
    483000   294.90772      0.011271465    2.704387       731.67418     -27.044967      704.62921    
    484000   294.81472      0.011271465    5.0081858      731.44344     -25.595361      705.84808    
    485000   290.6249       0.011271465    8.1602486      721.04839     -27.785018      693.26338    
    486000   312.26367      0.011271465    6.4085428      774.73477     -26.853526      747.88124    
    487000   312.8905       0.011271465    5.5953406      776.28995     -24.778126      751.51182    
    488000   290.32401      0.011271465    6.222476       720.30188     -20.603182      699.6987     
    489000   290.78467      0.011271465    4.7292394      721.44478     -22.169238      699.27554    
    490000   299.99825      0.011271465    6.5389796      744.30393     -21.099843      723.20409    
    491000   301.30272      0.011271465    6.395937       747.54036     -20.702937      726.83742    
    492000   298.57564      0.011271465    5.7779742      740.77439     -19.623868      721.15052    
    493000   310.82679      0.011271465    6.7667217      771.16983     -22.961083      748.20874    
    494000   311.55764      0.011271465    5.397203       772.98308     -22.50541       750.47767    
    495000   290.38346      0.011271465    5.851284       720.44938     -22.570609      697.87877    
    496000   301.42126      0.011271465    6.6926001      747.83445     -26.029123      721.80533    
    497000   322.93001      0.011271465    3.3019809      801.19827     -26.267376      774.93089    
    498000   285.83622      0.011271465    3.2369361      709.16755     -26.661539      682.50601    
    499000   298.78549      0.011271465    8.0928736      741.29503     -26.298764      714.99626    
    500000   300.47799      0.011271465    6.1720135      745.49417     -26.875454      718.61872    
    501000   300.9922       0.011271465    4.4285264      746.76995     -26.735266      720.03468    
    502000   303.31865      0.011271465    6.9207681      752.54193     -25.307707      727.23422    
    503000   297.93247      0.011271465    6.2059544      739.17868     -20.53932       718.63936    
    504000   296.35533      0.011271465    6.1051977      735.26574     -23.281491      711.98425    
    505000   304.58427      0.011271465    6.1967389      755.68196     -21.410025      734.27193    
    506000   301.42623      0.011271465    6.4602484      747.84678     -22.740009      725.10677    
    507000   304.60381      0.011271465    5.4609227      755.73044     -24.310536      731.41991    
    508000   293.86088      0.011271465    5.6761288      729.07695     -23.681961      705.39499    
    509000   302.3949       0.011271465    6.308328       750.25008     -24.143862      726.10621    
    510000   289.73804      0.011271465    4.2697292      718.84807     -24.327768      694.5203     
    511000   299.88167      0.011271465    5.2604797      744.01469     -24.109463      719.90523    
    512000   300.83348      0.011271465    4.6449091      746.37615     -26.207168      720.16898    
    513000   301.58737      0.011271465    5.8719158      748.24657     -22.540062      725.70651    
    514000   286.81636      0.011271465    5.4496407      711.5993      -20.479194      691.1201     
    515000   311.66997      0.011271465    6.1227202      773.26178     -19.433769      753.82801    
    516000   314.52493      0.011271465    6.5358294      780.34501     -19.64467       760.70035    
    517000   308.46031      0.011271465    7.5713668      765.29853     -18.517484      746.78105    
    518000   299.83339      0.011271465    6.2532444      743.89491     -20.831206      723.0637     
    519000   303.90946      0.011271465    5.7537017      754.00775     -17.264412      736.74334    
    520000   317.12898      0.011271465    8.5003687      786.80575     -16.824164      769.98159    
    521000   299.89375      0.011271465    6.1251696      744.04467     -15.241344      728.80332    
    522000   307.72437      0.011271465    6.7136468      763.47264     -15.76926       747.70338    
    523000   311.71699      0.011271465    6.8947352      773.37845     -15.620308      757.75814    
    524000   293.1412       0.011271465    6.5261098      727.2914      -13.871576      713.41982    
    525000   293.70718      0.011271465    5.9662636      728.69562     -16.185058      712.51056    
    526000   313.66636      0.011271465    6.8532578      778.21489     -16.808835      761.40606    
    527000   307.03679      0.011271465    7.5277111      761.76674     -15.449356      746.31738    
    528000   288.5759       0.011271465    6.7234595      715.96475     -17.562631      698.40212    
    529000   291.31301      0.011271465    4.0482654      722.75562     -21.251501      701.50412    
    530000   316.13575      0.011271465    6.216802       784.3415      -15.642532      768.69897    
    531000   313.0678       0.011271465    11.714282      776.72985     -18.715203      758.01465    
    532000   292.72426      0.011271465    5.8485605      726.25695     -19.451044      706.8059     
    533000   297.68643      0.011271465    2.7019781      738.56824     -17.856592      720.71165    
    534000   315.75888      0.011271465    7.4800983      783.40649     -18.186987      765.2195     
    535000   285.47553      0.011271465    5.9112386      708.27265     -19.105181      689.16747    
    536000   302.46093      0.011271465    2.9825428      750.4139      -22.55467       727.85923    
    537000   315.42965      0.011271465    8.7322973      782.58966     -18.667287      763.92237    
    538000   299.78084      0.011271465    5.6409311      743.76452     -20.271241      723.49328    
    539000   312.17251      0.011271465    3.8151092      774.50859     -19.48674       755.02185    
    540000   303.71857      0.011271465    10.001855      753.53414     -17.442553      736.09159    
    541000   287.48076      0.011271465    5.5874153      713.2477      -18.101515      695.14618    
    542000   306.52106      0.011271465    5.5967242      760.48719     -19.672833      740.81436    
    543000   307.4554       0.011271465    6.7630761      762.80531     -19.220496      743.58481    
    544000   304.25167      0.011271465    6.0855643      754.85678     -19.64798       735.2088     
    545000   298.0173       0.011271465    4.8466085      739.38915     -23.37143       716.01772    
    546000   299.20728      0.011271465    7.429265       742.34151     -22.202081      720.13943    
    547000   306.25332      0.011271465    4.437718       759.82292     -22.106139      737.71678    
    548000   301.91799      0.011271465    8.674531       749.06686     -26.190689      722.87617    
    549000   295.04735      0.011271465    7.4897325      732.02062     -23.30676       708.71386    
    550000   301.36921      0.011271465    2.9848471      747.70532     -21.086878      726.61844    
    551000   311.03561      0.011271465    6.4450309      771.68791     -21.414931      750.27298    
    552000   290.42341      0.011271465    7.5778623      720.5485      -24.119716      696.42878    
    553000   293.7219       0.011271465    5.5324521      728.73213     -23.412987      705.31914    
    554000   304.20929      0.011271465    4.7738976      754.75163     -21.521321      733.23031    
    555000   304.51246      0.011271465    5.8161883      755.50381     -18.853502      736.65031    
    556000   301.75064      0.011271465    6.767163       748.65165     -20.484168      728.16748    
    557000   291.92377      0.011271465    5.320944       724.27092     -20.016586      704.25433    
    558000   304.07504      0.011271465    6.1878466      754.41855     -21.177222      733.24133    
    559000   302.53659      0.011271465    5.0328533      750.60162     -22.899972      727.70164    
    560000   297.74882      0.011271465    5.6676153      738.72303     -21.644967      717.07806    
    561000   299.41231      0.011271465    8.7994298      742.85019     -22.080108      720.77009    
    562000   314.01387      0.011271465    6.846407       779.07706     -20.238819      758.83825    
    563000   315.64956      0.011271465    3.4112477      783.13527     -21.642996      761.49228    
    564000   302.51033      0.011271465    0.87357214     750.53646     -20.44262       730.09384    
    565000   289.14211      0.011271465    9.3560405      717.36955     -20.895533      696.47401    
    566000   301.66452      0.011271465    6.7972787      748.43798     -21.191211      727.24677    
    567000   311.95686      0.011271465    2.1207636      773.97358     -21.664006      752.30957    
    568000   296.22499      0.011271465    4.3822482      734.94236     -22.119357      712.82301    
    569000   288.95967      0.011271465    10.258289      716.91691     -20.118679      696.79823    
    570000   299.63626      0.011271465    7.9425051      743.40582     -21.974373      721.43145    
    571000   300.34106      0.011271465    2.0349411      745.15444     -23.860667      721.29377    
    572000   296.28173      0.011271465    5.7733513      735.08313     -21.204162      713.87897    
    573000   307.88866      0.011271465    7.0796731      763.88025     -20.146367      743.73388    
    574000   287.37145      0.011271465   -0.40676696     712.97648     -18.069018      694.90746    
    575000   290.17467      0.011271465    6.6335563      719.93135     -19.289947      700.64141    
    576000   325.47268      0.011271465    8.2269499      807.50669     -16.607009      790.89968    
    577000   308.75687      0.011271465    2.9933241      766.03432     -20.078778      745.95554    
    578000   300.97414      0.011271465    4.7989539      746.72513     -17.823207      728.90192    
    579000   294.3944       0.011271465    7.3256458      730.40062     -17.307721      713.09289    
    580000   315.51832      0.011271465    6.4226335      782.80964     -17.250808      765.55884    
    581000   302.8379       0.011271465    5.6209075      751.34917     -21.212415      730.13676    
    582000   286.11206      0.011271465    5.4616399      709.8519      -18.106127      691.74577    
    583000   302.62173      0.011271465    6.969892       750.81285     -20.448797      730.36405    
    584000   305.14686      0.011271465    4.9762596      757.07777     -17.85121       739.22656    
    585000   291.62194      0.011271465    4.8884699      723.52206     -21.260189      702.26187    
    586000   309.83616      0.011271465    5.2831674      768.71205     -18.035785      750.67627    
    587000   295.63745      0.011271465    7.9958943      733.48465     -17.370487      716.11417    
    588000   293.70101      0.011271465    6.007963       728.68029     -17.91053       710.76976    
    589000   307.66641      0.011271465    5.1798033      763.32884     -19.261972      744.06687    
    590000   299.20933      0.011271465    6.8876516      742.34659     -18.769149      723.57744    
    591000   294.18695      0.011271465    6.2553829      729.88593     -17.77534       712.11059    
    592000   289.33321      0.011271465    5.3208574      717.84367     -15.118136      702.72553    
    593000   287.4964       0.011271465    5.0490812      713.28648     -16.162642      697.12384    
    594000   311.38657      0.011271465    4.7120874      772.55868     -19.50259       753.05609    
    595000   306.34476      0.011271465    8.9258691      760.04978     -18.583447      741.46634    
    596000   291.09112      0.011271465    5.1825616      722.2051      -19.183366      703.02174    
    597000   296.2398       0.011271465    3.6688273      734.97911     -21.237215      713.7419     
    598000   308.50984      0.011271465    4.3703         765.42141     -16.292514      749.1289     
    599000   312.685        0.011271465    8.9388951      775.7801      -16.60735       759.17275    
    600000   287.77102      0.011271465    9.1825416      713.96784     -18.106376      695.86146    
    601000   294.10141      0.011271465    7.025189       729.67371     -16.364884      713.30882    
    602000   305.9151       0.011271465    5.557491       758.9838      -18.201186      740.78261    
    603000   301.31798      0.011271465    6.3533068      747.57821     -18.730403      728.84781    
    604000   290.05272      0.011271465    5.9266447      719.62878     -18.22418       701.4046     
    605000   300.18917      0.011271465    6.2913106      744.7776      -20.516751      724.26085    
    606000   302.75817      0.011271465    7.539977       751.15137     -19.583097      731.56827    
    607000   302.4541       0.011271465    7.5054126      750.39697     -15.451227      734.94574    
    608000   302.54595      0.011271465    5.6279251      750.62485     -16.596848      734.028      
    609000   299.04851      0.011271465    5.2952916      741.9476      -21.102647      720.84495    
    610000   296.57861      0.011271465    9.351643       735.81971     -17.990849      717.82886    
    611000   307.50328      0.011271465    2.4546427      762.92412     -20.820663      742.10346    
    612000   302.38651      0.011271465    6.0244732      750.22926     -21.532868      728.69639    
    613000   306.75321      0.011271465    8.2535492      761.06317     -23.308563      737.75461    
    614000   300.40731      0.011271465    5.6785791      745.31881     -23.333472      721.98534    
    615000   297.5117       0.011271465    3.3791476      738.13472     -20.52622       717.6085     
    616000   290.4711       0.011271465    7.2730686      720.6668      -20.596727      700.07007    
    617000   313.79908      0.011271465    9.8167292      778.54417     -24.3958        754.14837    
    618000   316.38704      0.011271465    4.5262574      784.96496     -21.321632      763.64333    
    619000   293.66189      0.011271465    4.6705215      728.58325     -16.648311      711.93494    
    620000   296.21566      0.011271465    8.6186582      734.91922     -21.327547      713.59168    
    621000   318.08412      0.011271465    5.3173762      789.17548     -19.582358      769.59312    
    622000   299.91458      0.011271465    2.3750019      744.09633     -17.969012      726.12732    
    623000   282.45396      0.011271465   -0.017862346    700.77607     -14.406985      686.36909    
    624000   296.12799      0.011271465    9.7591628      734.70171     -14.279773      720.42193    
    625000   305.01538      0.011271465    8.0224721      756.75157     -13.607371      743.1442     
    626000   306.02049      0.011271465    1.2726599      759.24526     -12.555714      746.68955    
    627000   281.7309       0.011271465    12.745511      698.98212     -16.283686      682.69843    
    628000   300.4193       0.011271465    7.6750435      745.34857     -12.286643      733.06192    
    629000   308.04889      0.011271465    5.5247112      764.27779     -12.033657      752.24413    
    630000   305.68114      0.011271465    3.8160892      758.40334     -13.856573      744.54677    
    631000   295.05039      0.011271465    7.1424484      732.02816     -11.689037      720.33912    
    632000   300.61323      0.011271465    9.6056492      745.82971     -11.561852      734.26786    
    633000   310.02692      0.011271465    5.4070205      769.18533     -18.043269      751.14206    
    634000   313.43678      0.011271465    8.3788449      777.6453      -19.963786      757.68151    
    635000   305.9066       0.011271465    3.467077       758.9627      -20.803674      738.15903    
    636000   295.70157      0.011271465    6.1737152      733.64375     -17.816404      715.82734    
    637000   302.33621      0.011271465    6.4333305      750.10446     -18.841163      731.2633     
    638000   319.51215      0.011271465    6.4974308      792.71845     -19.977155      772.74129    
    639000   300.72337      0.011271465    3.7780703      746.10297     -20.311809      725.79116    
    640000   292.34001      0.011271465    5.768337       725.30361     -20.858951      704.44466    
    641000   296.47377      0.011271465    5.8329801      735.55959     -18.660113      716.89948    
    642000   297.38587      0.011271465    7.3656562      737.82254     -21.66031       716.16223    
    643000   303.03838      0.011271465    5.2131722      751.84656     -23.082278      728.76428    
    644000   295.10967      0.011271465    5.7043102      732.17521     -26.798735      705.37648    
    645000   287.63322      0.011271465    5.2634541      713.62595     -25.807309      687.81864    
    646000   302.66796      0.011271465    4.8690456      750.92756     -21.369471      729.55809    
    647000   307.08366      0.011271465    7.9838517      761.88301     -19.840026      742.04299    
    648000   303.92645      0.011271465    7.8013277      754.04991     -23.481589      730.56832    
    649000   292.69227      0.011271465    3.3675693      726.17759     -21.789133      704.38845    
    650000   288.75411      0.011271465    4.7519041      716.40691     -25.103371      691.30354    
    651000   299.91161      0.011271465    5.6579032      744.08898     -25.7399        718.34908    
    652000   302.29248      0.011271465    6.2680368      749.99598     -21.757931      728.23805    
    653000   302.56607      0.011271465    6.4859506      750.67475     -19.923774      730.75098    
    654000   288.47755      0.011271465    4.5395415      715.72077     -21.251087      694.46968    
    655000   298.30787      0.011271465    5.0393297      740.11004     -18.575996      721.53405    
    656000   302.09715      0.011271465    6.2221976      749.51135     -20.51695       728.9944     
    657000   297.42011      0.011271465    5.7665572      737.9075      -20.402049      717.50545    
    658000   292.27583      0.011271465    5.6134947      725.14438     -19.853553      705.29083    
    659000   299.82578      0.011271465    6.2056941      743.87603     -19.876253      723.99978    
    660000   306.16251      0.011271465    8.527566       759.59762     -19.860567      739.73705    
    661000   301.38385      0.011271465    7.6905792      747.74163     -19.226058      728.51557    
    662000   309.40995      0.011271465    5.9373825      767.65462     -19.991451      747.66317    
    663000   301.96479      0.011271465    5.8033256      749.18298     -16.102877      733.0801     
    664000   300.54047      0.011271465    5.9912548      745.64919     -16.83472       728.81447    
    665000   288.716        0.011271465    4.8709148      716.31234     -18.810835      697.50151    
    666000   298.05015      0.011271465    6.8377282      739.47064     -19.998594      719.47205    
    667000   305.46642      0.011271465    6.415747       757.87061     -20.428887      737.44172    
    668000   283.16496      0.011271465    5.0054221      702.54007     -20.831873      681.7082     
    669000   278.37646      0.011271465    7.3113866      690.65967     -24.121139      666.53853    
    670000   298.84085      0.011271465    5.7607049      741.4324      -23.593233      717.83916    
    671000   319.17941      0.011271465    5.2251098      791.89292     -21.466635      770.42629    
    672000   302.12815      0.011271465    6.5302167      749.58827     -17.513982      732.07429    
    673000   293.9996       0.011271465    6.3779132      729.4211      -20.704057      708.71705    
    674000   303.05401      0.011271465    5.9970346      751.88536     -23.585108      728.30025    
    675000   305.85831      0.011271465    6.0709278      758.84289     -26.461158      732.38173    
    676000   295.70124      0.011271465    4.1956556      733.64292     -22.392773      711.25014    
    677000   306.16803      0.011271465    7.748883       759.61132     -18.101587      741.50973    
    678000   300.47646      0.011271465    7.9861585      745.49038     -24.097712      721.39267    
    679000   304.4239       0.011271465    5.8255951      755.28408     -19.842848      735.44124    
    680000   293.04053      0.011271465    8.9677716      727.04164     -20.863391      706.17825    
    681000   309.46236      0.011271465    5.9527766      767.78466     -16.326034      751.45862    
    682000   314.98345      0.011271465    6.3771225      781.48262     -15.994443      765.48817    
    683000   295.39461      0.011271465    5.8659213      732.88217     -17.104719      715.77745    
    684000   287.20881      0.011271465    6.5895201      712.57297     -20.531659      692.04131    
    685000   302.82534      0.011271465    4.6080857      751.31801     -18.134617      733.18339    
    686000   297.48259      0.011271465    4.9408824      738.0625      -18.708982      719.35352    
    687000   289.94453      0.011271465    6.2551239      719.36038     -15.035299      704.32508    
    688000   310.4024       0.011271465    6.5324918      770.1169      -16.124482      753.99242    
    689000   303.11102      0.011271465    3.8966916      752.0268      -18.940184      733.08662    
    690000   292.11119      0.011271465    7.5628662      724.73591     -19.180205      705.55571    
    691000   302.06936      0.011271465    6.351411       749.44241     -19.356515      730.0859     
    692000   304.28162      0.011271465    6.3265785      754.93109     -21.258261      733.67283    
    693000   296.55139      0.011271465    6.1332857      735.75217     -16.627448      719.12472    
    694000   301.05905      0.011271465    6.4830089      746.93581     -16.393653      730.54216    
    695000   299.09087      0.011271465    6.7243662      742.05269     -16.626565      725.42612    
    696000   302.927        0.011271465    6.4041288      751.57023     -17.126625      734.44361    
    697000   298.85516      0.011271465    6.0073768      741.46789     -19.276541      722.19134    
    698000   300.79973      0.011271465    6.2404391      746.29242     -18.73443       727.55799    
    699000   301.23976      0.011271465    5.4762828      747.38414     -17.719617      729.66452    
    700000   288.9725       0.011271465    6.0828409      716.94875     -20.548941      696.3998     
    701000   304.87232      0.011271465    9.306192       756.39664     -21.351064      735.04557    
    702000   304.32474      0.011271465    6.0393479      755.03807     -19.875472      735.1626     
    703000   295.02163      0.011271465    6.1680722      731.9568      -19.640656      712.31614    
    704000   295.73389      0.011271465    6.8503764      733.72394     -21.315639      712.4083     
    705000   309.81045      0.011271465    9.6059592      768.64827     -17.17894       751.46933    
    706000   311.36983      0.011271465    6.424408       772.51712     -17.184252      755.33287    
    707000   297.07902      0.011271465    4.6632451      737.06123     -15.846663      721.21457    
    708000   302.51145      0.011271465    8.8624429      750.53925     -18.04958       732.48967    
    709000   314.67502      0.011271465    4.6432614      780.7174      -22.708431      758.00897    
    710000   295.89926      0.011271465    6.0272475      734.13422     -14.877858      719.25636    
    711000   300.96816      0.011271465    9.2615933      746.71031     -20.107535      726.60278    
    712000   308.36092      0.011271465    6.5353279      765.05194     -17.688725      747.36321    
    713000   301.69427      0.011271465    5.1564527      748.5118      -20.643626      727.86818    
    714000   287.70225      0.011271465    6.1360336      713.79722     -20.631114      693.16611    
    715000   305.54437      0.011271465    6.7957047      758.06402     -21.523471      736.54054    
    716000   291.71114      0.011271465    1.6687912      723.74338     -23.873831      699.86955    
    717000   296.13098      0.011271465    5.0219972      734.70912     -25.343109      709.36601    
    718000   298.22892      0.011271465    5.819006       739.91417     -27.774275      712.13989    
    719000   306.42415      0.011271465    6.9038188      760.24675     -20.703728      739.54303    
    720000   294.805        0.011271465    5.4419895      731.41933     -20.5536        710.86573    
    721000   296.86584      0.011271465    5.7828991      736.53233     -20.705603      715.82673    
    722000   296.82656      0.011271465    6.2787946      736.43488     -19.952506      716.48238    
    723000   307.0059       0.011271465    4.2150862      761.69009     -19.582853      742.10724    
    724000   300.29008      0.011271465    5.4688425      745.02798     -19.707125      725.32085    
    725000   313.47978      0.011271465    6.3893597      777.75197     -13.34319       764.40878    
    726000   309.68646      0.011271465    6.2072163      768.34065     -13.635657      754.70499    
    727000   290.91122      0.011271465    5.8310653      721.75876     -15.141434      706.61733    
    728000   300.10696      0.011271465    6.4219593      744.57365     -18.910112      725.66353    
    729000   321.18546      0.011271465    9.0450396      796.86997     -18.256271      778.6137     
    730000   290.79807      0.011271465    5.2931124      721.47803     -19.258713      702.21932    
    731000   290.44911      0.011271465    5.2038301      720.61225     -17.332137      703.28012    
    732000   314.88565      0.011271465    6.2194142      781.23997     -15.951426      765.28855    
    733000   303.44335      0.011271465    1.4528663      752.85132     -13.962825      738.8885     
    734000   291.33386      0.011271465    6.437619       722.80733     -15.242141      707.56519    
    735000   297.42442      0.011271465    8.7264011      737.91819     -16.860421      721.05777    
    736000   308.75574      0.011271465    7.3639539      766.03149     -20.380067      745.65143    
    737000   305.80911      0.011271465    6.129907       758.72084     -20.162811      738.55803    
    738000   304.16857      0.011271465    6.1659236      754.65061     -20.94139       733.70922    
    739000   297.09916      0.011271465    6.8914901      737.11121     -18.648925      718.46228    
    740000   303.12068      0.011271465    6.6736478      752.05075     -21.78948       730.26127    
    741000   299.90342      0.011271465    6.161085       744.06865     -20.737692      723.33096    
    742000   305.68825      0.011271465    6.0128659      758.42097     -16.448761      741.97221    
    743000   295.03152      0.011271465    5.6743066      731.98133     -16.625878      715.35545    
    744000   298.04208      0.011271465    7.0787069      739.45062     -19.344805      720.10581    
    745000   309.21922      0.011271465    6.479369       767.18142     -18.581136      748.60028    
    746000   310.74007      0.011271465    4.7438553      770.95467     -22.910037      748.04463    
    747000   293.50603      0.011271465    6.5403414      728.19655     -21.053102      707.14345    
    748000   288.37473      0.011271465    7.5607074      715.46565     -25.127417      690.33824    
    749000   308.79493      0.011271465    6.3951531      766.12873     -19.551826      746.57691    
    750000   292.24651      0.011271465    3.8145223      725.07164     -18.0743        706.99734    
    751000   298.40295      0.011271465    7.653436       740.34594     -18.10121       722.24473    
    752000   298.41555      0.011271465    8.3164258      740.37721     -20.027518      720.34969    
    753000   310.05819      0.011271465    5.6742771      769.26291     -20.263982      748.99893    
    754000   303.55598      0.011271465    9.2430596      753.13075     -19.910651      733.2201     
    755000   301.132        0.011271465    6.1257197      747.11679     -18.120164      728.99663    
    756000   289.56314      0.011271465    0.96753145     718.41412     -19.046495      699.36762    
    757000   314.63391      0.011271465    9.481677       780.61542     -17.511609      763.10381    
    758000   305.18745      0.011271465    10.849054      757.17848     -16.057016      741.12146    
    759000   297.98416      0.011271465    8.2290533      739.30692     -20.87568       718.43124    
    760000   298.24368      0.011271465    5.6074251      739.9508      -21.339272      718.61153    
    761000   312.04386      0.011271465    6.1738846      774.18942     -20.772724      753.4167     
    762000   300.99368      0.011271465    7.8991355      746.77361     -20.391225      726.38239    
    763000   302.81239      0.011271465    6.0433705      751.28588     -23.367021      727.91886    
    764000   298.47477      0.011271465    3.9604434      740.52414     -21.937852      718.58629    
    765000   296.99993      0.011271465    6.9255971      736.865       -24.180601      712.6844     
    766000   308.7399       0.011271465    6.2140236      765.99219     -24.798987      741.1932     
    767000   306.92643      0.011271465    5.8498242      761.49294     -18.668891      742.82405    
    768000   297.12446      0.011271465    1.8000642      737.17397     -20.467662      716.70631    
    769000   299.1816       0.011271465    8.9218321      742.2778      -21.459031      720.81877    
    770000   292.51501      0.011271465    9.6201588      725.73781     -23.865291      701.87252    
    771000   302.54418      0.011271465    3.4805107      750.62045     -21.587479      729.03297    
    772000   305.26077      0.011271465    8.2480367      757.36039     -21.011976      736.34842    
    773000   304.37194      0.011271465    9.9258214      755.15518     -16.841716      738.31347    
    774000   299.22775      0.011271465    5.3308691      742.39229     -23.602676      718.78961    
    775000   298.101        0.011271465    3.8252373      739.5968      -27.292176      712.30462    
    776000   301.44456      0.011271465    14.226949      747.89225     -25.354112      722.53814    
    777000   294.45678      0.011271465    5.5175538      730.55538     -21.557805      708.99757    
    778000   309.3247       0.011271465   -4.4622644      767.44311     -20.074218      747.36889    
    779000   314.59789      0.011271465    8.0538035      780.52604     -24.674899      755.85114    
    780000   288.12789      0.011271465    8.3401797      714.85324     -18.009721      696.84352    
    781000   299.73153      0.011271465    4.41165        743.64219     -20.198369      723.44382    
    782000   308.85089      0.011271465    2.5185937      766.26758     -21.140222      745.12736    
    783000   302.35436      0.011271465    9.0478853      750.14951     -16.47221       733.6773     
    784000   287.93688      0.011271465    7.1964612      714.37934     -17.429837      696.9495     
    785000   299.54413      0.011271465    5.1641003      743.17726     -17.198192      725.97906    
    786000   316.75413      0.011271465    6.3149972      785.87572     -14.877173      770.99855    
    787000   307.57604      0.011271465    8.678604       763.10462     -20.307342      742.79728    
    788000   288.84247      0.011271465    6.8224357      716.62613     -20.872986      695.75314    
    789000   276.70257      0.011271465   -0.34449098     686.50671     -17.45291       669.0538     
    790000   300.72572      0.011271465    0.55980816     746.10879     -14.517773      731.59102    
    791000   311.66401      0.011271465    5.7053556      773.24699     -15.429775      757.81722    
    792000   291.03547      0.011271465    7.1144297      722.06703     -15.301601      706.76543    
    793000   295.20191      0.011271465    7.218806       732.40409     -19.00572       713.39837    
    794000   292.81267      0.011271465    4.965636       726.47631     -13.972929      712.50338    
    795000   312.24428      0.011271465    6.4983432      774.68666     -16.220456      758.4662     
    796000   287.42871      0.011271465    6.4213679      713.11856     -18.882812      694.23574    
    797000   290.31838      0.011271465    6.0649472      720.28791     -17.260208      703.0277     
    798000   312.83902      0.011271465    6.7911402      776.16223     -14.292837      761.86939    
    799000   301.24776      0.011271465    3.1895006      747.404       -21.458006      725.94599    
    800000   282.61038      0.011271465    5.5626264      701.16414     -19.96216       681.20198    
    801000   291.97143      0.011271465    3.5404874      724.38916     -17.811195      706.57796    
    802000   323.35052      0.011271465    7.937901       802.24155     -22.431765      779.80978    
    803000   287.03355      0.011271465    5.7919968      712.13816     -21.357175      690.78098    
    804000   297.65999      0.011271465    3.775083       738.50265     -19.314354      719.1883     
    805000   316.9494       0.011271465    9.9461056      786.36021     -16.886353      769.47385    
    806000   284.22012      0.011271465    6.8184054      705.15794     -15.439888      689.71805    
    807000   290.60853      0.011271465    1.6276913      721.00777     -16.910912      704.09686    
    808000   316.20668      0.011271465    5.9663955      784.51749     -16.535346      767.98214    
    809000   307.82483      0.011271465    6.6063925      763.7219      -14.722425      748.99947    
    810000   285.6262       0.011271465    5.6321821      708.64648     -12.880556      695.76593    
    811000   298.38183      0.011271465    6.0273398      740.29356     -14.482275      725.81128    
    812000   313.43672      0.011271465    7.4085871      777.64514     -15.322125      762.32301    
    813000   298.7285       0.011271465    4.772868       741.15364     -17.904414      723.24922    
    814000   298.91854      0.011271465    6.3017854      741.62513     -19.981561      721.64357    
    815000   299.01264      0.011271465    5.9661482      741.85861     -17.555949      724.30266    
    816000   287.75969      0.011271465    5.2747442      713.93972     -19.714799      694.22492    
    817000   299.50817      0.011271465    5.3189959      743.08803     -14.717454      728.37057    
    818000   309.15885      0.011271465    9.3871681      767.03164     -16.694411      750.33723    
    819000   300.03543      0.011271465    11.53344       744.39618     -16.734496      727.66169    
    820000   286.35805      0.011271465    4.5325069      710.46221     -20.138319      690.32389    
    821000   295.40342      0.011271465    3.859208       732.90403     -21.053612      711.85042    
    822000   314.17673      0.011271465    5.8914685      779.48112     -15.929744      763.55138    
    823000   294.58375      0.011271465    6.7686517      730.87041     -13.555236      717.31518    
    824000   284.1667       0.011271465    5.3449813      705.02541     -14.125022      690.90038    
    825000   315.01454      0.011271465    5.7298579      781.55976     -18.419788      763.13998    
    826000   303.11585      0.011271465    5.7516447      752.03879     -14.046337      737.99245    
    827000   302.60374      0.011271465    6.2559731      750.76821     -15.400505      735.36771    
    828000   286.70542      0.011271465    5.6903202      711.32406     -18.848873      692.47519    
    829000   312.02404      0.011271465    6.9052059      774.14024     -14.835654      759.30459    
    830000   298.00798      0.011271465    5.6479874      739.36601     -12.159081      727.20693    
    831000   293.69558      0.011271465    6.0521746      728.66682     -17.226067      711.44075    
    832000   304.10351      0.011271465    7.0235         754.4892      -14.028706      740.4605     
    833000   316.28746      0.011271465    7.0393753      784.7179      -18.161176      766.55673    
    834000   296.21615      0.011271465    5.7184874      734.92044     -16.286385      718.63406    
    835000   282.42126      0.011271465    6.4854865      700.69494     -20.059402      680.63554    
    836000   309.87318      0.011271465    6.8776727      768.8039      -20.289476      748.51442    
    837000   301.42133      0.011271465    5.3932336      747.83464     -18.214072      729.62056    
    838000   297.66548      0.011271465    6.2063129      738.51627     -16.010621      722.50565    
    839000   310.84015      0.011271465    7.8789444      771.20297     -17.280998      753.92197    
    840000   303.4555       0.011271465    6.5420427      752.88147     -17.754936      735.12653    
    841000   294.52014      0.011271465    4.5779832      730.71258     -16.99381       713.71877    
    842000   299.39956      0.011271465    6.9459463      742.81857     -18.379359      724.43921    
    843000   308.78015      0.011271465    8.2075305      766.09205     -15.132571      750.95948    
    844000   300.37199      0.011271465    7.840805       745.2312      -16.824347      728.40685    
    845000   293.77528      0.011271465    6.9207853      728.86456     -19.766403      709.09816    
    846000   301.63505      0.011271465    5.635427       748.36488     -18.051491      730.31339    
    847000   299.7937       0.011271465    6.3126914      743.79643     -18.014464      725.78196    
    848000   297.45094      0.011271465    5.1247561      737.98399     -21.406158      716.57783    
    849000   297.829        0.011271465    6.6570367      738.92195     -17.864348      721.05761    
    850000   294.72909      0.011271465    5.0659763      731.23099     -17.444232      713.78676    
    851000   298.47098      0.011271465    6.1734906      740.51473     -15.423717      725.09101    
    852000   308.0434       0.011271465    6.7570228      764.26416     -19.182238      745.08193    
    853000   294.42467      0.011271465    3.6382462      730.47573     -18.021242      712.45449    
    854000   286.08569      0.011271465    5.0050726      709.78648     -17.536551      692.24993    
    855000   293.96739      0.011271465    6.1924416      729.3412      -18.94048       710.40072    
    856000   307.75505      0.011271465    6.8842303      763.54876     -19.45004       744.09872    
    857000   298.0538       0.011271465    4.7397482      739.47969     -16.845609      722.63408    
    858000   301.72613      0.011271465    7.1581828      748.59083     -19.189903      729.40093    
    859000   298.94547      0.011271465    5.8258498      741.69194     -18.741065      722.95088    
    860000   308.39517      0.011271465    6.2293698      765.13693     -19.433658      745.70327    
    861000   300.89665      0.011271465    5.261694       746.53288     -15.187751      731.34512    
    862000   298.45567      0.011271465    5.2710108      740.47674     -16.246777      724.22996    
    863000   304.24474      0.011271465    8.19045        754.83958     -21.271563      733.56802    
    864000   310.69061      0.011271465    3.8789249      770.83197     -20.398142      750.43383    
    865000   300.08863      0.011271465    5.4307945      744.52817     -16.298485      728.22969    
    866000   297.41776      0.011271465    9.4567109      737.90167     -15.214414      722.68725    
    867000   308.74864      0.011271465    4.6591561      766.01388     -17.404185      748.6097     
    868000   298.01725      0.011271465    4.5962259      739.38901     -17.42548       721.96353    
    869000   294.85444      0.011271465    6.4127299      731.54199     -19.005512      712.53648    
    870000   311.40104      0.011271465    7.8916041      772.59456     -17.489687      755.10487    
    871000   293.41246      0.011271465    3.2974723      727.96441     -19.84568       708.11873    
    872000   298.34415      0.011271465    6.5055476      740.20006     -18.81025       721.38981    
    873000   303.97613      0.011271465    6.5501765      754.17316     -20.166712      734.00645    
    874000   313.53161      0.011271465    5.3085715      777.88057     -14.618563      763.26201    
    875000   295.53989      0.011271465    2.2886023      733.24262     -21.420677      711.82194    
    876000   296.40162      0.011271465    7.523735       735.3806      -14.120666      721.25993    
    877000   311.50403      0.011271465    6.1270907      772.85009     -18.699588      754.1505     
    878000   303.64969      0.011271465    1.282728       753.36326     -15.924258      737.439      
    879000   286.23153      0.011271465    8.1906386      710.14832     -21.584898      688.56342    
    880000   309.85594      0.011271465    10.890794      768.76113     -17.313097      751.44803    
    881000   312.062        0.011271465    4.3542652      774.23443     -18.470534      755.7639     
    882000   297.73533      0.011271465   -2.431008       738.68955     -18.90446       719.78509    
    883000   288.57061      0.011271465    8.9604269      715.95165     -17.493801      698.45785    
    884000   317.3696       0.011271465    1.3758098      787.40274     -20.57026       766.83248    
    885000   299.94583      0.011271465    3.362673       744.17388     -18.966801      725.20708    
    886000   282.03405      0.011271465    10.904094      699.73425     -15.482652      684.2516     
    887000   311.45185      0.011271465    18.64702       772.72063     -13.305324      759.41531    
    888000   300.30003      0.011271465    0.88493172     745.05265     -14.366913      730.68574    
    889000   288.93741      0.011271465    3.2579647      716.86169     -15.627769      701.23392    
    890000   291.61659      0.011271465    5.845137       723.5088      -14.716064      708.79273    
    891000   298.87812      0.011271465    12.817666      741.52486     -17.170224      724.35464    
    892000   303.77818      0.011271465    6.4274187      753.68203     -17.762595      735.91944    
    893000   299.30451      0.011271465    5.9113172      742.58275     -17.939108      724.64364    
    894000   308.30389      0.011271465    5.3304279      764.91046     -16.67819       748.23227    
    895000   292.67276      0.011271465    2.7339318      726.12918     -12.411869      713.71731    
    896000   291.09698      0.011271465    6.7432524      722.21963     -17.16135       705.05828    
    897000   312.72851      0.011271465    10.702046      775.88804     -14.914117      760.97393    
    898000   311.5241       0.011271465    7.0522352      772.89989     -15.856346      757.04354    
    899000   310.185        0.011271465    5.836948       769.57755     -21.878382      747.69916    
    900000   301.25149      0.011271465    2.1843031      747.41326     -18.188366      729.2249     
    901000   302.28196      0.011271465    6.7599444      749.96987     -18.885502      731.08437    
    902000   302.48109      0.011271465    8.0161654      750.46393     -17.871765      732.59216    
    903000   313.03296      0.011271465    7.1590856      776.64339     -22.927704      753.71569    
    904000   295.43053      0.011271465    2.5660963      732.97129     -25.022936      707.94835    
    905000   292.40157      0.011271465    8.3612682      725.45635     -23.500476      701.95587    
    906000   293.33565      0.011271465    12.448402      727.77383     -20.143205      707.63063    
    907000   305.15301      0.011271465    12.191457      757.09302     -21.761321      735.3317     
    908000   312.15074      0.011271465    2.1516406      774.45459     -21.812567      752.64202    
    909000   294.90216      0.011271465    5.3361595      731.66039     -21.328359      710.33203    
    910000   288.83518      0.011271465    8.0244737      716.60804     -20.388486      696.21955    
    911000   306.68549      0.011271465    8.8041288      760.89516     -20.531186      740.36397    
    912000   297.41912      0.011271465   -0.15781954     737.90503     -17.197573      720.70745    
    913000   285.73357      0.011271465    6.1616225      708.91286     -20.324655      688.58821    
    914000   299.62801      0.011271465    7.5830594      743.38535     -24.863153      718.5222     
    915000   305.16959      0.011271465    6.1906018      757.13417     -20.69655       736.43762    
    916000   303.58946      0.011271465    6.4357988      753.21381     -19.384054      733.82975    
    917000   290.38506      0.011271465    6.3121617      720.45333     -17.303118      703.15021    
    918000   287.67819      0.011271465    5.7948647      713.73751     -14.325909      699.4116     
    919000   296.47375      0.011271465    6.2571267      735.55955     -16.86946       718.69009    
    920000   302.44731      0.011271465    6.3348236      750.38012     -15.262679      735.11744    
    921000   304.75664      0.011271465    6.1980555      756.10962     -18.706338      737.40328    
    922000   289.91271      0.011271465    5.9777366      719.28142     -18.691773      700.58964    
    923000   290.63235      0.011271465    7.0755836      721.06687     -15.046328      706.02055    
    924000   296.72503      0.011271465    7.2778691      736.18298     -14.582676      721.6003     
    925000   303.8964       0.011271465    7.877847       753.97536     -17.450571      736.52478    
    926000   307.79483      0.011271465    6.1673661      763.64745     -16.836199      746.81125    
    927000   297.17938      0.011271465    4.9403232      737.31023     -16.521711      720.78852    
    928000   285.64         0.011271465    6.1568323      708.68072     -16.84954       691.83118    
    929000   298.02445      0.011271465    6.7796922      739.40687     -15.83695       723.56993    
    930000   302.00556      0.011271465    4.9683657      749.28412     -15.117118      734.16701    
    931000   302.8604       0.011271465    2.8157335      751.405       -16.795163      734.60984    
    932000   292.08227      0.011271465    4.6968853      724.66417     -14.010134      710.65404    
    933000   295.79679      0.011271465    8.4113524      733.87998     -13.629188      720.25079    
    934000   300.124        0.011271465    4.8970804      744.61591     -17.616437      726.99948    
    935000   297.32214      0.011271465    4.9029209      737.66443     -13.140937      724.52349    
    936000   312.59796      0.011271465    9.4065659      775.56416     -18.506353      757.05781    
    937000   302.53889      0.011271465    4.4310129      750.60733     -20.095574      730.51176    
    938000   296.1404       0.011271465    4.7914035      734.7325      -18.918307      715.81419    
    939000   288.27033      0.011271465    8.4999945      715.20663     -15.950734      699.2559     
    940000   314.40109      0.011271465    8.9545633      780.03777     -12.630655      767.40712    
    941000   304.81333      0.011271465    4.7527849      756.25028     -15.205884      741.04439    
    942000   293.38023      0.011271465    4.7343287      727.88443     -17.728712      710.15572    
    943000   304.1587       0.011271465    7.7865297      754.62611     -20.755771      733.87034    
    944000   311.29435      0.011271465    4.7502481      772.32987     -20.203394      752.12647    
    945000   288.07216      0.011271465    4.8596523      714.71498     -24.037633      690.67734    
    946000   291.96721      0.011271465    3.1503286      724.3787      -23.201109      701.17759    
    947000   299.76249      0.011271465    7.0203866      743.719       -20.059294      723.6597     
    948000   307.77051      0.011271465    11.306351      763.58711     -19.751009      743.83611    
    949000   310.94982      0.011271465    7.0353901      771.47509     -19.885615      751.58947    
    950000   290.03696      0.011271465    4.2204043      719.58968     -17.585604      702.00408    
    951000   281.91553      0.011271465    4.7136968      699.44019     -14.067782      685.37241    
    952000   301.96001      0.011271465    10.952207      749.1711      -16.263375      732.90772    
    953000   307.51514      0.011271465    7.3930584      762.95355     -16.420908      746.53264    
    954000   320.88449      0.011271465   -2.3888716      796.12327     -13.306963      782.81631    
    955000   294.42566      0.011271465    6.9209081      730.47817     -15.741865      714.73631    
    956000   307.19334      0.011271465    12.517227      762.15515     -19.120077      743.03507    
    957000   315.90123      0.011271465    5.7464186      783.75965     -19.177206      764.58245    
    958000   302.10035      0.011271465    5.1159498      749.5193      -20.559665      728.95964    
    959000   293.56583      0.011271465    5.7142892      728.34492     -17.349219      710.9957     
    960000   299.99135      0.011271465    5.2972707      744.28681     -20.140288      724.14652    
    961000   309.55237      0.011271465    6.3967675      768.00796     -21.333857      746.6741     
    962000   307.5644       0.011271465    6.4123878      763.07576     -17.813069      745.26269    
    963000   301.11601      0.011271465    4.6471592      747.07712     -17.876373      729.20075    
    964000   299.8587       0.011271465    1.3815089      743.95769     -19.113934      724.84376    
    965000   311.08371      0.011271465    10.026709      771.80726     -17.879828      753.92743    
    966000   300.34751      0.011271465    13.322703      745.17045     -19.351107      725.81934    
    967000   283.29204      0.011271465    6.1090245      702.85535     -16.640255      686.21509    
    968000   301.24624      0.011271465    0.16340298     747.40023     -16.650623      730.7496     
    969000   309.38362      0.011271465    12.205837      767.5893      -13.650933      753.93837    
    970000   301.66824      0.011271465    9.1284652      748.44723     -14.653792      733.79344    
    971000   292.29783      0.011271465    3.0389137      725.19897     -12.829835      712.36913    
    972000   303.19042      0.011271465    2.1864645      752.22379     -14.682161      737.54163    
    973000   301.48377      0.011271465    10.359763      747.98955     -14.251724      733.73783    
    974000   297.16081      0.011271465    8.4733203      737.26417     -18.89924       718.36493    
    975000   297.80094      0.011271465    0.83480749     738.85235     -17.152842      721.6995     
    976000   314.6604       0.011271465    4.9297051      780.68112     -20.375018      760.3061     
    977000   295.37622      0.011271465    6.9034616      732.83654     -20.757419      712.07912    
    978000   287.48764      0.011271465    5.3046318      713.26477     -14.922028      698.34274    
    979000   321.51576      0.011271465   -5.0963929      797.68947     -20.200721      777.48875    
    980000   311.67396      0.011271465    7.9494657      773.27168     -22.237748      751.03393    
    981000   290.02063      0.011271465    9.8595106      719.54917     -24.629884      694.91929    
    982000   304.99684      0.011271465    7.7676984      756.70557     -24.387342      732.31823    
    983000   307.78859      0.011271465    4.5664827      763.63197     -20.341601      743.29037    
    984000   297.40257      0.011271465    9.4781912      737.86397     -18.360146      719.50383    
    985000   277.3415       0.011271465    7.3229397      688.09191     -18.384342      669.70757    
    986000   304.21517      0.011271465    3.5153955      754.76622     -17.84736       736.91886    
    987000   309.76481      0.011271465    9.2448475      768.53504     -16.95866       751.57638    
    988000   297.02713      0.011271465    6.0254839      736.93249     -15.51119       721.4213     
    989000   294.0236       0.011271465    2.2784028      729.48066     -16.504502      712.97616    
    990000   305.56758      0.011271465    6.2653193      758.1216      -18.203396      739.91821    
    991000   304.97493      0.011271465    11.238367      756.6512      -16.167341      740.48386    
    992000   291.43059      0.011271465    7.5497256      723.04733     -15.183195      707.86413    
    993000   301.18212      0.011271465    3.2514464      747.24115     -19.240779      728.00037    
    994000   294.70134      0.011271465    8.2998366      731.16215     -18.176936      712.98521    
    995000   302.87166      0.011271465    4.921154       751.43295     -16.713368      734.71958    
    996000   299.29083      0.011271465    3.3755717      742.54879     -15.204988      727.34381    
    997000   294.5252       0.011271465    5.9326539      730.72513     -13.294629      717.4305     
    998000   306.28368      0.011271465    11.323413      759.89825     -19.121507      740.77674    
    999000   299.5093       0.011271465    5.7653471      743.09083     -16.175101      726.91573    
   1000000   300.87762      0.011271465    2.4322077      746.48567     -15.582042      730.90363    
   1001000   299.99017      0.011271465    6.0242599      744.28388     -17.507475      726.7764     
   1002000   320.14521      0.011271465    6.1343731      794.28909     -16.016023      778.27307    
   1003000   291.85448      0.011271465    14.761151      724.099       -19.00219       705.09681    
   1004000   290.39112      0.011271465    3.7180641      720.46837     -16.615543      703.85282    
   1005000   306.32121      0.011271465    5.1065757      759.99136     -13.400512      746.59085    
   1006000   315.57646      0.011271465    0.37747175     782.95389     -13.579933      769.37395    
   1007000   311.05291      0.011271465    9.9549387      771.73085     -16.394213      755.33663    
   1008000   294.98656      0.011271465    8.6114281      731.86979     -17.75197       714.11782    
   1009000   293.15327      0.011271465    2.5119375      727.32135     -15.398879      711.92247    
   1010000   307.43913      0.011271465   -0.3423838      762.76495     -16.147957      746.61699    
   1011000   311.48041      0.011271465    4.6916643      772.79148     -14.962752      757.82872    
   1012000   297.42225      0.011271465    8.9502946      737.9128      -15.130517      722.78229    
   1013000   296.81059      0.011271465    6.3912855      736.39526     -15.670844      720.72442    
   1014000   294.13799      0.011271465   -4.1088494      729.76445     -20.755273      709.00918    
   1015000   303.39506      0.011271465    3.330543       752.7315      -20.098444      732.63306    
   1016000   300.50674      0.011271465    14.767877      745.56551     -13.129133      732.43638    
   1017000   299.30661      0.011271465    4.0394879      742.58795     -15.744267      726.84368    
   1018000   299.03851      0.011271465    0.74670847     741.92278     -16.803576      725.1192     
   1019000   305.9993       0.011271465    7.1174086      759.1927      -20.6283        738.5644     
   1020000   304.04844      0.011271465    9.7327006      754.35255     -20.804703      733.54785    
   1021000   299.57502      0.011271465    5.9382955      743.25389     -20.396293      722.85759    
   1022000   298.46527      0.011271465    5.3436129      740.50057     -20.218724      720.28185    
   1023000   306.76868      0.011271465    6.4841117      761.10155     -21.577397      739.52415    
   1024000   296.80849      0.011271465    5.5928288      736.39005     -20.541391      715.84866    
   1025000   309.38557      0.011271465    6.1611659      767.59414     -21.026833      746.5673     
   1026000   300.40306      0.011271465    5.5459319      745.30826     -25.645589      719.66267    
   1027000   294.58029      0.011271465    5.3076962      730.86181     -17.686946      713.17487    
   1028000   304.54882      0.011271465    6.0761842      755.59401     -14.798822      740.79519    
   1029000   307.95331      0.011271465    6.7427365      764.04065     -16.12934       747.91131    
   1030000   297.16057      0.011271465    5.2739942      737.26357     -16.485951      720.77762    
   1031000   281.87719      0.011271465    5.9976202      699.34507     -16.278562      683.06651    
   1032000   307.87101      0.011271465    5.7664283      763.83646     -19.257176      744.57928    
   1033000   299.68899      0.011271465    6.680667       743.53664     -14.361041      729.1756     
   1034000   310.39108      0.011271465    6.7608027      770.08883     -13.015925      757.0729     
   1035000   300.01101      0.011271465    6.4279224      744.3356      -18.174292      726.1613     
   1036000   304.53016      0.011271465    5.555312       755.54772     -17.251389      738.29633    
   1037000   313.51282      0.011271465    6.8176034      777.83395     -18.115592      759.71836    
   1038000   292.06396      0.011271465    5.4737358      724.61874     -16.78551       707.83323    
   1039000   301.99314      0.011271465    6.9320368      749.25331     -14.884103      734.36921    
   1040000   308.62294      0.011271465    6.453383       765.70202     -14.82434       750.87768    
   1041000   295.04645      0.011271465    7.8208562      732.01839     -16.870751      715.14764    
   1042000   292.26165      0.011271465    5.749404       725.10921     -19.213593      705.89562    
   1043000   292.50057      0.011271465    4.1729077      725.70198     -17.278318      708.42366    
   1044000   308.46273      0.011271465    4.3803923      765.30455     -19.304153      746.00039    
   1045000   316.08867      0.011271465    7.5931334      784.22469     -17.556842      766.66785    
   1046000   290.54294      0.011271465    6.4512249      720.84503     -18.648843      702.19619    
   1047000   292.2666       0.011271465    5.3391353      725.1215      -21.234109      703.88739    
   1048000   302.1667       0.011271465    5.7159061      749.6839      -16.935993      732.74791    
   1049000   311.60523      0.011271465    8.8817372      773.10117     -20.107858      752.99331    
   1050000   296.46365      0.011271465    6.7020287      735.53449     -16.974919      718.55957    
   1051000   290.96349      0.011271465    2.9533616      721.88845     -21.124659      700.76379    
   1052000   302.15514      0.011271465    5.4463786      749.65523     -18.247184      731.40805    
   1053000   299.58574      0.011271465    10.359742      743.28047     -20.295061      722.98541    
   1054000   297.94546      0.011271465    4.6926449      739.21089     -14.261102      724.94979    
   1055000   313.29467      0.011271465    6.2965712      777.29272     -13.413283      763.87943    
   1056000   307.54957      0.011271465    9.4464123      763.03896     -12.739918      750.29905    
   1057000   294.3446       0.011271465    9.0125934      730.27706     -16.643651      713.63341    
   1058000   295.29076      0.011271465    2.6634194      732.62451     -14.679743      717.94477    
   1059000   300.84992      0.011271465    0.79709594     746.41693     -14.137922      732.27901    
   1060000   315.6367       0.011271465    8.510179       783.10336     -16.516342      766.58702    
   1061000   295.20493      0.011271465    6.7696369      732.41157     -14.148708      718.26286    
   1062000   303.27884      0.011271465    4.4590708      752.44316     -14.734503      737.70865    
   1063000   315.35241      0.011271465   -2.0883528      782.39802     -18.22169       764.17633    
   1064000   301.13605      0.011271465    4.8021401      747.12684     -18.825469      728.30137    
   1065000   298.67279      0.011271465    8.7330531      741.01543     -17.855123      723.16031    
   1066000   296.68901      0.011271465    5.8836251      736.0936      -17.947009      718.1466     
   1067000   297.37416      0.011271465   -0.62815425     737.79349     -14.512292      723.2812     
   1068000   294.60735      0.011271465    6.2839821      730.92896     -13.857646      717.07131    
   1069000   296.04537      0.011271465   -0.87254133     734.49671     -16.997457      717.49925    
   1070000   309.98117      0.011271465    7.6179952      769.07183     -15.624106      753.44772    
   1071000   302.559        0.011271465    5.4900388      750.65721     -12.722654      737.93456    
   1072000   297.45329      0.011271465    5.1873955      737.98981     -14.172538      723.81727    
   1073000   296.02545      0.011271465    6.4036129      734.4473      -16.183319      718.26398    
   1074000   301.01601      0.011271465    7.4455853      746.82901     -13.907507      732.92151    
   1075000   298.21128      0.011271465    3.8785423      739.8704      -18.036607      721.8338     
   1076000   298.1549       0.011271465    5.9419092      739.73053     -15.256881      724.47365    
   1077000   293.46054      0.011271465    6.4125246      728.0837      -18.891659      709.19204    
   1078000   300.36727      0.011271465    5.1211236      745.21948     -21.365691      723.85379    
   1079000   302.56454      0.011271465    7.1590894      750.67095     -19.980733      730.69022    
   1080000   307.40449      0.011271465    8.1036973      762.67902     -18.410608      744.26841    
   1081000   289.20451      0.011271465   -0.26280859     717.52437     -19.392912      698.13146    
   1082000   301.42536      0.011271465    7.8693721      747.84462     -17.872743      729.97187    
   1083000   308.70025      0.011271465    6.9158377      765.89382     -12.322468      753.57136    
   1084000   292.26986      0.011271465    1.978764       725.12958     -15.83097       709.29861    
   1085000   293.63623      0.011271465    8.0500231      728.51959     -14.571325      713.94827    
   1086000   314.21552      0.011271465    5.4172838      779.57737     -12.102022      767.47534    
   1087000   298.77421      0.011271465    5.8528713      741.26705     -15.564599      725.70245    
   1088000   293.77945      0.011271465    7.8924442      728.87491     -14.136342      714.73857    
   1089000   313.14456      0.011271465    5.3809453      776.92027     -12.160408      764.75987    
   1090000   308.69124      0.011271465    0.62190444     765.87148     -15.674393      750.19709    
   1091000   295.67682      0.011271465    3.218695       733.58235     -20.297167      713.28518    
   1092000   287.98169      0.011271465    7.0170538      714.49052     -17.755246      696.73527    
   1093000   312.33582      0.011271465    11.90421       774.91378     -17.422001      757.49178    
   1094000   311.80259      0.011271465    8.3912562      773.59083     -15.144002      758.44683    
   1095000   296.12392      0.011271465    3.2881434      734.6916      -14.976414      719.71518    
   1096000   282.98163      0.011271465    13.148482      702.08522     -18.240901      683.84432    
   1097000   294.01396      0.011271465    6.0425716      729.45673     -17.406633      712.0501     
   1098000   301.85687      0.011271465    11.344693      748.91523     -18.661609      730.25362    
   1099000   295.18652      0.011271465    5.1527001      732.3659      -20.567344      711.79856    
   1100000   298.92001      0.011271465    0.78111801     741.62878     -21.3943        720.23448    
   1101000   308.05156      0.011271465    0.082364938    764.28442     -17.916161      746.36826    
   1102000   297.19811      0.011271465    9.4381963      737.35669     -14.38422       722.97247    
   1103000   306.06174      0.011271465    5.9295495      759.34761     -19.873503      739.4741     
   1104000   293.20951      0.011271465    3.8255247      727.46089     -20.488451      706.97244    
   1105000   302.24255      0.011271465    2.45824        749.87209     -23.095966      726.77612    
   1106000   297.27539      0.011271465    7.5646055      737.54844     -20.547406      717.00103    
   1107000   305.31338      0.011271465    13.018695      757.49091     -18.922662      738.56824    
   1108000   296.91309      0.011271465    2.987094       736.64956     -18.008735      718.64083    
   1109000   289.05184      0.011271465    10.989622      717.14557     -19.97105       697.17452    
   1110000   310.93899      0.011271465    8.588116       771.44821     -17.745329      753.70288    
   1111000   303.99183      0.011271465    2.616918       754.21211     -16.406768      737.80534    
   1112000   290.91765      0.011271465    5.5290631      721.77471     -15.03318       706.74153    
   1113000   291.43414      0.011271465    5.8925233      723.05615     -19.354542      703.7016     
   1114000   313.53453      0.011271465    6.6518889      777.88782     -17.316806      760.57101    
   1115000   301.49309      0.011271465    5.834574       748.01266     -18.975197      729.03746    
   1116000   298.77912      0.011271465    6.1739255      741.27922     -21.492833      719.78639    
   1117000   292.88269      0.011271465    6.2473423      726.65004     -22.018295      704.63174    
   1118000   302.84812      0.011271465    8.9634861      751.37452     -21.197446      730.17708    
   1119000   301.88367      0.011271465    5.7628402      748.9817      -20.586528      728.39517    
   1120000   295.86942      0.011271465    5.2414771      734.06018     -18.792789      715.26739    
   1121000   297.82849      0.011271465    5.5935789      738.92069     -15.688745      723.23194    
   1122000   305.03858      0.011271465    6.1221412      756.80913     -18.690978      738.11815    
   1123000   293.63599      0.011271465    6.8298459      728.51899     -17.979022      710.53997    
   1124000   290.16448      0.011271465    5.8587899      719.90607     -17.417538      702.48854    
   1125000   317.68815      0.011271465    5.6884501      788.19307     -18.131847      770.06122    
   1126000   317.2856       0.011271465    6.3718234      787.19431     -14.981979      772.21234    
   1127000   297.09001      0.011271465    7.4888109      737.08851     -16.651609      720.4369     
   1128000   281.46472      0.011271465    5.4334665      698.32173     -16.176722      682.14501    
   1129000   295.92398      0.011271465    5.6654454      734.19555     -17.22459       716.97096    
   1130000   307.29256      0.011271465    5.7394063      762.40132     -15.452452      746.94887    
   1131000   300.94821      0.011271465    6.9723981      746.66081     -18.886248      727.77456    
   1132000   286.07081      0.011271465    7.3063351      709.74956     -18.577928      691.17163    
   1133000   288.08362      0.011271465    5.5671253      714.74339     -17.505618      697.23778    
   1134000   304.49601      0.011271465    5.3685621      755.46299     -18.751295      736.71169    
   1135000   318.3014       0.011271465    6.3305362      789.71455     -18.301406      771.41314    
   1136000   300.77428      0.011271465    7.3316202      746.22928     -19.215323      727.01395    
   1137000   295.22385      0.011271465    6.150447       732.45851     -18.326102      714.1324     
   1138000   310.67652      0.011271465    2.9225692      770.797       -21.780039      749.01696    
   1139000   310.38599      0.011271465    6.6833711      770.0762      -23.227381      746.84881    
   1140000   281.14325      0.011271465    6.6375822      697.52416     -19.294233      678.22992    
   1141000   280.70665      0.011271465    8.0719618      696.44094     -19.714711      676.72623    
   1142000   305.3035       0.011271465    4.2265212      757.46639     -19.36635       738.10004    
   1143000   319.17098      0.011271465    10.021113      791.872       -17.377862      774.49414    
   1144000   291.11142      0.011271465    8.9091202      722.25546     -18.044207      704.21126    
   1145000   300.11595      0.011271465    2.7464955      744.59595     -14.677988      729.91797    
   1146000   296.3463       0.011271465    6.5377162      735.24333     -13.948653      721.29468    
   1147000   289.61965      0.011271465    7.347725       718.55435     -14.707486      703.84686    
   1148000   289.53272      0.011271465    8.1905237      718.33865     -15.699217      702.63943    
   1149000   300.96711      0.011271465    4.4965604      746.70769     -16.875854      729.83183    
   1150000   300.46955      0.011271465    4.3777093      745.47325     -18.847532      726.62571    
   1151000   309.30556      0.011271465    9.6828571      767.39563     -20.200998      747.19463    
   1152000   289.83991      0.011271465    11.219645      719.10081     -19.040602      700.06021    
   1153000   297.97495      0.011271465    5.001484       739.28407     -20.434233      718.84984    
   1154000   300.34045      0.011271465    0.75800619     745.15295     -19.899332      725.25361    
   1155000   302.7358       0.011271465    7.5650616      751.09585     -17.271653      733.8242     
   1156000   292.63825      0.011271465    7.8637713      726.04357     -17.260769      708.78281    
   1157000   296.33799      0.011271465    6.4193742      735.22272     -15.605764      719.61696    
   1158000   299.25292      0.011271465    5.3718668      742.45475     -16.469763      725.98499    
   1159000   297.2302       0.011271465    6.0188657      737.43633     -18.420123      719.01621    
   1160000   296.36584      0.011271465    7.9293742      735.29182     -15.835042      719.45677    
   1161000   304.15304      0.011271465    6.2101273      754.61207     -17.611916      737.00016    
   1162000   295.32613      0.011271465    3.6923182      732.71228     -17.313264      715.39901    
   1163000   310.36894      0.011271465    6.0828292      770.03389     -19.355767      750.67812    
   1164000   305.40986      0.011271465    6.7902791      757.73029     -19.291651      738.43864    
   1165000   295.92278      0.011271465    6.4583057      734.19257     -15.859474      718.3331     
   1166000   293.90511      0.011271465    5.148944       729.18668     -17.683796      711.50289    
   1167000   300.30492      0.011271465    5.7620024      745.06479     -17.887732      727.17706    
   1168000   299.36952      0.011271465    5.939079       742.74402     -18.725935      724.01809    
   1169000   315.23859      0.011271465    4.0927978      782.11564     -17.014439      765.1012     
   1170000   299.07713      0.011271465    8.7372209      742.0186      -17.555298      724.4633     
   1171000   305.26424      0.011271465    6.288348       757.369       -19.556425      737.81257    
   1172000   293.59775      0.011271465    4.8717477      728.4241      -17.022509      711.40159    
   1173000   297.19109      0.011271465    4.4727815      737.3393      -16.609706      720.72959    
   1174000   301.181        0.011271465    10.898645      747.23836     -18.856355      728.382      
   1175000   310.86604      0.011271465    7.3524557      771.26722     -18.314374      752.95285    
   1176000   297.64461      0.011271465    5.8753927      738.46449     -20.210769      718.25372    
   1177000   298.26927      0.011271465    6.207441       740.01427     -16.625342      723.38893    
   1178000   292.92725      0.011271465    0.51767164     726.76058     -19.472826      707.28776    
   1179000   291.21632      0.011271465    8.6126168      722.51572     -19.661311      702.85441    
   1180000   305.17479      0.011271465    12.569999      757.14706     -16.34098       740.80608    
   1181000   305.25904      0.011271465    7.303007       757.35609     -16.309541      741.04655    
   1182000   301.44252      0.011271465    4.7762066      747.8872      -14.667463      733.21973    
   1183000   291.90512      0.011271465    4.8948807      724.22464     -14.537986      709.68666    
   1184000   297.57555      0.011271465    4.1155809      738.29315     -14.494553      723.7986     
   1185000   285.79467      0.011271465    12.965049      709.06445     -15.580506      693.48394    
   1186000   303.27225      0.011271465    7.6512216      752.4268      -12.93523       739.49157    
   1187000   298.00261      0.011271465    6.4723914      739.35268     -13.952479      725.40021    
   1188000   304.6381       0.011271465    5.7546711      755.81552     -13.262506      742.55301    
   1189000   289.8588       0.011271465    2.2438987      719.14767     -18.319032      700.82864    
   1190000   297.77996      0.011271465    9.4807262      738.8003      -14.768926      724.03137    
   1191000   310.8933       0.011271465    3.8354929      771.33485     -16.973815      754.36104    
   1192000   304.46424      0.011271465    5.8601618      755.38417     -20.150122      735.23405    
   1193000   292.95101      0.011271465    7.3752097      726.81953     -16.548032      710.27149    
   1194000   298.53356      0.011271465    7.4248114      740.66999     -17.598007      723.07199    
   1195000   321.67606      0.011271465    3.244363       798.08717     -21.2646        776.82257    
   1196000   298.68788      0.011271465    2.7671857      741.05286     -17.718585      723.33427    
   1197000   298.01516      0.011271465    10.037737      739.38383     -16.928318      722.45551    
   1198000   306.13331      0.011271465   -3.5654549      759.52517     -21.367417      738.15776    
   1199000   289.25267      0.011271465    0.12194704     717.64384     -15.597578      702.04627    
   1200000   296.55736      0.011271465    7.5132376      735.76699     -19.006101      716.76088    
   1201000   310.7951       0.011271465    14.157584      771.09121     -18.341454      752.74975    
   1202000   307.74302      0.011271465    5.1975951      763.51892     -20.372483      743.14643    
   1203000   298.89723      0.011271465   -1.3249254      741.57227     -20.832193      720.74007    
   1204000   307.79838      0.011271465    8.7021127      763.65626     -19.103722      744.55253    
   1205000   304.04573      0.011271465   -0.72451354     754.34584     -14.251747      740.0941     
   1206000   308.29403      0.011271465   -16.322532      764.88599     -17.074176      747.81182    
   1207000   298.22354      0.011271465    8.2519462      739.90081     -15.673626      724.22719    
   1208000   327.92771      0.011271465    5.7312244      813.5977      -19.287646      794.31005    
   1209000   298.89168      0.011271465    5.5528965      741.5585      -17.630732      723.92777    
   1210000   293.30642      0.011271465    6.1146364      727.70131     -17.269143      710.43217    
   1211000   300.30176      0.011271465    10.59809       745.05693     -12.799818      732.25711    
   1212000   313.59787      0.011271465    4.8166748      778.04495     -14.835398      763.20956    
   1213000   295.78533      0.011271465    4.1674102      733.85157     -16.178315      717.67325    
   1214000   294.52126      0.011271465    6.9754729      730.71537     -16.368421      714.34695    
   1215000   306.97919      0.011271465    11.07069       761.62383     -19.597689      742.02615    
   1216000   309.43574      0.011271465    6.8486896      767.71859     -22.04393       745.67466    
   1217000   289.16829      0.011271465    2.2531141      717.43451     -22.280448      695.15406    
   1218000   293.23901      0.011271465    6.615466       727.53406     -16.929847      710.60421    
   1219000   304.1658       0.011271465    7.0802727      754.64374     -17.03505       737.60869    
   1220000   326.28216      0.011271465    5.3356959      809.51503     -20.348948      789.16608    
   1221000   292.09125      0.011271465    1.1400259      724.68645     -19.771321      704.91513    
   1222000   291.60735      0.011271465    7.5333875      723.48587     -18.233609      705.25226    
   1223000   297.87705      0.011271465    8.1049572      739.04118     -15.725127      723.31605    
   1224000   313.90368      0.011271465    3.3780487      778.80369     -16.030601      762.77309    
   1225000   294.72217      0.011271465    6.3479562      731.21384     -18.213059      713.00078    
   1226000   297.50272      0.011271465    9.470738       738.11246     -19.004527      719.10793    
   1227000   310.87122      0.011271465    8.5880526      771.28007     -16.83626       754.44381    
   1228000   303.57448      0.011271465    6.9445411      753.17665     -14.107911      739.06874    
   1229000   293.159        0.011271465   -2.622558       727.33556     -14.597538      712.73803    
   1230000   295.44454      0.011271465    9.7656528      733.00605     -12.549042      720.45701    
   1231000   307.43298      0.011271465    6.2085359      762.74971     -15.579601      747.17011    
   1232000   308.40848      0.011271465    4.515219       765.16993     -18.45574       746.71419    
   1233000   292.09104      0.011271465    4.6721294      724.68593     -17.624614      707.06131    
   1234000   299.53888      0.011271465    7.2924186      743.16423     -12.688028      730.4762     
   1235000   309.84075      0.011271465   -4.3873473      768.72344     -13.786075      754.93736    
   1236000   292.32035      0.011271465    8.1171982      725.25485     -16.410249      708.8446     
   1237000   295.40236      0.011271465    14.371143      732.9014      -17.252588      715.64881    
   1238000   308.02697      0.011271465    5.5407658      764.2234      -16.296535      747.92686    
   1239000   296.35715      0.011271465    4.1984269      735.27025     -15.883539      719.38671    
   1240000   295.59189      0.011271465    4.6116364      733.37163     -18.277304      715.09433    
   1241000   297.61255      0.011271465    6.9975951      738.38494     -17.708588      720.67635    
   1242000   302.76167      0.011271465    6.8887661      751.16004     -20.691103      730.46894    
   1243000   296.43946      0.011271465    3.0999369      735.47448     -20.123419      715.35106    
   1244000   299.23202      0.011271465    5.638092       742.40289     -17.320746      725.08214    
   1245000   304.71891      0.011271465    5.5234123      756.01601     -15.083651      740.93235    
   1246000   303.80353      0.011271465    8.4954423      753.74493     -13.822629      739.9223     
   1247000   303.89275      0.011271465    10.246882      753.96629     -13.792895      740.1734     
   1248000   304.73148      0.011271465    7.7444808      756.0472      -16.770784      739.27641    
   1249000   298.13356      0.011271465    4.3851485      739.67758     -18.098119      721.57946    
   1250000   309.81889      0.011271465    6.6403919      768.66921     -19.757977      748.91123    
   1251000   304.83118      0.011271465    8.3420131      756.29455     -26.435573      729.85898    
   1252000   290.79301      0.011271465    5.9110148      721.46548     -21.465105      700.00037    
   1253000   291.65971      0.011271465    6.1820676      723.61578     -21.89341       701.72237    
   1254000   296.34748      0.011271465    6.0874816      735.24627     -21.519576      713.72669    
   1255000   307.28663      0.011271465    5.728742       762.38659     -20.832355      741.55423    
   1256000   308.9352       0.011271465    6.4260335      766.47676     -20.76048       745.71628    
   1257000   295.41769      0.011271465    4.7450155      732.93943     -21.941355      710.99808    
   1258000   285.57307      0.011271465    6.2672576      708.51467     -16.455887      692.05878    
   1259000   299.77827      0.011271465    6.6016323      743.75815     -15.055513      728.70263    
   1260000   307.23767      0.011271465    6.7198194      762.26513     -12.934204      749.33093    
   1261000   304.63639      0.011271465    2.8845495      755.81128     -10.787935      745.02334    
   1262000   294.38673      0.011271465    5.9753871      730.38159     -12.193958      718.18764    
   1263000   294.69402      0.011271465    5.7472421      731.144       -15.120473      716.02352    
   1264000   316.89516      0.011271465    6.8159256      786.22561     -15.739834      770.48578    
   1265000   292.632        0.011271465    5.7175166      726.02807     -17.788998      708.23907    
   1266000   293.50236      0.011271465    3.7241344      728.18746     -20.127175      708.06028    
   1267000   303.23836      0.011271465    8.7190665      752.34274     -18.959927      733.38281    
   1268000   298.84504      0.011271465    6.2567689      741.44279     -16.521913      724.92087    
   1269000   301.48643      0.011271465    5.3326013      747.99613     -18.871233      729.1249     
   1270000   288.25679      0.011271465    3.8843848      715.17304     -19.994637      695.17841    
   1271000   311.91466      0.011271465    6.3995684      773.86887     -15.767389      758.10148    
   1272000   307.01858      0.011271465    10.895563      761.72157     -15.953007      745.76857    
   1273000   293.95104      0.011271465    5.8789608      729.30063     -17.257431      712.0432     
   1274000   294.28419      0.011271465    5.5590911      730.12718     -14.808236      715.31895    
   1275000   319.10064      0.011271465    4.1944183      791.69748     -15.413306      776.28418    
   1276000   309.88995      0.011271465    8.7677144      768.84552     -13.195458      755.65006    
   1277000   292.72219      0.011271465    8.4200448      726.25183     -13.319423      712.93241    
   1278000   297.86372      0.011271465    3.1409493      739.00809     -13.635334      725.37275    
   1279000   297.96191      0.011271465    4.2952381      739.25171     -16.822215      722.4295     
   1280000   307.46559      0.011271465    9.7930034      762.83061     -15.29598       747.53463    
   1281000   298.52107      0.011271465    6.9095912      740.639       -16.430586      724.20842    
   1282000   296.48762      0.011271465    3.7032178      735.59397     -21.606238      713.98773    
   1283000   313.93699      0.011271465    9.0069938      778.88633     -19.847558      759.03877    
   1284000   302.90806      0.011271465    7.5366333      751.52324     -16.48681       735.03643    
   1285000   309.36508      0.011271465    5.846318       767.54329     -18.969927      748.57337    
   1286000   298.35679      0.011271465    5.7632788      740.23143     -15.15186       725.07957    
   1287000   301.93423      0.011271465    5.969323       749.10715     -13.363684      735.74347    
   1288000   307.04869      0.011271465    9.5515448      761.79625     -12.458966      749.33729    
   1289000   298.78825      0.011271465    8.0460582      741.30188     -11.554471      729.74741    
   1290000   294.05533      0.011271465    5.4973717      729.55938     -10.512175      719.0472     
   1291000   312.24747      0.011271465    3.4575482      774.69457     -10.048381      764.64619    
   1292000   301.61697      0.011271465    6.5135796      748.32002     -11.651034      736.66899    
   1293000   303.26638      0.011271465    7.7079614      752.41224     -12.494344      739.9179     
   1294000   301.92577      0.011271465    6.6542754      749.08617     -12.312825      736.77334    
   1295000   292.06372      0.011271465    5.347961       724.61813     -14.103465      710.51467    
   1296000   300.95598      0.011271465    6.1980484      746.68008     -11.312035      735.36805    
   1297000   302.04076      0.011271465    5.8633974      749.37145     -14.203642      735.1678     
   1298000   303.60612      0.011271465    5.905854       753.25514     -14.598662      738.65648    
   1299000   306.94446      0.011271465    6.7322473      761.53767     -13.38599       748.15168    
   1300000   301.14936      0.011271465    7.036975       747.15986     -16.668866      730.49099    
   1301000   305.59825      0.011271465    6.1339601      758.19768     -15.859167      742.33851    
   1302000   307.78826      0.011271465    6.2341676      763.63115     -17.144665      746.48648    
   1303000   294.15601      0.011271465    3.8517363      729.80916     -18.313914      711.49524    
   1304000   300.13619      0.011271465    5.6738292      744.64615     -16.941922      727.70423    
   1305000   296.24136      0.011271465    6.3886326      734.98298     -18.589409      716.39357    
   1306000   300.68499      0.011271465    6.0213881      746.00775     -21.910409      724.09734    
   1307000   293.59646      0.011271465    6.4209062      728.4209      -22.496298      705.92461    
   1308000   296.40222      0.011271465    6.688284       735.38208     -17.446511      717.93557    
   1309000   307.78986      0.011271465    5.7741902      763.63512     -21.115886      742.51923    
   1310000   292.7635       0.011271465    4.9385041      726.35431     -22.680452      703.67386    
   1311000   299.93965      0.011271465    8.6231623      744.15854     -19.110226      725.04831    
   1312000   313.81944      0.011271465    5.6237499      778.59468     -20.611725      757.98296    
   1313000   302.29106      0.011271465    5.9377082      749.99245     -17.104225      732.88823    
   1314000   295.02896      0.011271465    5.1711609      731.97497     -14.89871       717.07626    
   1315000   299.67038      0.011271465    11.351722      743.49047     -21.180735      722.30973    
   1316000   302.06552      0.011271465    9.4407948      749.43289     -19.389206      730.04369    
   1317000   326.02908      0.011271465    1.9333361      808.88713     -19.558608      789.32853    
   1318000   292.04046      0.011271465    3.37096        724.56042     -14.815194      709.74522    
   1319000   297.84682      0.011271465    6.5318958      738.96617     -15.276209      723.68996    
   1320000   307.66358      0.011271465    14.38295       763.32183     -17.77038       745.55145    
   1321000   314.11676      0.011271465    6.7636208      779.33233     -17.890766      761.44156    
   1322000   296.78551      0.011271465    5.6470019      736.33302     -14.822263      721.51076    
   1323000   296.00473      0.011271465    5.2711107      734.39589     -14.508609      719.88729    
   1324000   309.4708       0.011271465    10.604695      767.80559     -15.799289      752.0063     
   1325000   305.17277      0.011271465    3.2740427      757.14206     -13.599007      743.54305    
   1326000   291.65139      0.011271465    4.1130326      723.59513     -12.384802      711.21033    
   1327000   286.88153      0.011271465    5.8425217      711.76099     -13.581805      698.17919    
   1328000   312.87005      0.011271465    6.624195       776.23922     -13.324491      762.91473    
   1329000   313.26258      0.011271465    4.3066008      777.2131      -11.982194      765.2309     
   1330000   292.34268      0.011271465    6.0474375      725.31025     -12.860755      712.44949    
   1331000   300.66277      0.011271465    9.1151634      745.95261     -14.681257      731.27136    
   1332000   304.89325      0.011271465    5.0435495      756.44857     -17.224154      739.22441    
   1333000   298.946        0.011271465    4.7328102      741.69326     -15.186178      726.50708    
   1334000   292.45672      0.011271465    6.4507913      725.59319     -17.076295      708.5169     
   1335000   305.55975      0.011271465    13.599276      758.10216     -13.694519      744.40764    
   1336000   308.74258      0.011271465    2.30104        765.99886     -14.749193      751.24967    
   1337000   280.56014      0.011271465    6.0509826      696.07744     -18.474667      677.60277    
   1338000   300.14101      0.011271465    11.011511      744.65812     -18.440749      726.21738    
   1339000   302.27025      0.011271465   -0.061647747    749.94083     -20.19795       729.74288    
   1340000   292.69886      0.011271465    9.5897637      726.19395     -19.398782      706.79517    
   1341000   298.2029       0.011271465    7.3595656      739.84961     -22.003101      717.84651    
   1342000   303.97709      0.011271465    7.2718116      754.17554     -21.351862      732.82368    
   1343000   298.4426       0.011271465    2.0197479      740.44432     -22.62303       717.82129    
   1344000   299.47136      0.011271465    10.862256      742.9967      -20.266277      722.73042    
   1345000   306.14457      0.011271465    9.4114795      759.55312     -20.733959      738.81916    
   1346000   295.18518      0.011271465    5.582772       732.36258     -21.623159      710.73942    
   1347000   296.5903       0.011271465    0.59944897     735.84871     -22.583029      713.26568    
   1348000   294.20395      0.011271465    0.02786271     729.92811     -22.078969      707.84914    
   1349000   303.43277      0.011271465    6.2055378      752.82507     -20.643504      732.18157    
   1350000   300.4775       0.011271465    7.8797988      745.49296     -18.482053      727.01091    
   1351000   305.90414      0.011271465    5.8557394      758.9566      -21.849678      737.10692    
   1352000   305.60552      0.011271465    6.0846665      758.21573     -15.643981      742.57175    
   1353000   291.76194      0.011271465    1.8272707      723.86943     -23.353717      700.51571    
   1354000   300.72975      0.011271465    4.4681342      746.1188      -20.843805      725.27499    
   1355000   288.18142      0.011271465    6.079083       714.98604     -18.695456      696.29059    
   1356000   300.09869      0.011271465    7.5078919      744.55312     -19.56742       724.9857     
   1357000   311.12409      0.011271465    10.323741      771.90745     -16.746918      755.16054    
   1358000   298.87612      0.011271465   -7.6405195      741.51989     -16.846881      724.67301    
   1359000   282.94242      0.011271465    1.0058336      701.98795     -17.990831      683.99712    
   1360000   304.94749      0.011271465    10.853578      756.58312     -20.500686      736.08244    
   1361000   306.49783      0.011271465    6.2932625      760.42957     -22.509598      737.91997    
   1362000   305.09543      0.011271465    2.9738921      756.95016     -21.363388      735.58677    
   1363000   280.00755      0.011271465    6.523902       694.70645     -16.499166      678.20729    
   1364000   303.25149      0.011271465    7.4971327      752.37531     -15.898923      736.47638    
   1365000   312.67602      0.011271465    6.2001975      775.75782     -19.186176      756.57164    
   1366000   304.99497      0.011271465    6.0964811      756.70092     -18.975934      737.72499    
   1367000   289.22164      0.011271465    5.2344826      717.56687     -21.678999      695.88787    
   1368000   297.30838      0.011271465    6.0887093      737.63028     -22.083702      715.54657    
   1369000   310.17175      0.011271465    6.5985446      769.54466     -21.332689      748.21197    
   1370000   298.50933      0.011271465    4.9317199      740.60988     -19.803001      720.80688    
   1371000   300.33947      0.011271465    4.7258852      745.15051     -16.345744      728.80477    
   1372000   300.90476      0.011271465    6.1538647      746.55301     -16.193696      730.35931    
   1373000   303.50249      0.011271465    8.4526284      752.99805     -14.586176      738.41187    
   1374000   302.38066      0.011271465    8.2450978      750.21474     -16.280793      733.93395    
   1375000   308.74163      0.011271465    5.1833293      765.99648     -18.168746      747.82774    
   1376000   298.8142       0.011271465    6.9160717      741.36626     -14.21528       727.15098    
   1377000   303.78885      0.011271465    8.0897462      753.70852     -15.081713      738.62681    
   1378000   298.23915      0.011271465    6.1361525      739.93955     -17.73638       722.20317    
   1379000   282.48646      0.011271465    5.9424264      700.8567      -17.515951      683.34075    
   1380000   298.24897      0.011271465    6.4306593      739.96392     -17.762785      722.20114    
   1381000   312.17652      0.011271465    4.9604352      774.51856     -16.392073      758.12649    
   1382000   303.55775      0.011271465    5.9334375      753.13513     -15.598615      737.53652    
   1383000   302.09604      0.011271465    7.0023904      749.50859     -19.143464      730.36513    
   1384000   290.87572      0.011271465    6.1979478      721.67068     -17.694181      703.9765     
   1385000   294.71163      0.011271465    2.1419153      731.18768     -17.592351      713.59533    
   1386000   285.00193      0.011271465    6.6801549      707.09764     -17.884981      689.21266    
   1387000   315.65071      0.011271465    7.9857703      783.13812     -18.510927      764.62719    
   1388000   305.57118      0.011271465    2.2854011      758.13053     -17.202414      740.92811    
   1389000   290.56963      0.011271465    2.5211756      720.91127     -16.17187       704.7394     
   1390000   298.02187      0.011271465    9.7035973      739.40048     -13.286558      726.11392    
   1391000   304.14231      0.011271465    6.568277       754.58544     -16.928897      737.65655    
   1392000   312.09407      0.011271465    1.8437488      774.31398     -16.078593      758.23539    
   1393000   279.79001      0.011271465    7.1451019      694.16674     -20.928561      673.23818    
   1394000   300.73134      0.011271465    7.2240322      746.12275     -20.583769      725.53899    
   1395000   306.86901      0.011271465    4.3092357      761.35047     -19.598668      741.7518     
   1396000   303.95889      0.011271465    4.7247207      754.13039     -18.266132      735.86426    
   1397000   298.39575      0.011271465    6.1948373      740.32809     -15.770444      724.55764    
   1398000   304.24494      0.011271465    6.0267788      754.84008     -18.650303      736.18978    
   1399000   306.0151       0.011271465    5.68887        759.2319      -17.736945      741.49496    
   1400000   294.91458      0.011271465    5.8358037      731.69119     -22.637681      709.05351    
   1401000   308.11083      0.011271465    6.9437721      764.43146     -21.853247      742.57821    
   1402000   305.86181      0.011271465    5.4060582      758.85159     -23.187052      735.66454    
   1403000   292.733        0.011271465    2.1815094      726.27865     -21.420744      704.8579     
   1404000   288.16109      0.011271465    6.5934669      714.93562     -18.289968      696.64565    
   1405000   305.66028      0.011271465    7.8825057      758.35159     -22.086578      736.26501    
   1406000   298.46089      0.011271465    8.8733724      740.48969     -20.883327      719.60636    
   1407000   298.78578      0.011271465    5.4691186      741.29576     -19.573468      721.72229    
   1408000   309.28594      0.011271465    3.1523941      767.34694     -20.130002      747.21694    
   1409000   300.70715      0.011271465    5.5836871      746.06273     -24.068416      721.99431    
   1410000   297.21656      0.011271465    9.0514414      737.40248     -25.070196      712.33228    
   1411000   299.72216      0.011271465    13.513743      743.61895     -24.656897      718.96205    
   1412000   299.87419      0.011271465    6.0085866      743.99614     -25.264875      718.73126    
   1413000   299.20116      0.011271465    8.0409765      742.32633     -22.215521      720.11081    
   1414000   309.14584      0.011271465    3.7133209      766.99935     -21.446092      745.55326    
   1415000   316.11384      0.011271465   -0.76594179     784.28715     -18.307003      765.98015    
   1416000   300.08553      0.011271465    6.6228695      744.52047     -13.177675      731.3428     
   1417000   309.68695      0.011271465    6.8436058      768.34187     -20.277056      748.06481    
   1418000   284.99942      0.011271465    3.102964       707.09142     -19.376697      687.71472    
   1419000   297.98329      0.011271465    6.6776798      739.30477     -14.86954       724.43523    
   1420000   317.26269      0.011271465    6.3343817      787.13749     -15.85351       771.28398    
   1421000   297.59811      0.011271465    5.880929       738.34911     -17.255742      721.09336    
   1422000   290.02588      0.011271465    6.0751018      719.56219     -16.41964       703.14256    
   1423000   306.10761      0.011271465    5.9163763      759.46141     -17.738065      741.72335    
   1424000   313.62812      0.011271465    6.8004592      778.12002     -15.517535      762.60248    
   1425000   296.89621      0.011271465    7.5251637      736.60769     -14.010833      722.59685    
   1426000   285.31661      0.011271465    8.9912733      707.87837     -12.576775      695.3016     
   1427000   293.75925      0.011271465    3.8725501      728.82479     -16.75143       712.07336    
   1428000   317.91896      0.011271465    2.3670705      788.76571     -12.259223      776.50648    
   1429000   302.31014      0.011271465    6.1135705      750.0398      -17.097061      732.94274    
   1430000   298.89942      0.011271465    7.4210039      741.57771     -15.259681      726.31803    
   1431000   296.90031      0.011271465    7.7087723      736.61784     -15.4366        721.18124    
   1432000   301.34925      0.011271465   -3.3107074      747.6558      -14.12042       733.53538    
   1433000   298.22701      0.011271465    0.90427574     739.90943     -16.08286       723.82657    
   1434000   296.69619      0.011271465    6.1697598      736.11142     -13.130206      722.98121    
   1435000   300.99927      0.011271465    15.123118      746.78749     -18.634226      728.15327    
   1436000   296.89224      0.011271465    12.205462      736.59783     -17.637924      718.95991    
   1437000   294.55747      0.011271465    9.0392585      730.8052      -20.268556      710.53664    
   1438000   294.55245      0.011271465    3.0327218      730.79274     -18.842065      711.95068    
   1439000   316.72275      0.011271465    2.2866808      785.79787     -21.177079      764.62079    
   1440000   313.03466      0.011271465    5.5160555      776.64761     -19.849478      756.79813    
   1441000   288.66894      0.011271465    8.3494223      716.19559     -18.914929      697.28066    
   1442000   294.72505      0.011271465   -0.83683076     731.22097     -19.585219      711.63576    
   1443000   308.22757      0.011271465   -3.1091313      764.72111     -16.890301      747.83081    
   1444000   310.36956      0.011271465    12.09078       770.03543     -15.368143      754.66729    
   1445000   295.34456      0.011271465    12.127888      732.758       -14.196472      718.56153    
   1446000   292.74218      0.011271465    9.7426709      726.30143     -17.31066       708.99077    
   1447000   292.15644      0.011271465    3.0618685      724.84818     -17.233264      707.61491    
   1448000   310.21507      0.011271465   -4.2510444      769.65213     -18.089711      751.56242    
   1449000   311.86817      0.011271465    3.3002769      773.75353     -17.791008      755.96252    
   1450000   297.96342      0.011271465    12.438856      739.25545     -18.288731      720.96672    
   1451000   295.95069      0.011271465    6.3391318      734.26182     -19.690069      714.57176    
   1452000   309.47827      0.011271465    11.031705      767.82412     -17.870862      749.95325    
   1453000   295.72576      0.011271465    10.435025      733.70376     -15.474282      718.22948    
   1454000   295.93554      0.011271465    5.1877217      734.22424     -17.730737      716.4935     
   1455000   302.14218      0.011271465   -1.585347       749.62307     -14.319705      735.30336    
   1456000   297.89498      0.011271465    8.4636444      739.08566     -18.032147      721.05351    
   1457000   294.0065       0.011271465    9.3104044      729.43824     -19.483166      709.95507    
   1458000   301.80913      0.011271465    5.6093031      748.79677     -18.645754      730.15102    
   1459000   297.92137      0.011271465    2.4155232      739.15114     -19.975227      719.17591    
   1460000   301.60178      0.011271465    11.166587      748.28233     -16.248865      732.03346    
   1461000   322.91571      0.011271465    5.6462733      801.16277     -18.739109      782.42366    
   1462000   300.13033      0.011271465    8.5950272      744.63163     -16.993727      727.6379     
   1463000   287.65771      0.011271465    7.0186251      713.68672     -16.721664      696.96505    
   1464000   291.0486       0.011271465    1.1196353      722.09961     -19.532275      702.56733    
   1465000   308.12123      0.011271465    13.334261      764.45728     -18.507365      745.94991    
   1466000   305.14383      0.011271465    10.441333      757.07026     -20.653982      736.41628    
   1467000   305.72592      0.011271465   -3.220945       758.51444     -17.511198      741.00324    
   1468000   305.51778      0.011271465   -1.1889808      757.99803     -18.067426      739.93061    
   1469000   301.62329      0.011271465    5.979477       748.33571     -13.402927      734.93278    
   1470000   306.5647       0.011271465    19.186577      760.59548     -20.939443      739.65604    
   1471000   290.49573      0.011271465    7.9257775      720.72792     -16.721178      704.00674    
   1472000   283.74648      0.011271465    1.8788752      703.98284     -17.991736      685.99111    
   1473000   301.13722      0.011271465    2.4018074      747.12975     -19.957278      727.17247    
   1474000   312.35801      0.011271465    11.49761       774.96882     -18.939179      756.02964    
   1475000   297.95377      0.011271465    13.858069      739.23152     -20.465253      718.76627    
   1476000   290.20666      0.011271465   -4.6219703      720.01072     -21.161142      698.84958    
   1477000   304.08315      0.011271465    5.6805128      754.43867     -18.882992      735.55568    
   1478000   307.50848      0.011271465    7.1103545      762.93701     -17.618089      745.31892    
   1479000   294.80824      0.011271465    13.436439      731.42737     -19.530354      711.89702    
   1480000   292.49865      0.011271465    3.2623967      725.69721     -15.59748       710.09973    
   1481000   312.66164      0.011271465    9.5002596      775.72215     -17.624657      758.0975     
   1482000   304.69142      0.011271465    8.2834897      755.94781     -15.457322      740.49048    
   1483000   303.36515      0.011271465    5.7047246      752.65731     -12.643005      740.0143     
   1484000   306.77623      0.011271465    1.5449501      761.12028     -13.0667        748.05358    
   1485000   297.9805       0.011271465    6.2157004      739.29783     -16.616006      722.68183    
   1486000   290.8155       0.011271465    9.4659867      721.52126     -12.920375      708.60089    
   1487000   298.50084      0.011271465    5.8381884      740.58881     -13.856646      726.73216    
   1488000   299.87317      0.011271465    4.6255701      743.99361     -16.323684      727.66993    
   1489000   299.66355      0.011271465    6.0291106      743.47352     -14.530441      728.94308    
   1490000   303.17386      0.011271465    7.5105902      752.1827      -14.312021      737.87068    
   1491000   310.2594       0.011271465    7.4348684      769.76212     -11.057178      758.70494    
   1492000   301.5801       0.011271465    4.9097587      748.22853     -15.186148      733.04238    
   1493000   299.96063      0.011271465    3.1195153      744.21058     -14.026132      730.18445    
   1494000   306.78904      0.011271465    6.6661355      761.15207     -14.184659      746.96741    
   1495000   296.33052      0.011271465    7.3943057      735.2042      -15.744902      719.4593     
   1496000   303.63261      0.011271465    5.0164782      753.32087     -17.228103      736.09277    
   1497000   309.60261      0.011271465    5.9330633      768.13261     -16.562189      751.57042    
   1498000   310.24548      0.011271465    7.6050048      769.72759     -16.093472      753.63412    
   1499000   298.48512      0.011271465    8.6121453      740.54982     -14.283364      726.26646    
   1500000   285.57225      0.011271465    6.178913       708.51263     -17.370878      691.14176    
   1501000   296.14598      0.011271465    6.1065141      734.74634     -19.878623      714.86771    
   1502000   312.12559      0.011271465    5.6470637      774.3922      -17.350285      757.04191    
   1503000   305.36804      0.011271465    6.1571308      757.62651     -21.27368       736.35283    
   1504000   293.4835       0.011271465    6.2140491      728.14064     -23.275558      704.86508    
   1505000   304.24805      0.011271465    5.9902512      754.84781     -22.676612      732.17119    
   1506000   293.68232      0.011271465    8.4549274      728.63392     -21.520571      707.11335    
   1507000   291.19366      0.011271465    5.675459       722.45951     -21.383908      701.0756     
   1508000   295.33706      0.011271465    5.9868184      732.73939     -22.16991       710.56948    
   1509000   295.77376      0.011271465    6.1003027      733.82286     -20.083558      713.7393     
   1510000   295.91629      0.011271465    5.1606115      734.17648     -20.535525      713.64096    
   1511000   304.33562      0.011271465    6.2547522      755.06507     -18.400063      736.66501    
   1512000   294.2224       0.011271465    10.846053      729.97387     -19.92901       710.04486    
   1513000   286.91474      0.011271465    4.7568709      711.84337     -16.88615       694.95722    
   1514000   315.77309      0.011271465    4.2502085      783.44174     -18.468747      764.973      
   1515000   297.31323      0.011271465    11.145519      737.64232     -19.998353      717.64397    
   1516000   288.15425      0.011271465    4.1251743      714.91865     -16.305707      698.61294    
   1517000   296.54623      0.011271465    4.3776749      735.73936     -21.771251      713.96811    
   1518000   325.0503       0.011271465    6.5426462      806.45876     -20.006216      786.45254    
   1519000   294.19015      0.011271465    6.9014162      729.89386     -19.20204       710.69182    
   1520000   309.29859      0.011271465    5.8495979      767.37833     -19.242292      748.13604    
   1521000   300.07918      0.011271465    6.3117226      744.50471     -19.12604       725.37867    
   1522000   302.80651      0.011271465    5.006194       751.27129     -17.556932      733.71435    
   1523000   299.51595      0.011271465    4.5673509      743.10732     -18.119538      724.98779    
   1524000   293.51277      0.011271465    9.6989183      728.21326     -18.765908      709.44735    
   1525000   289.45838      0.011271465    7.0132429      718.15421     -16.53846       701.61575    
   1526000   317.49209      0.011271465    6.4412823      787.70664     -21.055251      766.65139    
   1527000   310.60364      0.011271465    3.5255173      770.6162      -14.622756      755.99345    
   1528000   298.32781      0.011271465    2.1377898      740.15953     -20.272184      719.88734    
   1529000   293.50184      0.011271465    10.352563      728.18617     -20.477243      707.70892    
   1530000   313.43546      0.011271465    5.5504798      777.64202     -20.916935      756.72508    
   1531000   297.15205      0.011271465    1.8968359      737.24242     -18.76311       718.47931    
   1532000   293.29959      0.011271465    6.8435932      727.68437     -19.026892      708.65747    
   1533000   297.28677      0.011271465    8.3200533      737.57666     -17.650916      719.92574    
   1534000   304.11953      0.011271465    8.9563062      754.52893     -19.153274      735.37566    
   1535000   301.86081      0.011271465    3.3662556      748.925       -17.623058      731.30194    
   1536000   288.17152      0.011271465    5.9228852      714.96148     -16.769626      698.19186    
   1537000   303.01947      0.011271465    8.2579829      751.79967     -17.828216      733.97145    
   1538000   306.94743      0.011271465    2.3411554      761.54504     -16.181409      745.36363    
   1539000   294.20797      0.011271465    6.8976825      729.93809     -16.971196      712.9669     
   1540000   304.64539      0.011271465    10.369475      755.8336      -16.656831      739.17677    
   1541000   311.9851       0.011271465    6.0173194      774.04364     -17.306527      756.73711    
   1542000   301.313        0.011271465    10.545416      747.56585     -15.288734      732.27711    
   1543000   305.98614      0.011271465    7.9224626      759.16004     -15.850145      743.3099     
   1544000   303.93561      0.011271465    4.0558084      754.07264     -13.741879      740.33076    
   1545000   300.81349      0.011271465    7.6308312      746.32655     -21.47784       724.84871    
   1546000   295.98075      0.011271465    9.9877698      734.3364      -19.432974      714.90343    
   1547000   301.39565      0.011271465    4.6004161      747.77091     -17.289831      730.48108    
   1548000   309.68562      0.011271465   -0.21791212     768.33856     -13.478806      754.85976    
   1549000   306.22314      0.011271465    5.964027       759.74805     -16.893691      742.85436    
   1550000   301.39711      0.011271465    11.914892      747.77454     -18.445918      729.32862    
   1551000   294.95604      0.011271465    4.085646       731.79405     -19.465765      712.32829    
   1552000   302.54288      0.011271465    1.0227533      750.61722     -19.426505      731.19072    
   1553000   298.1273       0.011271465    6.0016713      739.66204     -19.138168      720.52387    
   1554000   309.85356      0.011271465    9.0543165      768.75523     -15.982268      752.77296    
   1555000   304.93495      0.011271465    7.4411127      756.55201     -15.023052      741.52896    
   1556000   305.82214      0.011271465    6.3238466      758.75317     -17.078837      741.67433    
   1557000   305.55749      0.011271465    4.5466467      758.09656     -17.158545      740.93801    
   1558000   301.31139      0.011271465    5.952174       747.56187     -18.141489      729.42038    
   1559000   298.74967      0.011271465    7.9348739      741.20616     -18.485435      722.72073    
   1560000   294.3269       0.011271465    6.1521486      730.23314     -20.941804      709.29134    
   1561000   304.40049      0.011271465    3.5442084      755.226       -17.925968      737.30003    
   1562000   303.11963      0.011271465    6.249049       752.04815     -19.604049      732.4441     
   1563000   301.21363      0.011271465    6.9842846      747.31932     -18.783341      728.53598    
   1564000   304.39245      0.011271465    5.0513197      755.20606     -19.643268      735.56279    
   1565000   290.08328      0.011271465    5.8894997      719.70461     -16.503361      703.20125    
   1566000   296.56889      0.011271465    6.2758965      735.7956      -16.926949      718.86865    
   1567000   293.37587      0.011271465    7.3389227      727.87363     -15.718128      712.1555     
   1568000   315.20865      0.011271465    5.7232497      782.04136     -17.503497      764.53786    
   1569000   300.26187      0.011271465    5.4529046      744.95796     -17.858116      727.09985    
   1570000   296.44614      0.011271465    7.5681444      735.49103     -19.28318       716.20785    
   1571000   299.36348      0.011271465    6.2030487      742.72905     -19.120014      723.60903    
   1572000   298.63097      0.011271465    4.9394748      740.91166     -20.34336       720.5683     
   1573000   295.6884       0.011271465    5.6582563      733.61107     -18.819208      714.79186    
   1574000   298.5963       0.011271465    6.3517545      740.82566     -19.558933      721.26672    
   1575000   295.54686      0.011271465    5.74751        733.25992     -16.065136      717.19478    
   1576000   305.61808      0.011271465    6.0544807      758.24687     -13.820253      744.42662    
   1577000   303.60573      0.011271465    6.0314543      753.25418     -14.813079      738.4411     
   1578000   305.81461      0.011271465    3.1279364      758.73448     -18.441656      740.29283    
   1579000   281.32799      0.011271465    4.5840825      697.98251     -19.533094      678.44942    
   1580000   301.0842       0.011271465    9.0876302      746.99821     -18.743959      728.25425    
   1581000   309.14842      0.011271465   -3.2835292      767.00574     -18.811729      748.19401    
   1582000   305.88072      0.011271465    4.6974547      758.8985      -19.313783      739.58472    
   1583000   295.43635      0.011271465    9.0403         732.98574     -21.073302      711.91243    
   1584000   299.32516      0.011271465    6.80796        742.63398     -23.044677      719.5893     
   1585000   307.48378      0.011271465    2.3900939      762.87573     -21.435856      741.43988    
   1586000   296.35515      0.011271465    4.5487988      735.2653      -20.657898      714.60741    
   1587000   308.18677      0.011271465    13.98252       764.61987     -20.486264      744.1336     
   1588000   302.55672      0.011271465    5.3235486      750.65156     -19.794514      730.85705    
   1589000   288.70504      0.011271465   -3.0305133      716.28517     -20.042689      696.24249    
   1590000   304.83797      0.011271465    7.8776616      756.3114      -15.315464      740.99593    
   1591000   316.76722      0.011271465    3.0497434      785.90821     -20.341241      765.56697    
   1592000   300.60648      0.011271465   -5.6859305      745.81297     -19.707254      726.10571    
   1593000   302.56225      0.011271465    6.5888636      750.66527     -21.836724      728.82855    
   1594000   291.53661      0.011271465    6.8294466      723.31037     -23.652268      699.6581     
   1595000   306.10242      0.011271465    2.9575403      759.44855     -22.506137      736.94241    
   1596000   301.1548       0.011271465   -2.6688719      747.17336     -17.823084      729.35028    
   1597000   294.38664      0.011271465    5.2998873      730.38138     -21.875774      708.5056     
   1598000   305.89508      0.011271465    9.1000391      758.93413     -21.581559      737.35257    
   1599000   295.82717      0.011271465    7.9934306      733.95535     -24.225152      709.7302     
   1600000   305.09472      0.011271465    5.6518669      756.94841     -21.102245      735.84617    
   1601000   300.57161      0.011271465    2.0600071      745.72644     -20.653082      725.07336    
   1602000   301.21122      0.011271465    7.4126357      747.31335     -18.776403      728.53694    
   1603000   301.54837      0.011271465    6.6475478      748.14983     -17.410559      730.73927    
   1604000   304.85029      0.011271465    8.69212        756.34197     -16.89903       739.44294    
   1605000   292.29999      0.011271465    5.2968836      725.20434     -17.827702      707.37664    
   1606000   283.62436      0.011271465    4.3436047      703.67986     -17.216141      686.46372    
   1607000   308.8361       0.011271465    6.1495143      766.23087     -23.876819      742.35406    
   1608000   299.54515      0.011271465    8.9488664      743.17977     -18.261955      724.91782    
   1609000   290.71319      0.011271465    8.1644653      721.26744     -16.554184      704.71326    
   1610000   301.65074      0.011271465    5.9745948      748.40379     -16.309464      732.09432    
   1611000   302.85779      0.011271465    5.7545303      751.39852     -13.078594      738.31992    
   1612000   305.28602      0.011271465    5.3981772      757.42304     -13.49524       743.9278     
   1613000   299.11401      0.011271465    8.9493357      742.11011     -15.090837      727.01927    
   1614000   286.09122      0.011271465    6.9147683      709.8002      -15.42955       694.37065    
   1615000   305.48881      0.011271465   -0.68747579     757.92616     -15.636021      742.29014    
   1616000   308.02841      0.011271465    6.413278       764.22699     -16.479161      747.74783    
   1617000   296.8099       0.011271465    6.6834956      736.39355     -17.937639      718.45591    
   1618000   301.43542      0.011271465    7.0357921      747.86958     -14.775153      733.09443    
   1619000   297.55651      0.011271465    7.473929       738.2459      -14.392966      723.85293    
   1620000   305.58939      0.011271465    3.0759517      758.17571     -17.658145      740.51756    
   1621000   305.26262      0.011271465    7.5508729      757.36498     -19.48079       737.88419    
   1622000   304.73508      0.011271465    7.8124352      756.05614     -23.5503        732.50584    
   1623000   297.51482      0.011271465    6.4436062      738.14247     -22.802434      715.34004    
   1624000   303.98987      0.011271465    5.8116773      754.20725     -21.584249      732.623      
   1625000   315.94473      0.011271465    7.2021188      783.86759     -17.906923      765.96066    
   1626000   297.15673      0.011271465    8.9511532      737.25405     -18.321323      718.93272    
   1627000   291.32911      0.011271465    6.6531013      722.79556     -19.403928      703.39163    
   1628000   294.25591      0.011271465    3.9992922      730.05703     -18.370928      711.6861     
   1629000   314.70541      0.011271465    6.6469859      780.79281     -17.586435      763.20637    
   1630000   292.51266      0.011271465    6.4652317      725.73197     -13.467084      712.26488    
   1631000   298.2912       0.011271465    5.5463515      740.06869     -16.165608      723.90308    
   1632000   311.19299      0.011271465    5.4486698      772.07838     -15.761537      756.31684    
   1633000   322.55814      0.011271465    8.1152689      800.27565     -21.732556      778.54309    
   1634000   294.30662      0.011271465    6.3984027      730.18284     -22.821039      707.3618     
   1635000   302.788        0.011271465    4.8358779      751.22537     -25.505873      725.71949    
   1636000   308.60706      0.011271465    6.8682687      765.66261     -24.964766      740.69785    
   1637000   304.58627      0.011271465    6.9801515      755.68694     -24.259415      731.42753    
   1638000   301.82165      0.011271465    5.4679761      748.82782     -25.068912      723.75891    
   1639000   306.33434      0.011271465    3.2818932      760.02393     -21.176027      738.84791    
   1640000   303.20319      0.011271465    6.1806484      752.25548     -23.251431      729.00405    
   1641000   304.77929      0.011271465    7.6102434      756.16583     -21.738235      734.42759    
   1642000   304.04621      0.011271465    6.4145308      754.34704     -19.615182      734.73185    
   1643000   291.24812      0.011271465    5.4358428      722.5946      -18.409164      704.18544    
   1644000   285.98942      0.011271465    3.690397       709.54763     -14.876208      694.67143    
   1645000   303.28688      0.011271465    6.2695825      752.46311     -16.060291      736.40282    
   1646000   308.1563       0.011271465    7.1868863      764.54426     -21.234195      743.31007    
   1647000   296.37744      0.011271465    4.4544977      735.32061     -24.057339      711.26327    
   1648000   299.7462       0.011271465    4.9628713      743.67859     -26.214909      717.46368    
   1649000   299.46723      0.011271465    7.0064421      742.98644     -22.634628      720.35182    
   1650000   301.31957      0.011271465    13.288746      747.58216     -22.94055       724.64161    
   1651000   299.14816      0.011271465    10.689215      742.19483     -20.901698      721.29313    
   1652000   303.97549      0.011271465    4.6192951      754.17157     -19.893672      734.2779     
   1653000   304.45301      0.011271465    5.4497637      755.35631     -22.058408      733.29791    
   1654000   308.01347      0.011271465    10.716372      764.1899      -22.702308      741.4876     
   1655000   299.58138      0.011271465    9.4541298      743.26966     -18.075606      725.19406    
   1656000   298.44791      0.011271465    5.392346       740.45748     -19.009652      721.44783    
   1657000   294.96368      0.011271465   -0.02129367     731.81302     -22.065983      709.74704    
   1658000   309.7257       0.011271465    3.8686005      768.43801     -23.876494      744.56152    
   1659000   307.83052      0.011271465    7.4239229      763.73602     -25.46038       738.27564    
   1660000   289.4825       0.011271465    6.1663319      718.21406     -21.84379       696.37027    
   1661000   292.966        0.011271465    6.0663961      726.85672     -18.979653      707.87707    
   1662000   313.19325      0.011271465    6.0071444      777.04109     -21.225714      755.81538    
   1663000   297.55771      0.011271465    4.6545159      738.24889     -21.169065      717.07982    
   1664000   292.99513      0.011271465    6.6701987      726.92899     -16.505699      710.42329    
   1665000   305.62725      0.011271465    9.7344567      758.26963     -13.835557      744.43407    
   1666000   311.88         0.011271465    2.6223143      773.78287     -14.886773      758.89609    
   1667000   292.44895      0.011271465    5.7181649      725.5739      -13.383693      712.19021    
   1668000   283.97525      0.011271465    7.5510791      704.55043     -15.113104      689.43732    
   1669000   312.13933      0.011271465    6.422078       774.42629     -18.406773      756.01951    
   1670000   304.93376      0.011271465    1.6932817      756.54905     -22.471718      734.07733    
   1671000   297.57879      0.011271465    7.5158465      738.30119     -21.720687      716.5805     
   1672000   297.91793      0.011271465    11.504996      739.14259     -20.274696      718.86789    
   1673000   312.69552      0.011271465    5.6761448      775.8062      -16.562875      759.24333    
   1674000   297.0586       0.011271465    5.5221166      737.01057     -15.667289      721.34328    
   1675000   300.57439      0.011271465    10.799597      745.73335     -16.314777      729.41858    
   1676000   300.31566      0.011271465    8.2189543      745.09142     -20.043922      725.0475     
   1677000   299.00701      0.011271465    5.7261019      741.84462     -21.648721      720.1959     
   1678000   290.39717      0.011271465   -0.62771076     720.48337     -18.138962      702.34441    
   1679000   307.20902      0.011271465    7.342712       762.19405     -14.273639      747.92042    
   1680000   315.08719      0.011271465    8.2921491      781.73999     -13.227682      768.51231    
   1681000   295.50007      0.011271465    4.7947102      733.14381     -15.823599      717.32021    
   1682000   300.5712       0.011271465    4.8119023      745.72542     -13.881583      731.84384    
   1683000   294.35446      0.011271465    5.3302554      730.30153     -16.577794      713.72374    
   1684000   294.3236       0.011271465    7.3318589      730.22496     -16.627981      713.59698    
   1685000   291.12128      0.011271465    5.3340695      722.27993     -16.001928      706.278      
   1686000   294.19338      0.011271465    2.7216034      729.90189     -16.670498      713.2314     
   1687000   300.50022      0.011271465    7.4803816      745.54932     -17.374903      728.17442    
   1688000   304.07099      0.011271465    6.5546568      754.4085      -16.892018      737.51648    
   1689000   305.67869      0.011271465    4.3726241      758.39725     -12.766374      745.63088    
   1690000   300.31959      0.011271465    5.3015628      745.10118     -17.734353      727.36683    
   1691000   291.99981      0.011271465    6.9552285      724.45957     -15.8926        708.56697    
   1692000   304.45649      0.011271465    8.043217       755.36494     -18.033633      737.33131    
   1693000   297.74854      0.011271465    4.142029       738.72233     -18.629325      720.093      
   1694000   308.6284       0.011271465    6.6268133      765.71556     -20.123965      745.59159    
   1695000   299.80595      0.011271465    6.8211004      743.82682     -22.692789      721.13403    
   1696000   303.3863       0.011271465    5.7496274      752.70978     -18.522523      734.18726    
   1697000   294.42462      0.011271465    6.4838521      730.4756      -19.375159      711.10044    
   1698000   299.87054      0.011271465    6.0579684      743.98708     -18.849893      725.13718    
   1699000   296.05968      0.011271465    6.3093129      734.53222     -14.493338      720.03889    
   1700000   296.5987       0.011271465    6.6289465      735.86954     -16.335875      719.53367    
   1701000   307.75309      0.011271465    5.5407856      763.54391     -21.928859      741.61505    
   1702000   295.78006      0.011271465    5.7553682      733.83847     -23.224213      710.61426    
   1703000   288.73043      0.011271465    6.0841716      716.34815     -24.97018       691.37797    
   1704000   307.11954      0.011271465    6.5383877      761.97205     -22.211055      739.76099    
   1705000   312.38432      0.011271465    8.7078261      775.0341      -16.982269      758.05183    
   1706000   293.73353      0.011271465    5.1990719      728.76098     -15.254481      713.5065     
   1707000   290.77818      0.011271465    5.971153       721.42868     -15.062581      706.3661     
   1708000   308.3289       0.011271465    6.7590175      764.97249     -14.458128      750.51437    
   1709000   309.71487      0.011271465    6.2350697      768.41112     -16.359523      752.0516     
   1710000   305.90651      0.011271465    6.3699282      758.96249     -17.188215      741.77428    
   1711000   291.42117      0.011271465    5.8830404      723.02396     -18.136994      704.88697    
   1712000   303.99466      0.011271465    6.2343933      754.21913     -18.992662      735.22647    
   1713000   298.87733      0.011271465    8.9374762      741.5229      -19.515622      722.00728    
   1714000   295.78829      0.011271465    6.3087637      733.8589      -18.522885      715.33602    
   1715000   299.73307      0.011271465    4.4345175      743.64601     -20.966846      722.67916    
   1716000   297.65594      0.011271465    6.1342967      738.4926      -18.23766       720.25494    
   1717000   309.89428      0.011271465    6.2907859      768.85626     -20.598736      748.25752    
   1718000   314.41795      0.011271465    6.0994697      780.07959     -21.880884      758.1987     
   1719000   288.78643      0.011271465    4.2538729      716.4871      -22.056024      694.43108    
   1720000   302.80076      0.011271465    6.9534196      751.25703     -20.477377      730.77965    
   1721000   306.9891       0.011271465    7.3279269      761.64842     -17.497195      744.15122    
   1722000   300.05691      0.011271465    3.830715       744.44947     -14.857429      729.59204    
   1723000   294.12011      0.011271465    7.1244383      729.7201      -16.69755       713.02255    
   1724000   307.737        0.011271465    5.8795941      763.50397     -18.765884      744.73809    
   1725000   302.65834      0.011271465    3.6603438      750.9037      -21.006791      729.8969     
   1726000   299.08851      0.011271465    5.4559319      742.04683     -21.985623      720.06121    
   1727000   302.00943      0.011271465    3.9612424      749.29371     -20.546411      728.7473     
   1728000   321.68895      0.011271465    5.389634       798.11916     -20.509004      777.61016    
   1729000   299.6039       0.011271465    5.8838759      743.32554     -17.875656      725.44989    
   1730000   285.31823      0.011271465    5.6351499      707.88239     -14.748866      693.13352    
   1731000   304.32614      0.011271465    4.6124649      755.04154     -17.986509      737.05503    
   1732000   318.80157      0.011271465    7.2268407      790.95548     -19.247139      771.70834    
   1733000   308.3057       0.011271465    6.6216102      764.91493     -20.636421      744.27851    
   1734000   295.63901      0.011271465    6.6826578      733.48854     -22.661993      710.82654    
   1735000   288.51747      0.011271465    5.7799936      715.81981     -19.801516      696.01829    
   1736000   304.42512      0.011271465    5.7987388      755.28711     -20.692956      734.59415    
   1737000   306.38747      0.011271465    6.8729216      760.15575     -20.068133      740.08761    
   1738000   313.9208       0.011271465    6.4475979      778.84615     -18.224233      760.62192    
   1739000   310.84754      0.011271465    6.4031685      771.22131     -16.467875      754.75343    
   1740000   282.08384      0.011271465    5.954202       699.85778     -17.03861       682.81917    
   1741000   303.56147      0.011271465    7.0674216      753.14437     -18.588003      734.55637    
   1742000   315.57916      0.011271465    6.6415887      782.9606      -16.318152      766.64245    
   1743000   298.63614      0.011271465    4.6427097      740.92448     -16.696481      724.228      
   1744000   284.17842      0.011271465    6.1425834      705.05448     -15.574488      689.48       
   1745000   296.22185      0.011271465    9.9980929      734.93456     -16.979229      717.95534    
   1746000   312.10725      0.011271465    7.4785234      774.34669     -16.278848      758.06784    
   1747000   297.14166      0.011271465    1.2708126      737.21664     -18.261116      718.95553    
   1748000   295.34943      0.011271465    9.7753192      732.77008     -16.731626      716.03845    
   1749000   315.84671      0.011271465    2.0894708      783.62439     -15.846032      767.77836    
   1750000   305.56846      0.011271465    2.7692191      758.12377     -14.818852      743.30491    
   1751000   286.78881      0.011271465    9.887537       711.53095     -16.331453      695.19949    
   1752000   317.68416      0.011271465    6.5823629      788.18316     -14.788489      773.39467    
   1753000   296.25923      0.011271465    0.20459371     735.02732     -16.403695      718.62362    
   1754000   288.08008      0.011271465    5.9883623      714.73462     -14.597603      700.13702    
   1755000   308.63674      0.011271465    15.195949      765.73625     -12.642118      753.09413    
   1756000   293.45333      0.011271465    3.0384528      728.06581     -16.549691      711.51612    
   1757000   297.84785      0.011271465    1.4298082      738.96873     -14.53952       724.42921    
   1758000   302.27147      0.011271465    13.171496      749.94385     -17.457639      732.48621    
   1759000   302.2689       0.011271465    8.6472776      749.93748     -17.240411      732.69707    
   1760000   316.90325      0.011271465    6.3842395      786.24571     -20.035119      766.21059    
   1761000   302.63306      0.011271465    4.7185136      750.84097     -18.669868      732.1711     
   1762000   290.22085      0.011271465    7.1855057      720.04592     -18.506985      701.53894    
   1763000   303.54273      0.011271465    6.2344113      753.09789     -18.01715       735.08074    
   1764000   299.7414       0.011271465    4.5574088      743.66667     -19.710897      723.95578    
   1765000   298.86414      0.011271465    6.3289717      741.49016     -18.347597      723.14257    
   1766000   287.85246      0.011271465    7.1987638      714.16989     -18.835851      695.33404    
   1767000   301.46444      0.011271465    5.893015       747.94159     -16.814008      731.12758    
   1768000   304.9143       0.011271465    4.4021519      756.50077     -19.600091      736.90068    
   1769000   300.65241      0.011271465    3.4854506      745.92691     -19.608833      726.31807    
   1770000   292.29204      0.011271465    5.377345       725.18462     -23.76832       701.4163     
   1771000   296.72812      0.011271465    9.6657152      736.19065     -22.30754       713.88311    
   1772000   315.87162      0.011271465    7.0669017      783.68619     -21.809735      761.87646    
   1773000   307.08696      0.011271465    6.3932834      761.8912      -20.98338       740.90782    
   1774000   299.49748      0.011271465    5.9588875      743.06149     -22.172209      720.88928    
   1775000   291.76734      0.011271465    5.2152011      723.88282     -22.183148      701.69967    
   1776000   299.17654      0.011271465    5.2190369      742.26524     -22.766199      719.49904    
   1777000   311.23342      0.011271465    6.968482       772.1787      -20.782346      751.39636    
   1778000   291.05851      0.011271465    5.4105712      722.12419     -19.287264      702.83693    
   1779000   276.0651       0.011271465    4.7531115      684.92513     -20.851665      664.07347    
   1780000   305.96586      0.011271465    6.3896393      759.10973     -17.026962      742.08277    
   1781000   295.59871      0.011271465    6.1595719      733.38854     -19.417929      713.97061    
   1782000   314.27834      0.011271465    9.8800302      779.73323     -19.594207      760.13903    
   1783000   307.52706      0.011271465    4.2695719      762.98312     -18.253617      744.7295     
   1784000   295.21943      0.011271465    4.0509608      732.44755     -20.051329      712.39622    
   1785000   283.80521      0.011271465    6.1599991      704.12856     -22.427116      681.70144    
   1786000   301.66495      0.011271465    7.1677296      748.43906     -23.74333       724.69573    
   1787000   304.22945      0.011271465    2.1191113      754.80164     -21.895883      732.90576    
   1788000   284.01662      0.011271465    2.9214394      704.65306     -24.377396      680.27566    
   1789000   295.86412      0.011271465    6.7063575      734.04702     -22.485964      711.56106    
   1790000   299.6994       0.011271465    6.1024583      743.56247     -24.742841      718.81963    
   1791000   306.96795      0.011271465    5.9787009      761.59595     -27.34807       734.24788    
   1792000   291.89091      0.011271465    5.3966393      724.18939     -24.868022      699.32137    
   1793000   290.24481      0.011271465    8.9940358      720.10537     -22.638775      697.46659    
   1794000   306.16116      0.011271465    6.9380898      759.59427     -21.847309      737.74696    
   1795000   303.71862      0.011271465    5.8018506      753.53427     -17.245611      736.28866    
   1796000   303.41979      0.011271465    7.5406534      752.79286     -16.423815      736.36905    
   1797000   287.79359      0.011271465    5.5564596      714.02383     -21.914945      692.10889    
   1798000   297.26602      0.011271465    5.6418492      737.52519     -23.199635      714.32555    
   1799000   298.56133      0.011271465    6.7958323      740.7389      -25.595794      715.1431     
   1800000   304.92902      0.011271465    4.4333678      756.53731     -23.792834      732.74447    
   1801000   296.27379      0.011271465    5.644784       735.06344     -22.632341      712.4311     
   1802000   297.51152      0.011271465    10.566606      738.13427     -17.407065      720.72721    
   1803000   303.12058      0.011271465    5.7462695      752.0505      -21.890111      730.16039    
   1804000   316.60888      0.011271465    5.7203054      785.51536     -20.748528      764.76683    
   1805000   301.5548       0.011271465    6.9512385      748.16577     -22.163032      726.00274    
   1806000   288.37873      0.011271465    6.3763564      715.47557     -25.068129      690.40744    
   1807000   299.04429      0.011271465    6.3033145      741.93714     -19.355522      722.58161    
   1808000   306.61344      0.011271465    5.3611111      760.71639     -18.53199       742.1844     
   1809000   306.63084      0.011271465    6.4115437      760.75956     -17.252522      743.50704    
   1810000   289.44356      0.011271465    6.4133053      718.11744     -17.668416      700.44902    
   1811000   286.13287      0.011271465    5.3102627      709.90353     -19.049572      690.85396    
   1812000   301.85049      0.011271465    5.5628249      748.8994      -17.801327      731.09807    
   1813000   298.54497      0.011271465    6.605849       740.69829     -16.814601      723.88369    
   1814000   293.35025      0.011271465    6.8793419      727.81006     -18.918744      708.89131    
   1815000   305.98575      0.011271465    5.5081284      759.15908     -17.903867      741.25521    
   1816000   305.1          0.011271465    7.2005461      756.96152     -19.13807       737.82345    
   1817000   287.98207      0.011271465    7.6758546      714.49146     -20.339533      694.15193    
   1818000   302.80501      0.011271465    3.2949139      751.26757     -16.517746      734.74982    
   1819000   311.12154      0.011271465    5.0946612      771.9011      -20.300248      751.60086    
   1820000   299.39026      0.011271465    6.5119266      742.7955      -20.942909      721.85259    
   1821000   290.11099      0.011271465    6.64737        719.77335     -20.270325      699.50303    
   1822000   295.62284      0.011271465    4.5261536      733.44842     -19.911793      713.53662    
   1823000   306.78171      0.011271465    0.63283638     761.13388     -21.263694      739.87019    
   1824000   306.32443      0.011271465    8.6740868      759.99934     -20.271324      739.72802    
   1825000   288.8621       0.011271465    6.484621       716.67483     -20.354988      696.31985    
   1826000   297.93023      0.011271465   -1.5562053      739.17312     -21.839085      717.33403    
   1827000   308.99644      0.011271465    13.747136      766.62868     -22.779324      743.84935    
   1828000   308.66236      0.011271465    5.8691793      765.79983     -24.862384      740.93745    
   1829000   305.30172      0.011271465    2.4578632      757.46197     -19.786879      737.6751     
   1830000   299.96501      0.011271465    5.8123025      744.22145     -21.216829      723.00462    
   1831000   293.9848       0.011271465    9.5891066      729.3844      -21.363865      708.02053    
   1832000   308.18874      0.011271465    4.4781443      764.62476     -14.116015      750.50875    
   1833000   311.70002      0.011271465    0.95709011     773.33634     -17.576824      755.75952    
   1834000   296.61426      0.011271465    10.010189      735.90815     -19.124137      716.78401    
   1835000   281.22372      0.011271465    8.0639184      697.72381     -16.131965      681.59185    
   1836000   308.59606      0.011271465    2.6033959      765.63533     -19.247077      746.38825    
   1837000   313.78413      0.011271465    7.7593404      778.50708     -24.900511      753.60657    
   1838000   296.48381      0.011271465    7.0777724      735.5845      -22.070647      713.51386    
   1839000   290.24871      0.011271465    6.3097898      720.11504     -25.487476      694.62756    
   1840000   299.97246      0.011271465    4.5712022      744.23995     -17.712494      726.52746    
   1841000   306.07365      0.011271465    5.7033355      759.37717     -20.676157      738.70101    
   1842000   302.96902      0.011271465    10.186768      751.67449     -20.171401      731.50309    
   1843000   295.75048      0.011271465    2.1119608      733.76508     -20.682939      713.08215    
   1844000   303.46256      0.011271465    5.4529704      752.89897     -20.047781      732.85119    
   1845000   304.10544      0.011271465    6.7719755      754.49397     -23.49562       730.99835    
   1846000   286.53606      0.011271465    9.2931928      710.90386     -18.638596      692.26526    
   1847000   296.47152      0.011271465    3.5708896      735.55401     -15.874232      719.67977    
   1848000   312.72563      0.011271465    8.0616788      775.8809      -16.849367      759.03154    
   1849000   305.56931      0.011271465    10.305162      758.12588     -17.192114      740.93376    
   1850000   293.37653      0.011271465    2.9506113      727.87525     -15.054284      712.82096    
   1851000   287.08359      0.011271465   -0.50944389     712.2623      -15.797178      696.46512    
   1852000   302.35606      0.011271465    3.3973827      750.15371     -14.253409      735.9003     
   1853000   308.20559      0.011271465    4.5241314      764.66656     -12.869211      751.79735    
   1854000   302.61894      0.011271465    8.881345       750.80592     -13.192209      737.61371    
   1855000   292.16236      0.011271465    5.9120319      724.86287     -12.674926      712.18794    
   1856000   314.33061      0.011271465    7.1023762      779.8629      -12.574894      767.28801    
   1857000   304.61808      0.011271465    5.696795       755.76586     -11.375085      744.39078    
   1858000   286.99762      0.011271465    5.7896713      712.04901     -11.789246      700.25976    
   1859000   303.70393      0.011271465    6.3205013      753.49783     -14.960173      738.53765    
   1860000   307.83821      0.011271465    7.6743478      763.75507     -10.524462      753.23061    
   1861000   301.96072      0.011271465    6.4538276      749.17287     -12.790664      736.3822     
   1862000   278.28685      0.011271465    5.6343549      690.43735     -13.258308      677.17904    
   1863000   297.08001      0.011271465    5.6335035      737.06369     -12.880233      724.18346    
   1864000   308.71675      0.011271465    6.2078694      765.93477     -15.439747      750.49502    
   1865000   296.68328      0.011271465    8.8661781      736.07941     -13.030769      723.04864    
   1866000   289.70945      0.011271465    5.5651557      718.77713     -16.464231      702.3129     
   1867000   313.15458      0.011271465    5.0103423      776.94513     -16.832783      760.11235    
   1868000   305.80741      0.011271465    6.0112038      758.71661     -16.825733      741.89088    
   1869000   295.54534      0.011271465    7.797843       733.25612     -16.175399      717.08073    
   1870000   298.71432      0.011271465    5.8334718      741.11847     -14.73862       726.37985    
   1871000   301.067        0.011271465    3.6328694      746.95553     -15.643863      731.31166    
   1872000   300.82679      0.011271465   -1.177855       746.35957     -10.477329      735.88224    
   1873000   267.61226      0.011271465   -0.78035896     663.95338     -12.514899      651.43848    
   1874000   289.87968      0.011271465    5.6028058      719.19947     -14.449073      704.7504     
   1875000   313.24376      0.011271465    1.0671973      777.16641     -17.35581       759.8106     
   1876000   306.24898      0.011271465    7.25381        759.81215     -11.800106      748.01205    
   1877000   279.63298      0.011271465    10.160254      693.77713     -13.962786      679.81434    
   1878000   305.95401      0.011271465    3.46792        759.08034     -14.410907      744.66943    
   1879000   325.1141       0.011271465    7.3005435      806.61705     -13.374064      793.24299    
   1880000   309.72976      0.011271465    10.981434      768.44806     -10.101558      758.3465     
   1881000   294.56713      0.011271465    9.6508598      730.82917     -15.116419      715.71275    
   1882000   293.18967      0.011271465    0.86627948     727.41166     -15.557826      711.85383    
   1883000   311.07221      0.011271465    9.9880568      771.77872     -19.17297       752.60575    
   1884000   295.26231      0.011271465    10.415363      732.55393     -16.358605      716.19533    
   1885000   306.88766      0.011271465   -0.61867273     761.39675     -18.352226      743.04452    
   1886000   298.0727       0.011271465    7.5960364      739.52659     -18.207716      721.31887    
   1887000   306.76483      0.011271465    9.5378068      761.09201     -22.715381      738.37663    
   1888000   310.93409      0.011271465    12.13375       771.43605     -24.193889      747.24216    
   1889000   288.62906      0.011271465    5.5995754      716.09666     -20.216463      695.8802     
   1890000   298.84808      0.011271465    3.1851764      741.45033     -18.664147      722.78619    
   1891000   301.16128      0.011271465    6.0026846      747.18945     -19.1183        728.07115    
   1892000   317.79157      0.011271465    7.7417101      788.44964     -18.363601      770.08604    
   1893000   296.43535      0.011271465    6.1644501      735.46428     -17.598247      717.86603    
   1894000   290.16767      0.011271465    5.8081622      719.914       -21.710219      698.20378    
   1895000   295.13196      0.011271465    6.1914778      732.23054     -24.301072      707.92946    
   1896000   307.80501      0.011271465    6.3227269      763.67272     -23.202593      740.47013    
   1897000   302.30223      0.011271465    5.3629513      750.02017     -22.741677      727.27849    
   1898000   294.35189      0.011271465    6.2192275      730.29516     -22.769475      707.52568    
   1899000   297.23549      0.011271465    6.2902396      737.44945     -23.023021      714.42643    
   1900000   306.12023      0.011271465    5.7156383      759.49274     -17.258709      742.23403    
   1901000   298.82668      0.011271465    3.9972522      741.39724     -18.763465      722.63377    
   1902000   303.92653      0.011271465    7.2724569      754.05011     -18.593941      735.45617    
   1903000   304.83202      0.011271465    8.7436185      756.29663     -19.840286      736.45635    
   1904000   293.00001      0.011271465    4.1182159      726.94109     -19.081378      707.85971    
   1905000   302.77401      0.011271465    5.754836       751.19065     -20.86289       730.32776    
   1906000   301.76485      0.011271465    5.9079774      748.6869      -19.215917      729.47099    
   1907000   306.30411      0.011271465    7.7990611      759.94895     -19.506869      740.44208    
   1908000   305.11467      0.011271465    6.7967484      756.99791     -19.605622      737.39228    
   1909000   299.41564      0.011271465    6.1967444      742.85845     -20.971652      721.8868     
   1910000   302.09083      0.011271465    5.6095264      749.49568     -22.967049      726.52863    
   1911000   312.48024      0.011271465    6.4982746      775.27208     -19.661858      755.61022    
   1912000   291.55078      0.011271465    6.0767907      723.34552     -20.770678      702.57484    
   1913000   292.42468      0.011271465    5.6115063      725.51368     -21.112932      704.40075    
   1914000   308.98484      0.011271465    6.0774682      766.59991     -23.948605      742.6513     
   1915000   307.9065       0.011271465    5.4033609      763.92452     -19.258842      744.66568    
   1916000   292.70559      0.011271465    5.9206408      726.21064     -20.916326      705.29431    
   1917000   298.97682      0.011271465    6.2185094      741.76974     -20.377336      721.39241    
   1918000   309.07422      0.011271465    7.0342479      766.82167     -20.711033      746.11064    
   1919000   307.66365      0.011271465    5.8755075      763.32199     -21.027819      742.29417    
   1920000   295.69401      0.011271465    6.2910187      733.625       -21.273306      712.35169    
   1921000   298.70993      0.011271465    7.5389394      741.10757     -20.332747      720.77482    
   1922000   300.06327      0.011271465    4.7370881      744.46524     -23.083692      721.38155    
   1923000   300.94991      0.011271465    6.3805879      746.66503     -20.201987      726.46305    
   1924000   309.1614       0.011271465    4.1243576      767.03794     -17.666579      749.37136    
   1925000   300.13991      0.011271465    7.3444621      744.65539     -17.753939      726.90145    
   1926000   296.70441      0.011271465    5.1356086      736.13183     -17.409377      718.72245    
   1927000   310.48095      0.011271465    5.7268152      770.31179     -21.62644       748.68535    
   1928000   301.37916      0.011271465    8.1558052      747.72999     -18.507514      729.22248    
   1929000   304.90165      0.011271465    6.4476761      756.4694      -15.469677      740.99972    
   1930000   298.90801      0.011271465    5.1941647      741.59901     -15.733667      725.86535    
   1931000   291.88239      0.011271465    5.9663355      724.16826     -12.225076      711.94318    
   1932000   307.04842      0.011271465    6.3116989      761.7956      -17.753752      744.04185    
   1933000   303.85033      0.011271465    4.4198177      753.86104     -14.47327       739.38777    
   1934000   299.42263      0.011271465    6.818379       742.87579     -17.818039      725.05775    
   1935000   300.52347      0.011271465    6.7525527      745.60701     -20.921071      724.68594    
   1936000   307.84371      0.011271465    7.5080705      763.76874     -18.246524      745.52222    
   1937000   297.64626      0.011271465    2.9057747      738.46858     -15.247996      723.22058    
   1938000   301.31338      0.011271465    6.0097902      747.56679     -20.087466      727.47932    
   1939000   300.0835       0.011271465    6.8695825      744.51545     -22.334036      722.18141    
   1940000   306.1894       0.011271465    6.3319665      759.66435     -19.629981      740.03437    
   1941000   303.15113      0.011271465    5.1450163      752.1263      -19.234183      732.89212    
   1942000   303.12176      0.011271465    7.3563427      752.05344     -20.998541      731.0549     
   1943000   293.34072      0.011271465    14.658237      727.78641     -16.708567      711.07784    
   1944000   311.34284      0.011271465    9.2966942      772.45017     -19.593637      752.85653    
   1945000   305.14211      0.011271465    3.7177428      757.06599     -15.517489      741.5485     
   1946000   299.32453      0.011271465    3.8388393      742.63241     -17.164314      725.4681     
   1947000   289.14468      0.011271465    9.1287356      717.37592     -17.99105       699.38487    
   1948000   299.73851      0.011271465    7.8359956      743.65952     -16.273185      727.38633    
   1949000   294.02439      0.011271465    2.3623238      729.48261     -17.293572      712.18904    
   1950000   300.06227      0.011271465    10.886025      744.46276     -18.713109      725.74965    
   1951000   308.28476      0.011271465    2.129427       764.86298     -17.551305      747.31168    
   1952000   283.18714      0.011271465    3.4314257      702.59509     -15.596048      686.99904    
   1953000   286.66865      0.011271465    7.2167351      711.23282     -13.484412      697.74841    
   1954000   304.46538      0.011271465    11.474345      755.387       -17.082348      738.30465    
   1955000   305.62913      0.011271465    3.4178384      758.27429     -14.799037      743.47526    
   1956000   288.43283      0.011271465    1.0402951      715.6098      -10.508927      705.10087    
   1957000   293.70954      0.011271465    12.477046      728.70147     -12.692927      716.00855    
   1958000   317.7109       0.011271465    7.998546       788.2495      -12.442801      775.8067     
   1959000   321.41812      0.011271465    3.4885652      797.44721     -11.740088      785.70712    
   1960000   293.03478      0.011271465    6.3028128      727.02737     -14.672575      712.35479    
   1961000   292.01499      0.011271465    10.80812       724.49724     -17.645307      706.85194    
   1962000   307.33562      0.011271465    13.830065      762.50814     -19.677138      742.831      
   1963000   313.35         0.011271465    4.6421053      777.42999     -20.131964      757.29802    
   1964000   304.87117      0.011271465    9.8198281      756.39377     -20.529383      735.86438    
   1965000   290.87496      0.011271465    3.6969809      721.6688      -20.574372      701.09442    
   1966000   288.13114      0.011271465   -2.0557656      714.8613      -21.694645      693.16665    
   1967000   304.27591      0.011271465    10.790656      754.91692     -18.554574      736.36235    
   1968000   302.94678      0.011271465    3.4002798      751.6193      -17.590623      734.02868    
   1969000   292.19711      0.011271465    3.1467458      724.9491      -17.871516      707.07758    
   1970000   295.65578      0.011271465    14.347037      733.53014     -18.575313      714.95482    
   1971000   310.38466      0.011271465    9.0376214      770.07291     -19.596032      750.47687    
   1972000   308.32081      0.011271465    6.4374734      764.95244     -17.968143      746.98429    
   1973000   292.44026      0.011271465   -8.0748536      725.55235     -18.271067      707.28129    
   1974000   299.20373      0.011271465    15.173388      742.33271     -14.567592      727.76512    
   1975000   320.91753      0.011271465    12.506599      796.20523     -16.831701      779.37353    
   1976000   299.65275      0.011271465   -1.4203623      743.44672     -15.584558      727.86217    
   1977000   295.76953      0.011271465    5.5547266      733.81236     -17.909611      715.90275    
   1978000   304.03939      0.011271465    8.362084       754.33011     -19.31631       735.0138     
   1979000   309.80591      0.011271465    13.560547      768.63701     -16.904897      751.73211    
   1980000   308.63678      0.011271465   -0.39854998     765.73636     -18.416641      747.31972    
   1981000   302.57515      0.011271465    2.104729       750.69728     -20.073882      730.62339    
   1982000   304.53057      0.011271465    16.867306      755.54873     -17.200049      738.34868    
   1983000   292.47895      0.011271465    7.4768657      725.64834     -17.770673      707.87767    
   1984000   296.9152       0.011271465   -0.26900899     736.6548      -16.29206       720.36274    
   1985000   293.74346      0.011271465   -1.6194737      728.78562     -20.450255      708.33536    
   1986000   301.6434       0.011271465    6.0525993      748.3856      -14.955622      733.42998    
   1987000   300.41958      0.011271465    8.6600562      745.34926     -19.959732      725.38953    
   1988000   298.81148      0.011271465    4.7345521      741.35951     -15.708694      725.65081    
   1989000   297.85505      0.011271465    1.0750471      738.98659     -16.943388      722.0432     
   1990000   296.21994      0.011271465    4.6915174      734.92983     -22.981946      711.94788    
   1991000   298.79925      0.011271465    15.194711      741.32917     -18.80405       722.52512    
   1992000   306.74067      0.011271465    6.7769396      761.03206     -18.561428      742.47063    
   1993000   320.67609      0.011271465   -6.6449129      795.60622     -16.599471      779.00675    
   1994000   294.72038      0.011271465    1.5435661      731.20939     -20.387949      710.82144    
   1995000   303.73005      0.011271465    11.186042      753.56263     -20.044097      733.51854    
   1996000   308.59589      0.011271465    4.1549306      765.6349      -17.509301      748.1256     
   1997000   301.52996      0.011271465    0.6431582      748.10415     -16.010024      732.09412    
   1998000   301.88921      0.011271465    11.104304      748.99546     -19.0272        729.96826    
   1999000   316.95289      0.011271465    7.0852644      786.36886     -19.627802      766.74106    
   2000000   305.02838      0.011271465    5.3339128      756.78382     -17.81023       738.97359    
   2001000   299.34581      0.011271465    4.8213921      742.6852      -21.671122      721.01408    
   2002000   312.40052      0.011271465    7.9565715      775.0743      -23.499131      751.57516    
   2003000   300.00391      0.011271465    8.1131118      744.31797     -21.14284       723.17513    
   2004000   306.52351      0.011271465    5.7423906      760.49329     -23.626557      736.86673    
   2005000   303.75968      0.011271465    0.69432459     753.63613     -20.148739      733.48739    
   2006000   305.74972      0.011271465    7.8374604      758.57349     -19.049001      739.52449    
   2007000   298.5435       0.011271465    4.4873085      740.69466     -21.16951       719.52515    
   2008000   295.96607      0.011271465    5.0287616      734.29997     -22.914435      711.38553    
   2009000   305.56572      0.011271465    7.8813029      758.11696     -24.915517      733.20145    
   2010000   293.47276      0.011271465    9.7725737      728.11401     -21.421746      706.69227    
   2011000   304.04088      0.011271465    5.8588897      754.33381     -22.077621      732.25619    
   2012000   315.23138      0.011271465    4.5515741      782.09774     -23.398443      758.6993     
   2013000   310.54801      0.011271465    6.4335277      770.47818     -18.335108      752.14307    
   2014000   296.20439      0.011271465    5.6130167      734.89126     -17.188486      717.70277    
   2015000   299.01592      0.011271465    6.258864       741.86675     -19.562206      722.30455    
   2016000   306.08754      0.011271465    6.7383682      759.41162     -16.505934      742.90569    
   2017000   298.19357      0.011271465    5.3094552      739.82646     -17.27834       722.54812    
   2018000   302.62578      0.011271465    6.025206       750.82289     -17.71167       733.11123    
   2019000   298.1482       0.011271465    8.235955       739.7139      -14.554212      725.15969    
   2020000   294.68859      0.011271465    5.5210245      731.13051     -14.227669      716.90284    
   2021000   322.72733      0.011271465    4.8999809      800.69539     -15.082333      785.61306    
   2022000   301.45698      0.011271465    7.7545024      747.92307     -17.440533      730.48254    
   2023000   294.06215      0.011271465    6.4640033      729.57631     -13.293785      716.28252    
   2024000   303.3366       0.011271465    5.9791139      752.58647     -17.972531      734.61394    
   2025000   304.96357      0.011271465    7.5192988      756.62301     -13.887353      742.73566    
   2026000   305.30628      0.011271465    7.5308495      757.47329     -14.950418      742.52287    
   2027000   295.0055       0.011271465    5.7058923      731.91679     -16.739993      715.1768     
   2028000   292.56245      0.011271465    5.2830363      725.8555      -15.258468      710.59703    
   2029000   305.97884      0.011271465    4.1084949      759.14193     -14.335682      744.80625    
   2030000   307.84387      0.011271465    7.064809       763.76913     -15.168964      748.60017    
   2031000   289.51553      0.011271465    12.935556      718.29602     -15.627178      702.66884    
   2032000   291.29025      0.011271465    4.096596       722.69915     -19.047474      703.65168    
   2033000   307.13601      0.011271465    6.4616785      762.0129      -17.383061      744.62984    
   2034000   313.10571      0.011271465    9.0357033      776.82391     -18.742719      758.08119    
   2035000   290.67789      0.011271465    7.4017197      721.17985     -13.175231      708.00462    
   2036000   298.23791      0.011271465    4.1374857      739.93647     -19.627818      720.30865    
   2037000   307.39451      0.011271465    10.688208      762.65425     -22.490009      740.16424    
   2038000   299.06781      0.011271465    10.472655      741.99547     -19.586801      722.40867    
   2039000   308.87123      0.011271465    3.2710166      766.31804     -17.191334      749.12671    
   2040000   304.59623      0.011271465    2.3718759      755.71163     -16.481305      739.23033    
   2041000   292.64411      0.011271465    8.8829053      726.05811     -14.846787      711.21133    
   2042000   306.93731      0.011271465    7.9056333      761.51993     -22.536614      738.98331    
   2043000   289.94902      0.011271465    1.6548918      719.3715      -22.064776      697.30672    
   2044000   293.54976      0.011271465    3.9018198      728.30504     -19.853807      708.45123    
   2045000   303.3957       0.011271465    3.1698577      752.7331      -25.105696      727.6274     
   2046000   312.33811      0.011271465    6.3358378      774.91946     -21.129433      753.79003    
   2047000   298.28545      0.011271465    7.1331218      740.05443     -20.6745        719.37993    
   2048000   291.77723      0.011271465    5.2472324      723.90735     -15.991021      707.91633    
   2049000   308.19202      0.011271465    6.1041351      764.6329      -19.367914      745.26498    
   2050000   303.4835       0.011271465    5.7735972      752.95094     -20.330215      732.62072    
   2051000   285.73796      0.011271465    3.8571486      708.92375     -18.576306      690.34744    
   2052000   296.65467      0.011271465    5.7590526      736.0084      -16.851384      719.15702    
   2053000   307.90227      0.011271465    5.9525779      763.91402     -15.721021      748.193      
   2054000   315.22548      0.011271465    6.8625259      782.08311     -16.510188      765.57292    
   2055000   283.66714      0.011271465    6.0421051      703.78598     -14.865061      688.92092    
   2056000   295.07923      0.011271465    5.8686608      732.0997      -15.950975      716.14872    
   2057000   312.89672      0.011271465    6.0280179      776.30538     -20.58627       755.71911    
   2058000   299.57143      0.011271465    5.75993        743.24499     -21.279276      721.96571    
   2059000   284.7737       0.011271465    7.4956921      706.53141     -16.670257      689.86115    
   2060000   305.41131      0.011271465    6.179314       757.73387     -17.063442      740.67043    
   2061000   301.40389      0.011271465    4.9053999      747.79137     -17.807098      729.98427    
   2062000   287.89227      0.011271465    6.1805264      714.26866     -17.718257      696.5504     
   2063000   309.29932      0.011271465    6.8394339      767.38015     -21.558957      745.82119    
   2064000   317.0374       0.011271465    6.9142693      786.57854     -17.242561      769.33598    
   2065000   295.76192      0.011271465    5.2728892      733.79347     -13.725729      720.06774    
   2066000   285.12042      0.011271465    4.500481       707.39161     -13.451088      693.94052    
   2067000   304.12133      0.011271465    7.3197686      754.53339     -16.478574      738.05482    
   2068000   310.55547      0.011271465    7.3404833      770.49669     -18.08555       752.41114    
   2069000   312.32539      0.011271465    7.1202278      774.88791     -15.943217      758.94469    
   2070000   300.24138      0.011271465    2.4811477      744.90713     -18.938005      725.96912    
   2071000   293.13868      0.011271465    6.5883688      727.28514     -17.843555      709.44159    
   2072000   301.94997      0.011271465    6.4506603      749.14621     -14.419686      734.72653    
   2073000   307.66612      0.011271465    5.9585257      763.32813     -19.14848       744.17965    
   2074000   303.84434      0.011271465    6.060463       753.84618     -19.810792      734.03539    
   2075000   290.49658      0.011271465    5.9724605      720.73002     -19.880248      700.84977    
   2076000   294.97417      0.011271465    7.1499738      731.83904     -20.008733      711.8303     
   2077000   305.16936      0.011271465    7.8903948      757.13359     -19.764655      737.36893    
   2078000   302.35272      0.011271465    4.6279152      750.14544     -20.69138       729.45406    
   2079000   292.29156      0.011271465    6.1640767      725.18341     -17.574204      707.60921    
   2080000   308.08978      0.011271465    9.7560043      764.37923     -18.312599      746.06663    
   2081000   300.75371      0.011271465    3.4737856      746.17825     -16.247663      729.93059    
   2082000   304.53431      0.011271465    0.64044407     755.55801     -22.385263      733.17274    
   2083000   291.30526      0.011271465    3.5944174      722.73637     -23.536161      699.20021    
   2084000   303.14099      0.011271465    14.970665      752.10116     -20.482676      731.61848    
   2085000   313.65512      0.011271465    5.2369565      778.187       -16.214896      761.97211    
   2086000   305.66669      0.011271465    2.477682       758.36748     -14.134279      744.2332     
   2087000   294.41761      0.011271465    8.6354524      730.45821     -16.887324      713.57088    
   2088000   291.69723      0.011271465    8.3224703      723.70887     -16.081889      707.62698    
   2089000   301.42581      0.011271465    2.4677811      747.84575     -16.155416      731.69033    
   2090000   294.10884      0.011271465    6.0929274      729.69214     -17.600771      712.09137    
   2091000   282.27565      0.011271465    3.714198       700.33367     -16.624869      683.7088     
   2092000   297.11571      0.011271465    7.7208695      737.15227     -15.165665      721.9866     
   2093000   319.49742      0.011271465    4.2460025      792.6819      -16.01358       776.66832    
   2094000   306.72831      0.011271465    5.8375581      761.0014      -17.058691      743.94271    
   2095000   304.47159      0.011271465    5.7956022      755.40242     -15.099629      740.30279    
   2096000   293.71987      0.011271465    6.7365688      728.7271      -15.389439      713.33767    
   2097000   285.56186      0.011271465    7.7192685      708.48686     -17.810851      690.67601    
   2098000   307.54118      0.011271465    6.663533       763.01814     -17.401044      745.61709    
   2099000   307.39264      0.011271465    7.5097502      762.64961     -17.861434      744.78818    
   2100000   293.27926      0.011271465    6.0799017      727.63393     -17.353228      710.28071    
   2101000   310.09625      0.011271465    0.93191977     769.35734     -19.723783      749.63355    
   2102000   314.38827      0.011271465    6.672268       780.00595     -18.070808      761.93514    
   2103000   291.05257      0.011271465    7.0380167      722.10944     -21.183548      700.92589    
   2104000   302.20431      0.011271465    5.9437213      749.77723     -18.910101      730.86713    
   2105000   308.88607      0.011271465    5.1555287      766.35485     -14.488413      751.86643    
   2106000   308.01847      0.011271465    6.9864105      764.20232     -17.150219      747.0521     
   2107000   294.54221      0.011271465    5.9481519      730.76733     -20.93034       709.83699    
   2108000   289.83546      0.011271465    6.5613891      719.08978     -18.724822      700.36495    
   2109000   306.73553      0.011271465    7.006509       761.01931     -18.906537      742.11277    
   2110000   297.57978      0.011271465    7.3831295      738.30364     -20.365287      717.93836    
   2111000   307.97058      0.011271465    7.8657557      764.08349     -17.727393      746.35609    
   2112000   299.79306      0.011271465    4.1935944      743.79485     -18.933813      724.86104    
   2113000   298.41736      0.011271465    6.4700567      740.38171     -20.568112      719.8136     
   2114000   293.40908      0.011271465    6.1478522      727.95602     -17.227257      710.72877    
   2115000   300.00135      0.011271465    5.9209891      744.31162     -15.875273      728.43635    
   2116000   290.24144      0.011271465    5.7267268      720.09701     -15.034677      705.06233    
   2117000   309.90799      0.011271465    7.664255       768.89026     -16.032257      752.85801    
   2118000   303.7976       0.011271465    3.6059415      753.73022     -15.490648      738.23957    
   2119000   289.64392      0.011271465    5.1879919      718.61455     -14.310019      704.30453    
   2120000   291.71123      0.011271465    3.5363733      723.7436      -15.704201      708.0394     
   2121000   310.29265      0.011271465    6.1647533      769.84462     -13.784011      756.06061    
   2122000   300.81805      0.011271465    7.8202937      746.33788     -18.372141      727.96574    
   2123000   300.51842      0.011271465    6.11111        745.59449     -21.49205       724.10244    
   2124000   304.34574      0.011271465    5.1227852      755.09016     -25.904939      729.18522    
   2125000   300.66613      0.011271465    5.659287       745.96095     -24.820945      721.14001    
   2126000   293.74133      0.011271465    5.6187206      728.78033     -21.722291      707.05804    
   2127000   288.95114      0.011271465    5.1108763      716.89575     -18.217895      698.67786    
   2128000   301.71327      0.011271465    6.7517184      748.55893     -15.135529      733.4234     
   2129000   300.53882      0.011271465    5.9407847      745.6451      -17.931732      727.71337    
   2130000   300.06923      0.011271465    6.0789021      744.48004     -14.987185      729.49285    
   2131000   299.4039       0.011271465    6.1060759      742.82932     -12.819347      730.00997    
   2132000   307.04731      0.011271465    9.4745805      761.79285     -12.096022      749.69683    
   2133000   301.37896      0.011271465    5.2870301      747.72951     -14.052923      733.67659    
   2134000   301.09441      0.011271465    6.4734778      747.02354     -14.677237      732.3463     
   2135000   298.34627      0.011271465    6.135193       740.20531     -19.414775      720.79053    
   2136000   303.94282      0.011271465    7.0318307      754.09051     -16.305056      737.78546    
   2137000   290.21089      0.011271465    6.0533593      720.02122     -25.009543      695.01168    
   2138000   291.69877      0.011271465    7.5512341      723.71268     -21.027062      702.68562    
   2139000   306.8495       0.011271465    5.7324263      761.30207     -18.513281      742.78879    
   2140000   304.17946      0.011271465    3.6278478      754.67763     -23.837985      730.83964    
   2141000   294.14997      0.011271465    6.3594882      729.79417     -19.249399      710.54477    
   2142000   302.42589      0.011271465    8.8390107      750.32698     -21.353068      728.97391    
   2143000   289.58654      0.011271465    5.9198794      718.4722      -16.49655       701.97565    
   2144000   304.18544      0.011271465    0.76068535     754.69246     -18.720817      735.97165    
   2145000   320.85045      0.011271465    3.6357374      796.03881     -15.782842      780.25597    
   2146000   307.1666       0.011271465    8.5261392      762.08881     -18.937604      743.15121    
   2147000   290.82481      0.011271465    7.0571257      721.54437     -23.310785      698.23358    
   2148000   285.79564      0.011271465    4.8519168      709.06686     -22.995783      686.07107    
   2149000   309.20174      0.011271465    7.0472204      767.13803     -24.317328      742.8207     
   2150000   289.43085      0.011271465    7.5549211      718.08593     -23.599003      694.48692    
   2151000   294.23398      0.011271465    5.4293092      730.00261     -20.339026      709.66359    
   2152000   299.96531      0.011271465    5.3228027      744.22221     -18.805163      725.41704    
   2153000   304.84249      0.011271465    5.9728642      756.32262     -13.23388       743.08874    
   2154000   313.05732      0.011271465    6.3389597      776.70384     -13.955846      762.748      
   2155000   301.65095      0.011271465    5.9783302      748.40431     -17.436353      730.96796    
   2156000   289.98735      0.011271465    8.2604663      719.46661     -15.06268       704.40393    
   2157000   302.31103      0.011271465    6.8688555      750.042       -14.007136      736.03487    
   2158000   302.66157      0.011271465   -1.1281116      750.9117      -18.86387       732.04783    
   2159000   303.40333      0.011271465    6.6085993      752.75203     -17.161353      735.59067    
   2160000   303.60331      0.011271465    8.6685224      753.24817     -13.51124       739.73693    
   2161000   299.10624      0.011271465    6.1723425      742.09083     -14.409916      727.68092    
   2162000   293.19085      0.011271465    5.5243495      727.41457     -14.773378      712.64119    
   2163000   291.79103      0.011271465    5.33292        723.94158     -17.515991      706.42559    
   2164000   294.89782      0.011271465    9.0726092      731.64963     -16.062109      715.58752    
   2165000   301.04067      0.011271465    6.1002384      746.8902      -18.849839      728.04036    
   2166000   291.03444      0.011271465    7.4140588      722.06448     -19.34834       702.71613    
   2167000   305.0862       0.011271465    6.3308269      756.92728     -15.601905      741.32537    
   2168000   295.88333      0.011271465    5.9696613      734.09469     -16.361144      717.73354    
   2169000   302.13442      0.011271465    5.7809723      749.60382     -15.979137      733.62468    
   2170000   293.22937      0.011271465    3.5922979      727.51015     -15.78299       711.72716    
   2171000   298.99372      0.011271465    6.3057876      741.81166     -19.486718      722.32495    
   2172000   287.75534      0.011271465    5.7212615      713.92893     -17.935361      695.99357    
   2173000   303.31394      0.011271465    5.7199216      752.53024     -20.320012      732.21023    
   2174000   302.41503      0.011271465    6.3877441      750.30003     -20.306025      729.994      
   2175000   300.29792      0.011271465    6.199787       745.04743     -16.593326      728.4541     
   2176000   294.03344      0.011271465    6.4737771      729.50507     -13.314143      716.19092    
   2177000   294.32593      0.011271465    4.7193635      730.23074     -14.904786      715.32595    
   2178000   298.32437      0.011271465    8.4937116      740.15098     -12.547567      727.60341    
   2179000   285.9085       0.011271465    5.3158959      709.34686     -17.107113      692.23975    
   2180000   303.16616      0.011271465    2.1471408      752.16361     -17.457002      734.70661    
   2181000   300.91459      0.011271465    4.1043313      746.5774      -17.536069      729.04133    
   2182000   305.01377      0.011271465    13.802487      756.74757     -17.587057      739.16051    
   2183000   294.07305      0.011271465    5.008264       729.60335     -16.355324      713.24802    
   2184000   310.82124      0.011271465    2.8815197      771.15607     -19.558573      751.59749    
   2185000   295.16456      0.011271465    18.809971      732.3114      -26.015976      706.29542    
   2186000   291.89488      0.011271465    12.695558      724.19925     -22.887511      701.31174    
   2187000   287.65967      0.011271465   -1.0729706      713.69157     -18.434293      695.25728    
   2188000   303.47957      0.011271465   -0.0084130137   752.94117     -18.956232      733.98494    
   2189000   311.71954      0.011271465    6.8655108      773.38478     -18.228725      755.15605    
   2190000   300.60319      0.011271465    8.5556597      745.80479     -16.938171      728.86662    
   2191000   302.83586      0.011271465   -3.6232426      751.34412     -16.709865      734.63426    
   2192000   304.88801      0.011271465    2.8494753      756.43557     -20.168151      736.26742    
   2193000   321.30848      0.011271465    7.4606072      797.17519     -15.670941      781.50425    
   2194000   293.46842      0.011271465    8.5930014      728.10325     -19.811563      708.29168    
   2195000   307.60048      0.011271465    3.5982761      763.16526     -20.84509       742.32017    
   2196000   310.41913      0.011271465    7.7371876      770.15842     -16.545782      753.61264    
   2197000   298.11742      0.011271465    7.116858       739.63753     -16.573564      723.06397    
   2198000   292.23396      0.011271465    5.2324001      725.04052     -14.346149      710.69437    
   2199000   292.80253      0.011271465    5.1663644      726.45115     -16.542155      709.909      
   2200000   313.95629      0.011271465    5.8830641      778.9342      -17.238173      761.69603    
   2201000   299.16441      0.011271465    5.9227396      742.23515     -16.017426      726.21772    
   2202000   294.24093      0.011271465    7.975651       730.01986     -18.973918      711.04594    
   2203000   297.61724      0.011271465    7.478945       738.39658     -16.079217      722.31736    
   2204000   304.99413      0.011271465    6.1813762      756.69885     -18.142078      738.55677    
   2205000   299.85998      0.011271465    6.8423614      743.96088     -20.525028      723.43586    
   2206000   292.46633      0.011271465    5.55047        725.61702     -20.243957      705.37307    
   2207000   313.03252      0.011271465    6.1057275      776.6423      -19.652837      756.98947    
   2208000   305.39728      0.011271465    5.4417799      757.69906     -22.985849      734.71321    
   2209000   289.77355      0.011271465    7.0026926      718.93617     -22.363129      696.57304    
   2210000   305.02171      0.011271465    6.8170885      756.76727     -18.004776      738.76249    
   2211000   283.33013      0.011271465    5.6354337      702.94986     -18.782802      684.16705    
   2212000   301.01742      0.011271465    5.5740665      746.83252     -20.024101      726.80842    
   2213000   299.29312      0.011271465    5.5614257      742.55447     -23.795655      718.75881    
   2214000   294.95033      0.011271465    6.0088992      731.77991     -21.82248       709.95743    
   2215000   292.22049      0.011271465    6.4171612      725.0071      -24.190725      700.81638    
   2216000   300.391        0.011271465    5.8993066      745.27834     -25.736941      719.5414     
   2217000   308.08594      0.011271465    5.1689721      764.36971     -26.081906      738.2878     
   2218000   291.14843      0.011271465    6.0057848      722.34727     -27.204255      695.14302    
   2219000   291.59538      0.011271465    7.6408263      723.45619     -26.480786      696.9754     
   2220000   318.43863      0.011271465    5.5633838      790.05501     -23.414048      766.64096    
   2221000   298.85898      0.011271465    5.8174698      741.47738     -26.340962      715.13641    
   2222000   292.85324      0.011271465    4.5767364      726.57697     -24.831206      701.74577    
   2223000   294.74341      0.011271465    11.233658      731.26653     -24.918953      706.34758    
   2224000   311.04037      0.011271465    5.6626184      771.69973     -22.101268      749.59847    
   2225000   296.93566      0.011271465    3.9922876      736.70556     -20.932373      715.77319    
   2226000   289.15254      0.011271465    9.1520095      717.39541     -19.021659      698.37375    
   2227000   306.84159      0.011271465    9.1622714      761.28244     -19.759308      741.52313    
   2228000   314.50594      0.011271465    3.440939       780.2979      -15.875914      764.42199    
   2229000   303.68777      0.011271465    3.1712632      753.45773     -20.127888      733.32984    
   2230000   290.3583       0.011271465    10.026706      720.38695     -18.826043      701.56091    
   2231000   305.1777       0.011271465    6.7733699      757.15429     -21.840876      735.31342    
   2232000   288.12769      0.011271465    2.5510856      714.85273     -19.351067      695.50167    
   2233000   294.97128      0.011271465    6.5325006      731.83188     -20.453598      711.37828    
   2234000   310.91161      0.011271465    9.2571211      771.38028     -20.173841      751.20644    
   2235000   299.06675      0.011271465   -5.4874048      741.99286     -25.384467      716.6084     
   2236000   292.93741      0.011271465    6.6510833      726.7858      -22.808285      703.97752    
   2237000   294.66378      0.011271465    11.848607      731.06896     -22.130525      708.93844    
   2238000   314.51738      0.011271465    6.7414505      780.3263      -19.24291       761.08339    
   2239000   307.79971      0.011271465    5.4325021      763.65957     -17.668815      745.99076    
   2240000   288.46123      0.011271465    3.2170301      715.68027     -16.857891      698.82237    
   2241000   296.28775      0.011271465    6.4488838      735.09808     -19.561053      715.53703    
   2242000   305.88645      0.011271465    4.001986       758.91273     -24.913366      733.99936    
   2243000   303.07393      0.011271465    6.2360742      751.93477     -20.281654      731.65312    
   2244000   295.05263      0.011271465    7.1710302      732.03372     -17.27881       714.75491    
   2245000   294.83674      0.011271465    5.6623059      731.49809     -18.955773      712.54231    
   2246000   318.29011      0.011271465    7.3500103      789.68654     -18.785781      770.90076    
   2247000   293.98078      0.011271465    5.4907383      729.37441     -22.365666      707.00874    
   2248000   301.1311       0.011271465    4.0987785      747.11457     -22.645636      724.46894    
   2249000   310.10489      0.011271465    5.6656873      769.37878     -18.736348      750.64243    
   2250000   307.19009      0.011271465    6.8271902      762.14708     -22.505766      739.64132    
   2251000   301.81556      0.011271465    8.2669291      748.81272     -21.49316       727.31956    
   2252000   291.81636      0.011271465    5.9900454      724.00444     -19.829005      704.17543    
   2253000   302.70581      0.011271465    3.65582        751.02146     -17.144246      733.87722    
   2254000   296.61756      0.011271465    6.1021371      735.91635     -17.863379      718.05298    
   2255000   304.22951      0.011271465    6.7215391      754.80181     -18.335064      736.46674    
   2256000   309.42883      0.011271465    5.943474       767.70147     -19.657532      748.04393    
   2257000   300.49159      0.011271465    5.1240142      745.52791     -21.901159      723.62675    
   2258000   309.16552      0.011271465    6.6888945      767.04817     -20.487225      746.56094    
   2259000   305.66153      0.011271465    4.7326261      758.35467     -25.710468      732.6442     
   2260000   291.75887      0.011271465    4.7379279      723.86179     -18.315113      705.54668    
   2261000   292.71749      0.011271465    6.3969273      726.24017     -18.700223      707.53995    
   2262000   313.83446      0.011271465    7.3162971      778.63195     -18.911269      759.72068    
   2263000   311.8038       0.011271465    4.8344341      773.59381     -17.042356      756.55146    
   2264000   293.94872      0.011271465    6.5612801      729.29487     -16.556018      712.73885    
   2265000   289.7099       0.011271465    8.6773395      718.77824     -16.604711      702.17353    
   2266000   319.96856      0.011271465    7.0926058      793.85082     -14.176327      779.67449    
   2267000   293.2775       0.011271465    5.1851945      727.62957     -17.403649      710.22592    
   2268000   295.54935      0.011271465    9.4348548      733.26609     -20.269696      712.9964     
   2269000   305.29576      0.011271465    0.2413729      757.4472      -18.876106      738.57109    
   2270000   301.82153      0.011271465    2.0297625      748.82754     -15.788743      733.0388     
   2271000   305.56064      0.011271465    7.5679963      758.10436     -18.517612      739.58675    
   2272000   301.12257      0.011271465    6.1996963      747.09339     -15.972154      731.12123    
   2273000   297.86609      0.011271465    4.1204855      739.01398     -19.467973      719.54601    
   2274000   295.53446      0.011271465    5.762743       733.22913     -20.881452      712.34768    
   2275000   307.10058      0.011271465    6.8402359      761.92501     -20.76145       741.16356    
   2276000   287.29489      0.011271465    4.5496757      712.78654     -17.248834      695.5377     
   2277000   298.38887      0.011271465    5.5938221      740.31102     -21.37138       718.93964    
   2278000   314.90561      0.011271465    5.1263174      781.2895      -23.59055       757.69895    
   2279000   303.21893      0.011271465    10.231411      752.29451     -21.503844      730.79067    
   2280000   290.4416       0.011271465    10.198789      720.59362     -21.349131      699.24449    
   2281000   286.45065      0.011271465    5.2045295      710.69195     -20.236117      690.45583    
   2282000   302.10679      0.011271465    5.8823365      749.53526     -18.722822      730.81244    
   2283000   302.30797      0.011271465    11.489273      750.0344      -18.588677      731.44572    
   2284000   288.72641      0.011271465    6.8778886      716.33817     -21.193865      695.14431    
   2285000   293.69014      0.011271465    6.7819827      728.65332     -16.263556      712.38977    
   2286000   307.60582      0.011271465    2.2270825      763.17852     -15.207075      747.97144    
   2287000   314.11911      0.011271465    5.7784991      779.33816     -17.436663      761.9015     
   2288000   300.53909      0.011271465    6.4173573      745.64577     -14.633948      731.01183    
   2289000   288.7661       0.011271465    6.5298639      716.43665     -16.163657      700.27299    
   2290000   300.37002      0.011271465    4.9676069      745.22629     -16.929487      728.2968     
   2291000   317.82842      0.011271465    6.7840377      788.54107     -14.414698      774.12637    
   2292000   295.46148      0.011271465    7.4521265      733.04808     -14.47818       718.5699     
   2293000   299.74893      0.011271465    4.8065262      743.68536     -17.711477      725.97388    
   2294000   302.47536      0.011271465    6.4767589      750.44971     -21.287648      729.16207    
   2295000   306.37611      0.011271465    5.8265419      760.12757     -16.311643      743.81593    
   2296000   296.60643      0.011271465    6.0143768      735.88872     -16.75984       719.12888    
   2297000   294.63606      0.011271465    5.9027579      731.00019     -14.633486      716.3667     
   2298000   316.23508      0.011271465    4.157744       784.58795     -17.375947      767.212      
   2299000   302.39897      0.011271465    13.493093      750.26018     -15.078266      735.18191    
   2300000   294.03548      0.011271465    5.1915939      729.51013     -14.172792      715.33734    
   2301000   300.21014      0.011271465    5.2275555      744.82962     -17.743849      727.08578    
   2302000   305.41916      0.011271465    6.6068969      757.75336     -16.785369      740.96799    
   2303000   309.38833      0.011271465    6.4731712      767.60098     -19.84316       747.75782    
   2304000   286.83328      0.011271465    8.0130361      711.64127     -18.671163      692.9701     
   2305000   287.88192      0.011271465    4.4294437      714.24298     -19.707597      694.53538    
   2306000   303.69494      0.011271465    0.056861788    753.47551     -14.643586      738.83193    
   2307000   308.29188      0.011271465    6.6316742      764.88066     -14.938135      749.94252    
   2308000   292.3187       0.011271465    7.5179991      725.25075     -14.019865      711.23089    
   2309000   296.80077      0.011271465    7.5267154      736.3709      -16.14633       720.22457    
   2310000   300.05062      0.011271465   -0.015995248    744.43385     -18.802943      725.63091    
   2311000   310.64514      0.011271465    6.2593295      770.71917     -14.93372       755.78545    
   2312000   298.51384      0.011271465    7.8095668      740.62107     -18.902977      721.71809    
   2313000   286.50031      0.011271465    6.1911125      710.81517     -17.254824      693.56034    
   2314000   301.84641      0.011271465    6.1730951      748.88926     -21.386458      727.5028     
   2315000   289.06347      0.011271465    5.6742395      717.17445     -19.19071       697.98373    
   2316000   295.08423      0.011271465    5.1193169      732.11211     -18.178847      713.93326    
   2317000   299.71282      0.011271465    2.0669648      743.59577     -14.401241      729.19453    
   2318000   304.8635       0.011271465    5.8842834      756.37475     -18.022256      738.35249    
   2319000   302.55656      0.011271465    6.6895299      750.65116     -18.928701      731.72246    
   2320000   276.72463      0.011271465    6.1261615      686.56143     -18.805389      667.75604    
   2321000   301.63061      0.011271465    5.5234917      748.35385     -16.131191      732.22266    
   2322000   312.35502      0.011271465    5.8248862      774.96141     -15.27548       759.68593    
   2323000   304.50663      0.011271465    6.8488304      755.48935     -15.619103      739.87024    
   2324000   288.20935      0.011271465    8.3004782      715.05534     -19.23623       695.81911    
   2325000   293.86019      0.011271465    7.200129       729.07524     -18.633837      710.4414     
   2326000   300.47426      0.011271465    0.69387173     745.48493     -19.176942      726.30799    
   2327000   300.15302      0.011271465    8.1022489      744.68791     -15.152319      729.53559    
   2328000   295.67489      0.011271465    4.7361796      733.57756     -15.894261      717.6833     
   2329000   289.48909      0.011271465    5.6185826      718.23042     -16.805305      701.42511    
   2330000   298.80986      0.011271465    5.5742114      741.35549     -17.950352      723.40514    
   2331000   312.47795      0.011271465    6.1330035      775.2664      -17.256943      758.00946    
   2332000   297.89066      0.011271465    6.4882054      739.07493     -17.545321      721.52961    
   2333000   285.86994      0.011271465    2.6866359      709.2512      -17.040765      692.21043    
   2334000   311.55545      0.011271465    1.8568818      772.97766     -21.472336      751.50532    
   2335000   300.05614      0.011271465    5.7849915      744.44756     -19.708302      724.73925    
   2336000   294.00379      0.011271465    7.3228414      729.43152     -18.234616      711.1969     
   2337000   296.08675      0.011271465    16.232452      734.5994      -17.152502      717.4469     
   2338000   300.01487      0.011271465    1.7066664      744.34517     -15.736289      728.60888    
   2339000   310.97012      0.011271465    8.7509491      771.52544     -17.407689      754.11775    
   2340000   300.67392      0.011271465    14.517689      745.98028     -16.572404      729.40787    
   2341000   296.54467      0.011271465    2.6701623      735.73551     -18.126888      717.60862    
   2342000   311.98644      0.011271465   -2.6332892      774.04695     -22.782974      751.26398    
   2343000   294.99571      0.011271465    12.033072      731.89248     -19.877672      712.01481    
   2344000   287.82649      0.011271465    11.361918      714.10547     -25.385054      688.72041    
   2345000   304.66816      0.011271465   -0.4473087      755.8901      -20.231219      735.65888    
   2346000   310.30269      0.011271465    4.4944552      769.86954     -20.710248      749.15929    
   2347000   306.41797      0.011271465    11.743085      760.23144     -16.408166      743.82327    
   2348000   293.52999      0.011271465    1.2643289      728.256       -14.966869      713.28913    
   2349000   298.67316      0.011271465   -3.9640354      741.01635     -17.649028      723.36733    
   2350000   307.5283       0.011271465    9.8783278      762.98618     -18.308537      744.67765    
   2351000   306.43679      0.011271465    18.016209      760.27813     -17.783135      742.495      
   2352000   299.41928      0.011271465    5.3716584      742.8675      -17.229514      725.63799    
   2353000   285.05601      0.011271465    1.5035319      707.23183     -17.966615      689.26521    
   2354000   307.96427      0.011271465    7.0416225      764.06784     -18.917161      745.15068    
   2355000   308.46083      0.011271465    10.368522      765.29983     -21.285983      744.01385    
   2356000   290.83402      0.011271465    5.608447       721.56722     -22.006789      699.56043    
   2357000   304.9358       0.011271465    5.9466604      756.55414     -22.165061      734.38908    
   2358000   311.32111      0.011271465    10.680344      772.39626     -20.510767      751.88549    
   2359000   295.66315      0.011271465    4.4211039      733.54844     -17.952987      715.59545    
   2360000   301.7371       0.011271465    5.158314       748.61807     -18.437393      730.18068    
   2361000   302.67738      0.011271465    6.273176       750.95093     -15.151812      735.79912    
   2362000   300.33213      0.011271465    6.8142986      745.13228     -14.638284      730.494      
   2363000   305.79369      0.011271465    7.0860535      758.68258     -17.378887      741.3037     
   2364000   294.98111      0.011271465    5.9996579      731.85625     -18.103234      713.75302    
   2365000   290.32659      0.011271465    6.0087545      720.30828     -14.723401      705.58488    
   2366000   294.29645      0.011271465    6.1551284      730.1576      -19.788175      710.36942    
   2367000   302.31803      0.011271465    4.2723494      750.05936     -20.283025      729.77634    
   2368000   297.14357      0.011271465    5.6572699      737.2214      -24.598419      712.62298    
   2369000   297.25417      0.011271465    6.8808181      737.49578     -22.318095      715.17769    
   2370000   297.33845      0.011271465    7.7758708      737.70489     -18.8698        718.83509    
   2371000   295.36894      0.011271465    5.2450045      732.81849     -17.977857      714.84063    
   2372000   308.69171      0.011271465    5.3177314      765.87264     -20.237004      745.63564    
   2373000   303.13167      0.011271465    12.186329      752.07804     -15.892375      736.18567    
   2374000   289.40209      0.011271465    7.8051063      718.01456     -19.812265      698.20229    
   2375000   295.99703      0.011271465    5.2428437      734.37679     -17.778058      716.59873    
   2376000   305.6187       0.011271465    5.8871719      758.24842     -15.319365      742.92906    
   2377000   311.7964       0.011271465    3.9897818      773.57547     -15.507407      758.06807    
   2378000   298.64939      0.011271465    7.1646625      740.95738     -16.813969      724.14341    
   2379000   301.00942      0.011271465    6.6730065      746.81268     -19.491616      727.32106    
   2380000   294.58038      0.011271465    4.2336036      730.86204     -21.208985      709.65306    
   2381000   301.04215      0.011271465    6.3221709      746.89386     -18.454667      728.43919    
   2382000   287.31933      0.011271465    9.0828286      712.84718     -23.506541      689.34064    
   2383000   299.9863       0.011271465    5.6765239      744.27428     -17.533486      726.74079    
   2384000   312.65145      0.011271465    5.139644       775.69687     -22.077109      753.61976    
   2385000   298.74013      0.011271465    6.846007       741.1825      -21.445739      719.73676    
   2386000   291.42711      0.011271465    6.6756277      723.03869     -24.959653      698.07904    
   2387000   304.6825       0.011271465    5.7410134      755.92567     -22.944949      732.98072    
   2388000   302.52729      0.011271465    6.8487434      750.57854     -21.828549      728.74999    
   2389000   300.87292      0.011271465    6.6819324      746.47402     -21.449761      725.02426    
   2390000   295.93013      0.011271465    4.6110311      734.21081     -20.780862      713.42995    
   2391000   298.71981      0.011271465    6.1663036      741.13208     -19.159821      721.97226    
   2392000   288.79659      0.011271465    6.1412294      716.51231     -20.535188      695.97712    
   2393000   302.77901      0.011271465    6.2984113      751.20306     -20.728584      730.47448    
   2394000   309.18463      0.011271465    3.0753139      767.09558     -21.614089      745.48149    
   2395000   300.92551      0.011271465    6.5255664      746.60448     -20.072136      726.53234    
   2396000   302.12149      0.011271465    8.8567618      749.57173     -20.437314      729.13442    
   2397000   304.70792      0.011271465    3.8880591      755.98875     -19.238627      736.75012    
   2398000   294.14393      0.011271465    4.2116705      729.77919     -20.371758      709.40743    
   2399000   315.16957      0.011271465    12.720937      781.9444      -21.240639      760.70376    
   2400000   300.20677      0.011271465    4.2246548      744.82127     -21.915797      722.90547    
   2401000   302.83221      0.011271465    0.95313371     751.33506     -16.844643      734.49042    
   2402000   295.63893      0.011271465    6.1732425      733.48834     -20.27537       713.21297    
   2403000   291.79447      0.011271465    13.880233      723.95012     -17.39969       706.55043    
   2404000   306.7924       0.011271465    8.43531        761.1604      -20.76088       740.39952    
   2405000   317.32364      0.011271465    3.9353448      787.28871     -22.221942      765.06677    
   2406000   290.69509      0.011271465    4.872207       721.22253     -21.086371      700.13616    
   2407000   299.61988      0.011271465    6.3150984      743.36517     -17.210649      726.15452    
   2408000   307.05934      0.011271465    6.6805496      761.82269     -17.10455       744.71814    
   2409000   299.71587      0.011271465    6.6200771      743.60334     -15.580079      728.02326    
   2410000   287.01443      0.011271465    5.4623939      712.09072     -18.246511      693.84421    
   2411000   305.09287      0.011271465    6.128356       756.94382     -15.553364      741.39046    
   2412000   304.6178       0.011271465    8.3829605      755.76515     -14.238673      741.52647    
   2413000   296.77273      0.011271465    9.550013       736.30133     -16.774651      719.52668    
   2414000   302.42459      0.011271465    0.14733706     750.32374     -18.388947      731.9348     
   2415000   298.64004      0.011271465    5.8753056      740.93417     -16.478616      724.45556    
   2416000   293.32092      0.011271465    7.5661346      727.73729     -19.021054      708.71623    
   2417000   297.48034      0.011271465    7.1981994      738.05692     -20.255347      717.80157    
   2418000   293.28003      0.011271465    4.5657377      727.63583     -16.009905      711.62592    
   2419000   293.76102      0.011271465    7.50703        728.8292      -18.948635      709.88056    
   2420000   308.07272      0.011271465    5.9990383      764.33691     -16.8321        747.50481    
   2421000   293.01829      0.011271465    2.5822982      726.98644     -19.999647      706.9868     
   2422000   297.93588      0.011271465    7.453144       739.18713     -16.892052      722.29508    
   2423000   315.85133      0.011271465    11.195495      783.63587     -19.399774      764.23609    
   2424000   300.72764      0.011271465    4.7625531      746.11356     -18.226381      727.88718    
   2425000   288.13564      0.011271465   -4.6104585      714.87247     -18.520821      696.35165    
   2426000   303.37926      0.011271465    7.8257304      752.69231     -18.649539      734.04278    
   2427000   324.52066      0.011271465    1.4685003      805.14471     -17.254239      787.89047    
   2428000   305.96391      0.011271465   -4.2776512      759.1049      -16.262665      742.84224    
   2429000   296.53972      0.011271465    6.3783185      735.72322     -20.410115      715.31311    
   2430000   301.67189      0.011271465    12.512437      748.45627     -19.7037        728.75257    
   2431000   311.43533      0.011271465    7.856494       772.67965     -17.905728      754.77392    
   2432000   296.39112      0.011271465    0.74181863     735.35455     -16.57699       718.77756    
   2433000   290.22093      0.011271465    8.5567121      720.04613     -16.002971      704.04316    
   2434000   314.77379      0.011271465    12.671065      780.96244     -21.110463      759.85198    
   2435000   299.95473      0.011271465    2.3300671      744.19594     -18.668413      725.52753    
   2436000   290.21162      0.011271465    10.913538      720.02303     -18.908726      701.11431    
   2437000   301.09966      0.011271465    6.2758688      747.03655     -14.703595      732.33295    
   2438000   299.0421       0.011271465    5.5729223      741.9317      -16.700389      725.23131    
   2439000   301.16753      0.011271465    4.6253154      747.20493     -17.406706      729.79823    
   2440000   295.23625      0.011271465    5.6157917      732.48927     -17.706191      714.78308    
   2441000   289.18043      0.011271465    7.9511957      717.46462     -19.715385      697.74924    
   2442000   309.81356      0.011271465    11.302605      768.65598     -25.127372      743.52861    
   2443000   306.0837       0.011271465    4.3774347      759.40209     -21.296431      738.10566    
   2444000   293.83923      0.011271465    3.750549       729.02324     -18.793814      710.22942    
   2445000   290.87699      0.011271465    6.073848       721.67382     -21.699517      699.9743     
   2446000   302.88978      0.011271465    13.636464      751.4779      -22.330628      729.14727    
   2447000   313.62062      0.011271465    6.5012061      778.1014      -20.486334      757.61506    
   2448000   300.00552      0.011271465    4.9595239      744.32196     -18.80987       725.51209    
   2449000   288.56884      0.011271465    6.2043576      715.94725     -19.005746      696.94151    
   2450000   303.53442      0.011271465    7.5181742      753.07726     -20.83069       732.24657    
   2451000   309.12649      0.011271465    1.5752168      766.95135     -20.113506      746.83784    
   2452000   303.58719      0.011271465    6.7724809      753.20818     -21.925901      731.28227    
   2453000   294.24325      0.011271465    6.9589825      730.02562     -20.938092      709.08753    
   2454000   296.15972      0.011271465    6.2097744      734.78044     -17.327078      717.45336    
   2455000   300.9118       0.011271465    5.775048       746.57047     -16.277091      730.29337    
   2456000   302.20648      0.011271465    5.0290176      749.78261     -20.273532      729.50908    
   2457000   303.58408      0.011271465    8.5494436      753.20047     -16.823526      736.37694    
   2458000   304.17104      0.011271465    5.5761461      754.65673     -19.271422      735.38531    
   2459000   281.46406      0.011271465    5.776994       698.32009     -22.093945      676.22614    
   2460000   299.93617      0.011271465    6.6959548      744.14991     -20.225896      723.92402    
   2461000   312.68451      0.011271465    5.4637003      775.77888     -18.974212      756.80467    
   2462000   292.23623      0.011271465    6.1678473      725.04614     -18.231462      706.81468    
   2463000   299.51047      0.011271465    4.4119441      743.09373     -15.860294      727.23344    
   2464000   311.28812      0.011271465    6.8899513      772.3144      -14.973508      757.34089    
   2465000   295.37528      0.011271465    3.435036       732.8342      -16.636988      716.19721    
   2466000   290.04451      0.011271465    7.1329433      719.60842     -16.2789        703.32952    
   2467000   311.43429      0.011271465    7.2868835      772.67706     -14.449926      758.22714    
   2468000   310.80713      0.011271465    3.7593669      771.12104     -15.501747      755.6193     
   2469000   297.18006      0.011271465    2.4398529      737.31191     -18.604586      718.70732    
   2470000   294.11507      0.011271465    6.4027899      729.70761     -17.565098      712.14251    
   2471000   317.07689      0.011271465    6.5587196      786.6765      -16.880897      769.7956     
   2472000   294.55619      0.011271465    4.591493       730.80203     -19.186371      711.61566    
   2473000   289.51401      0.011271465    5.7257881      718.29223     -20.382841      697.90939    
   2474000   315.88397      0.011271465    3.8059382      783.71684     -19.966322      763.75052    
   2475000   309.16847      0.011271465    6.6463057      767.0555      -22.174977      744.88052    
   2476000   294.15431      0.011271465    8.1851393      729.80495     -22.843241      706.96171    
   2477000   290.68861      0.011271465    4.8838859      721.20645     -20.058976      701.14747    
   2478000   317.66807      0.011271465    7.3100087      788.14323     -19.811577      768.33165    
   2479000   308.79911      0.011271465    6.7350978      766.13911     -19.467202      746.67191    
   2480000   290.30467      0.011271465    6.8627041      720.25388     -18.995553      701.25833    
   2481000   291.86714      0.011271465    5.7476056      724.13043     -22.539638      701.59079    
   2482000   302.30786      0.011271465    5.9309548      750.03414     -25.723987      724.31016    
   2483000   312.64864      0.011271465    6.3524961      775.68989     -23.571835      752.11805    
   2484000   308.29125      0.011271465    6.5675223      764.87909     -24.599888      740.2792     
   2485000   293.31569      0.011271465    9.6839284      727.7243      -20.581374      707.14293    
   2486000   297.9174       0.011271465    2.5668325      739.14129     -18.697793      720.44349    
   2487000   310.34434      0.011271465    8.7470529      769.97285     -18.311157      751.6617     
   2488000   298.1556       0.011271465    9.55026        739.73227     -17.733121      721.99915    
   2489000   281.12447      0.011271465    1.2027593      697.47757     -17.803487      679.67408    
   2490000   303.8307       0.011271465    5.2140525      753.81234     -16.015666      737.79668    
   2491000   312.86871      0.011271465    9.944941       776.2359      -18.26155       757.97435    
   2492000   294.26028      0.011271465    6.6310878      730.06787     -23.269125      706.79875    
   2493000   300.29844      0.011271465    1.5390903      745.04871     -23.88456       721.16415    
   2494000   295.04491      0.011271465    7.5070764      732.01455     -22.702941      709.31161    
   2495000   302.55524      0.011271465    6.3844022      750.64788     -19.701344      730.94654    
   2496000   303.31058      0.011271465    5.9314521      752.5219      -19.461522      733.06038    
   2497000   297.76058      0.011271465    6.5562223      738.7522      -22.642115      716.11008    
   2498000   300.87915      0.011271465    6.7119742      746.48945     -23.986728      722.50273    
   2499000   304.74132      0.011271465    6.2923809      756.07161     -23.344168      732.72744    
   2500000   291.0571       0.011271465    5.7492829      722.12068     -23.557614      698.56307    
   2501000   283.53419      0.011271465    6.3584652      703.45615     -23.631006      679.82515    
   2502000   315.41613      0.011271465    6.6205876      782.5561      -22.025317      760.53078    
   2503000   300.06368      0.011271465    5.1739676      744.46626     -22.027917      722.43834    
   2504000   296.71297      0.011271465    5.2698222      736.15306     -22.073336      714.07972    
   2505000   302.81077      0.011271465    6.9145549      751.28188     -17.051211      734.23067    
   2506000   313.11089      0.011271465    5.1324123      776.83674     -18.258704      758.57804    
   2507000   293.93224      0.011271465    2.0951852      729.254       -21.028108      708.22589    
   2508000   302.34217      0.011271465    6.9270314      750.11927     -22.001324      728.11795    
   2509000   323.78147      0.011271465    6.4587241      803.31075     -19.817393      783.49336    
   2510000   289.69404      0.011271465    5.3578219      718.73891     -16.371952      702.36696    
   2511000   308.82417      0.011271465    6.2103374      766.20129     -13.33837       752.86292    
   2512000   314.7803       0.011271465    7.5459153      780.97861     -17.875294      763.10332    
   2513000   302.23406      0.011271465    5.5344702      749.85102     -17.10523       732.74579    
   2514000   281.15536      0.011271465    5.7815105      697.55421     -17.367604      680.18661    
   2515000   300.61239      0.011271465    6.6731574      745.82762     -17.035039      728.79258    
   2516000   315.9041       0.011271465    7.756695       783.76678     -20.099329      763.66746    
   2517000   294.78794      0.011271465    3.5661751      731.37701     -18.972815      712.4042     
   2518000   284.21251      0.011271465    4.9821119      705.13907     -16.410773      688.7283     
   2519000   308.17645      0.011271465    9.3961033      764.59427     -13.966011      750.62826    
   2520000   305.77534      0.011271465    7.6596223      758.63705     -17.738758      740.89829    
   2521000   301.75461      0.011271465   -4.3610011      748.66151     -17.745425      730.91608    
   2522000   280.927        0.011271465   -0.62941002     696.98763     -17.515607      679.47202    
   2523000   301.05569      0.011271465    8.3875782      746.92746     -14.085254      732.84221    
   2524000   310.00694      0.011271465    3.5227568      769.13576     -15.453213      753.68255    
   2525000   285.72064      0.011271465    3.1636395      708.88078     -17.091061      691.78972    
   2526000   299.74501      0.011271465    7.0510999      743.67563     -22.104182      721.57145    
   2527000   319.06042      0.011271465    6.6039754      791.59771     -20.135265      771.46244    
   2528000   306.66749      0.011271465    6.7432564      760.8505      -22.016943      738.83356    
   2529000   287.64287      0.011271465    5.8765304      713.6499      -19.953873      693.69603    
   2530000   302.26006      0.011271465    4.4414637      749.91554     -22.287457      727.62808    
   2531000   304.68882      0.011271465    7.35583        755.94136     -23.929459      732.0119     
   2532000   314.57761      0.011271465    11.395234      780.47571     -20.694275      759.78144    
   2533000   294.07276      0.011271465    6.3054091      729.60262     -20.659544      708.94307    
   2534000   283.13235      0.011271465    3.8225159      702.45917     -20.683952      681.77522    
   2535000   293.57665      0.011271465    4.1702719      728.37177     -21.369546      707.00222    
   2536000   306.01024      0.011271465    5.1359608      759.21985     -20.197065      739.02278    
   2537000   301.89467      0.011271465    6.2735647      749.009       -18.091403      730.9176     
   2538000   295.38745      0.011271465    6.5534078      732.8644      -16.096448      716.76795    
   2539000   312.7797       0.011271465    5.938569       776.01505     -18.124474      757.89057    
   2540000   304.57867      0.011271465    5.3334221      755.66808     -18.221384      737.44669    
   2541000   295.48878      0.011271465    5.5128896      733.1158      -18.046142      715.06965    
   2542000   295.00799      0.011271465    6.0639979      731.92295     -21.157316      710.76563    
   2543000   294.34475      0.011271465    6.5281954      730.27745     -20.981127      709.29632    
   2544000   322.79559      0.011271465    8.2248463      800.86475     -25.222908      775.64185    
   2545000   301.73596      0.011271465    6.482899       748.61524     -22.475446      726.13979    
   2546000   296.7937       0.011271465    5.1805381      736.35335     -19.383951      716.9694     
   2547000   296.24865      0.011271465    10.251884      735.00106     -24.930364      710.0707     
   2548000   304.80445      0.011271465    9.7799239      756.22825     -20.378084      735.85017    
   2549000   298.86934      0.011271465    0.29548687     741.50308     -20.145692      721.35739    
   2550000   293.27387      0.011271465    6.6462695      727.62055     -21.12059       706.49996    
   2551000   308.46396      0.011271465    11.623658      765.30759     -24.283952      741.02364    
   2552000   310.44859      0.011271465    6.0541603      770.2315      -26.792745      743.43876    
   2553000   285.36858      0.011271465    4.400835       708.0073      -27.929608      680.0777     
   2554000   303.32066      0.011271465    16.408188      752.54693     -21.216989      731.32994    
   2555000   308.39081      0.011271465    3.0471337      765.1261      -18.436435      746.68967    
   2556000   304.45481      0.011271465    4.5521056      755.36077     -16.291626      739.06915    
   2557000   277.9608       0.011271465    7.2611187      689.62841     -19.973729      669.65469    
   2558000   304.8434       0.011271465    9.5381368      756.32487     -22.302676      734.0222     
   2559000   321.93372      0.011271465    4.7512924      798.72643     -18.166384      780.56005    
   2560000   296.97644      0.011271465    2.4719929      736.80674     -22.798612      714.00813    
   2561000   288.28517      0.011271465    6.6307879      715.24346     -24.369616      690.87384    
   2562000   300.79976      0.011271465    8.1054865      746.29249     -22.56196       723.73053    
   2563000   304.70036      0.011271465    6.5032845      755.96999     -22.336617      733.63337    
   2564000   299.68408      0.011271465    5.5425186      743.52446     -21.489678      722.03478    
   2565000   298.88829      0.011271465    5.4444437      741.55008     -18.673286      722.87679    
   2566000   303.43459      0.011271465    5.8208605      752.82958     -24.66585       728.16373    
   2567000   293.88146      0.011271465    7.5921819      729.12799     -19.062083      710.06591    
   2568000   294.87404      0.011271465    6.7498288      731.59062     -17.997424      713.5932     
   2569000   307.37078      0.011271465    5.8873145      762.59538     -18.95678       743.6386     
   2570000   304.21801      0.011271465    6.0492369      754.77327     -20.477576      734.29569    
   2571000   296.93627      0.011271465    5.9803806      736.70707     -15.780305      720.92676    
   2572000   306.54594      0.011271465    5.7601833      760.54893     -16.128197      744.42073    
   2573000   310.66146      0.011271465    6.0767006      770.75966     -16.326198      754.43346    
   2574000   295.92941      0.011271465    5.1523176      734.20903     -19.234435      714.97459    
   2575000   303.99657      0.011271465    6.0438566      754.22386     -19.010396      735.21347    
   2576000   301.7696       0.011271465    5.9091131      748.6987      -21.43008       727.26862    
   2577000   300.62766      0.011271465    5.9757153      745.86551     -18.495798      727.36971    
   2578000   297.86237      0.011271465    5.6208442      739.00474     -24.89914       714.1056     
   2579000   303.25003      0.011271465    9.6616188      752.37169     -23.646063      728.72563    
   2580000   295.59846      0.011271465    5.5065189      733.38792     -21.6095        711.77842    
   2581000   314.44949      0.011271465    3.5967299      780.15785     -23.155225      757.00263    
   2582000   296.71603      0.011271465    8.146183       736.16066     -19.284098      716.87656    
   2583000   286.98525      0.011271465    5.3201012      712.01831     -16.925545      695.09276    
   2584000   300.37396      0.011271465    4.3857256      745.23606     -17.286362      727.9497     
   2585000   323.2268       0.011271465    7.2517141      801.93461     -16.412071      785.52253    
   2586000   296.31505      0.011271465    6.4508894      735.16582     -18.385499      716.78032    
   2587000   305.97681      0.011271465    3.4051688      759.13689     -17.399159      741.73773    
   2588000   293.14618      0.011271465    6.44056        727.30374     -17.109071      710.19467    
   2589000   300.06257      0.011271465    15.449751      744.4635      -17.63513       726.82837    
   2590000   297.9724       0.011271465    6.8153833      739.27775     -16.767202      722.51055    
   2591000   299.81987      0.011271465    4.5031289      743.86136     -13.439209      730.42215    
   2592000   297.26683      0.011271465    1.9802082      737.5272      -18.726387      718.80082    
   2593000   310.70348      0.011271465    11.883361      770.8639      -15.672641      755.19126    
   2594000   298.05188      0.011271465    23.751402      739.47492     -14.920745      724.55417    
   2595000   295.68588      0.011271465    6.0139823      733.60481     -16.013266      717.59155    
   2596000   295.10256      0.011271465    4.9217042      732.15759     -16.526912      715.63068    
   2597000   295.59124      0.011271465    4.9288755      733.37002     -20.295422      713.07459    
   2598000   312.65498      0.011271465    5.8747829      775.70561     -20.650776      755.05484    
   2599000   310.1408       0.011271465    10.763626      769.46787     -19.915083      749.55278    
   2600000   293.5347       0.011271465    4.9682114      728.26769     -17.008333      711.25936    
   2601000   304.76231      0.011271465   -0.16639616     756.12369     -15.430318      740.69337    
   2602000   308.50915      0.011271465    9.513937       765.4197      -16.086265      749.33343    
   2603000   298.48922      0.011271465    7.141668       740.55998     -11.71236       728.84762    
   2604000   301.02052      0.011271465    2.9678629      746.84021     -14.551982      732.28823    
   2605000   292.28558      0.011271465    2.7880778      725.16858     -14.013845      711.15473    
   2606000   307.60931      0.011271465    12.191926      763.18717     -12.486843      750.70033    
   2607000   307.73256      0.011271465    6.8230996      763.49296     -16.427244      747.06571    
   2608000   305.58001      0.011271465    4.5293708      758.15243     -14.119952      744.03248    
   2609000   295.90293      0.011271465    12.200641      734.14334     -16.130707      718.01263    
   2610000   289.67135      0.011271465    5.2380815      718.6826      -15.819607      702.86299    
   2611000   317.23733      0.011271465    10.029354      787.07457     -20.836669      766.2379     
   2612000   299.43514      0.011271465    7.7061667      742.90683     -18.312058      724.59477    
   2613000   293.30044      0.011271465    3.8792538      727.68646     -20.153948      707.53252    
   2614000   304.01745      0.011271465    6.8740111      754.27567     -21.160196      733.11548    
   2615000   293.19054      0.011271465    5.5045029      727.41381     -22.67231       704.7415     
   2616000   291.51649      0.011271465    5.2923246      723.26046     -19.737134      703.52332    
   2617000   302.77452      0.011271465    6.6870147      751.19193     -17.30452       733.88741    
   2618000   298.24569      0.011271465    6.5190842      739.95579     -20.335264      719.62052    
   2619000   286.76914      0.011271465    5.7193461      711.48213     -17.563946      693.91819    
   2620000   298.47847      0.011271465    6.6974508      740.53331     -19.171783      721.36153    
   2621000   314.51108      0.011271465    6.4495262      780.31066     -20.840365      759.47029    
   2622000   302.01134      0.011271465    2.6444516      749.29846     -20.165957      729.1325     
   2623000   291.48103      0.011271465    0.33858139     723.17247     -19.71261       703.45986    
   2624000   294.72076      0.011271465    8.2169673      731.21033     -19.338161      711.87217    
   2625000   300.41643      0.011271465    10.202383      745.34144     -16.33993       729.00151    
   2626000   309.66303      0.011271465    6.5121752      768.28251     -14.381254      753.90126    
   2627000   294.63297      0.011271465   -1.174709       730.99252     -15.256594      715.73593    
   2628000   294.79278      0.011271465    6.7589356      731.38902     -16.383539      715.00548    
   2629000   288.18962      0.011271465    14.514185      715.00639     -15.60834       699.39805    
   2630000   304.62025      0.011271465    8.8184275      755.77123     -17.139713      738.63152    
   2631000   306.63137      0.011271465    4.255343       760.76088     -19.959711      740.80117    
   2632000   303.15225      0.011271465    2.7196238      752.12908     -22.203834      729.92525    
   2633000   303.499        0.011271465    15.269146      752.98937     -24.157252      728.83212    
   2634000   304.94242      0.011271465    7.8067474      756.57054     -20.709452      735.86109    
   2635000   296.40315      0.011271465   -1.6065683      735.38439     -20.544472      714.83992    
   2636000   292.77628      0.011271465    1.703434       726.38603     -17.985103      708.40093    
   2637000   302.15462      0.011271465    7.9822825      749.65394     -18.108626      731.54531    
   2638000   313.17552      0.011271465    6.8291417      776.9971      -19.616664      757.38044    
   2639000   297.9366       0.011271465    4.1347246      739.18893     -20.025202      719.16372    
   2640000   287.95454      0.011271465    3.1541532      714.42315     -17.781375      696.64177    
   2641000   302.7025       0.011271465    7.9270559      751.01325     -19.106773      731.90648    
   2642000   301.69011      0.011271465    14.322244      748.50149     -17.964328      730.53716    
   2643000   301.40761      0.011271465    1.367271       747.80058     -17.420984      730.3796     
   2644000   306.06127      0.011271465   -0.21656704     759.34645     -18.13479       741.21166    
   2645000   289.95906      0.011271465    5.0246736      719.39642     -20.579898      698.81652    
   2646000   298.2263       0.011271465    10.559879      739.90767     -19.64063       720.26704    
   2647000   314.89747      0.011271465    5.9973492      781.26931     -20.224134      761.04518    
   2648000   300.21847      0.011271465    2.2255768      744.85029     -19.78972       725.06057    
   2649000   294.31076      0.011271465    6.2475529      730.19311     -19.601912      710.5912     
   2650000   328.12176      0.011271465    11.266674      814.07914     -15.387295      798.69185    
   2651000   299.2856       0.011271465    5.195628       742.53582     -15.349585      727.18624    
   2652000   289.2961       0.011271465    5.8422816      717.7516      -15.002498      702.7491     
   2653000   290.60813      0.011271465    7.7518165      721.00679     -19.139059      701.86773    
   2654000   299.62108      0.011271465    7.8187387      743.36817     -20.289001      723.07917    
   2655000   306.89471      0.011271465    6.5016491      761.41425     -19.640314      741.77393    
   2656000   289.19828      0.011271465    0.78043887     717.50891     -23.40761       694.1013     
   2657000   296.28751      0.011271465    8.3871593      735.09748     -19.750139      715.34734    
   2658000   301.49187      0.011271465    6.1013524      748.00963     -20.826033      727.1836     
   2659000   305.0238       0.011271465    5.9879172      756.77246     -21.043139      735.72932    
   2660000   298.94798      0.011271465    8.1262963      741.69818     -20.954563      720.74362    
   2661000   307.61206      0.011271465    9.2795815      763.19399     -17.442339      745.75165    
   2662000   296.87091      0.011271465    6.428312       736.54492     -19.798277      716.74664    
   2663000   307.86902      0.011271465    8.0844617      763.83153     -14.767294      749.06424    
   2664000   291.71812      0.011271465    5.7592984      723.76071     -16.398138      707.36257    
   2665000   298.47318      0.011271465    6.0316736      740.52019     -20.049077      720.47112    
   2666000   312.20823      0.011271465    6.5478832      774.59723     -22.079691      752.51754    
   2667000   298.05649      0.011271465    9.1025878      739.48636     -21.491278      717.99508    
   2668000   300.03928      0.011271465    1.9113926      744.40571     -24.974492      719.43122    
   2669000   304.46506      0.011271465    5.3224272      755.3862      -21.238813      734.14739    
   2670000   298.9041       0.011271465    6.5197616      741.58932     -23.228146      718.36117    
   2671000   303.84254      0.011271465    7.5296206      753.84171     -23.851518      729.9902     
   2672000   299.50867      0.011271465    6.7560242      743.08927     -25.084585      718.00468    
   2673000   302.14133      0.011271465    6.0644503      749.62096     -20.69789       728.92307    
   2674000   299.14456      0.011271465    4.9572614      742.18589     -21.298227      720.88767    
   2675000   296.07241      0.011271465    11.323267      734.56382     -21.101275      713.46254    
   2676000   296.05391      0.011271465    5.7525527      734.51792     -21.855217      712.6627     
   2677000   304.49322      0.011271465    5.6979485      755.45608     -21.60384       733.85224    
   2678000   291.12946      0.011271465    6.0232647      722.30021     -22.224149      700.07606    
   2679000   293.92425      0.011271465    6.8416104      729.23417     -19.571153      709.66301    
   2680000   280.13466      0.011271465    5.4821191      695.02182     -24.752156      670.26966    
   2681000   307.53227      0.011271465    6.9106982      762.99605     -20.148086      742.84796    
   2682000   303.05872      0.011271465    6.2266426      751.89704     -21.761766      730.13527    
   2683000   292.0575       0.011271465    5.335505       724.6027      -20.045156      704.55754    
   2684000   305.62384      0.011271465    6.7706798      758.26118     -18.970152      739.29103    
   2685000   317.8683       0.011271465    6.5666246      788.64002     -21.441971      767.19805    
   2686000   298.18326      0.011271465    6.0840776      739.80089     -23.009051      716.79184    
   2687000   290.53522      0.011271465    4.9902349      720.82589     -22.090641      698.73525    
   2688000   301.04119      0.011271465    6.0310284      746.8915      -19.164054      727.72744    
   2689000   303.11979      0.011271465    6.2452384      752.04856     -22.579609      729.46895    
   2690000   298.03203      0.011271465    7.3894175      739.42569     -22.914162      716.51153    
   2691000   290.07838      0.011271465    3.8289186      719.69245     -21.076352      698.6161     
   2692000   289.68565      0.011271465    4.7653327      718.71809     -25.743231      692.97486    
   2693000   303.69452      0.011271465    5.2153166      753.47447     -20.654315      732.82016    
   2694000   320.74631      0.011271465    7.0053561      795.78044     -20.526621      775.25382    
   2695000   295.83787      0.011271465    6.5324592      733.98192     -20.175272      713.80665    
   2696000   279.38154      0.011271465    5.8564222      693.1533      -19.932515      673.22078    
   2697000   299.89254      0.011271465    6.4103214      744.04165     -16.072396      727.96925    
   2698000   305.00049      0.011271465    5.7675293      756.71462     -21.541381      735.17324    
   2699000   303.23896      0.011271465    5.3710506      752.34422     -19.610217      732.734      
   2700000   291.18575      0.011271465    5.8426528      722.43987     -18.393827      704.04605    
   2701000   301.51729      0.011271465    5.7260798      748.0727      -18.78945       729.28325    
   2702000   306.98726      0.011271465    2.630275       761.64384     -19.785663      741.85818    
   2703000   300.51372      0.011271465    6.6108419      745.58282     -22.1619        723.42092    
   2704000   295.8659       0.011271465    8.9051161      734.05146     -18.4283        715.62316    
   2705000   298.6645       0.011271465    5.570465       740.99487     -17.958514      723.03635    
   2706000   315.68181      0.011271465    6.4496028      783.21528     -17.22427       765.99101    
   2707000   297.01297      0.011271465    6.1843614      736.89736     -19.318464      717.5789     
   2708000   301.39597      0.011271465    6.3357848      747.77172     -21.104379      726.66734    
   2709000   310.2015       0.011271465    6.7123703      769.61848     -22.186445      747.43204    
   2710000   305.31728      0.011271465    5.2821717      757.50058     -21.246719      736.25386    
   2711000   295.44165      0.011271465    6.0569682      732.99888     -22.351065      710.64781    
   2712000   306.17974      0.011271465    5.9547527      759.64037     -22.476189      737.16418    
   2713000   300.17651      0.011271465    6.1731074      744.7462      -22.919405      721.8268     
   2714000   309.85372      0.011271465    6.5689005      768.75562     -27.373294      741.38232    
   2715000   297.6477       0.011271465    6.1411466      738.47215     -25.688543      712.78361    
   2716000   288.1988       0.011271465    5.6078884      715.02917     -26.437508      688.59167    
   2717000   310.89685      0.011271465    5.8601038      771.34367     -22.579508      748.76416    
   2718000   305.77536      0.011271465    6.5205116      758.63711     -26.053162      732.58395    
   2719000   282.68651      0.011271465    5.7657143      701.35302     -26.50784       674.84518    
   2720000   296.71733      0.011271465    5.5104292      736.16388     -30.726434      705.43745    
   2721000   313.00619      0.011271465    5.9283989      776.57699     -27.384394      749.19259    
   2722000   307.84517      0.011271465    8.5038108      763.77234     -27.79684       735.9755     
   2723000   294.52264      0.011271465    10.306076      730.7188      -25.393483      705.32532    
   2724000   289.73271      0.011271465    5.9988444      718.83484     -23.94796       694.88688    
   2725000   318.67051      0.011271465    6.2876512      790.63031     -20.032798      770.59751    
   2726000   314.73638      0.011271465    6.1768895      780.86965     -24.476212      756.39343    
   2727000   304.14552      0.011271465    10.228373      754.59343     -17.026555      737.56687    
   2728000   289.7461       0.011271465    7.3581102      718.86805     -14.027542      704.84051    
   2729000   306.74337      0.011271465    4.8351262      761.03875     -18.574787      742.46396    
   2730000   303.36385      0.011271465    6.1487961      752.65408     -22.973721      729.68036    
   2731000   297.88953      0.011271465    6.9617002      739.07212     -20.592327      718.4798     
   2732000   310.11653      0.011271465    7.2252137      769.40765     -19.743586      749.66406    
   2733000   299.85021      0.011271465    4.6178075      743.93664     -21.586074      722.35056    
   2734000   303.1133       0.011271465    5.7157974      752.03245     -20.713687      731.31876    
   2735000   311.14671      0.011271465    8.4596794      771.96356     -24.633666      747.32989    
   2736000   300.43377      0.011271465    9.4481191      745.38446     -20.806678      724.57778    
   2737000   297.94951      0.011271465    5.1694073      739.22094     -19.331461      719.88948    
   2738000   308.37867      0.011271465    6.8739996      765.09599     -18.010429      747.08556    
   2739000   310.99487      0.011271465    9.1926658      771.58685     -22.448058      749.13879    
   2740000   299.38267      0.011271465    5.9152662      742.77666     -20.132847      722.64382    
   2741000   296.52363      0.011271465    0.93921104     735.68331     -25.494526      710.18878    
   2742000   305.41705      0.011271465    5.707867       757.74813     -24.367294      733.38083    
   2743000   308.72311      0.011271465    7.7385283      765.95055     -24.250586      741.69996    
   2744000   301.27647      0.011271465    6.9395776      747.47521     -21.324399      726.15082    
   2745000   289.78716      0.011271465    1.6452713      718.96994     -27.05167       691.91827    
   2746000   317.75187      0.011271465    6.0126056      788.35114     -20.38524       767.9659     
   2747000   297.46044      0.011271465    10.889026      738.00756     -23.919019      714.08854    
   2748000   296.41062      0.011271465    4.6839194      735.40291     -24.740396      710.66251    
   2749000   301.34106      0.011271465    3.6973194      747.63548     -23.424911      724.21057    
   2750000   302.78277      0.011271465    12.273847      751.2124      -20.451428      730.76098    
   2751000   293.63004      0.011271465    6.392056       728.50422     -15.465655      713.03857    
   2752000   300.05022      0.011271465    2.9984772      744.43287     -20.578509      723.85436    
   2753000   303.1463       0.011271465    3.4453952      752.11434     -23.244395      728.86994    
   2754000   298.21557      0.011271465    6.8059644      739.88106     -23.271059      716.61       
   2755000   285.43181      0.011271465    5.4923897      708.1642      -19.473695      688.69051    
   2756000   312.67609      0.011271465    6.0196188      775.75801     -21.755013      754.003      
   2757000   300.32743      0.011271465    7.0568832      745.12064     -21.66721       723.45343    
   2758000   297.57791      0.011271465    5.7588933      738.29899     -25.713778      712.58521    
   2759000   294.22239      0.011271465    6.2616071      729.97386     -26.950829      703.02303    
   2760000   300.53213      0.011271465    6.6679793      745.62851     -24.007167      721.62134    
   2761000   315.26547      0.011271465    7.4488929      782.18231     -26.273842      755.90847    
   2762000   297.06616      0.011271465    4.3708237      737.02934     -26.821235      710.2081     
   2763000   296.42336      0.011271465    3.8967767      735.43453     -30.393898      705.04064    
   2764000   301.64468      0.011271465    5.713861       748.38876     -27.599006      720.78975    
   2765000   305.2711       0.011271465    7.7109342      757.38602     -26.073762      731.31226    
   2766000   301.28181      0.011271465    8.8830387      747.48847     -19.648618      727.83985    
   2767000   314.12782      0.011271465    9.5787494      779.35979     -20.912158      758.44763    
   2768000   305.40485      0.011271465    5.4675995      757.71785     -20.761461      736.95638    
   2769000   293.42995      0.011271465    5.9027216      728.00779     -19.266784      708.74101    
   2770000   305.56643      0.011271465    6.7309509      758.11875     -21.83153       736.28722    
   2771000   305.46297      0.011271465    6.6832475      757.86206     -20.454561      737.40749    
   2772000   300.49083      0.011271465    5.0358815      745.52603     -24.376037      721.15       
   2773000   301.04067      0.011271465    4.7843481      746.89021     -21.79004       725.10017    
   2774000   294.94537      0.011271465    6.2380562      731.7676      -18.123005      713.6446     
   2775000   310.24019      0.011271465    5.7920322      769.71448     -20.502299      749.21218    
   2776000   303.12372      0.011271465    5.9550431      752.05832     -22.414029      729.64429    
   2777000   294.36324      0.011271465    6.9816349      730.32332     -21.404235      708.91908    
   2778000   276.79245      0.011271465    5.6899005      686.72969     -26.398043      660.33164    
   2779000   310.27201      0.011271465    7.5368532      769.7934      -23.731755      746.06165    
   2780000   304.49198      0.011271465    3.4596222      755.45299     -22.740288      732.7127     
   2781000   294.47983      0.011271465    6.267029       730.61258     -22.521378      708.0912     
   2782000   298.19421      0.011271465    12.492356      739.82805     -20.797015      719.03104    
   2783000   322.96439      0.011271465    5.9013286      801.28354     -15.69065       785.59289    
   2784000   292.36385      0.011271465    4.4327699      725.36278     -21.593176      703.7696     
   2785000   295.62825      0.011271465    10.938645      733.46184     -21.578618      711.88322    
   2786000   310.61967      0.011271465    7.035876       770.65597     -21.091447      749.56453    
   2787000   301.38485      0.011271465    3.9130766      747.74412     -14.948706      732.79541    
   2788000   292.56246      0.011271465    7.9703201      725.85553     -19.870641      705.98489    
   2789000   300.48415      0.011271465    8.2053231      745.50946     -20.73461       724.77485    
   2790000   317.69347      0.011271465    5.5786851      788.20625     -21.64366       766.56259    
   2791000   295.75154      0.011271465    3.2899085      733.76773     -19.648231      714.1195     
   2792000   287.24993      0.011271465    1.1286407      712.67499     -19.897455      692.77754    
   2793000   301.60012      0.011271465    7.5866901      748.27821     -16.325976      731.95224    
   2794000   298.30224      0.011271465    10.557875      740.09607     -15.955848      724.14022    
   2795000   304.56419      0.011271465    7.4969058      755.63216     -17.670045      737.96212    
   2796000   308.85483      0.011271465    7.1778718      766.27735     -16.100166      750.17719    
   2797000   309.80272      0.011271465    4.8465292      768.62908     -18.984639      749.64444    
   2798000   296.88925      0.011271465   -3.2084186      736.5904      -17.990125      718.60028    
   2799000   289.86225      0.011271465    6.4493387      719.15623     -20.315198      698.84103    
   2800000   299.73539      0.011271465    9.3115164      743.65177     -21.25555       722.39622    
   2801000   324.85346      0.011271465    3.414683       805.97039     -21.61853       784.35186    
   2802000   294.58606      0.011271465    0.017177038    730.87613     -20.318861      710.55727    
   2803000   295.51303      0.011271465    11.174181      733.17596     -19.149034      714.02693    
   2804000   311.38115      0.011271465    8.3848248      772.54523     -17.919591      754.62564    
   2805000   302.18003      0.011271465    4.8372355      749.71699     -18.1057        731.61129    
   2806000   284.57602      0.011271465    4.8770106      706.04095     -18.966945      687.07401    
   2807000   309.91561      0.011271465    9.246255       768.90916     -20.384494      748.52467    
   2808000   307.60207      0.011271465    0.064651843    763.16921     -20.354374      742.81484    
   2809000   288.55325      0.011271465    4.5151615      715.90856     -21.488651      694.41991    
   2810000   298.55636      0.011271465    8.866781       740.72656     -23.781133      716.94543    
   2811000   310.28756      0.011271465    2.6140716      769.832       -19.948121      749.88388    
   2812000   302.26516      0.011271465    3.4650137      749.92819     -19.972068      729.95612    
   2813000   287.32213      0.011271465    6.9659438      712.85413     -18.6611        694.19303    
   2814000   301.46342      0.011271465    9.3651804      747.93906     -17.853076      730.08599    
   2815000   315.94787      0.011271465    6.3785831      783.87537     -20.577368      763.298      
   2816000   301.94773      0.011271465    4.2704674      749.14064     -22.611609      726.52903    
   2817000   292.01129      0.011271465    3.8672086      724.48805     -18.49818       705.98987    
   2818000   292.20791      0.011271465    6.5886815      724.97588     -18.815212      706.16067    
   2819000   312.98155      0.011271465    6.0594169      776.51586     -17.829989      758.68588    
   2820000   309.78695      0.011271465   -0.21090558     768.58995     -18.864099      749.72585    
   2821000   293.94901      0.011271465    7.9620627      729.29559     -16.934014      712.36158    
   2822000   299.58225      0.011271465    7.2655753      743.27183     -20.820371      722.45146    
   2823000   294.94117      0.011271465    6.4903081      731.75716     -18.203815      713.55335    
   2824000   301.70729      0.011271465    7.1795174      748.5441      -15.443163      733.10093    
   2825000   298.79437      0.011271465    5.9782944      741.31706     -16.007908      725.30916    
   2826000   288.95645      0.011271465    5.658528       716.90893     -21.598485      695.31044    
   2827000   305.90839      0.011271465    6.4069978      758.96715     -17.538559      741.42859    
   2828000   298.56498      0.011271465    6.6217304      740.74793     -18.454284      722.29365    
   2829000   292.72794      0.011271465    6.5555746      726.26608     -15.253191      711.01289    
   2830000   310.96052      0.011271465    5.5484295      771.50162     -14.935825      756.56579    
   2831000   301.20328      0.011271465    4.8576949      747.29365     -14.821435      732.47221    
   2832000   313.83134      0.011271465    5.3031909      778.62421     -18.259529      760.36469    
   2833000   299.90196      0.011271465    7.1532254      744.06503     -17.233509      726.83152    
   2834000   301.4077       0.011271465    6.6463304      747.80082     -15.879013      731.92181    
   2835000   294.90403      0.011271465    7.2499086      731.66502     -17.628731      714.03629    
   2836000   293.37786      0.011271465    6.7544446      727.87855     -20.111622      707.76693    
   2837000   300.64645      0.011271465    5.0111624      745.91214     -20.566325      725.34581    
   2838000   310.582        0.011271465    8.5764679      770.5625      -20.472022      750.09048    
   2839000   299.64369      0.011271465    7.8642162      743.42424     -22.225037      721.19921    
   2840000   297.98408      0.011271465    2.794922       739.30672     -18.774255      720.53246    
   2841000   304.75995      0.011271465    10.811931      756.11784     -16.759752      739.35809    
   2842000   294.84011      0.011271465    6.7124767      731.50645     -19.816022      711.69043    
   2843000   293.39511      0.011271465    6.8431705      727.92135     -18.86952       709.05183    
   2844000   297.42001      0.011271465    5.4017131      737.90724     -25.825603      712.08163    
   2845000   310.36123      0.011271465    6.5836338      770.01477     -25.862518      744.15225    
   2846000   305.33422      0.011271465    5.6431822      757.54261     -27.558765      729.98384    
   2847000   296.98316      0.011271465    6.3496313      736.82341     -25.669874      711.15354    
   2848000   291.87594      0.011271465    5.8201945      724.15224     -21.335039      702.8172     
   2849000   305.40804      0.011271465    8.9100882      757.72575     -19.133723      738.59203    
   2850000   307.55103      0.011271465    5.0440745      763.04259     -19.547683      743.49491    
   2851000   308.83408      0.011271465    3.1812906      766.22586     -19.436613      746.78925    
   2852000   288.25399      0.011271465    5.3702324      715.16609     -19.961386      695.20471    
   2853000   291.77684      0.011271465    6.530691       723.9064      -18.011067      705.89533    
   2854000   314.51685      0.011271465    6.4768532      780.32499     -16.117919      764.20707    
   2855000   310.78429      0.011271465    5.458251       771.06439     -15.981752      755.08264    
   2856000   296.18094      0.011271465    5.6406082      734.83309     -14.466861      720.36622    
   2857000   281.68565      0.011271465    5.6224604      698.86986     -16.260503      682.60936    
   2858000   307.32177      0.011271465    6.3829881      762.4738      -13.38996       749.08383    
   2859000   317.71728      0.011271465    6.0555706      788.26534     -14.948908      773.31643    
   2860000   295.44778      0.011271465    5.0368455      733.01408     -12.987409      720.02667    
   2861000   286.20902      0.011271465    8.1618204      710.09247     -17.448395      692.64407    
   2862000   301.99075      0.011271465    7.0684914      749.24738     -17.263821      731.98356    
   2863000   307.89188      0.011271465    4.3948832      763.88823     -25.116763      738.77147    
   2864000   295.80312      0.011271465    4.6042226      733.89569     -20.724687      713.171      
   2865000   282.98348      0.011271465   -1.6408792      702.08982     -19.424219      682.6656     
   2866000   304.88436      0.011271465    0.5914188      756.4265      -21.236238      735.19026    
   2867000   284.73533      0.011271465    2.294719       706.43621     -21.288564      685.14765    
   2868000   303.26603      0.011271465    11.506664      752.41139     -20.205548      732.20584    
   2869000   311.03828      0.011271465    0.050828473    771.69454     -21.945584      749.74895    
   2870000   294.45803      0.011271465    6.316136       730.55849     -22.295961      708.26253    
   2871000   305.77214      0.011271465    12.005015      758.62911     -22.106149      736.52296    
   2872000   298.46233      0.011271465    4.0554124      740.49326     -21.494946      718.99831    
   2873000   299.97244      0.011271465    8.9085775      744.23989     -21.742863      722.49702    
   2874000   305.41366      0.011271465    9.7206575      757.73971     -20.265584      737.47413    
   2875000   306.93296      0.011271465    6.240631       761.50913     -22.893584      738.61555    
   2876000   309.94574      0.011271465   -2.2997865      768.98392     -20.087425      748.89649    
   2877000   295.47132      0.011271465    11.342369      733.0725      -20.083687      712.98881    
   2878000   295.1088       0.011271465    10.636752      732.17306     -21.026782      711.14628    
   2879000   307.23181      0.011271465    6.1048313      762.25059     -20.104283      742.14631    
   2880000   303.8856       0.011271465    4.5937612      753.94854     -19.997562      733.95098    
   2881000   296.70838      0.011271465    2.7027809      736.14166     -21.713112      714.42855    
   2882000   293.93479      0.011271465    11.876738      729.26032     -21.18649       708.07383    
   2883000   305.25992      0.011271465    6.3741193      757.35829     -21.370463      735.98782    
   2884000   294.41646      0.011271465    4.5247833      730.45534     -16.861713      713.59363    
   2885000   289.158        0.011271465    6.0958903      717.40898     -23.169174      694.2398     
   2886000   294.60971      0.011271465    5.0859298      730.93482     -25.789385      705.14544    
   2887000   298.42938      0.011271465    1.9850495      740.41152     -21.562912      718.84861    
   2888000   293.88247      0.011271465    6.3483223      729.1305      -25.198714      703.93178    
   2889000   296.5496       0.011271465    6.712815       735.74774     -21.334791      714.41295    
   2890000   295.77562      0.011271465    5.8639497      733.82747     -21.836733      711.99073    
   2891000   313.10155      0.011271465    5.3572543      776.81358     -21.462545      755.35104    
   2892000   299.73269      0.011271465    9.0236874      743.64505     -22.087016      721.55804    
   2893000   297.87319      0.011271465    5.707587       739.03159     -23.895482      715.13611    
   2894000   308.44114      0.011271465    5.4304461      765.25098     -19.710731      745.54025    
   2895000   306.3728       0.011271465    0.60309258     760.11937     -21.077644      739.04173    
   2896000   293.18742      0.011271465    9.545767       727.40608     -22.959345      704.44673    
   2897000   300.80292      0.011271465    2.0964339      746.30033     -24.885994      721.41433    
   2898000   303.80082      0.011271465    5.7323864      753.73821     -20.240974      733.49724    
   2899000   289.81367      0.011271465    7.3976863      719.03572     -21.730614      697.3051     
   2900000   307.13687      0.011271465    5.8385961      762.01504     -21.933789      740.08125    
   2901000   306.70126      0.011271465    5.062969       760.93428     -22.565035      738.36924    
   2902000   298.11166      0.011271465    10.972751      739.62324     -22.955839      716.6674     
   2903000   300.15272      0.011271465    6.2891848      744.68718     -23.865183      720.82199    
   2904000   306.4551       0.011271465    5.6294026      760.32355     -21.924527      738.39902    
   2905000   302.92927      0.011271465    3.8895632      751.57588     -23.289308      728.28657    
   2906000   297.55774      0.011271465    7.2079813      738.24895     -23.800199      714.44875    
   2907000   298.04051      0.011271465    6.7277982      739.44672     -21.506619      717.9401     
   2908000   303.02779      0.011271465    4.8331683      751.8203      -19.873487      731.94681    
   2909000   302.26909      0.011271465    3.0038048      749.93794     -20.666837      729.2711     
   2910000   304.75327      0.011271465    7.7311248      756.10126     -20.872484      735.22878    
   2911000   289.17923      0.011271465    7.0911295      717.46165     -18.599541      698.86211    
   2912000   305.62789      0.011271465    3.5712223      758.27123     -20.353873      737.91735    
   2913000   308.78894      0.011271465    16.380126      766.11387     -22.550482      743.56339    
   2914000   291.14179      0.011271465    4.7754912      722.3308      -26.482356      695.84845    
   2915000   294.64042      0.011271465   -5.869214       731.01099     -31.44748       699.56351    
   2916000   301.18157      0.011271465    8.4591109      747.23979     -27.284638      719.95515    
   2917000   303.29379      0.011271465    14.19691       752.48025     -27.148428      725.33182    
   2918000   296.04954      0.011271465   -3.1730473      734.50706     -25.520973      708.98609    
   2919000   297.70099      0.011271465    6.149847       738.60436     -22.443389      716.16097    
   2920000   288.40564      0.011271465    9.7432744      715.54235     -24.094497      691.44785    
   2921000   290.85813      0.011271465    0.38529521     721.62704     -24.864008      696.76303    
   2922000   305.43836      0.011271465    3.4248244      757.80099     -26.964316      730.83667    
   2923000   304.63756      0.011271465    12.78486       755.81417     -21.101846      734.71233    
   2924000   299.30647      0.011271465    7.0120925      742.5876      -21.414731      721.17287    
   2925000   296.59058      0.011271465    0.56751751     735.8494      -24.720866      711.12853    
   2926000   295.61202      0.011271465    18.544844      733.42157     -22.448431      710.97314    
   2927000   301.22894      0.011271465    2.9552014      747.3573      -23.842886      723.51441    
   2928000   318.96341      0.011271465    5.4172645      791.35702     -26.260982      765.09603    
   2929000   287.90893      0.011271465    8.8120495      714.30999     -22.91568       691.39431    
   2930000   294.0437       0.011271465    0.800682       729.53053     -25.907553      703.62298    
   2931000   316.24288      0.011271465    2.6762671      784.6073      -26.847626      757.75968    
   2932000   312.48416      0.011271465    5.3555442      775.28181     -27.468401      747.81341    
   2933000   293.20915      0.011271465    7.866846       727.45998     -27.490268      699.96971    
   2934000   290.96626      0.011271465    4.7245364      721.89531     -26.573972      695.32134    
   2935000   309.13252      0.011271465    3.8786485      766.96629     -22.861569      744.10472    
   2936000   297.30727      0.011271465    6.6895385      737.62753     -22.351958      715.27557    
   2937000   286.19873      0.011271465    5.5292162      710.06695     -22.641539      687.42541    
   2938000   311.67798      0.011271465    6.3354534      773.28165     -23.965796      749.31586    
   2939000   305.96219      0.011271465    6.2969711      759.10063     -23.265838      735.83479    
   2940000   286.41507      0.011271465    5.3622795      710.60368     -22.634998      687.96868    
   2941000   292.18125      0.011271465    5.73061        724.90974     -23.333397      701.57635    
   2942000   301.96999      0.011271465    6.5905856      749.19586     -25.287494      723.90837    
   2943000   301.80333      0.011271465    6.6014138      748.78239     -24.430549      724.35184    
   2944000   309.35676      0.011271465    8.8684697      767.52264     -24.563325      742.95932    
   2945000   301.76658      0.011271465    4.1838536      748.69121     -21.790836      726.90037    
   2946000   302.60159      0.011271465    6.3276232      750.76289     -21.950273      728.81261    
   2947000   296.63271      0.011271465    6.2934864      735.95393     -19.828706      716.12523    
   2948000   290.54145      0.011271465    5.8848806      720.84134     -20.492817      700.34853    
   2949000   303.98852      0.011271465    4.6187766      754.2039      -22.048305      732.1556     
   2950000   305.20508      0.011271465    6.8653563      757.22222     -24.933224      732.28899    
   2951000   293.22312      0.011271465    5.6418815      727.49463     -22.367313      705.12732    
   2952000   298.10248      0.011271465    4.9747438      739.60047     -20.969226      718.63125    
   2953000   304.60656      0.011271465    5.6659976      755.73727     -19.51529       736.22198    
   2954000   304.53965      0.011271465    7.6602879      755.57126     -24.255445      731.31581    
   2955000   298.45657      0.011271465    6.6375042      740.47898     -19.674812      720.80417    
   2956000   305.17398      0.011271465    6.8788528      757.14506     -24.841839      732.30322    
   2957000   308.08662      0.011271465    6.4593952      764.37139     -21.268318      743.10308    
   2958000   312.62086      0.011271465    6.7181322      775.62097     -21.926717      753.69425    
   2959000   288.44841      0.011271465    5.9374019      715.64846     -22.127737      693.52072    
   2960000   304.86481      0.011271465    7.0740593      756.378       -21.011293      735.36671    
   2961000   305.21044      0.011271465    5.8961549      757.23552     -19.998493      737.23703    
   2962000   288.4455       0.011271465    6.6117874      715.64123     -19.213806      696.42742    
   2963000   304.27047      0.011271465    8.5698043      754.90343     -22.236361      732.66707    
   2964000   310.30297      0.011271465    6.3765051      769.87022     -18.023166      751.84705    
   2965000   305.0825       0.011271465    6.0105862      756.91808     -20.039649      736.87843    
   2966000   297.81577      0.011271465    6.5592713      738.88913     -21.884553      717.00457    
   2967000   296.24752      0.011271465    6.8858165      734.99826     -17.673648      717.32461    
   2968000   306.1753       0.011271465    6.1088242      759.62937     -22.019233      737.61014    
   2969000   304.71814      0.011271465    6.864817       756.0141      -22.19835       733.81575    
   2970000   309.89894      0.011271465    10.791502      768.86781     -18.934564      749.93325    
   2971000   280.46134      0.011271465    10.940024      695.83231     -18.914186      676.91813    
   2972000   285.00793      0.011271465    4.4559254      707.11252     -19.38343       687.72909    
   2973000   303.75496      0.011271465    3.8576957      753.62442     -19.506288      734.11813    
   2974000   305.53793      0.011271465    6.9801778      758.04802     -17.621792      740.42623    
   2975000   303.63886      0.011271465    6.4856319      753.33638     -17.56521       735.77117    
   2976000   288.44452      0.011271465    5.8546348      715.63881     -17.965181      697.67363    
   2977000   300.26089      0.011271465    4.6786092      744.95553     -18.733249      726.22228    
   2978000   311.48366      0.011271465    5.8294608      772.79955     -19.791257      753.0083     
   2979000   297.56838      0.011271465    8.547593       738.27534     -16.313891      721.96145    
   2980000   294.10242      0.011271465    3.8035692      729.6762      -18.414083      711.26212    
   2981000   310.11916      0.011271465    4.7207741      769.41419     -17.189185      752.225      
   2982000   305.69214      0.011271465    8.1409684      758.43064     -16.515184      741.91545    
   2983000   285.51447      0.011271465    8.3489613      708.36926     -17.088867      691.28039    
   2984000   295.26615      0.011271465    6.7621689      732.56347     -19.286104      713.27736    
   2985000   317.05616      0.011271465    2.1474531      786.62508     -19.276779      767.3483     
   2986000   301.5936       0.011271465    5.883636       748.26203     -19.520956      728.74107    
   2987000   292.81929      0.011271465    10.768762      726.49273     -22.187008      704.30572    
   2988000   292.5841       0.011271465    8.3570623      725.90921     -20.168428      705.74079    
   2989000   299.61154      0.011271465    5.7473219      743.34449     -20.05731       723.28718    
   2990000   292.0871       0.011271465    5.7332394      724.67615     -21.943465      702.73268    
   2991000   306.15215      0.011271465    5.4973594      759.57193     -21.867707      737.70422    
   2992000   292.25468      0.011271465    5.228909       725.09192     -17.336514      707.75541    
   2993000   312.84418      0.011271465    8.1883782      776.17505     -17.39216       758.78289    
   2994000   306.07679      0.011271465    5.4685188      759.38494     -18.000507      741.38444    
   2995000   284.18685      0.011271465    6.2051195      705.0754      -16.85693       688.21847    
   2996000   295.86896      0.011271465    5.9271516      734.05906     -19.733521      714.32554    
   2997000   300.3578       0.011271465    4.4999173      745.19599     -19.576968      725.61902    
   2998000   299.1533       0.011271465    5.5508546      742.20758     -14.815201      727.39238    
   2999000   292.39564      0.011271465    6.5718071      725.44164     -14.423585      711.01806    
   3000000   297.40822      0.011271465    9.1832682      737.87799     -18.871977      719.00601    
   3001000   303.25503      0.011271465    6.8877489      752.38409     -15.539741      736.84435    
   3002000   297.61546      0.011271465    0.53842206     738.39215     -14.545578      723.84657    
   3003000   297.41624      0.011271465    2.9607294      737.89788     -17.752206      720.14568    
   3004000   305.34909      0.011271465    6.6670125      757.57951     -19.907171      737.67234    
   3005000   306.45554      0.011271465    8.5428001      760.32465     -18.914446      741.4102     
   3006000   303.15168      0.011271465    6.7890432      752.12768     -16.00516       736.12252    
   3007000   295.26747      0.011271465    5.5243298      732.56673     -16.315495      716.25124    
   3008000   298.32422      0.011271465    6.2860945      740.15061     -19.527367      720.62324    
   3009000   304.56088      0.011271465    5.4621808      755.62395     -20.220611      735.40333    
   3010000   305.67635      0.011271465    10.657341      758.39144     -18.906658      739.48478    
   3011000   291.6604       0.011271465    7.0088481      723.61749     -17.099057      706.51843    
   3012000   315.17068      0.011271465    5.946782       781.94714     -20.739965      761.20717    
   3013000   299.29061      0.011271465    6.6063059      742.54825     -20.146456      722.40179    
   3014000   307.49797      0.011271465    7.2337021      762.91093     -22.290618      740.62032    
   3015000   311.70646      0.011271465    6.2380669      773.35232     -18.436793      754.91553    
   3016000   299.91997      0.011271465    5.8444255      744.1097      -16.718794      727.39091    
   3017000   307.80361      0.011271465    5.2844238      763.66924     -17.482187      746.18706    
   3018000   297.4763       0.011271465    6.2811291      738.0469      -14.009349      724.03755    
   3019000   289.4539       0.011271465    5.7546021      718.14311     -15.224994      702.91811    
   3020000   302.91889      0.011271465    6.2154541      751.55013     -13.910397      737.63973    
   3021000   315.36433      0.011271465    7.332314       782.42759     -12.749146      769.67844    
   3022000   310.50434      0.011271465    5.8394925      770.36982     -19.533102      750.83672    
   3023000   302.04541      0.011271465    2.4859127      749.38299     -16.481055      732.90193    
   3024000   293.16062      0.011271465    5.0883097      727.33957     -17.672817      709.66676    
   3025000   299.1984       0.011271465    9.1463217      742.31948     -18.439355      723.88013    
   3026000   319.44791      0.011271465    6.2981094      792.55908     -18.978468      773.58061    
   3027000   304.16011      0.011271465    3.7441183      754.62962     -20.69597       733.93365    
   3028000   281.36024      0.011271465    7.6059111      698.06251     -19.217739      678.84477    
   3029000   296.68415      0.011271465    9.9160102      736.08156     -18.887463      717.1941     
   3030000   309.7633       0.011271465    11.409295      768.53129     -17.067572      751.46372    
   3031000   308.7614       0.011271465    5.3497805      766.04553     -19.826498      746.21904    
   3032000   297.85943      0.011271465    2.2986201      738.99746     -17.129706      721.86775    
   3033000   289.69007      0.011271465    7.4041272      718.72905     -20.146983      698.58206    
   3034000   312.17314      0.011271465    6.3488351      774.51017     -18.866394      755.64377    
   3035000   305.4955       0.011271465    5.4827507      757.94275     -17.007968      740.93478    
   3036000   291.12659      0.011271465    3.5212106      722.29308     -14.471343      707.82174    
   3037000   293.27736      0.011271465    8.2237012      727.62921     -19.037139      708.59207    
   3038000   299.68805      0.011271465    4.6356228      743.53431     -17.251377      726.28294    
   3039000   304.34557      0.011271465    3.9354758      755.08974     -22.257578      732.83216    
   3040000   305.26375      0.011271465    6.7148122      757.36777     -16.839137      740.52863    
   3041000   309.91234      0.011271465    12.12188       768.90105     -16.456552      752.4445     
   3042000   297.30698      0.011271465    1.728106       737.62682     -17.948308      719.67851    
   3043000   295.91957      0.011271465    5.3786505      734.18461     -17.021905      717.16271    
   3044000   300.03873      0.011271465    12.212943      744.40436     -18.326398      726.07796    
   3045000   302.21335      0.011271465    8.2663079      749.79966     -19.75711       730.04255    
   3046000   299.93973      0.011271465    5.8451793      744.15875     -18.424035      725.73471    
   3047000   288.88626      0.011271465    3.5080299      716.73476     -18.05281       698.68195    
   3048000   306.03018      0.011271465    5.8217694      759.2693      -19.753232      739.51607    
   3049000   304.08776      0.011271465    6.1107384      754.45013     -23.680359      730.76977    
   3050000   311.9535       0.011271465    4.8660629      773.96523     -21.550487      752.41474    
   3051000   287.31028      0.011271465    5.1990307      712.82473     -21.41616       691.40856    
   3052000   294.85439      0.011271465    6.455568       731.54188     -22.111775      709.4301     
   3053000   325.82069      0.011271465    6.5627839      808.37011     -23.236054      785.13405    
   3054000   306.56559      0.011271465    6.0228024      760.59768     -24.167966      736.42972    
   3055000   292.7545       0.011271465    6.3588327      726.33198     -22.478316      703.85366    
   3056000   293.91321      0.011271465    5.694519       729.20678     -22.060798      707.14598    
   3057000   301.63654      0.011271465    6.3427375      748.36856     -20.33406       728.0345     
   3058000   308.86077      0.011271465    7.125362       766.29209     -18.226353      748.06574    
   3059000   294.25642      0.011271465    6.6412622      730.05829     -16.971362      713.08693    
   3060000   298.83983      0.011271465    4.4161102      741.42985     -20.415362      721.01449    
   3061000   299.95917      0.011271465    3.1975462      744.20697     -24.11954       720.08743    
   3062000   306.56793      0.011271465    12.152651      760.60349     -23.186565      737.41692    
   3063000   298.41675      0.011271465    11.010064      740.38019     -21.534132      718.84606    
   3064000   297.29626      0.011271465    2.6631304      737.60021     -23.311759      714.28845    
   3065000   313.03699      0.011271465    7.2872462      776.6534      -19.287143      757.36625    
   3066000   294.59712      0.011271465    11.891277      730.90356     -18.581309      712.32225    
   3067000   283.56519      0.011271465    6.3215519      703.53306     -17.776397      685.75666    
   3068000   298.15968      0.011271465    4.5176978      739.74238     -17.836879      721.9055     
   3069000   318.81967      0.011271465    2.5830882      791.0004      -21.488436      769.51196    
   3070000   297.97018      0.011271465    9.0967861      739.27224     -18.674235      720.598      
   3071000   287.03797      0.011271465    4.2363344      712.14913     -17.522744      694.62638    
   3072000   320.83537      0.011271465    5.4705865      796.0014      -18.577527      777.42387    
   3073000   306.08528      0.011271465    7.9658615      759.40602     -15.434018      743.972      
   3074000   298.61181      0.011271465    5.1224092      740.86414     -17.842129      723.02201    
   3075000   296.29691      0.011271465    4.7429701      735.12081     -15.726782      719.39403    
   3076000   304.47486      0.011271465    19.16169       755.41051     -17.601535      737.80898    
   3077000   296.73049      0.011271465    6.3236702      736.19653     -17.135211      719.06132    
   3078000   288.37246      0.011271465    0.86982241     715.46002     -16.797284      698.66274    
   3079000   308.11043      0.011271465    0.05240942     764.43046     -16.663565      747.76689    
   3080000   319.43613      0.011271465    18.250633      792.52984     -19.166302      773.36354    
   3081000   294.39175      0.011271465    7.2646062      730.39405     -16.226879      714.16717    
   3082000   313.89848      0.011271465   -4.8812189      778.79078     -19.211006      759.57978    
   3083000   305.16476      0.011271465    11.394478      757.12218     -17.936913      739.18527    
   3084000   285.63058      0.011271465   -0.30579726     708.65734     -21.010264      687.64707    
   3085000   297.99435      0.011271465    4.7360042      739.3322      -20.317752      719.01445    
   3086000   310.77825      0.011271465    5.3942373      771.0494      -21.351134      749.69826    
   3087000   295.04936      0.011271465    10.97835       732.02558     -17.927817      714.09777    
   3088000   295.99823      0.011271465    3.5231676      734.37977     -18.563622      715.81615    
   3089000   301.46932      0.011271465    1.0686776      747.95369     -18.990652      728.96304    
   3090000   312.21726      0.011271465    5.5964161      774.61963     -18.292589      756.32704    
   3091000   291.40081      0.011271465    11.665533      722.97344     -16.130959      706.84248    
   3092000   288.10225      0.011271465    4.1587221      714.78962     -18.649434      696.14019    
   3093000   304.59066      0.011271465    3.8750115      755.69782     -20.299556      735.39827    
   3094000   306.89363      0.011271465    6.6623275      761.41156     -18.597973      742.81358    
   3095000   293.82615      0.011271465    7.5941226      728.99078     -18.937838      710.05294    
   3096000   294.11073      0.011271465    5.8049372      729.69682     -18.524258      711.17256    
   3097000   312.42807      0.011271465    4.4850936      775.14265     -23.419338      751.72331    
   3098000   304.88292      0.011271465    5.898965       756.42292     -21.178767      735.24416    
   3099000   296.38737      0.011271465    6.1140007      735.34523     -21.588556      713.75667    
   3100000   299.11215      0.011271465    8.3579144      742.10549     -18.851136      723.25436    
   3101000   305.48575      0.011271465    5.3819489      757.91858     -23.73549       734.18309    
   3102000   299.44773      0.011271465    5.0475662      742.93806     -19.601221      723.33684    
   3103000   284.92848      0.011271465    8.2433013      706.91542     -18.811118      688.1043     
   3104000   295.9635       0.011271465    6.6595367      734.29359     -21.107912      713.18568    
   3105000   304.64453      0.011271465    6.1311518      755.83148     -17.786167      738.04531    
   3106000   303.51699      0.011271465    6.128097       753.03401     -17.814253      735.21976    
   3107000   311.4133       0.011271465    7.0507142      772.62498     -17.84317       754.78181    
   3108000   291.87454      0.011271465    3.2003075      724.14879     -15.807446      708.34134    
   3109000   295.27284      0.011271465    12.466273      732.58005     -19.993636      712.58641    
   3110000   317.37809      0.011271465    10.471926      787.4238      -19.350836      768.07296    
   3111000   312.33412      0.011271465    3.6049052      774.90956     -20.868618      754.04095    
   3112000   295.0766       0.011271465    1.2407073      732.09318     -17.806096      714.28709    
   3113000   300.44001      0.011271465    5.7644067      745.39995     -17.919676      727.48027    
   3114000   304.92371      0.011271465    7.8303095      756.52414     -18.910665      737.61348    
   3115000   307.43259      0.011271465    5.9511271      762.74872     -17.304008      745.44471    
   3116000   294.36057      0.011271465    5.4421719      730.31669     -19.692705      710.62398    
   3117000   287.01637      0.011271465    5.1789821      712.09551     -15.413199      696.68232    
   3118000   313.10423      0.011271465    10.123363      776.82022     -18.060045      758.76017    
   3119000   297.15411      0.011271465    5.2172304      737.24754     -17.780176      719.46737    
   3120000   294.3158       0.011271465    4.0777895      730.2056      -13.975374      716.23023    
   3121000   307.04948      0.011271465    9.3041623      761.79821     -15.928448      745.86976    
   3122000   303.76362      0.011271465    5.5448844      753.64592     -18.44802       735.1979     
   3123000   283.15051      0.011271465    5.4049376      702.50423     -20.315067      682.18917    
   3124000   281.85909      0.011271465    2.0687043      699.30016     -14.907239      684.39292    
   3125000   311.84192      0.011271465    8.2317668      773.6884      -15.869154      757.81925    
   3126000   307.25398      0.011271465    5.8581599      762.30559     -18.495464      743.81013    
   3127000   304.25275      0.011271465    3.9652558      754.85945     -16.942602      737.91685    
   3128000   296.05821      0.011271465    5.2988324      734.52857     -14.444544      720.08403    
   3129000   303.735        0.011271465    6.6016096      753.5749      -17.911861      735.66304    
   3130000   300.57034      0.011271465    6.6348718      745.7233      -14.509326      731.21397    
   3131000   303.44914      0.011271465    6.620676       752.86568     -13.571243      739.29444    
   3132000   296.84403      0.011271465    3.485393       736.47822     -15.549709      720.92851    
   3133000   284.97052      0.011271465    5.1922254      707.01971     -16.397627      690.62208    
   3134000   298.33251      0.011271465    8.4635572      740.17119     -16.083154      724.08804    
   3135000   304.99824      0.011271465    3.8528271      756.70904     -16.234215      740.47482    
   3136000   308.83543      0.011271465    4.1607892      766.22922     -16.720555      749.50866    
   3137000   294.54161      0.011271465    5.7876786      730.76585     -14.711797      716.05406    
   3138000   290.22336      0.011271465    6.3727779      720.05215     -16.423305      703.62885    
   3139000   303.8746       0.011271465    12.603303      753.92125     -17.275978      736.64527    
   3140000   305.73723      0.011271465    5.5588887      758.54249     -17.646276      740.89621    
   3141000   309.65809      0.011271465    3.1459878      768.27026     -19.258487      749.01177    
   3142000   293.99461      0.011271465    5.6082336      729.40874     -22.402759      707.00598    
   3143000   299.31112      0.011271465    12.106544      742.59914     -21.588773      721.01036    
   3144000   308.73397      0.011271465    5.6851287      765.97749     -17.951452      748.02604    
   3145000   296.1688       0.011271465    1.8327367      734.80297     -19.227386      715.57558    
   3146000   292.78421      0.011271465    6.096155       726.40571     -18.815836      707.58987    
   3147000   289.90272      0.011271465    9.8445526      719.25665     -15.379399      703.87725    
   3148000   304.94533      0.011271465   -0.95235733     756.57777     -16.001417      740.57635    
   3149000   302.78577      0.011271465    5.0807295      751.21984     -18.555656      732.66419    
   3150000   304.25215      0.011271465    9.1488027      754.85798     -15.971041      738.88694    
   3151000   301.95204      0.011271465    2.6375019      749.15134     -17.921985      731.22936    
   3152000   302.34383      0.011271465    3.7057803      750.12337     -20.447489      729.67588    
   3153000   294.72843      0.011271465    9.7390329      731.22936     -18.870729      712.35863    
   3154000   315.70895      0.011271465    8.2155198      783.2826      -20.594141      762.68846    
   3155000   298.39344      0.011271465    3.7213189      740.32236     -18.480945      721.84141    
   3156000   291.04304      0.011271465    5.6099092      722.08581     -21.486039      700.59977    
   3157000   300.21709      0.011271465    8.6756664      744.84688     -20.055575      724.79131    
   3158000   307.30846      0.011271465    8.9795505      762.44075     -16.496383      745.94437    
   3159000   298.65478      0.011271465    2.8753933      740.97074     -19.361825      721.60891    
   3160000   292.84184      0.011271465    6.5180358      726.54868     -17.767841      708.78084    
   3161000   305.47243      0.011271465    5.0202355      757.88551     -22.532137      735.35338    
   3162000   305.09481      0.011271465    6.4274335      756.94863     -26.469805      730.47883    
   3163000   290.26501      0.011271465    5.8919463      720.1555      -20.891934      699.26356    
   3164000   298.38733      0.011271465    6.2514336      740.30718     -19.706368      720.60081    
   3165000   309.29708      0.011271465    7.9861694      767.37457     -22.975564      744.39901    
   3166000   308.09342      0.011271465    7.2387762      764.38828     -21.160367      743.22791    
   3167000   297.38387      0.011271465    1.9403931      737.81759     -21.556752      716.26084    
   3168000   293.49392      0.011271465    5.9224773      728.16651     -17.605298      710.56121    
   3169000   303.75634      0.011271465    8.3843911      753.62784     -17.370937      736.25691    
   3170000   310.89074      0.011271465    6.1545176      771.32849     -17.234401      754.09409    
   3171000   294.56637      0.011271465    6.9003062      730.82728     -22.658162      708.16912    
   3172000   287.84231      0.011271465    5.7281792      714.14471     -22.155082      691.98962    
   3173000   314.25113      0.011271465    8.4391504      779.66571     -20.637967      759.02774    
   3174000   299.88436      0.011271465    4.2309296      744.02135     -21.878859      722.14249    
   3175000   293.35212      0.011271465    9.2077958      727.81469     -19.595301      708.21939    
   3176000   301.16643      0.011271465    10.129139      747.20221     -20.075017      727.12719    
   3177000   303.0186       0.011271465    5.8538359      751.79749     -21.841081      729.95641    
   3178000   292.124        0.011271465    5.4511643      724.76769     -25.011519      699.75618    
   3179000   296.38838      0.011271465    5.8128896      735.34774     -24.316054      711.03168    
   3180000   281.13772      0.011271465    6.808705       697.51043     -21.107964      676.40246    
   3181000   293.83518      0.011271465    5.7766903      729.01319     -23.511925      705.50127    
   3182000   298.77492      0.011271465    5.6400193      741.26882     -20.556782      720.71204    
   3183000   300.30402      0.011271465    6.2380886      745.06255     -19.783107      725.27944    
   3184000   299.9302       0.011271465    5.8432255      744.13509     -22.348844      721.78624    
   3185000   298.30781      0.011271465    5.5369539      740.1099      -22.857325      717.25258    
   3186000   298.10518      0.011271465    6.4518238      739.60718     -20.001908      719.60527    
   3187000   300.72395      0.011271465    5.6636993      746.1044      -21.544775      724.55962    
   3188000   298.36199      0.011271465    5.9412965      740.24433     -20.348531      719.8958     
   3189000   286.40706      0.011271465    3.8067107      710.5838      -22.462286      688.12152    
   3190000   307.66044      0.011271465    4.4836185      763.31403     -21.985002      741.32903    
   3191000   306.13233      0.011271465    7.314266       759.52275     -20.208349      739.3144     
   3192000   285.6255       0.011271465    5.0229307      708.64473     -18.924049      689.72069    
   3193000   314.76389      0.011271465    4.4806099      780.93789     -20.707795      760.2301     
   3194000   310.24226      0.011271465    7.0283297      769.7196      -22.973018      746.74658    
   3195000   300.40153      0.011271465    8.7867085      745.30447     -20.544792      724.75967    
   3196000   286.36908      0.011271465    7.516684       710.48958     -21.36679       689.12279    
   3197000   309.33341      0.011271465    2.1232282      767.46471     -20.186521      747.27819    
   3198000   306.62644      0.011271465    10.794465      760.74865     -25.088066      735.66059    
   3199000   295.21554      0.011271465    6.702506       732.43789     -27.255969      705.18192    
   3200000   293.74767      0.011271465    5.8873334      728.79607     -23.690576      705.10549    
   3201000   314.32016      0.011271465    4.3197705      779.83699     -21.2747        758.56229    
   3202000   311.96318      0.011271465    6.1930755      773.98925     -15.900587      758.08866    
   3203000   308.42978      0.011271465    6.5095418      765.22279     -16.173286      749.0495     
   3204000   293.57488      0.011271465    6.4092339      728.36736     -16.224487      712.14287    
   3205000   293.71904      0.011271465    6.9087435      728.72502     -16.456928      712.26809    
   3206000   302.13929      0.011271465    5.5355746      749.61591     -18.692567      730.92334    
   3207000   308.78183      0.011271465    6.8744408      766.09624     -20.018933      746.07731    
   3208000   301.14289      0.011271465    6.6616038      747.14382     -20.74799       726.39583    
   3209000   299.9261       0.011271465    5.9259003      744.12493     -20.736982      723.38795    
   3210000   304.81977      0.011271465    4.8013557      756.26625     -21.419012      734.84724    
   3211000   311.05195      0.011271465    6.0878706      771.72847     -19.299584      752.42889    
   3212000   290.94828      0.011271465    6.2781954      721.8507      -17.62861       704.22209    
   3213000   291.52294      0.011271465    6.5320575      723.27646     -19.281175      703.99529    
   3214000   299.72995      0.011271465    6.3870698      743.63826     -18.801706      724.83655    
   3215000   293.96788      0.011271465    6.3339255      729.3424      -20.599043      708.74336    
   3216000   302.52175      0.011271465    6.5319785      750.5648      -21.947922      728.61688    
   3217000   298.2821       0.011271465    6.3720653      740.04612     -22.329472      717.71664    
   3218000   292.52312      0.011271465    5.792607       725.75792     -24.223817      701.53411    
   3219000   290.22577      0.011271465    4.0641407      720.05815     -21.366793      698.69135    
   3220000   305.45432      0.011271465    6.1686175      757.84058     -20.222043      737.61854    
   3221000   304.13836      0.011271465    8.5846236      754.57565     -15.313118      739.26253    
   3222000   295.63336      0.011271465    6.2835032      733.47451     -16.408229      717.06628    
   3223000   300.34654      0.011271465    4.4789838      745.16805     -16.559097      728.60896    
   3224000   295.22889      0.011271465    6.4044112      732.47102     -16.188187      716.28283    
   3225000   284.6714       0.011271465    6.0790016      706.27758     -16.983648      689.29394    
   3226000   287.81547      0.011271465    5.691201       714.07812     -20.19523       693.88289    
   3227000   288.16222      0.011271465    5.6728856      714.93841     -23.723411      691.215      
   3228000   297.81698      0.011271465    5.7062796      738.89213     -24.683456      714.20867    
   3229000   291.48653      0.011271465    3.6661787      723.18611     -22.812088      700.37402    
   3230000   298.92759      0.011271465    6.300684       741.64759     -22.676431      718.97116    
   3231000   300.5166       0.011271465    6.9887031      745.58996     -27.662254      717.92771    
   3232000   293.70858      0.011271465    5.3064701      728.69908     -25.182131      703.51695    
   3233000   308.42713      0.011271465    5.5711355      765.21622     -23.762409      741.45381    
   3234000   305.8403       0.011271465    6.9412658      758.79822     -19.131313      739.6669     
   3235000   295.44791      0.011271465    7.6514145      733.0144      -20.201823      712.81258    
   3236000   303.75465      0.011271465    7.5308198      753.62366     -21.005481      732.61818    
   3237000   300.14825      0.011271465    4.7292151      744.67608     -18.691351      725.98473    
   3238000   292.94162      0.011271465    4.2868922      726.79622     -22.334648      704.46158    
   3239000   293.27387      0.011271465    7.194063       727.62055     -17.908731      709.71182    
   3240000   298.76273      0.011271465    7.4914617      741.23856     -18.733626      722.50494    
   3241000   312.85757      0.011271465    3.2492585      776.20825     -16.603273      759.60498    
   3242000   297.4823       0.011271465    4.6143896      738.06178     -14.095714      723.96606    
   3243000   301.33357      0.011271465    10.456683      747.6169      -14.630624      732.98628    
   3244000   303.93269      0.011271465    10.410149      754.06539     -17.212284      736.85311    
   3245000   305.93802      0.011271465    2.6477237      759.04067     -16.493058      742.54761    
   3246000   294.41721      0.011271465    8.5367574      730.45721     -16.140171      714.31704    
   3247000   313.32195      0.011271465    10.779678      777.3604      -16.411879      760.94852    
   3248000   302.80523      0.011271465    0.16183467     751.26812     -15.039788      736.22833    
   3249000   289.81444      0.011271465    4.6643114      719.0376      -17.200384      701.83722    
   3250000   306.70067      0.011271465    10.611612      760.93283     -15.830927      745.1019     
   3251000   304.55066      0.011271465    5.3276044      755.59857     -22.789548      732.80902    
   3252000   292.0412       0.011271465    2.5322506      724.56228     -19.013698      705.54858    
   3253000   290.44008      0.011271465    6.6211163      720.58985     -18.636551      701.9533     
   3254000   301.06937      0.011271465    6.6757127      746.96142     -23.525634      723.43578    
   3255000   309.84465      0.011271465    4.3474644      768.73311     -19.677307      749.05581    
   3256000   306.11019      0.011271465    4.6616411      759.46781     -23.626711      735.8411     
   3257000   298.82274      0.011271465    6.4025663      741.38745     -18.128684      723.25877    
   3258000   299.99326      0.011271465    9.9385401      744.29155     -19.027808      725.26374    
   3259000   309.39367      0.011271465    6.5056875      767.61422     -18.123321      749.4909     
   3260000   299.7834       0.011271465    0.25139705     743.77089     -16.778342      726.99255    
   3261000   291.38682      0.011271465    1.1405005      722.93872     -19.510083      703.42864    
   3262000   298.54928      0.011271465    9.0965691      740.70899     -18.758773      721.95022    
   3263000   302.13557      0.011271465    12.171267      749.60668     -19.969769      729.63691    
   3264000   309.58439      0.011271465    6.9595999      768.08741     -20.187547      747.89987    
   3265000   299.00859      0.011271465    1.1244839      741.84855     -23.1383        718.71025    
   3266000   286.50694      0.011271465    10.839539      710.83162     -22.635865      688.19575    
   3267000   314.05015      0.011271465    8.4351013      779.16708     -25.720565      753.44651    
   3268000   308.95839      0.011271465    0.10838292     766.53428     -24.354679      742.1796     
   3269000   293.51678      0.011271465    1.4995901      728.22322     -23.471186      704.75203    
   3270000   295.94834      0.011271465    13.897387      734.25599     -25.213043      709.04294    
   3271000   309.81544      0.011271465    7.5284626      768.66066     -24.602455      744.0582     
   3272000   292.71188      0.011271465   -4.292042       726.22624     -20.351457      705.87478    
   3273000   288.00546      0.011271465    9.7616785      714.54949     -23.40609       691.1434     
   3274000   298.81533      0.011271465    13.493811      741.36906     -22.615716      718.75335    
   3275000   310.38634      0.011271465    5.2918837      770.07707     -25.023352      745.05372    
   3276000   301.30254      0.011271465   -0.16702417     747.53991     -21.903042      725.63687    
   3277000   290.7247       0.011271465    7.1983754      721.296       -21.520506      699.77549    
   3278000   299.59212      0.011271465    8.9525999      743.29632     -19.630016      723.6663     
   3279000   302.9045       0.011271465    2.699343       751.51441     -22.18087       729.33354    
   3280000   294.64108      0.011271465    9.1191965      731.01265     -21.686507      709.32614    
   3281000   295.4733       0.011271465    11.642519      733.07741     -19.150448      713.92696    
   3282000   310.64069      0.011271465    5.6925647      770.70811     -21.392412      749.3157     
   3283000   307.70707      0.011271465    4.9346247      763.42973     -16.71816       746.71157    
   3284000   292.7795       0.011271465    5.6693012      726.394       -18.574575      707.81943    
   3285000   305.42519      0.011271465    11.593688      757.76832     -15.361576      742.40675    
   3286000   297.73087      0.011271465    2.8541118      738.67849     -13.09          725.58849    
   3287000   294.8757       0.011271465    7.5829564      731.59475     -13.39782       718.19693    
   3288000   305.11182      0.011271465    10.188307      756.99083     -14.420949      742.56988    
   3289000   293.62344      0.011271465   -1.6541811      728.48786     -17.313338      711.17452    
   3290000   296.50642      0.011271465    6.0245645      735.6406      -19.063879      716.57673    
   3291000   304.67715      0.011271465    10.909172      755.9124      -19.081742      736.83066    
   3292000   306.27722      0.011271465    4.6901692      759.88222     -21.690278      738.19194    
   3293000   301.83164      0.011271465    4.9201201      748.85262     -22.090193      726.76243    
   3294000   315.11292      0.011271465    5.0525794      781.80385     -23.018338      758.78551    
   3295000   298.48846      0.011271465    9.0475343      740.55809     -23.99709       716.561      
   3296000   318.60326      0.011271465    7.0330581      790.46347     -22.860459      767.60302    
   3297000   285.50643      0.011271465    4.9899186      708.34933     -24.88449       683.46484    
   3298000   303.67489      0.011271465    11.845833      753.42577     -23.036014      730.38975    
   3299000   302.57842      0.011271465    4.7022036      750.70539     -19.41796       731.28743    
   3300000   274.44474      0.011271465    2.9188163      680.90497     -19.647058      661.25791    
   3301000   301.02868      0.011271465    8.3148069      746.86046     -22.630293      724.23017    
   3302000   315.33337      0.011271465    8.165502       782.35077     -22.986918      759.36385    
   3303000   299.26244      0.011271465    4.2699862      742.47836     -22.645571      719.83279    
   3304000   282.32836      0.011271465    5.6747705      700.46446     -22.764         677.70046    
   3305000   295.60762      0.011271465    10.165647      733.41066     -23.058225      710.35243    
   3306000   302.97503      0.011271465    8.2632577      751.68941     -21.325322      730.36409    
   3307000   310.02064      0.011271465    2.4444746      769.16975     -20.850451      748.3193     
   3308000   298.69556      0.011271465   -1.6615551      741.07192     -21.636588      719.43533    
   3309000   288.91024      0.011271465    5.6501064      716.79427     -20.894758      695.89951    
   3310000   302.5574       0.011271465    11.043564      750.65325     -20.203098      730.45015    
   3311000   325.14282      0.011271465    6.4318576      806.6883      -19.25025       787.43805    
   3312000   295.24399      0.011271465    3.9226959      732.50847     -21.833496      710.67498    
   3313000   293.84468      0.011271465    8.4501436      729.03674     -21.224935      707.8118     
   3314000   306.95149      0.011271465    5.119344       761.55511     -18.179421      743.37568    
   3315000   301.49162      0.011271465    6.4662637      748.00901     -17.553791      730.45522    
   3316000   295.54395      0.011271465    7.2560017      733.25268     -22.104212      711.14847    
   3317000   308.18744      0.011271465    5.1539327      764.62153     -24.253173      740.36836    
   3318000   306.61318      0.011271465    1.9064787      760.71576     -17.910593      742.80516    
   3319000   288.83645      0.011271465    6.3204925      716.61118     -18.623932      697.98725    
   3320000   300.15902      0.011271465    8.5815088      744.70281     -15.458427      729.24438    
   3321000   319.12202      0.011271465    8.8070753      791.75052     -12.896231      778.85428    
   3322000   291.86692      0.011271465    5.2001669      724.12986     -12.779089      711.35077    
   3323000   288.77172      0.011271465    4.3866582      716.4506      -14.219828      702.23077    
   3324000   313.84139      0.011271465    6.8656402      778.64914     -13.392417      765.25673    
   3325000   316.13238      0.011271465    8.1416057      784.33315     -13.33168       771.00147    
   3326000   296.91358      0.011271465    6.3303324      736.65078     -9.7370031      726.91377    
   3327000   293.3399       0.011271465    5.7758695      727.78438     -16.727034      711.05734    
   3328000   307.99146      0.011271465    8.7295731      764.1353      -17.00826       747.12704    
   3329000   298.13157      0.011271465    2.9440768      739.67265     -15.32244       724.35021    
   3330000   291.19106      0.011271465    5.5372018      722.45306     -19.431668      703.02139    
   3331000   292.79361      0.011271465    7.1437955      726.42902     -17.816612      708.61241    
   3332000   310.40726      0.011271465    9.3060694      770.12896     -14.826701      755.30226    
   3333000   303.31124      0.011271465    5.5051252      752.52355     -19.386355      733.13719    
   3334000   291.9447       0.011271465    5.5304832      724.32284     -17.839113      706.48373    
   3335000   295.1623       0.011271465    7.8170634      732.30581     -22.262356      710.04345    
   3336000   308.76456      0.011271465    6.1869301      766.05337     -22.494727      743.55865    
   3337000   300.56016      0.011271465    7.0211432      745.69805     -21.308556      724.38949    
   3338000   285.23075      0.011271465    5.147986       707.66535     -23.153445      684.5119     
   3339000   311.95143      0.011271465    6.4397958      773.9601      -17.17072       756.78938    
   3340000   309.36543      0.011271465    7.0275752      767.54417     -19.712716      747.83145    
   3341000   285.23265      0.011271465    6.0500918      707.67006     -17.328944      690.34112    
   3342000   305.17575      0.011271465    4.8206652      757.14944     -16.072904      741.07654    
   3343000   313.02091      0.011271465    6.4373278      776.61351     -22.302005      754.31151    
   3344000   307.77745      0.011271465    6.3460376      763.60434     -18.863998      744.74034    
   3345000   296.65366      0.011271465    5.4228835      736.00591     -16.839398      719.16651    
   3346000   296.32014      0.011271465    8.2466411      735.17844     -18.33921       716.83923    
   3347000   301.47866      0.011271465    9.4292979      747.97686     -16.946723      731.03014    
   3348000   313.98588      0.011271465    5.6243489      779.00761     -17.505354      761.50226    
   3349000   294.87861      0.011271465    3.9491236      731.60196     -17.712542      713.88942    
   3350000   311.32641      0.011271465    9.0476432      772.4094      -17.270581      755.13882    
   3351000   305.51126      0.011271465    3.9954099      757.98185     -19.499008      738.48284    
   3352000   288.94538      0.011271465    4.909448       716.88144     -22.975709      693.90573    
   3353000   286.74607      0.011271465    5.3157709      711.4249      -22.134468      689.29043    
   3354000   293.59106      0.011271465    6.4204113      728.40751     -22.14888       706.25863    
   3355000   307.96888      0.011271465    6.1536079      764.07928     -24.916848      739.16243    
   3356000   292.10432      0.011271465    5.8238626      724.71886     -24.378037      700.34082    
   3357000   286.41449      0.011271465    6.2068819      710.60224     -23.394196      687.20804    
   3358000   300.11103      0.011271465    5.7200015      744.58374     -23.317883      721.26586    
   3359000   323.3446       0.011271465    6.7887822      802.22686     -22.419069      779.80779    
   3360000   301.70034      0.011271465    5.2770144      748.52686     -21.231044      727.29582    
   3361000   284.49964      0.011271465    5.0363657      705.85144     -22.367466      683.48397    
   3362000   300.89556      0.011271465    6.1549276      746.53018     -22.47014       724.06004    
   3363000   311.2145       0.011271465    3.6714132      772.13174     -19.990648      752.1411     
   3364000   304.81916      0.011271465    6.3998451      756.26475     -18.533347      737.7314     
   3365000   279.52957      0.011271465    5.3630227      693.52056     -18.84538       674.67518    
   3366000   298.02817      0.011271465    6.8962569      739.4161      -21.909544      717.50656    
   3367000   309.64554      0.011271465    6.1270385      768.23912     -20.10806       748.13106    
   3368000   297.75489      0.011271465    5.5277756      738.73809     -18.618894      720.1192     
   3369000   305.26261      0.011271465    5.6319789      757.36496     -19.639851      737.72511    
   3370000   299.49622      0.011271465    6.8805389      743.05837     -17.360904      725.69746    
   3371000   288.2093       0.011271465    12.093888      715.05522     -16.973363      698.08186    
   3372000   298.32181      0.011271465    4.550045       740.14464     -21.357683      718.78696    
   3373000   301.91755      0.011271465    6.5209282      749.06576     -21.084112      727.98165    
   3374000   290.3653       0.011271465    6.6904204      720.40432     -19.893354      700.51097    
   3375000   304.74519      0.011271465    3.8369654      756.08122     -19.73882       736.3424     
   3376000   314.74393      0.011271465    5.1939657      780.88837     -16.293693      764.59467    
   3377000   297.35245      0.011271465    8.674106       737.73962     -19.539477      718.20014    
   3378000   282.67535      0.011271465    8.4771631      701.32534     -19.382353      681.94299    
   3379000   295.33962      0.011271465    5.9261967      732.74574     -15.641726      717.10402    
   3380000   305.30637      0.011271465    5.4957858      757.47351     -18.415866      739.05764    
   3381000   292.36423      0.011271465    9.6622236      725.36372     -15.849753      709.51397    
   3382000   292.93249      0.011271465    4.6867918      726.77359     -16.453563      710.32002    
   3383000   315.96556      0.011271465    4.7588929      783.91927     -14.951839      768.96743    
   3384000   310.55477      0.011271465    9.0280712      770.49496     -15.574375      754.92058    
   3385000   290.85437      0.011271465    7.8234144      721.61771     -14.891713      706.726      
   3386000   289.36534      0.011271465    3.7416334      717.92338     -16.749294      701.17409    
   3387000   307.80409      0.011271465    5.4339266      763.67042     -15.07677       748.59365    
   3388000   308.40858      0.011271465    8.0589197      765.17019     -14.308437      750.86175    
   3389000   307.79379      0.011271465    7.3351487      763.64488     -15.168828      748.47605    
   3390000   288.88212      0.011271465    6.0494105      716.72449     -16.569576      700.15492    
   3391000   295.98539      0.011271465   -1.1838876      734.34792     -15.843674      718.50424    
   3392000   309.79634      0.011271465    7.0036345      768.61326     -14.694554      753.91871    
   3393000   303.14242      0.011271465    8.3918754      752.10471     -15.163527      736.94118    
   3394000   300.37279      0.011271465    6.1375691      745.23317     -17.221461      728.01171    
   3395000   287.29755      0.011271465    5.6843805      712.79314     -15.050616      697.74253    
   3396000   306.97372      0.011271465    6.0922881      761.61026     -19.171177      742.43908    
   3397000   312.71437      0.011271465    7.4027039      775.85297     -18.183954      757.66901    
   3398000   284.62656      0.011271465    7.7170021      706.16635     -20.391186      685.77516    
   3399000   280.51004      0.011271465    7.5391946      695.95315     -16.923674      679.02947    
   3400000   296.85975      0.011271465    4.9836993      736.51722     -14.691612      721.82561    
   3401000   312.4832       0.011271465    4.0243896      775.27943     -11.776419      763.50301    
   3402000   315.82178      0.011271465    9.3732999      783.56253     -12.833736      770.72879    
   3403000   288.30378      0.011271465    7.9881878      715.28962     -15.844587      699.44503    
   3404000   285.51522      0.011271465    5.3370828      708.37113     -14.300639      694.07049    
   3405000   305.50373      0.011271465    5.3015465      757.96318     -16.653075      741.3101     
   3406000   307.70573      0.011271465    5.8862403      763.42641     -19.800346      743.62606    
   3407000   301.74978      0.011271465    6.9206093      748.64952     -20.789056      727.86047    
   3408000   298.20436      0.011271465    5.9647318      739.85324     -21.494107      718.35913    
   3409000   304.30704      0.011271465    5.8891545      754.99415     -22.526033      732.46811    
   3410000   296.50401      0.011271465    5.6611071      735.63463     -21.553585      714.08105    
   3411000   307.40392      0.011271465    6.1910494      762.67759     -20.534656      742.14294    
   3412000   296.9015       0.011271465    6.0722723      736.62079     -19.044849      717.57594    
   3413000   287.53921      0.011271465    7.4805963      713.3927      -17.657744      695.73496    
   3414000   303.51713      0.011271465    7.9704517      753.03435     -17.921157      735.1132     
   3415000   305.7522       0.011271465    6.0156906      758.57963     -20.038033      738.5416     
   3416000   290.83785      0.011271465    5.2819404      721.57671     -20.773067      700.80365    
   3417000   293.41306      0.011271465    7.9034339      727.96588     -20.549958      707.41593    
   3418000   310.63742      0.011271465    6.3763755      770.70001     -22.872458      747.82755    
   3419000   305.78002      0.011271465    7.6285165      758.64865     -17.57355       741.0751     
   3420000   295.52406      0.011271465    6.7744733      733.20334     -19.918414      713.28493    
   3421000   294.84269      0.011271465    6.1161044      731.51285     -18.772905      712.73994    
   3422000   302.01387      0.011271465    6.6070221      749.30473     -19.92726       729.37747    
   3423000   306.69529      0.011271465    6.1028516      760.91947     -18.663825      742.25565    
   3424000   301.96468      0.011271465    7.4825555      749.18269     -16.853759      732.32893    
   3425000   287.73522      0.011271465    5.9536032      713.87902     -17.854024      696.02499    
   3426000   291.43309      0.011271465    8.6995564      723.05352     -18.855765      704.19776    
   3427000   312.75528      0.011271465    5.5172894      775.95446     -25.36513       750.58933    
   3428000   287.1485       0.011271465    5.3964612      712.42335     -18.117306      694.30604    
   3429000   286.84021      0.011271465    5.9929438      711.65847     -19.862745      691.79572    
   3430000   298.15829      0.011271465    5.5853675      739.73894     -20.081473      719.65747    
   3431000   310.51353      0.011271465    6.0135281      770.39264     -18.601006      751.79163    
   3432000   303.06375      0.011271465    10.035692      751.90953     -20.41638       731.49315    
   3433000   296.2406       0.011271465    6.7362287      734.98111     -19.442909      715.5382     
   3434000   307.22637      0.011271465    2.9476811      762.2371      -18.171329      744.06577    
   3435000   305.14783      0.011271465    7.4820968      757.08018     -17.382735      739.69744    
   3436000   287.83714      0.011271465    6.4178087      714.13188     -18.221191      695.91069    
   3437000   291.94996      0.011271465    5.8501563      724.3359      -19.624482      704.71142    
   3438000   302.49408      0.011271465    6.0779522      750.49614     -18.213206      732.28294    
   3439000   312.41945      0.011271465    6.7519737      775.12128     -24.369261      750.75202    
   3440000   292.87595      0.011271465    6.8584918      726.6333      -19.23084       707.40246    
   3441000   301.70194      0.011271465    5.9169453      748.53083     -19.877179      728.65365    
   3442000   300.15549      0.011271465    5.7147279      744.69404     -20.763291      723.93075    
   3443000   301.0784       0.011271465    6.3990809      746.9838      -18.962534      728.02127    
   3444000   292.68197      0.011271465    6.8092528      726.15203     -16.026343      710.12569    
   3445000   298.29352      0.011271465    5.9079881      740.07444     -14.198528      725.87592    
   3446000   297.79828      0.011271465    5.3084947      738.84575     -14.895846      723.9499     
   3447000   307.52198      0.011271465    4.943839       762.97052     -15.981697      746.98882    
   3448000   305.67252      0.011271465    7.9649742      758.38195     -15.741527      742.64043    
   3449000   296.23311      0.011271465    3.4168171      734.96251     -13.828262      721.13425    
   3450000   293.85514      0.011271465    2.8530607      729.06271     -18.033637      711.02908    
   3451000   303.95079      0.011271465    6.6152615      754.11029     -17.271303      736.83899    
   3452000   293.38795      0.011271465    12.222922      727.90359     -15.490759      712.41283    
   3453000   295.77339      0.011271465    4.0860595      733.82193     -14.531286      719.29065    
   3454000   308.17231      0.011271465    9.0986514      764.58399     -14.944858      749.63913    
   3455000   308.19722      0.011271465    6.6807952      764.64579     -17.725837      746.91996    
   3456000   301.19232      0.011271465    4.7628152      747.26645     -18.316567      728.94988    
   3457000   300.62459      0.011271465    2.4712707      745.8579      -20.85495       725.00295    
   3458000   304.16249      0.011271465    9.388905       754.63552     -17.727455      736.90806    
   3459000   303.66345      0.011271465    9.2049527      753.39739     -20.398009      732.99938    
   3460000   283.02423      0.011271465    3.913915       702.19091     -18.227974      683.96294    
   3461000   298.43398      0.011271465    4.9970145      740.42293     -19.626597      720.79634    
   3462000   305.7771       0.011271465    6.6701618      758.64141     -20.262955      738.37845    
   3463000   287.56555      0.011271465    6.1835711      713.45805     -17.491785      695.96626    
   3464000   304.1021       0.011271465    6.241749       754.48569     -18.981895      735.50379    
   3465000   295.85957      0.011271465    6.7693655      734.03574     -20.690401      713.34534    
   3466000   291.94051      0.011271465    6.2627394      724.31245     -19.048395      705.26406    
   3467000   297.97125      0.011271465    5.7582722      739.27489     -22.914568      716.36032    
   3468000   288.81754      0.011271465    7.0783851      716.56427     -23.205595      693.35868    
   3469000   314.58657      0.011271465    7.5626735      780.49795     -23.23795       757.26       
   3470000   299.05982      0.011271465    7.119694       741.97565     -24.051441      717.92421    
   3471000   296.44381      0.011271465    4.7555181      735.48527     -21.872674      713.61259    
   3472000   294.5385       0.011271465    4.8209671      730.75815     -19.313412      711.44474    
   3473000   304.76388      0.011271465    6.5917451      756.12758     -21.394921      734.73266    
   3474000   306.74584      0.011271465    3.4978008      761.04488     -22.181124      738.86376    
   3475000   300.22667      0.011271465    3.7567142      744.87066     -22.595344      722.27531    
   3476000   301.5236       0.011271465    5.595912       748.08835     -21.042438      727.04592    
   3477000   295.21563      0.011271465    9.4735028      732.4381      -22.108637      710.32947    
   3478000   303.68096      0.011271465    5.6001945      753.44083     -25.124898      728.31593    
   3479000   296.09643      0.011271465    3.5787436      734.62342     -22.839249      711.78417    
   3480000   291.17741      0.011271465    4.3962685      722.41919     -20.112334      702.30686    
   3481000   303.28617      0.011271465    8.6954422      752.46134     -20.755595      731.70574    
   3482000   304.27779      0.011271465    6.1323409      754.92159     -16.479881      738.44171    
   3483000   298.19799      0.011271465    2.881736       739.83744     -22.391945      717.4455     
   3484000   292.0534       0.011271465    6.6591796      724.59253     -18.65415       705.93838    
   3485000   305.76814      0.011271465    14.172148      758.61918     -21.841431      736.77775    
   3486000   303.50893      0.011271465    12.040842      753.01403     -20.384475      732.62955    
   3487000   302.3962       0.011271465    2.2987366      750.2533      -14.873288      735.38001    
   3488000   301.65388      0.011271465    5.428401       748.41159     -15.065594      733.346      
   3489000   299.91876      0.011271465    8.8188288      744.10671     -15.600101      728.50661    
   3490000   312.62292      0.011271465    16.209725      775.62608     -18.53917       757.08691    
   3491000   300.60225      0.011271465   -0.88853571     745.80247     -18.9139        726.88857    
   3492000   300.73746      0.011271465    10.852252      746.13793     -18.404196      727.73374    
   3493000   312.46782      0.011271465    9.4432223      775.24128     -17.072752      758.16853    
   3494000   292.2214       0.011271465    1.6515183      725.00934     -19.719535      705.2898     
   3495000   296.03068      0.011271465    4.9517068      734.46029     -18.908839      715.55145    
   3496000   303.3208       0.011271465    7.392758       752.54726     -18.55832       733.98894    
   3497000   311.5036       0.011271465    5.6575828      772.84902     -21.297383      751.55163    
   3498000   292.4568       0.011271465    4.7289668      725.59338     -20.608558      704.98482    
   3499000   301.27701      0.011271465    8.0990418      747.47657     -15.827759      731.64881    
   3500000   306.76317      0.011271465    8.701298       761.08787     -16.725802      744.36207    
   3501000   310.28691      0.011271465   -5.6090963      769.83037     -17.962465      751.8679     
   3502000   292.45126      0.011271465    6.7383133      725.57965     -19.794395      705.78525    
   3503000   293.35234      0.011271465    13.276968      727.81525     -18.360048      709.4552     
   3504000   307.3439       0.011271465    6.4965713      762.52868     -18.215448      744.31323    
   3505000   316.61846      0.011271465    5.6202042      785.53912     -20.897124      764.64199    
   3506000   310.75103      0.011271465    0.61797968     770.98186     -22.10318       748.87868    
   3507000   289.39229      0.011271465    12.358759      717.99025     -20.012618      697.97763    
   3508000   299.35795      0.011271465    9.0386616      742.71533     -15.64506       727.07027    
   3509000   301.84418      0.011271465    8.1003376      748.88373     -22.445719      726.43801    
   3510000   305.25383      0.011271465   -1.3988519      757.34317     -23.719619      733.62355    
   3511000   296.64303      0.011271465    9.6408847      735.97955     -22.02138       713.95817    
   3512000   286.56119      0.011271465    9.0751295      710.96621     -18.748048      692.21816    
   3513000   302.22312      0.011271465    8.3222136      749.82389     -23.111914      726.71198    
   3514000   299.09207      0.011271465    6.0924522      742.05566     -20.388679      721.66698    
   3515000   301.90118      0.011271465    4.571993       749.02514     -22.077585      726.94756    
   3516000   301.9286       0.011271465    5.5304964      749.09318     -22.893462      726.19972    
   3517000   288.81346      0.011271465    5.7802553      716.55415     -20.447251      696.1069     
   3518000   295.90782      0.011271465    5.8104317      734.15546     -20.766585      713.38888    
   3519000   323.46106      0.011271465    5.8228627      802.51582     -23.273752      779.24207    
   3520000   303.81265      0.011271465    7.4727267      753.76757     -24.525207      729.24236    
   3521000   293.65342      0.011271465    9.7496653      728.56223     -22.331929      706.2303     
   3522000   303.38121      0.011271465    5.399962       752.69716     -23.459697      729.23746    
   3523000   324.2958       0.011271465    6.4926869      804.58683     -24.460817      780.12601    
   3524000   299.15153      0.011271465    6.4716091      742.20318     -22.931623      719.27156    
   3525000   293.74888      0.011271465    6.2040411      728.79906     -24.915739      703.88332    
   3526000   295.85018      0.011271465    6.3642825      734.01244     -26.592032      707.42041    
   3527000   314.22609      0.011271465    6.810619       779.60359     -25.744027      753.85956    
   3528000   312.47793      0.011271465    5.9701482      775.26637     -27.29683       747.96954    
   3529000   287.40567      0.011271465    5.0467383      713.06139     -25.502741      687.55865    
   3530000   302.14885      0.011271465    12.334229      749.63963     -21.679165      727.96046    
   3531000   315.72757      0.011271465    8.9505022      783.32881     -25.071795      758.25702    
   3532000   306.95194      0.011271465    3.8625519      761.55623     -21.707727      739.8485     
   3533000   300.0627       0.011271465    6.3319422      744.46382     -20.551634      723.91219    
   3534000   291.72155      0.011271465    8.4301341      723.76922     -18.699424      705.06979    
   3535000   308.96773      0.011271465    9.6644405      766.55747     -18.931529      747.62594    
   3536000   303.39993      0.011271465    4.5720166      752.74358     -16.886822      735.85676    
   3537000   294.29541      0.011271465    4.5426414      730.15503     -16.192886      713.96215    
   3538000   298.19309      0.011271465    7.204262       739.82528     -14.98809       724.83719    
   3539000   301.16738      0.011271465    6.7410849      747.20456     -19.518058      727.68651    
   3540000   297.86413      0.011271465    4.7808502      739.00912     -16.346076      722.66304    
   3541000   304.68018      0.011271465    7.4241267      755.91992     -13.629267      742.29065    
   3542000   308.67029      0.011271465    6.3504638      765.81949     -17.857804      747.96168    
   3543000   284.49748      0.011271465    7.0791287      705.8461      -19.500546      686.34555    
   3544000   282.0317       0.011271465    5.8586132      699.72842     -16.445762      683.28266    
   3545000   294.20079      0.011271465    5.8375811      729.92026     -20.706519      709.21374    
   3546000   298.01224      0.011271465    9.3774614      739.37657     -21.533748      717.84282    
   3547000   308.47741      0.011271465    6.9197529      765.34096     -23.726956      741.614      
   3548000   306.89711      0.011271465    10.445385      761.42019     -21.396692      740.0235     
   3549000   290.08514      0.011271465    6.8327981      719.70922     -19.325392      700.38383    
   3550000   291.48236      0.011271465    0.72039943     723.17578     -22.256806      700.91897    
   3551000   315.83363      0.011271465    8.2370187      783.59194     -21.29212       762.29982    
   3552000   286.28829      0.011271465    8.5981469      710.28914     -20.643978      689.64516    
   3553000   290.58394      0.011271465    4.6719171      720.94678     -22.605441      698.34133    
   3554000   302.24936      0.011271465   -0.30917651     749.88899     -23.022385      726.8666     
   3555000   301.17933      0.011271465    5.6406939      747.23422     -24.669333      722.56489    
   3556000   296.48861      0.011271465    11.626779      735.59642     -21.485501      714.11092    
   3557000   293.10042      0.011271465    3.1654         727.19021     -16.533036      710.65717    
   3558000   316.6487       0.011271465   -0.027128882    785.61414     -18.1273        767.48684    
   3559000   300.30806      0.011271465    9.0308748      745.07258     -18.674572      726.398      
   3560000   288.30954      0.011271465    4.8332158      715.30391     -16.367749      698.93616    
   3561000   298.20308      0.011271465   -0.35604745     739.85006     -16.215972      723.63409    
   3562000   311.90983      0.011271465    0.046115937    773.85688     -16.604219      757.25266    
   3563000   301.35836      0.011271465    9.3762895      747.67841     -18.19502       729.48339    
   3564000   272.36822      0.011271465    6.6182192      675.75306     -20.055412      655.69765    
   3565000   296.63612      0.011271465    1.3615029      735.96238     -18.203807      717.75857    
   3566000   312.67041      0.011271465    7.7311224      775.74391     -21.188516      754.55539    
   3567000   286.60618      0.011271465    8.5585887      711.07783     -25.096141      685.98169    
   3568000   290.23234      0.011271465    4.3246267      720.07443     -22.957242      697.11719    
   3569000   313.94745      0.011271465    5.349581       778.91227     -20.272041      758.64023    
   3570000   313.33449      0.011271465    7.5386607      777.39152     -17.612233      759.77928    
   3571000   299.17525      0.011271465    7.5032515      742.26205     -17.640683      724.62136    
   3572000   286.42326      0.011271465    4.0701101      710.62401     -16.367081      694.25693    
   3573000   297.75782      0.011271465    3.1320332      738.74535     -15.717502      723.02785    
   3574000   311.89951      0.011271465    6.1343502      773.83129     -16.769295      757.06199    
   3575000   296.38577      0.011271465    6.6941709      735.34126     -14.241581      721.09968    
   3576000   276.58578      0.011271465    6.4293169      686.21695     -17.233183      668.98376    
   3577000   311.12082      0.011271465    5.9104575      771.89932     -17.193771      754.70555    
   3578000   312.34237      0.011271465    5.3699538      774.93003     -17.403955      757.52608    
   3579000   285.58855      0.011271465    4.4972774      708.55307     -19.440852      689.11221    
   3580000   289.57389      0.011271465    6.9588176      718.4408      -16.075013      702.36578    
   3581000   301.36052      0.011271465    6.4089391      747.68375     -19.186555      728.4972     
   3582000   304.7864       0.011271465    5.3535409      756.18346     -13.409871      742.77359    
   3583000   312.51756      0.011271465    8.9226875      775.36468     -17.304741      758.05994    
   3584000   296.03566      0.011271465    4.5942014      734.47263     -18.88125       715.59138    
   3585000   303.85906      0.011271465    7.0302518      753.8827      -17.557476      736.32522    
   3586000   286.85258      0.011271465    7.1970051      711.68916     -18.525113      693.16405    
   3587000   292.91674      0.011271465    5.0560332      726.73452     -17.723406      709.01111    
   3588000   308.13522      0.011271465    5.9816842      764.49197     -12.324522      752.16745    
   3589000   294.93187      0.011271465    5.9323051      731.73411     -19.044345      712.68976    
   3590000   294.69266      0.011271465    7.9318306      731.14061     -23.427625      707.71298    
   3591000   307.82196      0.011271465    5.4172056      763.71477     -21.608816      742.10595    
   3592000   314.71192      0.011271465    6.2029201      780.80894     -22.947936      757.861      
   3593000   303.71892      0.011271465    11.093333      753.535       -21.68738       731.84762    
   3594000   289.40381      0.011271465    6.1968598      718.01883     -24.543095      693.47573    
   3595000   302.98073      0.011271465    3.9822545      751.70355     -25.548132      726.15542    
   3596000   308.83464      0.011271465    5.0928126      766.22726     -21.663968      744.56329    
   3597000   296.75502      0.011271465    6.2436996      736.25739     -18.246423      718.01096    
   3598000   286.13407      0.011271465    6.9833754      709.90652     -16.578864      693.32766    
   3599000   302.59106      0.011271465    4.7495594      750.73675     -15.840892      734.89586    
   3600000   300.41092      0.011271465    0.24340629     745.32778     -18.081442      727.24633    
   3601000   297.80265      0.011271465    7.1453061      738.85658     -16.455272      722.40131    
   3602000   298.58492      0.011271465    7.1724223      740.79743     -18.152778      722.64465    
   3603000   308.98892      0.011271465    5.6114849      766.61003     -18.853305      747.75672    
   3604000   306.49275      0.011271465    6.4351553      760.41696     -19.086614      741.33034    
   3605000   284.95649      0.011271465    11.020253      706.9849      -19.931569      687.05333    
   3606000   284.98904      0.011271465    8.0212756      707.06568     -18.811171      688.25451    
   3607000   299.44246      0.011271465    3.2698781      742.92499     -21.892472      721.03252    
   3608000   308.95122      0.011271465    6.9369135      766.51649     -20.66258       745.85391    
   3609000   284.59141      0.011271465    9.6318128      706.07914     -17.387328      688.69182    
   3610000   301.44161      0.011271465    2.838484       747.88495     -15.324524      732.56043    
   3611000   306.77559      0.011271465    4.3608244      761.1187      -16.585593      744.53311    
   3612000   308.43415      0.011271465    14.749473      765.23363     -20.735195      744.49843    
   3613000   290.64309      0.011271465    6.9772156      721.09352     -19.704293      701.38923    
   3614000   289.33103      0.011271465    3.6979904      717.83826     -20.717652      697.12061    
   3615000   297.10897      0.011271465    5.3288752      737.13554     -14.637387      722.49815    
   3616000   283.62602      0.011271465    5.9671045      703.68397     -14.231732      689.45224    
   3617000   301.4794       0.011271465    3.5614275      747.9787      -14.831303      733.1474     
   3618000   324.48571      0.011271465    10.743426      805.05799     -15.308367      789.74963    
   3619000   307.97925      0.011271465    9.437519       764.10501     -12.079291      752.02572    
   3620000   294.47636      0.011271465    6.8315682      730.60397     -14.641433      715.96254    
   3621000   298.97005      0.011271465    4.979144       741.75294     -16.018199      725.73474    
   3622000   319.75939      0.011271465    7.4644171      793.33185     -18.439426      774.89242    
   3623000   293.28302      0.011271465    9.8021584      727.64326     -17.103933      710.53932    
   3624000   295.96433      0.011271465    5.2912993      734.29567     -14.920548      719.37512    
   3625000   309.76452      0.011271465    1.5375033      768.5343      -15.782633      752.75167    
   3626000   306.33753      0.011271465    8.0516615      760.03187     -17.238782      742.79308    
   3627000   289.65299      0.011271465    7.9658176      718.63705     -19.533939      699.10311    
   3628000   297.09753      0.011271465    4.0181593      737.10717     -24.142588      712.96458    
   3629000   315.99775      0.011271465    9.1096206      783.99913     -21.438406      762.56072    
   3630000   295.04043      0.011271465    7.3727613      732.00344     -21.84724       710.1562     
   3631000   288.37452      0.011271465    2.1817993      715.46513     -22.420554      693.04458    
   3632000   298.10832      0.011271465    4.913258       739.61497     -19.623036      719.99193    
   3633000   305.04115      0.011271465    9.350569       756.81549     -21.804879      735.01061    
   3634000   290.70606      0.011271465    3.5611359      721.24976     -22.53154       698.71822    
   3635000   300.84704      0.011271465    3.8525732      746.4098      -23.80854       722.60126    
   3636000   302.38677      0.011271465    6.2015139      750.22992     -21.66388       728.56604    
   3637000   292.68992      0.011271465    4.9865613      726.17176     -20.413697      705.75807    
   3638000   302.79166      0.011271465    6.0506662      751.23444     -20.662717      730.57173    
   3639000   306.18268      0.011271465    7.380032       759.64766     -23.348531      736.29913    
   3640000   304.92092      0.011271465    6.2764051      756.51721     -23.586831      732.93038    
   3641000   309.9775       0.011271465    6.8717247      769.06272     -21.813552      747.24916    
   3642000   298.54185      0.011271465    6.0730496      740.69057     -23.239253      717.45131    
   3643000   298.76457      0.011271465    5.813309       741.24315     -20.882279      720.36087    
   3644000   298.00881      0.011271465    6.2542827      739.36808     -19.640137      719.72794    
   3645000   303.79782      0.011271465    6.7141476      753.73076     -19.934137      733.79662    
   3646000   313.06556      0.011271465    6.9710865      776.72429     -20.185967      756.53832    
   3647000   290.67582      0.011271465    4.1525084      721.17472     -20.278264      700.89645    
   3648000   290.99525      0.011271465    6.6645515      721.96724     -23.388201      698.57904    
   3649000   290.47525      0.011271465    5.3590406      720.6771      -22.377686      698.29941    
   3650000   305.32155      0.011271465    6.6293838      757.51117     -20.068099      737.44307    
   3651000   313.11716      0.011271465    6.7477455      776.85231     -17.024628      759.82769    
   3652000   299.50103      0.011271465    5.4252572      743.07031     -19.830976      723.23934    
   3653000   300.02268      0.011271465    7.7961169      744.36453     -20.329567      724.03496    
   3654000   301.85795      0.011271465    7.2966602      748.91789     -22.1134        726.80449    
   3655000   301.79313      0.011271465    5.4867558      748.75708     -21.292637      727.46445    
   3656000   286.43974      0.011271465    5.5855002      710.66488     -19.299769      691.36511    
   3657000   305.59048      0.011271465    6.330975       758.17841     -18.887601      739.29081    
   3658000   313.26903      0.011271465    6.398105       777.2291      -21.800832      755.42827    
   3659000   292.86872      0.011271465    4.77577        726.61537     -21.351136      705.26424    
   3660000   293.12655      0.011271465    6.4481481      727.25504     -18.892669      708.36237    
   3661000   297.18781      0.011271465    10.017104      737.33114     -20.839608      716.49153    
   3662000   310.27105      0.011271465    9.2787301      769.79103     -24.111396      745.67963    
   3663000   303.02884      0.011271465    4.5133621      751.8229      -25.422524      726.40037    
   3664000   284.07124      0.011271465    2.8327487      704.78857     -24.911801      679.87677    
   3665000   301.75096      0.011271465    9.9294717      748.65244     -23.067938      725.5845     
   3666000   297.50402      0.011271465    6.5076388      738.11568     -22.345422      715.77026    
   3667000   288.43121      0.011271465    2.3179361      715.60579     -23.977825      691.62796    
   3668000   299.29397      0.011271465    11.245636      742.5566      -18.619004      723.93759    
   3669000   309.07937      0.011271465    4.1741203      766.83444     -18.991403      747.84304    
   3670000   289.20507      0.011271465    1.5789256      717.52574     -19.4735        698.05224    
   3671000   298.73071      0.011271465    6.5188701      741.15913     -18.879646      722.27948    
   3672000   302.57568      0.011271465    12.717656      750.6986      -20.450226      730.24837    
   3673000   308.37437      0.011271465    13.148652      765.08531     -22.113434      742.97187    
   3674000   297.90537      0.011271465    7.8472184      739.11144     -20.685583      718.42585    
   3675000   306.61935      0.011271465    0.93418871     760.73105     -22.704005      738.02705    
   3676000   302.45593      0.011271465   -6.1179083      750.40149     -21.140999      729.2605     
   3677000   286.74422      0.011271465    10.340792      711.42032     -21.754307      689.66601    
   3678000   297.49051      0.011271465    8.5718855      738.08216     -22.585914      715.49625    
   3679000   304.1345       0.011271465    1.7191373      754.56608     -20.179866      734.38621    
   3680000   296.12446      0.011271465    1.5493418      734.69294     -19.792352      714.90059    
   3681000   288.33573      0.011271465    13.435897      715.3689      -19.915958      695.45294    
   3682000   303.79249      0.011271465    12.602291      753.71755     -17.42355       736.294      
   3683000   311.45859      0.011271465    7.8147405      772.73736     -16.602401      756.13496    
   3684000   300.51426      0.011271465   -6.3754146      745.58416     -16.415373      729.16879    
   3685000   287.02809      0.011271465    6.2055729      712.12461     -16.39114       695.73347    
   3686000   304.4642       0.011271465    13.895363      755.38408     -18.323149      737.06093    
   3687000   300.72154      0.011271465    5.5499146      746.09843     -22.158637      723.93979    
   3688000   299.16941      0.011271465    5.3960932      742.24755     -21.05752       721.19003    
   3689000   309.38704      0.011271465    5.3447373      767.59776     -24.111466      743.4863     
   3690000   317.24399      0.011271465    8.8062896      787.09108     -22.06497       765.02611    
   3691000   307.56316      0.011271465    6.4615598      763.07267     -19.939265      743.13341    
   3692000   290.70082      0.011271465    6.4545732      721.23674     -21.983578      699.25317    
   3693000   279.99296      0.011271465    4.6281893      694.67025     -21.693657      672.9766     
   3694000   311.7514       0.011271465    6.1942644      773.46381     -23.377061      750.08675    
   3695000   309.19823      0.011271465    5.9656978      767.12933     -21.590465      745.53886    
   3696000   290.76833      0.011271465    5.6038096      721.40425     -19.941914      701.46234    
   3697000   287.97631      0.011271465    5.6245944      714.47716     -20.093964      694.38319    
   3698000   312.27824      0.011271465    5.718986       774.77091     -22.725713      752.0452     
   3699000   298.7887       0.011271465    6.7958906      741.30301     -20.888743      720.41426    
   3700000   293.86173      0.011271465    6.221032       729.07906     -23.035592      706.04347    
   3701000   294.00725      0.011271465    3.6767337      729.44008     -23.351095      706.08898    
   3702000   313.45392      0.011271465    6.4782187      777.68781     -19.43888       758.24893    
   3703000   291.45862      0.011271465    6.0584768      723.11687     -18.848578      704.26829    
   3704000   295.36859      0.011271465    6.2672978      732.81762     -19.831986      712.98564    
   3705000   309.63588      0.011271465    6.8903014      768.21515     -22.250457      745.96469    
   3706000   299.45481      0.011271465    6.4222996      742.95563     -18.707217      724.24841    
   3707000   299.48772      0.011271465    6.0208234      743.0373      -18.555801      724.4815     
   3708000   293.27563      0.011271465    6.9333559      727.62493     -19.294533      708.33039    
   3709000   311.18241      0.011271465    6.1878686      772.05214     -18.553835      753.4983     
   3710000   292.85088      0.011271465    2.5902125      726.5711      -13.477497      713.0936     
   3711000   295.64207      0.011271465    7.4536327      733.49612     -15.4881        718.00802    
   3712000   304.83296      0.011271465    7.1970999      756.29898     -15.342514      740.95646    
   3713000   306.40817      0.011271465    2.5491549      760.20711     -12.627927      747.57918    
   3714000   291.1384       0.011271465    6.0652259      722.3224      -17.217921      705.10448    
   3715000   301.97114      0.011271465    9.092437       749.19872     -15.305439      733.89329    
   3716000   315.69535      0.011271465    4.2511155      783.24886     -16.538802      766.71006    
   3717000   307.4677       0.011271465    4.6887622      762.83584     -22.189027      740.64681    
   3718000   299.79096      0.011271465    5.2510326      743.78963     -20.379102      723.41053    
   3719000   297.54885      0.011271465    10.273787      738.2269      -19.132347      719.09456    
   3720000   317.12306      0.011271465    5.2514962      786.79105     -22.619501      764.17155    
   3721000   303.23162      0.011271465    6.0210539      752.32602     -23.376314      728.94971    
   3722000   297.44059      0.011271465    5.5602942      737.9583      -24.531098      713.4272     
   3723000   309.29369      0.011271465    7.1571239      767.36618     -20.790501      746.57568    
   3724000   295.27648      0.011271465    7.786353       732.58908     -25.813316      706.77576    
   3725000   298.11853      0.011271465    5.0060148      739.6403      -22.643996      716.99631    
   3726000   300.79816      0.011271465    1.2421843      746.28853     -17.482821      728.80571    
   3727000   314.89376      0.011271465    9.8083225      781.26009     -16.028796      765.23129    
   3728000   294.46823      0.011271465    12.779369      730.5838      -15.559035      715.02476    
   3729000   293.88772      0.011271465    8.3936574      729.14354     -17.562599      711.58094    
   3730000   305.02696      0.011271465    1.0369104      756.78029     -19.789921      736.99036    
   3731000   313.26421      0.011271465    14.763578      777.21714     -21.493179      755.72396    
   3732000   289.34762      0.011271465    6.1345029      717.87943     -23.810918      694.06851    
   3733000   292.95574      0.011271465   -4.3106817      726.83126     -21.803814      705.02744    
   3734000   304.27104      0.011271465    6.5276806      754.90484     -27.033405      727.87144    
   3735000   308.80474      0.011271465    10.827742      766.15308     -17.338599      748.81448    
   3736000   291.95611      0.011271465   -3.2292902      724.35117     -19.28193       705.06924    
   3737000   302.2109       0.011271465    5.029532       749.79357     -21.473734      728.31983    
   3738000   307.00703      0.011271465    10.26811       761.6929      -20.427026      741.26587    
   3739000   295.68371      0.011271465    12.948235      733.59945     -19.131979      714.46747    
   3740000   298.69954      0.011271465    4.5464915      741.08178     -19.812874      721.26891    
   3741000   295.2206       0.011271465    5.1857541      732.45046     -17.629403      714.82105    
   3742000   309.41436      0.011271465   -0.033744356    767.66556     -15.849502      751.81605    
   3743000   305.10365      0.011271465    13.244422      756.97057     -14.62512       742.34545    
   3744000   291.50098      0.011271465    7.3400048      723.22198     -13.790675      709.4313     
   3745000   298.80954      0.011271465   -5.9574104      741.3547      -16.934061      724.42064    
   3746000   305.44874      0.011271465    10.392363      757.82673     -21.040232      736.7865     
   3747000   307.1065       0.011271465    11.088301      761.9397      -20.143448      741.79625    
   3748000   282.65201      0.011271465    2.0947784      701.26742     -17.81617       683.45125    
   3749000   293.01191      0.011271465    2.4411658      726.97063     -17.099484      709.87115    
   3750000   319.50339      0.011271465    4.4041578      792.69672     -18.770049      773.92667    
   3751000   303.15828      0.011271465    7.033852       752.14406     -19.641389      732.50267    
   3752000   282.45597      0.011271465    8.2262583      700.78105     -16.122699      684.65835    
   3753000   293.14358      0.011271465    5.2947192      727.29729     -16.848229      710.44906    
   3754000   308.98085      0.011271465    7.9856318      766.58999     -16.96624       749.62375    
   3755000   295.94514      0.011271465    5.8042558      734.24804     -17.597152      716.65089    
   3756000   299.18716      0.011271465    2.5637418      742.29158     -21.318231      720.97335    
   3757000   313.72938      0.011271465    7.925887       778.37124     -20.195233      758.17601    
   3758000   301.93717      0.011271465    10.563396      749.11445     -21.558988      727.55546    
   3759000   293.73582      0.011271465    13.150985      728.76667     -21.363764      707.40291    
   3760000   306.34602      0.011271465    5.0180554      760.05293     -20.965215      739.08771    
   3761000   309.56899      0.011271465    4.0840945      768.04919     -17.417296      750.6319     
   3762000   287.59197      0.011271465    15.403248      713.52361     -16.160714      697.36289    
   3763000   301.05954      0.011271465    4.4171022      746.93701     -20.544467      726.39254    
   3764000   307.04061      0.011271465    0.39534499     761.77621     -21.644414      740.1318     
   3765000   308.88825      0.011271465    3.2910159      766.36025     -19.458362      746.90189    
   3766000   299.79603      0.011271465    10.150073      743.80222     -17.750141      726.05208    
   3767000   304.41728      0.011271465    5.2723253      755.26766     -19.076409      736.19125    
   3768000   302.66777      0.011271465    4.2801479      750.92709     -20.063698      730.86339    
   3769000   302.24698      0.011271465    12.659468      749.8831      -16.74557       733.13753    
   3770000   295.45868      0.011271465    5.5415133      733.04114     -15.470471      717.57067    
   3771000   304.25182      0.011271465    3.6866753      754.85715     -16.377542      738.4796     
   3772000   309.13785      0.011271465    5.6920197      766.97953     -20.939429      746.0401     
   3773000   306.57144      0.011271465    6.3847008      760.61219     -14.999991      745.6122     
   3774000   302.50072      0.011271465    6.0303498      750.51264     -13.819088      736.69355    
   3775000   294.5091       0.011271465    6.2093959      730.68519     -16.169815      714.51538    
   3776000   287.85446      0.011271465    6.9226568      714.17484     -13.386458      700.78838    
   3777000   310.48202      0.011271465    8.224209       770.31444     -15.061078      755.25336    
   3778000   301.4862       0.011271465    4.7161137      747.99558     -16.178477      731.81711    
   3779000   283.6953       0.011271465    4.9287078      703.85586     -21.713836      682.14202    
   3780000   296.73724      0.011271465    7.2889395      736.21328     -20.77111       715.44217    
   3781000   300.80753      0.011271465    9.7973078      746.31176     -19.534954      726.77681    
   3782000   306.14592      0.011271465    7.8095809      759.55647     -19.279171      740.2773     
   3783000   297.75123      0.011271465    4.1765325      738.72902     -15.998572      722.73045    
   3784000   291.02235      0.011271465    4.8508661      722.03448     -16.757922      705.27656    
   3785000   305.05145      0.011271465    8.5454424      756.84105     -16.121225      740.71983    
   3786000   313.75147      0.011271465    4.9000333      778.42604     -19.14907       759.27697    
   3787000   286.51492      0.011271465    3.1459532      710.85141     -20.158664      690.69275    
   3788000   297.18241      0.011271465    9.8442647      737.31775     -17.905007      719.41275    
   3789000   309.44714      0.011271465    6.7945379      767.74687     -21.954985      745.79189    
   3790000   301.95468      0.011271465    5.2617318      749.15789     -20.091049      729.06684    
   3791000   296.32705      0.011271465    6.2310986      735.19557     -20.570175      714.6254     
   3792000   294.41423      0.011271465    6.4167359      730.44982     -17.171472      713.27834    
   3793000   299.70681      0.011271465    7.6593701      743.58086     -17.650498      725.93036    
   3794000   307.91247      0.011271465    5.1568323      763.93933     -18.347766      745.59156    
   3795000   299.48261      0.011271465    4.9173975      743.0246      -20.734495      722.29011    
   3796000   297.07179      0.011271465    7.8132375      737.04329     -21.309849      715.73344    
   3797000   309.56168      0.011271465    7.5054335      768.03105     -15.71039       752.32066    
   3798000   297.33071      0.011271465    4.739438       737.68568     -18.86132       718.82436    
   3799000   294.75038      0.011271465    6.2873108      731.28381     -15.817254      715.46655    
   3800000   300.57768      0.011271465    13.449991      745.74151     -22.253184      723.48833    
   3801000   298.69567      0.011271465    10.413401      741.07219     -17.5176        723.55459    
   3802000   302.08645      0.011271465    1.8911114      749.4848      -17.59532       731.88948    
   3803000   309.88983      0.011271465   -3.4217566      768.84521     -13.378408      755.4668     
   3804000   289.47988      0.011271465    8.1262084      718.20756     -15.851492      702.35606    
   3805000   284.70172      0.011271465    8.1041343      706.35281     -17.897022      688.45579    
   3806000   304.33626      0.011271465    10.496661      755.06665     -17.74423       737.32242    
   3807000   306.87812      0.011271465    4.8092941      761.37307     -20.212142      741.16093    
   3808000   308.5551       0.011271465    2.5492359      765.53372     -22.062902      743.47082    
   3809000   296.01965      0.011271465    5.8744861      734.4329      -21.147661      713.28524    
   3810000   305.93403      0.011271465    23.783893      759.03077     -25.013645      734.01712    
   3811000   310.43945      0.011271465   -4.153406       770.20884     -22.503455      747.70539    
   3812000   295.86771      0.011271465    6.9889396      734.05595     -21.807525      712.24843    
   3813000   308.79177      0.011271465    24.721062      766.12088     -20.379179      745.74171    
   3814000   296.43583      0.011271465    2.6607353      735.46545     -16.758286      718.70717    
   3815000   306.48065      0.011271465    4.6219148      760.38693     -19.370239      741.01669    
   3816000   305.53688      0.011271465    2.9527417      758.04543     -22.099352      735.94608    
   3817000   297.27423      0.011271465    3.5837693      737.54557     -19.007128      718.53844    
   3818000   288.35024      0.011271465    11.703274      715.4049      -21.194779      694.21013    
   3819000   297.92771      0.011271465    9.283336       739.16686     -20.834348      718.33251    
   3820000   321.23998      0.011271465    9.7497424      797.00524     -22.573118      774.43212    
   3821000   288.49052      0.011271465    2.3999305      715.75293     -23.002345      692.75058    
   3822000   296.61661      0.011271465    14.651205      735.91398     -18.373333      717.54065    
   3823000   320.21888      0.011271465    9.2577041      794.47186     -21.042715      773.42915    
   3824000   298.48866      0.011271465    2.3065837      740.5586      -16.457373      724.10123    
   3825000   292.7027       0.011271465    1.766247       726.20348     -16.27994       709.92354    
   3826000   299.993        0.011271465    9.4966868      744.29091     -15.591579      728.69933    
   3827000   303.32565      0.011271465    10.100074      752.55929     -14.79909       737.7602     
   3828000   311.27686      0.011271465    6.3272406      772.28647     -13.486625      758.79984    
   3829000   297.30886      0.011271465    6.123201       737.63147     -15.170189      722.46128    
   3830000   292.37606      0.011271465    4.5925057      725.39306     -13.738884      711.65417    
   3831000   309.09767      0.011271465    8.2084698      766.87984     -14.895694      751.98414    
   3832000   307.39366      0.011271465    4.5221778      762.65215     -12.971065      749.68109    
   3833000   296.59852      0.011271465    5.9388311      735.8691      -13.72845       722.14065    
   3834000   305.46803      0.011271465    6.6827972      757.8746      -13.297057      744.57755    
   3835000   306.47211      0.011271465    5.8298518      760.36576     -17.603818      742.76194    
   3836000   299.85078      0.011271465    1.6659079      743.93804     -19.505482      724.43256    
   3837000   303.77815      0.011271465    8.792703       753.68197     -20.293375      733.38859    
   3838000   304.09799      0.011271465    8.991782       754.4755      -16.25968       738.21582    
   3839000   293.27313      0.011271465    5.8888524      727.61872     -15.244847      712.37388    
   3840000   294.39629      0.011271465    5.0572209      730.40531     -19.064522      711.34079    
   3841000   310.96606      0.011271465    5.6903509      771.51537     -15.0284        756.48698    
   3842000   294.57385      0.011271465    8.8085443      730.84585     -18.047854      712.798      
   3843000   284.34253      0.011271465    5.3848871      705.46165     -16.516372      688.94528    
   3844000   292.88204      0.011271465    5.7213898      726.64843     -19.869427      706.779      
   3845000   305.65176      0.011271465    6.5998388      758.33044     -17.385501      740.94494    
   3846000   312.76293      0.011271465    6.4518827      775.97345     -18.074567      757.89888    
   3847000   300.91096      0.011271465    6.0241187      746.56838     -15.148715      731.41966    
   3848000   307.428        0.011271465    5.9586504      762.73734     -14.671032      748.06631    
   3849000   299.67382      0.011271465    6.1938         743.499       -18.077181      725.42182    
   3850000   296.20109      0.011271465    5.2440846      734.88307     -19.206411      715.67666    
   3851000   305.07727      0.011271465    13.257265      756.90513     -19.873381      737.03174    
   3852000   299.119        0.011271465    8.2721413      742.12249     -18.037238      724.08525    
   3853000   296.68993      0.011271465    4.3694334      736.09589     -15.541797      720.5541     
   3854000   295.23152      0.011271465    6.111646       732.47753     -15.640469      716.83707    
   3855000   301.62239      0.011271465    10.580349      748.33347     -15.192465      733.141      
   3856000   304.37018      0.011271465    4.5382554      755.1508      -16.227223      738.92358    
   3857000   305.94593      0.011271465    5.796771       759.0603      -19.006181      740.05412    
   3858000   290.32384      0.011271465    8.092051       720.30145     -14.553691      705.74776    
   3859000   292.42731      0.011271465    8.665759       725.52022     -14.451765      711.06845    
   3860000   304.918        0.011271465    4.2538738      756.50996     -16.593548      739.91641    
   3861000   310.84232      0.011271465    5.9420701      771.20836     -18.48691       752.72144    
   3862000   299.88604      0.011271465    10.744555      744.02552     -19.780966      724.24456    
   3863000   289.14798      0.011271465    8.0348501      717.38412     -23.203405      694.18071    
   3864000   297.85046      0.011271465    2.5800228      738.97521     -20.529119      718.44609    
   3865000   313.99512      0.011271465    1.8785441      779.03055     -20.408821      758.62173    
   3866000   300.02023      0.011271465    7.3902996      744.35846     -18.419138      725.93932    
   3867000   286.79859      0.011271465    8.801954       711.5552      -18.077702      693.4775     
   3868000   293.24993      0.011271465   -0.29110395     727.56117     -16.951872      710.60929    
   3869000   305.07969      0.011271465    6.2811492      756.91111     -11.94193       744.96918    
   3870000   306.64693      0.011271465    11.583138      760.79948     -13.242014      747.55747    
   3871000   295.04879      0.011271465    5.0763249      732.02418     -16.82165       715.20253    
   3872000   302.2773       0.011271465    5.1939302      749.95832     -15.292706      734.66561    
   3873000   310.30378      0.011271465    10.714042      769.87224     -15.226759      754.64548    
   3874000   294.33455      0.011271465    6.8906142      730.25212     -14.220775      716.03135    
   3875000   292.90965      0.011271465    3.7979765      726.71693     -13.536154      713.18077    
   3876000   304.71918      0.011271465    9.0240794      756.01668     -16.659211      739.35746    
   3877000   304.86848      0.011271465    5.3730654      756.3871      -19.102724      737.28438    
   3878000   301.74018      0.011271465    5.8573754      748.62571     -17.247355      731.37836    
   3879000   304.54393      0.011271465    5.7611436      755.58187     -15.907352      739.67452    
   3880000   303.0803       0.011271465    6.5092529      751.95058     -19.218189      732.73239    
   3881000   293.58517      0.011271465    5.4758477      728.39291     -20.838191      707.55472    
   3882000   299.11504      0.011271465    4.248017       742.11265     -16.916432      725.19622    
   3883000   308.92738      0.011271465    6.7367744      766.45734     -18.200107      748.25724    
   3884000   314.02825      0.011271465    5.9210355      779.11274     -18.164621      760.94812    
   3885000   299.75645      0.011271465    6.283222       743.70402     -16.207864      727.49616    
   3886000   298.4505       0.011271465    6.37248        740.46392     -15.325801      725.13811    
   3887000   292.76443      0.011271465    8.293943       726.35663     -15.976415      710.38021    
   3888000   302.96047      0.011271465    5.0028314      751.65328     -18.692937      732.96034    
   3889000   296.53588      0.011271465    4.8485417      735.71369     -18.256571      717.45712    
   3890000   312.1119       0.011271465    5.3959969      774.35823     -18.393184      755.96505    
   3891000   304.84987      0.011271465    8.1908238      756.34093     -21.252549      735.08838    
   3892000   286.53958      0.011271465    4.8280132      710.9126      -19.405265      691.50733    
   3893000   294.97656      0.011271465    6.0265265      731.84497     -17.755609      714.08936    
   3894000   293.94074      0.011271465    7.2625549      729.27507     -18.084641      711.19043    
   3895000   289.01733      0.011271465    5.6531435      717.05995     -19.368013      697.69194    
   3896000   292.61047      0.011271465    5.8207328      725.97465     -16.6615        709.31315    
   3897000   287.58375      0.011271465    6.4683804      713.50321     -14.644144      698.85906    
   3898000   301.76817      0.011271465    6.6090514      748.69515     -17.764259      730.93089    
   3899000   313.98885      0.011271465    5.9256248      779.01498     -19.161971      759.85301    
   3900000   281.70836      0.011271465    6.0531039      698.92621     -14.172821      684.75339    
   3901000   296.31573      0.011271465    6.524442       735.1675      -17.401095      717.76641    
   3902000   314.59366      0.011271465    5.0975213      780.51555     -16.811544      763.70401    
   3903000   300.07797      0.011271465    4.780759       744.5017      -16.533999      727.96771    
   3904000   283.23552      0.011271465    7.7579884      702.71514     -17.724305      684.99083    
   3905000   306.17245      0.011271465    8.2588391      759.62228     -16.112351      743.50993    
   3906000   316.39648      0.011271465   -4.7199502      784.98838     -16.796194      768.19219    
   3907000   293.51374      0.011271465    6.038086       728.21568     -17.755634      710.46004    
   3908000   293.64479      0.011271465    9.9299052      728.54081     -18.510219      710.03059    
   3909000   315.14682      0.011271465   -3.1596784      781.88796     -17.083548      764.80441    
   3910000   291.53909      0.011271465    9.0313325      723.31652     -21.45075       701.86577    
   3911000   299.11757      0.011271465    5.7392858      742.11892     -19.258714      722.86021    
   3912000   305.67528      0.011271465    18.147427      758.38879     -17.485215      740.90357    
   3913000   299.32078      0.011271465    1.0379139      742.62311     -16.489934      726.13317    
   3914000   291.74844      0.011271465    10.970063      723.83593     -14.883555      708.95238    
   3915000   308.96244      0.011271465    14.92125       766.54434     -14.527502      752.01684    
   3916000   295.45647      0.011271465    5.9354376      733.03566     -18.748375      714.28728    
   3917000   290.42004      0.011271465    7.2171316      720.54012     -17.517183      703.02294    
   3918000   311.20603      0.011271465    19.976863      772.11073     -20.962355      751.14838    
   3919000   302.40612      0.011271465    0.16663481     750.27791     -19.766427      730.51149    
   3920000   292.16655      0.011271465    7.4045343      724.87326     -23.697645      701.17562    
   3921000   300.31552      0.011271465    13.991348      745.09109     -24.145316      720.94577    
   3922000   303.78178      0.011271465    3.9821053      753.69096     -25.261704      728.42926    
   3923000   308.7507       0.011271465    3.8798678      766.019       -24.029931      741.98906    
   3924000   289.79341      0.011271465    1.1483748      718.98544     -20.321907      698.66353    
   3925000   311.39517      0.011271465    10.531287      772.57999     -23.20034       749.37965    
   3926000   303.04417      0.011271465    9.4777726      751.86094     -20.644439      731.21651    
   3927000   304.33975      0.011271465    5.2092777      755.07531     -23.298311      731.777      
   3928000   312.51598      0.011271465    0.5132326      775.36076     -20.014232      755.34653    
   3929000   290.12975      0.011271465    3.5351854      719.8199      -20.615855      699.20404    
   3930000   299.48549      0.011271465    6.2941083      743.03177     -23.131268      719.9005     
   3931000   309.0386       0.011271465    12.96826       766.73327     -20.441428      746.29185    
   3932000   312.13181      0.011271465    10.918662      774.40763     -20.009257      754.39838    
   3933000   302.44609      0.011271465    4.594046       750.37708     -18.297693      732.07939    
   3934000   290.82361      0.011271465    1.2354158      721.54138     -19.395542      702.14584    
   3935000   305.38637      0.011271465    7.8795994      757.67199     -17.705514      739.96648    
   3936000   322.88769      0.011271465    6.0089689      801.09326     -20.112435      780.98083    
   3937000   295.64339      0.011271465    5.4395987      733.49941     -22.206197      711.29321    
   3938000   294.98712      0.011271465    7.3988655      731.87118     -23.875333      707.99585    
   3939000   305.72809      0.011271465    3.2658354      758.51983     -23.181432      735.3384     
   3940000   300.85205      0.011271465    5.7892976      746.42223     -23.688187      722.73404    
   3941000   307.98172      0.011271465    10.278583      764.11113     -24.098021      740.0131     
   3942000   309.05528      0.011271465    8.6128212      766.77467     -19.915711      746.85896    
   3943000   302.55734      0.011271465    1.4134795      750.6531      -22.506809      728.14629    
   3944000   295.97005      0.011271465    5.460099       734.30985     -24.112965      710.19689    
   3945000   308.67575      0.011271465    5.3489426      765.83305     -24.827388      741.00566    
   3946000   310.43839      0.011271465    7.0422925      770.20621     -21.228362      748.97785    
   3947000   293.09429      0.011271465    5.5076667      727.17501     -19.023733      708.15127    
   3948000   300.38867      0.011271465    6.7797833      745.27256     -19.43612       725.83644    
   3949000   307.15009      0.011271465    5.9655348      762.04784     -18.300438      743.7474     
   3950000   295.34102      0.011271465    6.3108139      732.74922     -20.661284      712.08793    
   3951000   301.55496      0.011271465    5.6231174      748.16618     -19.573186      728.59299    
   3952000   294.91073      0.011271465    6.2675816      731.68166     -18.762129      712.91953    
   3953000   302.06064      0.011271465    14.077655      749.42078     -18.155621      731.26516    
   3954000   299.88423      0.011271465    5.5068983      744.02103     -18.388166      725.63286    
   3955000   300.96229      0.011271465    5.0878269      746.69573     -19.718804      726.97692    
   3956000   302.7731       0.011271465    6.1921568      751.18841     -18.40824       732.78017    
   3957000   306.5936       0.011271465    7.3012229      760.66718     -18.045415      742.62177    
   3958000   307.30273      0.011271465    7.6603566      762.42655     -16.140596      746.28596    
   3959000   274.89591      0.011271465    8.0120302      682.02434     -19.869936      662.1544     
   3960000   298.02007      0.011271465    5.017635       739.39602     -20.819641      718.57638    
   3961000   307.67344      0.011271465    5.185212       763.34628     -21.682909      741.66337    
   3962000   304.49227      0.011271465    8.8145514      755.45372     -19.693306      735.76041    
   3963000   285.7181       0.011271465    5.0592948      708.87448     -20.954411      687.92007    
   3964000   302.89919      0.011271465    4.7264532      751.50125     -18.363357      733.13789    
   3965000   313.81019      0.011271465    13.23888       778.57172     -16.259314      762.31241    
   3966000   298.33087      0.011271465    10.244608      740.16711     -18.025899      722.14121    
   3967000   306.4367       0.011271465    4.3193245      760.27789     -15.153452      745.12444    
   3968000   310.45393      0.011271465    14.413664      770.24476     -14.239139      756.00562    
   3969000   291.12671      0.011271465    5.2702477      722.2934      -13.78271       708.51069    
   3970000   293.42922      0.011271465   -10.15093       728.00598     -15.160572      712.84541    
   3971000   312.50216      0.011271465    2.4351457      775.32648     -17.276715      758.04977    
   3972000   309.40752      0.011271465    21.716929      767.64859     -18.478417      749.17017    
   3973000   290.73612      0.011271465    5.8013974      721.32434     -15.028959      706.29538    
   3974000   306.95657      0.011271465    6.2738565      761.5677      -15.013207      746.5545     
   3975000   296.83659      0.011271465    14.078731      736.45977     -14.648055      721.81172    
   3976000   305.04689      0.011271465    7.6879832      756.82974     -15.401573      741.42817    
   3977000   303.02813      0.011271465   -0.60906685     751.82115     -14.197781      737.62337    
   3978000   289.68746      0.011271465    8.7898755      718.72258     -15.199823      703.52276    
   3979000   292.38412      0.011271465    7.7805159      725.41306     -13.447157      711.96591    
   3980000   302.292        0.011271465    6.430139       749.99477     -14.875863      735.11891    
   3981000   299.1049       0.011271465    0.18893373     742.0875      -17.351034      724.73646    
   3982000   305.9631       0.011271465    6.0945771      759.10289     -14.355864      744.74703    
   3983000   300.33581      0.011271465    7.2602237      745.14142     -17.206495      727.93492    
   3984000   291.50421      0.011271465    3.6947633      723.22997     -15.679312      707.55066    
   3985000   299.93349      0.011271465    6.2548746      744.14326     -17.153701      726.98956    
   3986000   297.31619      0.011271465    6.8583133      737.64966     -18.504895      719.14477    
   3987000   300.91257      0.011271465    5.8222166      746.57239     -20.064035      726.50835    
   3988000   294.6719       0.011271465    6.1140436      731.0891      -16.881691      714.20741    
   3989000   320.84526      0.011271465    7.0672161      796.02594     -17.216572      778.80936    
   3990000   280.36905      0.011271465    5.3031711      695.60334     -15.947617      679.65572    
   3991000   291.59         0.011271465    5.8118307      723.44283     -14.676279      708.76655    
   3992000   303.85053      0.011271465    6.3316166      753.86154     -18.04805       735.81349    
   3993000   309.86148      0.011271465    6.9635256      768.77487     -16.621118      752.15375    
   3994000   300.80966      0.011271465    5.0998957      746.31705     -21.368705      724.94834    
   3995000   284.14124      0.011271465    8.0007833      704.96224     -22.530408      682.43183    
   3996000   308.32127      0.011271465    6.4708149      764.95357     -23.484788      741.46878    
   3997000   305.5          0.011271465    6.3656999      757.95392     -22.740427      735.21349    
   3998000   297.79247      0.011271465    5.50097        738.83133     -20.946999      717.88433    
   3999000   294.52867      0.011271465    8.1150597      730.73376     -17.817102      712.91665    
   4000000   300.24902      0.011271465    6.7608022      744.92609     -17.341892      727.5842     
Loop time of 12414.1 on 1 procs for 4000000 steps with 1500 atoms

Performance: 6.960 ns/day, 3.448 hours/ns, 322.213 timesteps/s, 483.320 katom-step/s
99.3% CPU use with 1 MPI tasks x 1 OpenMP threads

MPI task timing breakdown:
Section |  min time  |  avg time  |  max time  |%varavg| %total
---------------------------------------------------------------
Pair    | 821.65     | 821.65     | 821.65     |   0.0 |  6.62
Bond    | 182.48     | 182.48     | 182.48     |   0.0 |  1.47
Kspace  | 10538      | 10538      | 10538      |   0.0 | 84.89
Neigh   | 0.044498   | 0.044498   | 0.044498   |   0.0 |  0.00
Comm    | 29.862     | 29.862     | 29.862     |   0.0 |  0.24
Output  | 0.13303    | 0.13303    | 0.13303    |   0.0 |  0.00
Modify  | 821.21     | 821.21     | 821.21     |   0.0 |  6.62
Other   |            | 20.34      |            |       |  0.16

Nlocal:           1500 ave        1500 max        1500 min
Histogram: 1 0 0 0 0 0 0 0 0 0
Nghost:            999 ave         999 max         999 min
Histogram: 1 0 0 0 0 0 0 0 0 0
Neighs:              0 ave           0 max           0 min
Histogram: 1 0 0 0 0 0 0 0 0 0

Total # of neighbors = 0
Ave neighs/atom = 0
Ave special neighs/atom = 2
Neighbor list builds = 17733
Dangerous builds = 0
write_data	last_conf.data pair ij
System init for write_data ...
PPPM initialization ...
  using 12-bit tables for long-range coulomb (src/kspace.cpp:342)
  G vector (1/distance) = 0.16201075
  grid = 30 30 30
  stencil order = 5
  estimated absolute RMS force accuracy = 0.032622673
  estimated relative force accuracy = 9.8242209e-05
  using double precision FFTW3
  3d grid and FFT values/proc = 42875 27000
Generated 1 of 1 mixed pair_coeff terms from arithmetic mixing rule
Total wall time: 3:26:54
